p cnf 818 3930
256 285 323 360 404 415 537 0
256 302 306 414 430 484 506 0
-512 -551 -560 -563 -566 -575 0
-257 -302 -314 -353 -425 -440 -497 0
-257 -331 -363 -461 -477 -505 -527 0
-257 -365 -371 -395 -461 -485 0
513 515 529 563 565 575 0
513 516 549 570 576 0
-513 -516 -549 -570 -576 0
-513 -517 -551 -555 -561 -565 -575 0
513 519 525 537 555 567 0
-513 -519 -525 -537 -555 -567 0
513 519 527 535 545 569 0
513 519 537 561 567 0
-513 -519 -537 -561 -567 0
513 519 539 551 559 565 569 0
513 521 545 547 0
513 523 525 545 567 0
-513 -523 -525 -545 -567 0
513 525 531 537 573 0
-513 -525 -531 -537 -573 0
513 525 531 555 561 0
-513 -525 -531 -555 -561 0
513 525 537 543 567 0
-513 -525 -537 -543 -567 0
513 529 551 565 567 573 0
-513 -529 -551 -565 -567 -573 0
513 535 551 561 565 575 0
513 535 551 561 569 571 575 0
513 535 561 569 571 575 0
-513 -535 -561 -569 -571 -575 0
-513 -537 -539 -541 -551 -555 -565 0
-513 -541 -553 -555 -569 -575 0
513 543 555 0
-513 -543 -555 0
513 549 551 553 571 575 0
513 549 555 561 567 0
-513 -549 -555 -561 -567 0
-513 -551 -559 -563 -565 -573 0
513 551 563 565 573 575 0
-513 -551 -563 -565 -573 -575 0
-258 -300 -312 -324 -408 -426 0
258 336 348 360 408 480 528 0
-258 -336 -348 -360 -408 -480 -528 0
258 336 378 468 480 522 576 0
-258 -336 -378 -468 -480 -522 -576 0
3 94 113 193 234 314 363 0
-3 -131 -205 -347 -351 -391 -501 0
-3 -141 -213 -261 -369 -417 -477 0
3 144 231 336 423 426 555 0
515 519 523 535 545 567 0
515 519 525 551 553 0
-515 -519 -525 -551 -553 0
515 519 541 549 551 565 0
-515 -519 -541 -549 -551 -565 0
-515 -521 -527 -545 -551 0
515 521 527 545 551 575 0
-515 -521 -545 -575 0
-515 -525 -551 -553 -559 0
515 527 535 555 559 0
-515 -527 -545 -551 -569 0
515 527 551 557 563 0
515 531 543 565 567 571 575 0
-515 -531 -543 -565 -567 -571 -575 0
515 533 557 563 575 0
-515 -535 -543 -547 -555 0
515 535 547 555 0
-515 -535 -547 -555 0
-515 -541 -545 -549 -561 -571 0
-515 -545 -569 -575 0
-515 -551 -563 -569 -575 0
516 522 534 540 564 576 0
516 522 540 552 576 0
-516 -522 -540 -552 -576 0
-516 -526 -540 -548 -597 0
516 528 540 552 558 570 600 0
-516 -528 -546 -552 -558 -564 0
-516 -528 -546 -552 -576 0
516 534 558 564 576 0
-516 -534 -558 -564 -576 0
516 540 558 576 0
-516 -540 -558 -576 0
261 349 351 365 471 590 0
-517 -527 -537 -551 -555 -561 -565 0
517 529 531 537 543 545 551 0
-517 -531 -543 -547 -551 -567 -575 0
6 21 30 39 54 0
-6 -36 -114 -150 -270 -342 -366 0
6 39 60 66 153 0
-6 -126 -222 -234 -336 -468 -480 0
6 132 156 228 240 312 324 0
-6 -132 -156 -228 -240 -312 -324 0
6 159 210 339 342 411 540 0
-518 -538 -540 -566 -568 -576 0
-7 -95 -129 -193 -209 -309 -319 0
7 179 261 349 435 437 553 0
-263 -268 -289 -338 -348 -454 -465 0
263 273 307 309 403 473 549 0
263 285 325 459 461 505 513 0
-263 -289 -297 -323 -433 -447 -491 0
263 299 323 329 389 395 419 0
-263 -317 -323 -425 -473 -575 0
-263 -319 -365 -369 -443 -457 -465 0
263 323 371 389 419 443 0
519 521 525 541 569 601 0
-519 -521 -525 -541 -569 -601 0
519 523 525 535 545 567 0
-519 -523 -525 -535 -545 -567 0
519 525 528 552 561 0
-519 -525 -528 -552 -561 0
-519 -525 -531 -537 -555 -567 0
519 525 535 571 575 0
-519 -525 -535 -571 -575 0
519 525 537 543 567 0
-519 -525 -537 -543 -567 0
519 531 537 543 567 573 0
519 531 543 555 567 573 0
-519 -531 -543 -555 -567 -573 0
-519 -537 -543 -567 -573 0
519 549 555 561 567 0
-519 -549 -555 -561 -567 0
-520 -552 -558 -560 -568 -576 0
9 12 36 72 87 96 0
-9 -12 -36 -72 -87 -96 0
9 18 78 90 0
-9 -18 -78 -90 0
9 39 60 96 132 165 0
-9 -39 -60 -96 -132 -165 0
9 156 165 213 264 279 0
265 307 357 359 393 407 499 0
-265 -335 -351 -397 -401 -541 -573 0
521 523 551 555 561 565 0
521 529 549 551 555 569 0
-521 -539 -545 -551 -557 -563 -575 0
-522 -532 -538 -556 -560 -566 0
522 540 552 564 576 0
-522 -540 -552 -564 -576 0
522 540 558 564 576 0
522 552 558 576 0
-522 -552 -558 -576 0
267 305 325 417 425 519 553 0
267 305 373 407 423 427 525 0
-267 -309 -351 -447 -453 -471 -549 0
-267 -331 -383 -403 -477 -489 -575 0
523 535 559 565 0
523 537 551 561 567 571 575 0
523 539 561 565 567 569 575 0
12 24 36 54 60 0
12 30 126 186 198 222 234 0
-12 -54 -96 -108 -228 -240 0
12 60 84 102 150 162 210 0
12 108 141 213 300 396 435 0
-12 -114 -282 -342 -366 -390 -486 0
12 114 153 201 294 321 438 0
-12 -186 -192 -222 -270 -282 0
268 294 300 302 316 326 424 0
-524 -545 -557 -560 -566 0
-13 -107 -138 -178 -224 -225 -229 0
-13 -131 -237 -283 -351 -359 -397 0
13 147 161 247 261 281 355 0
13 155 243 265 317 393 529 0
525 527 535 551 598 0
-525 -527 -535 -551 -598 0
525 527 535 551 601 0
-525 -527 -535 -551 -601 0
525 529 535 561 563 0
-525 -529 -535 -561 -563 0
525 529 545 565 567 571 0
525 531 537 555 561 0
-525 -531 -537 -555 -561 0
525 531 549 555 561 567 0
-525 -531 -549 -555 -561 -567 0
-525 -531 -555 -561 -567 -573 0
525 533 535 537 545 561 571 0
525 539 551 553 0
-525 -543 -549 -552 -558 -576 0
270 285 375 405 480 519 564 0
270 306 312 390 408 420 0
-270 -306 -312 -390 -408 -420 0
270 308 361 459 460 461 558 0
-270 -308 -361 -459 -460 -461 -558 0
270 312 351 438 453 498 0
270 336 372 420 432 492 540 0
-270 -336 -372 -420 -432 -492 -540 0
526 529 555 558 560 561 563 0
15 49 57 77 79 0
-15 -106 -233 -282 -307 -308 -393 0
15 131 199 299 339 439 561 0
-15 -141 -216 -279 -336 -357 -581 0
-271 -294 -365 -465 -472 -481 -506 0
271 327 377 401 471 499 596 0
527 529 561 563 573 0
-527 -529 -561 -563 -573 0
527 531 535 537 539 559 573 0
-527 -531 -535 -537 -539 -559 -573 0
527 533 539 545 551 0
527 533 539 545 569 575 0
-527 -533 -545 -551 -575 0
-527 -535 -545 -547 -561 -567 -573 0
527 535 545 547 561 573 0
-527 -535 -545 -549 -555 -559 -567 0
527 549 551 553 565 573 0
527 551 561 567 571 0
-527 -551 -561 -567 -571 0
528 534 540 552 564 576 0
528 534 546 552 576 0
-528 -534 -546 -552 -576 0
528 552 558 564 570 0
-528 -552 -558 -564 -570 0
-17 -127 -273 -323 -367 -393 -509 0
17 133 168 279 284 359 589 0
273 277 313 329 375 425 585 0
-273 -277 -313 -329 -375 -425 -585 0
273 345 351 399 453 549 0
18 30 39 78 126 153 0
18 39 117 126 138 150 159 0
18 42 54 87 165 186 0
-18 -42 -54 -87 -165 -186 0
-18 -66 -96 -102 -150 -186 0
-18 -78 -84 -102 -150 -186 0
18 78 150 180 186 252 276 0
-18 -87 -141 -174 -222 -279 -306 0
18 87 177 186 207 282 366 0
18 114 141 213 252 261 300 0
18 114 159 249 294 315 402 0
18 120 180 276 312 324 0
-18 -120 -180 -276 -312 -324 0
-18 -129 -213 -234 -306 -390 -435 0
-18 -144 -180 -240 -330 -384 -468 0
275 289 317 339 397 435 437 0
275 303 379 397 473 495 503 0
276 291 342 345 360 465 468 0
-276 -294 -330 -408 -426 -498 -528 0
-276 -300 -306 -342 -396 -444 -456 0
276 306 312 402 450 600 0
276 306 324 408 426 492 498 0
276 330 351 408 471 498 525 0
-21 -29 -49 -123 -169 -225 -245 0
21 33 117 135 261 285 0
-21 -57 -123 -129 -249 0
-277 -345 -347 -403 -443 -535 -549 0
277 369 371 415 479 511 537 0
23 39 85 117 187 191 577 0
-23 -39 -85 -117 -187 -191 -577 0
-23 -72 -105 -124 -205 -206 -246 0
-23 -105 -193 -227 -369 -463 -485 0
23 129 277 317 363 463 563 0
23 179 275 317 323 443 485 0
279 309 345 357 453 465 525 0
-279 -309 -345 -357 -453 -465 -525 0
-24 -30 -126 -180 -228 -282 -330 0
-24 -36 -60 -66 -150 -156 0
-24 -54 -108 -162 -168 -174 0
-24 -60 -120 -240 -294 -402 0
-24 -84 -108 -246 -258 -306 -444 0
-24 -126 -204 -300 -396 -408 -546 0
24 150 186 270 276 0
24 186 228 240 336 420 0
280 285 299 308 319 360 393 0
281 296 365 440 473 542 545 0
-281 -313 -321 -365 -435 -439 -467 0
-281 -331 -333 -393 -397 -431 -503 0
282 339 378 432 477 513 576 0
283 289 325 385 457 517 529 0
-283 -305 -309 -403 -419 -493 -495 0
-28 -35 -134 -139 -238 -267 -581 0
28 108 113 205 309 338 436 0
-29 -98 -131 -182 -200 -203 -233 0
29 117 229 287 357 397 575 0
29 151 165 281 339 475 545 0
-29 -169 -189 -227 -315 -415 -539 0
285 294 300 309 345 381 0
-285 -294 -300 -309 -345 -381 0
285 300 303 348 351 357 360 0
-285 -303 -315 -423 -471 0
285 303 375 423 471 483 519 0
-285 -307 -365 -391 -453 -537 -539 0
-285 -319 -321 -371 -374 -378 -589 0
-30 -66 -132 -186 -276 -282 0
30 108 204 258 294 300 456 0
-30 -108 -204 -258 -294 -300 -456 0
-30 -132 -150 -222 -234 -282 -336 0
30 135 228 237 378 453 558 0
-30 -168 -240 -324 -408 -420 -552 0
287 292 381 403 416 492 515 0
-287 -293 -365 -443 -461 -491 -515 0
-287 -325 -339 -411 -473 -493 -521 0
287 327 341 373 397 447 545 0
-33 -186 -225 -294 -315 -420 -555 0
-289 -291 -327 -371 -389 -391 -417 0
-289 -294 -302 -305 -327 -346 0
-289 -294 -303 -314 -323 -364 0
-289 -294 -305 -308 -309 -431 -466 0
289 294 377 399 404 484 557 0
-289 -294 -377 -399 -404 -484 -557 0
-289 -297 -389 -453 -457 -483 0
289 298 304 334 349 427 430 0
289 300 304 308 363 389 390 0
-289 -303 -353 -407 -471 -475 -519 0
-289 -319 -323 -381 -415 -477 -479 0
-289 -319 -345 -359 -387 -389 -415 0
-289 -319 -415 -475 -517 0
289 327 417 419 431 475 477 0
289 341 363 389 393 403 437 0
289 348 411 437 472 529 560 0
289 381 435 437 439 443 471 0
289 417 419 475 537 551 559 0
289 421 427 451 475 0
-35 -140 -227 -314 -323 -434 -503 0
35 153 199 263 297 397 551 0
35 179 269 281 353 473 563 0
-291 -294 -308 -373 -436 -437 -471 0
-291 -301 -335 -349 -351 -353 -439 0
-291 -309 -345 -405 -441 -477 -525 0
291 313 395 441 491 537 541 0
-291 -327 -399 -447 -501 0
291 341 379 401 445 471 553 0
291 369 381 459 471 477 0
-291 -369 -381 -459 -471 -477 0
291 397 405 479 503 519 0
291 415 439 443 453 465 0
-36 -39 -126 -222 -279 -303 -414 0
36 51 78 141 144 174 177 0
36 90 174 258 270 306 402 0
-36 -153 -237 -252 -384 -471 -516 0
36 189 213 252 348 471 504 0
-292 -352 -358 -382 -466 -472 0
293 294 304 404 471 481 522 0
-293 -299 -317 -353 -389 -395 0
-293 -303 -389 -409 -465 -561 0
-293 -309 -339 -343 -367 -401 -433 0
293 310 351 398 425 427 432 0
293 325 335 381 415 431 471 0
-293 -335 -389 -419 -485 -557 -563 0
293 335 389 419 485 563 0
-293 -356 -440 -452 -473 -539 -572 0
293 381 451 453 473 475 549 0
-293 -381 -451 -453 -473 -475 -549 0
293 425 473 497 503 0
294 297 315 321 336 366 369 0
-294 -300 -378 -396 -420 -426 -528 0
294 303 339 363 375 378 384 0
-294 -303 -378 -423 -480 0
-294 -305 -409 -411 -416 -533 -568 0
294 309 327 384 399 0
294 312 414 438 450 534 0
294 315 399 408 450 483 504 0
294 320 330 340 410 412 426 0
294 324 336 366 384 468 480 0
-294 -324 -366 -372 -378 -384 0
294 324 390 396 444 450 0
294 327 348 435 447 450 456 0
294 336 342 402 414 438 510 0
-294 -336 -342 -402 -414 -438 -510 0
-294 -339 -351 -360 -375 -411 0
294 342 444 450 456 468 0
-294 -342 -444 -450 -456 -468 0
294 345 375 441 0
-294 -345 -375 -441 0
294 348 366 396 438 456 600 0
-294 -348 -390 -420 -486 -498 0
-294 -349 -418 -435 -473 -517 -566 0
294 360 402 420 498 0
-294 -360 -402 -420 -498 0
-294 -366 -396 -402 -408 -528 0
-294 -381 -408 -447 -453 -456 -549 0
-294 -384 -396 -402 -408 -420 0
-294 -396 -408 -420 -456 -516 0
-294 -429 -468 -477 -480 -513 -558 0
294 456 480 528 576 0
-39 -42 -105 -126 -159 -581 0
39 57 66 90 159 162 186 0
-39 -85 -113 -237 -265 -325 -377 0
39 90 150 159 186 222 237 0
39 102 126 159 207 258 345 0
39 105 117 165 207 213 261 0
39 114 120 141 159 189 581 0
-39 -121 -155 -193 -201 -227 -339 0
39 151 275 345 389 415 555 0
-39 -192 -234 -267 -327 -462 -489 0
295 297 311 369 389 417 439 0
-295 -297 -317 -321 -331 -371 -383 0
295 303 341 389 409 411 459 0
-295 -305 -306 -308 -311 -333 -358 0
295 307 345 377 393 407 451 0
-295 -313 -355 -415 -433 -439 -457 0
-295 -319 -325 -367 0
295 325 373 427 469 517 0
-295 -331 -341 -345 -371 -415 -441 0
-295 -331 -355 -361 -391 -463 -475 0
295 351 443 453 475 541 0
295 421 447 471 473 499 503 0
-295 -421 -447 -471 -473 -499 -503 0
-296 -299 -311 -314 -317 -329 -362 0
-296 -305 -314 -323 -335 -356 0
296 322 345 389 390 410 427 0
-296 -434 -452 -476 -530 -554 -572 0
297 300 321 357 378 381 0
-297 -300 -321 -357 -378 -381 0
297 301 329 401 405 425 475 0
297 302 307 408 419 466 511 0
297 303 345 357 369 0
-297 -307 -313 -357 -383 -451 0
297 315 393 417 477 501 0
297 324 330 363 378 381 384 0
297 333 339 345 417 477 0
-297 -333 -339 -345 -417 -477 0
297 345 348 378 450 465 480 0
297 345 369 387 435 447 495 0
-297 -347 -393 -413 -439 -497 -499 0
-297 -351 -381 -399 -423 -477 0
297 363 465 477 489 513 537 0
297 387 432 465 468 483 540 0
297 399 411 423 519 555 567 0
-297 -399 -411 -423 -519 -555 -567 0
297 435 459 465 471 477 0
-297 -465 -471 -477 0
42 114 120 174 186 246 282 0
42 192 228 300 384 420 492 0
-42 -192 -228 -300 -384 -420 -492 0
298 322 352 388 430 0
-298 -342 -356 -434 -442 -480 0
299 300 307 309 316 463 476 0
299 301 399 421 425 447 479 0
299 305 323 371 383 0
-299 -317 -389 -425 -437 -461 -485 0
299 333 409 417 479 561 565 0
-299 -341 -437 -461 -479 -575 0
-299 -351 -407 -421 -447 -541 -551 0
299 351 433 439 473 477 575 0
-299 -411 -463 -479 -505 -521 0
300 303 363 375 0
-300 -303 -363 -375 0
300 309 330 393 420 435 516 0
300 309 331 338 347 455 466 0
-300 -318 -330 -342 -366 -378 0
300 336 384 462 474 480 0
-300 -336 -420 -468 -510 -564 -599 0
-300 -342 -356 -358 -380 -382 0
300 342 360 444 456 468 480 0
300 348 375 435 447 456 552 0
300 355 405 418 443 499 597 0
-300 -379 -417 -434 -490 -491 -504 0
45 47 141 175 191 277 577 0
-45 -47 -141 -175 -191 -277 -577 0
-45 -111 -117 -201 -291 -435 -495 0
45 149 277 315 329 415 519 0
45 165 261 309 393 483 0
-301 -306 -308 -309 -319 -323 -376 0
-301 -307 -319 -367 -403 -415 -475 0
-301 -313 -331 -370 0
301 317 427 471 473 0
301 321 329 423 451 473 525 0
-301 -325 -421 -457 -475 0
301 329 339 397 401 453 499 0
301 345 381 383 401 421 477 0
-301 -366 -371 -436 -440 -465 -563 0
301 375 411 431 457 471 473 0
301 385 415 439 505 511 0
-301 -391 -457 -535 -601 0
301 403 439 451 463 475 0
301 433 475 553 559 0
302 320 332 368 410 416 0
302 322 384 386 400 408 528 0
302 378 398 418 426 496 506 0
-302 -440 -446 -452 -566 0
-47 -145 -153 -209 -295 -339 -437 0
47 157 249 305 307 405 551 0
303 307 435 473 519 533 541 0
-303 -309 -348 -408 -453 -456 -477 0
303 315 321 375 411 477 0
303 315 411 417 435 465 0
-303 -329 -331 -427 -459 -467 -475 0
-303 -329 -379 -389 -399 -505 -533 0
303 339 363 375 381 0
-303 -342 -345 -348 -366 -378 -381 0
303 342 351 450 471 477 480 0
-303 -345 -369 -441 0
303 351 441 471 477 555 561 0
-303 -363 -435 -465 -471 -537 -561 0
304 308 381 419 427 432 506 0
-304 -440 -466 -468 -534 -556 -572 0
49 117 229 233 303 401 571 0
-49 -125 -213 -319 -389 -499 -507 0
-305 -307 -357 -393 -403 -419 -527 0
305 309 463 479 517 549 551 0
-305 -313 -345 -389 -393 -403 -437 0
305 315 319 369 389 435 0
-305 -315 -323 -325 -367 -429 -463 0
305 315 415 417 437 505 507 0
-305 -315 -415 -417 -437 -505 -507 0
-305 -329 -365 -395 -425 -491 -497 0
-305 -341 -473 -551 -557 -575 0
305 381 433 453 473 551 565 0
50 135 226 227 301 330 386 0
-50 -152 -266 -356 -476 -560 -578 0
-306 -308 -329 -331 -387 -401 -454 0
-306 -312 -324 -348 -360 -384 0
306 324 330 414 468 480 0
-306 -324 -330 -414 -480 0
306 342 456 468 534 540 576 0
-306 -342 -456 -468 -534 -540 -576 0
306 348 432 480 552 576 0
306 370 371 373 440 441 445 0
-51 -54 -162 -201 -300 -390 -477 0
-51 -109 -221 -237 -289 -329 -387 0
-51 -114 -273 -348 -462 -555 -593 0
51 115 161 207 379 431 543 0
51 118 233 330 434 445 531 0
-51 -129 -201 -321 -417 -453 -573 0
51 138 159 180 249 255 264 0
-51 -161 -283 -339 -401 -433 -489 0
-51 -171 -213 -351 -393 -489 0
-51 -191 -193 -351 -353 -385 -483 0
307 315 323 415 417 437 489 0
-307 -315 -377 -393 -397 -407 0
-307 -319 -347 -377 -381 -391 -465 0
-307 -323 -329 -381 -429 -461 -475 0
307 331 340 403 439 478 0
307 337 349 373 379 0
-307 -337 -397 -403 -499 -511 0
307 339 374 389 442 456 549 0
-307 -361 -385 -403 -433 -439 -445 0
307 369 417 431 461 465 475 0
-307 -389 -409 -459 -529 -531 -545 0
-307 -393 -415 -437 -489 -553 -563 0
307 433 435 473 529 545 549 0
-308 -317 -323 -329 -395 -440 0
308 341 353 371 0
-308 -370 -372 -466 -470 -566 -570 0
-53 -110 -146 -149 -161 -188 0
53 175 221 225 367 477 569 0
309 315 321 375 393 405 429 0
-309 -315 -375 -411 -423 -447 -471 0
309 319 383 405 451 473 551 0
309 321 351 393 399 435 0
309 324 375 399 450 480 495 0
-309 -325 -389 -403 -435 0
-309 -327 -333 -345 -357 -369 0
309 327 333 345 357 381 0
-309 -329 -331 -341 -407 -421 -471 0
-309 -331 -389 -403 -435 -491 -493 0
-309 -335 -349 -383 -403 -465 0
-309 -341 -399 -421 -425 -525 0
-309 -341 -427 -477 -491 -511 -513 0
-309 -342 -345 -360 -450 -456 -471 0
-309 -351 -357 -369 -417 0
309 351 381 393 453 537 543 0
309 351 393 411 429 0
-309 -351 -393 -411 -429 0
309 357 387 393 417 519 0
-309 -357 -387 -393 -417 -519 0
309 363 387 417 429 519 525 0
-309 -363 -387 -417 -429 -519 -525 0
309 363 399 411 459 0
309 363 405 453 471 495 598 0
-309 -385 -419 -441 -507 -509 -559 0
309 389 415 417 435 457 0
309 399 408 492 501 567 0
309 408 447 456 459 0
-309 -411 -441 -453 -483 -501 0
309 411 453 489 501 507 0
-309 -411 -453 -489 -501 -507 0
-309 -417 -423 -465 -513 -519 -555 0
309 435 471 555 561 0
309 459 471 537 567 0
-309 -459 -471 -537 -567 0
54 84 156 180 228 252 336 0
-54 -180 -270 -282 -324 -462 -528 0
54 186 240 330 336 480 576 0
-310 -446 -458 -466 -480 -538 -540 0
311 315 339 341 349 361 437 0
311 331 381 409 419 471 511 0
311 341 437 443 461 473 569 0
-311 -385 -386 -450 -508 -549 -551 0
-312 -336 -414 -426 -480 -576 0
312 342 444 456 480 0
-312 -342 -444 -456 -480 0
312 384 426 468 480 516 528 0
-57 -125 -229 -299 -321 -391 -519 0
-313 -315 -329 -347 -363 -411 -421 0
-313 -327 -347 -391 -411 -413 -417 0
313 357 433 459 461 549 0
313 403 427 439 499 547 0
313 427 429 431 495 571 575 0
314 320 326 350 0
-314 -342 -358 -434 -454 -456 -476 0
314 371 377 437 440 473 0
-59 -94 -164 -187 -225 -286 -581 0
59 171 241 305 433 435 557 0
-315 -317 -325 -355 -387 -397 -425 0
315 319 437 471 509 529 555 0
-315 -319 -437 -471 -509 -529 -555 0
-315 -323 -325 -345 -389 -399 -409 0
-315 -323 -373 -399 -409 -437 -517 0
-315 -327 -339 -345 -363 0
315 330 345 375 378 0
-315 -330 -462 -465 -507 -531 -558 0
-315 -333 -441 -453 -465 -477 -513 0
-315 -335 -397 -409 -411 -461 -519 0
315 339 417 489 519 525 0
-315 -339 -417 -489 -519 -525 0
315 343 389 399 409 471 473 0
315 345 360 363 366 387 444 0
-315 -348 -363 -366 -444 -456 -465 0
-315 -351 -429 -447 -453 -549 -573 0
315 379 387 437 443 463 511 0
315 381 399 411 513 519 525 0
-315 -381 -399 -411 -513 -519 -525 0
-315 -381 -399 -411 -519 -567 0
315 383 409 459 485 505 531 0
-315 -383 -409 -459 -485 -505 -531 0
-315 -389 -391 -435 -461 -561 -596 0
315 391 455 465 533 535 561 0
-315 -405 -409 -443 -493 -497 -507 0
315 407 411 421 505 521 531 0
315 431 453 475 543 565 575 0
315 453 459 477 543 567 0
-315 -453 -459 -477 -543 -567 0
-60 -90 -126 -150 -270 -282 0
-60 -117 -153 -180 -255 -264 -288 0
-60 -126 -132 -228 -366 -426 -576 0
60 126 150 270 282 294 0
60 129 282 345 348 465 540 0
-60 -159 -213 -216 -294 -375 -408 0
60 180 234 282 324 378 426 0
60 189 192 249 312 375 480 0
-60 -189 -204 -213 -300 -399 -468 0
-316 -324 -338 -353 -361 -363 -411 0
-316 -329 -338 -381 -414 -415 -431 0
316 345 389 396 403 489 542 0
-316 -358 -370 -436 -466 -472 0
-317 -323 -337 -363 -419 -421 -471 0
-317 -329 -383 -401 -431 -575 0
317 335 389 425 473 0
-317 -338 -356 -446 -473 -542 -563 0
317 389 401 407 437 0
317 427 465 479 511 549 563 0
317 435 437 445 455 459 0
318 324 348 384 456 468 480 0
-318 -324 -348 -384 -456 -468 -480 0
318 342 348 372 384 444 0
319 321 341 387 411 461 469 0
319 321 391 461 465 489 575 0
-319 -322 -334 -373 -442 -460 -475 0
-319 -323 -339 -423 -457 -479 0
-319 -329 -357 -441 -475 -503 -571 0
-319 -331 -335 -369 -393 -403 -413 0
-319 -331 -349 -409 -457 -475 0
-319 -341 -411 -473 -475 -477 -571 0
-319 -343 -385 -391 -403 -421 -427 0
-319 -343 -427 -457 -553 -565 0
319 345 371 393 479 505 537 0
319 345 389 411 421 483 563 0
-319 -350 -381 -460 -471 -474 -479 0
-319 -361 -391 -397 -427 -517 0
319 387 407 433 495 499 503 0
319 447 451 455 549 551 565 0
-319 -447 -451 -455 -549 -551 -565 0
320 330 346 416 418 500 516 0
320 348 396 412 418 428 506 0
320 366 402 418 422 506 526 0
320 371 395 404 482 524 527 0
-320 -456 -460 -468 -476 -572 0
-321 -325 -359 -417 -425 -475 -479 0
-321 -342 -346 -349 -371 -380 -450 0
321 349 403 431 465 479 561 0
-321 -384 -417 -420 -435 -507 -558 0
321 435 471 537 543 549 0
-321 -435 -471 -537 -543 -549 0
577 581 585 589 593 597 601 0
-577 -581 -585 -589 -593 -597 -601 0
-66 -78 -180 -282 -366 -450 -522 0
-66 -108 -276 -288 -312 -456 -468 0
66 120 159 210 231 249 360 0
66 168 216 288 324 348 0
66 186 228 234 366 462 516 0
-66 -192 -264 -294 -360 -438 0
-322 -458 -460 -468 -530 -568 0
578 582 586 590 594 598 602 0
-578 -582 -586 -590 -594 -598 -602 0
-67 -125 -255 -265 -329 -447 -493 0
67 139 151 247 307 319 577 0
-67 -139 -151 -247 -307 -319 -577 0
67 157 193 205 301 445 469 0
-323 -325 -363 -409 -413 -477 -593 0
323 329 347 389 425 0
323 333 367 389 393 415 555 0
323 347 371 377 389 0
-323 -357 -411 -415 -475 -479 -561 0
-323 -389 -395 -461 -485 -497 -515 0
323 401 437 509 545 569 0
323 407 439 447 493 495 551 0
-323 -434 -437 -452 -455 -461 -464 0
323 451 477 479 541 543 569 0
-323 -451 -477 -479 -541 -543 -569 0
324 336 360 366 378 384 0
-324 -336 -366 -384 -456 -468 -480 0
324 342 348 360 384 0
324 342 390 402 438 498 558 0
-324 -342 -390 -402 -438 -498 -558 0
324 390 396 456 486 498 504 0
-324 -390 -396 -456 -486 -498 -504 0
-324 -434 -456 -460 -476 -480 0
-69 -175 -203 -309 -439 -485 -501 0
69 192 285 318 465 468 561 0
-325 -342 -363 -364 -368 -371 -440 0
-325 -345 -389 -417 -505 -509 -561 0
325 353 363 427 431 471 0
325 369 437 439 471 563 571 0
325 395 433 435 485 495 499 0
325 403 415 427 475 511 0
326 339 391 401 405 442 450 0
326 379 395 441 451 456 466 0
-326 -434 -437 -536 -557 -572 0
327 339 441 453 477 537 0
327 345 387 411 417 483 531 0
-327 -351 -447 -453 -459 -471 0
-327 -420 -460 -473 -475 -513 -530 0
72 111 216 306 339 417 492 0
72 126 198 210 378 462 546 0
-72 -150 -210 -294 -342 -450 -558 0
72 165 264 294 339 477 486 0
72 180 192 222 228 366 372 0
-72 -180 -192 -222 -228 -366 -372 0
329 351 389 391 399 439 455 0
-329 -353 -425 -461 -479 0
329 386 390 418 427 447 485 0
329 393 403 407 451 465 551 0
-329 -400 -403 -440 -471 -546 -551 0
-329 -411 -415 -437 -491 -529 -555 0
329 437 443 545 563 0
329 437 443 509 533 563 0
-329 -440 -443 -452 -479 -536 -551 0
330 336 342 420 432 480 510 0
-330 -336 -342 -420 -432 -480 -510 0
-330 -342 -372 -390 -402 -414 0
330 342 444 450 456 468 474 0
330 348 378 480 0
330 348 390 414 450 0
-330 -348 -390 -414 -450 0
-330 -348 -414 -426 -468 -564 -576 0
330 360 414 438 462 0
-330 -360 -414 -438 -462 0
330 372 390 402 450 522 0
330 380 394 414 416 484 494 0
330 384 390 426 450 546 0
-330 -384 -390 -426 -450 -546 0
330 390 402 552 0
-330 -390 -402 -552 0
330 396 402 540 546 552 0
-330 -396 -402 -540 -546 -552 0
330 408 420 432 444 468 0
-330 -408 -420 -432 -444 -468 0
-330 -420 -456 -480 -558 0
-330 -440 -476 -478 -480 -556 -576 0
75 105 207 339 357 435 0
75 110 169 221 276 316 327 0
75 117 129 207 303 309 411 0
-75 -117 -255 -309 -435 -453 0
-75 -123 -159 -261 -267 -285 -339 0
-75 -125 -157 -227 -267 -313 -417 0
-75 -179 -279 -337 -479 -537 -582 0
331 345 387 401 445 485 489 0
331 345 389 433 441 507 539 0
331 375 401 409 447 505 533 0
331 381 433 441 443 543 557 0
-331 -389 -397 -435 -493 -519 0
-332 -434 -440 -446 -554 0
-77 -139 -219 -307 -317 -411 -485 0
333 339 357 369 381 0
-333 -345 -363 -417 -441 -465 0
333 349 415 429 431 505 527 0
-333 -349 -415 -429 -431 -505 -527 0
333 353 399 445 485 537 547 0
-333 -363 -435 -471 -477 -537 0
333 377 395 427 453 551 571 0
333 423 447 459 495 519 555 0
-333 -423 -447 -459 -495 -519 -555 0
78 84 144 174 192 282 581 0
78 105 126 222 237 318 363 0
-78 -132 -204 -294 -420 -498 0
-78 -156 -210 -258 -312 -396 -408 0
78 168 192 204 312 456 540 0
-78 -168 -192 -204 -312 -456 -540 0
-334 -342 -434 -442 -458 -460 -480 0
-79 -103 -199 -307 -319 -391 -481 0
335 357 445 453 461 565 569 0
336 342 348 360 0
-336 -351 -411 -474 -510 -525 0
-336 -390 -402 -492 -498 -546 0
336 396 402 408 504 552 0
-336 -396 -402 -408 -504 -552 0
338 407 416 428 431 518 0
339 341 411 437 451 517 519 0
-339 -371 -397 -399 -481 -555 -569 0
-339 -373 -389 -393 -403 -543 -551 0
339 399 411 447 471 549 0
84 135 234 285 366 447 480 0
-84 -135 -234 -285 -366 -447 -480 0
84 165 234 315 366 477 570 0
85 105 203 247 303 397 437 0
-85 -145 -199 -241 -289 0
85 177 199 251 363 433 437 0
341 342 406 420 439 440 465 0
-341 -350 -443 -470 -554 -557 -590 0
341 351 421 447 455 493 549 0
-341 -353 -377 -389 -395 -437 0
341 363 370 390 435 440 451 0
341 363 427 461 465 559 563 0
-341 -382 -421 -458 -465 -472 -474 0
341 425 431 491 497 503 0
342 345 360 399 465 468 0
342 345 384 423 456 474 0
-342 -366 -402 -408 -438 -504 -546 0
-342 -390 -393 -396 -402 -417 0
-342 -390 -396 -414 -486 -510 -522 0
342 402 410 412 414 416 418 0
342 402 414 423 465 0
-342 -402 -450 -462 -540 -552 0
-342 -408 -444 -480 -516 -528 -552 0
342 432 456 468 480 552 0
-87 -107 -139 -193 -237 -297 -335 0
87 161 178 282 349 356 578 0
343 375 431 457 471 571 575 0
345 348 366 411 444 480 0
-345 -351 -399 -453 -549 -567 0
345 359 367 385 389 435 437 0
345 375 393 453 465 537 0
-345 -375 -393 -453 -465 -537 0
-345 -377 -391 -393 -531 -539 -553 0
-345 -379 -387 -443 -511 -531 -533 0
345 399 447 459 531 0
-345 -399 -447 -459 -531 0
-345 -408 -441 -465 -489 -522 0
-345 -408 -459 -513 -555 -576 0
-345 -417 -426 -480 -513 -555 -558 0
-345 -417 -435 -444 -459 -480 0
345 450 456 465 489 546 0
345 453 513 525 537 593 0
-345 -453 -513 -525 -537 -593 0
-90 -108 -216 -300 -396 -576 0
90 132 276 336 408 444 576 0
-90 -162 -198 -306 -312 -456 -498 0
90 177 276 315 330 393 564 0
-91 -103 -229 -295 -301 -391 -493 0
91 106 157 256 277 343 376 0
91 124 217 325 418 553 589 0
-91 -161 -193 -207 -353 -393 -535 0
347 355 363 387 393 395 415 0
347 375 421 473 517 519 521 0
-347 -375 -421 -473 -517 -519 -521 0
-348 -356 -446 -450 -460 -594 0
348 366 396 444 456 504 534 0
348 366 420 468 480 504 528 0
348 372 396 450 456 552 0
349 355 370 394 445 529 0
-349 -365 -395 -415 -417 -437 -441 0
349 395 415 417 437 441 535 0
95 145 180 200 243 370 473 0
-351 -365 -403 -407 -427 -477 -575 0
351 370 377 408 440 445 539 0
351 373 389 391 447 499 0
351 390 405 456 471 477 0
351 403 407 427 477 489 575 0
351 411 459 513 537 555 0
-351 -411 -459 -513 -537 -555 0
96 126 222 270 342 438 498 0
-96 -144 -165 -237 -384 -459 -540 0
-96 -153 -264 -345 -408 -411 -492 0
96 165 180 213 312 408 423 0
-96 -165 -180 -213 -312 -408 -423 0
96 168 264 306 390 408 498 0
-96 -189 -228 -231 -318 -435 -599 0
97 261 263 277 285 359 361 0
-97 -117 -129 -139 -155 -209 -223 0
353 363 391 435 461 485 553 0
353 371 395 419 431 479 0
-98 -111 -202 -203 -231 -235 -264 0
-98 -125 -200 -233 -299 -344 -389 0
98 155 185 251 0
-99 -285 -297 -345 -381 -465 0
99 129 243 279 315 339 0
99 141 180 186 222 225 228 0
99 159 213 303 417 483 501 0
-99 -165 -249 -285 -351 -375 -459 0
-99 -209 -223 -303 -403 -437 -495 0
-355 -367 -409 -415 -505 -517 0
-356 -358 -372 -400 -434 -456 -542 0
356 388 392 414 498 524 526 0
-356 -446 -450 -472 -564 -568 -602 0
357 387 411 465 531 555 0
-357 -387 -411 -465 -531 -555 0
357 399 435 447 471 519 0
-357 -399 -435 -447 -471 -519 0
-357 -429 -459 -471 -537 -543 -549 0
102 114 150 156 174 0
-102 -168 -192 -204 -264 -312 -336 0
-102 -222 -234 -324 -378 -432 -510 0
102 228 252 384 456 552 564 0
358 394 418 424 484 490 514 0
103 125 193 243 329 373 375 0
-103 -167 -201 -229 -299 -387 -403 0
-103 -171 -211 -213 -287 -295 -335 0
103 243 251 341 355 465 529 0
104 113 173 185 0
-104 -151 -153 -155 -184 -191 -192 0
360 378 408 420 456 528 0
-360 -378 -408 -420 -456 -528 0
-360 -401 -472 -477 -546 -565 -597 0
-360 -414 -423 -426 -465 -519 -558 0
-105 -118 -197 -306 -307 -458 -501 0
-105 -147 -177 -261 -285 -351 -357 0
105 174 195 210 291 294 0
105 201 252 384 393 504 531 0
105 213 264 294 315 393 0
-105 -222 -315 -384 -426 -459 -555 0
105 229 287 355 375 401 471 0
361 381 403 407 425 453 495 0
361 391 403 433 451 547 0
361 391 417 431 477 491 523 0
362 365 434 479 530 545 602 0
107 169 249 281 337 363 455 0
-363 -369 -384 -396 -447 -459 0
-363 -381 -399 -477 -501 -525 0
363 391 425 439 465 485 537 0
363 399 441 495 0
-363 -408 -441 -456 -459 -468 0
-363 -423 -435 -447 -453 -531 0
363 425 431 445 477 525 541 0
363 441 465 477 555 573 598 0
-363 -441 -465 -477 -555 -573 -598 0
-108 -270 -306 -426 -474 -558 0
-108 -114 -126 -180 0
-108 -117 -165 -213 -228 -312 -327 0
-108 -129 -213 -336 -411 -426 -561 0
-108 -132 -138 -156 -192 -252 -264 0
108 135 150 159 201 204 0
-108 -135 -159 -201 -204 -213 0
-108 -144 -198 -246 -258 -294 -306 0
108 150 186 192 0
-108 -150 -216 -240 -300 -348 -444 0
108 180 246 264 300 342 396 0
108 186 204 336 384 420 456 0
-108 -198 -252 -264 -312 -348 -384 0
-108 -222 -285 -381 -384 -417 -426 0
108 222 330 438 558 0
108 228 330 366 432 570 0
-108 -228 -330 -366 -432 -570 0
-108 -246 -249 -345 -456 -498 -507 0
-109 -111 -223 -269 -315 -389 -421 0
109 165 281 375 443 451 531 0
-365 -381 -389 -393 -415 -507 -559 0
365 395 401 431 485 497 0
365 425 473 527 551 0
366 375 462 477 516 567 593 0
111 123 141 180 0
-111 -123 -141 -180 0
111 132 285 315 336 414 519 0
-111 -203 -217 -243 -309 -349 -353 0
111 204 213 324 387 456 495 0
-111 -243 -285 -363 -369 0
111 243 255 375 471 477 549 0
367 375 399 437 531 545 553 0
-367 -375 -399 -437 -531 -545 -553 0
367 389 397 399 433 437 0
367 401 403 423 447 451 479 0
-367 -427 -471 -479 -523 -545 -549 0
-113 -191 -227 -239 -275 -335 -347 0
369 387 423 447 495 519 0
-369 -387 -423 -447 -495 -519 0
369 399 451 473 477 0
-369 -399 -451 -473 -477 0
369 401 439 441 503 537 571 0
369 411 417 495 507 513 0
-369 -411 -417 -495 -507 -513 0
-114 -126 -189 -198 -279 0
-114 -132 -222 -228 -318 -366 -372 0
114 156 177 204 0
-114 -156 -177 -204 0
-114 -168 -180 -204 -240 -348 -360 0
-114 -168 -222 -336 -414 -420 -504 0
114 186 228 318 330 420 570 0
-114 -200 -241 -309 -376 -407 -492 0
-114 -201 -294 -321 -438 -492 -549 0
114 228 384 408 492 0
114 246 270 276 282 348 0
370 398 426 430 484 486 524 0
-115 -251 -315 -319 -389 -393 -505 0
371 375 401 469 471 505 555 0
371 395 401 437 491 539 551 0
371 397 399 423 427 431 479 0
-371 -399 -427 -451 -479 -545 -567 0
372 390 396 426 432 516 0
-372 -390 -396 -426 -432 -516 0
-372 -446 -454 -461 -465 -481 -576 0
117 267 351 453 477 567 0
117 123 201 207 213 243 255 0
117 126 132 135 177 186 237 0
-117 -139 -161 -193 -209 -223 -237 0
-117 -150 -267 -306 -396 -399 -495 0
-117 -157 -213 -227 -301 -399 -401 0
-117 -159 -201 -255 -351 -465 0
117 159 249 345 393 453 573 0
-117 -162 -252 -273 -345 -402 -435 0
-117 -177 -180 -228 -237 -282 -285 0
117 201 243 321 339 411 435 0
117 204 261 294 393 513 546 0
-117 -204 -261 -294 -393 -513 -546 0
117 204 261 312 396 471 549 0
117 213 255 321 327 429 0
-117 -225 -270 -366 -426 -465 -561 0
-117 -229 -327 -427 -473 -543 -585 0
-117 -241 -251 -289 -339 -419 -435 0
-117 -249 -351 -363 -471 -531 -567 0
373 385 421 427 517 553 0
373 391 487 499 511 0
-373 -391 -487 -499 -511 0
373 395 411 415 417 461 0
-373 -395 -411 -415 -417 -461 0
373 397 409 427 457 475 0
118 121 131 135 169 180 188 0
-118 -137 -206 -219 -373 -378 -473 0
-118 -151 -199 -331 -406 -439 -589 0
-118 -189 -191 -194 -228 -247 -275 0
118 212 288 298 440 480 581 0
119 285 371 379 471 529 563 0
-119 -145 -209 -229 -231 -335 0
-119 -145 -237 -287 -295 -321 -323 0
-119 -149 -197 -227 -299 -329 -389 0
-119 -161 -203 -287 -311 -323 -335 0
119 186 211 296 381 425 472 0
119 195 313 317 433 459 509 0
-119 -195 -223 -251 -313 -317 -369 0
375 393 411 435 555 0
-375 -393 -411 -435 -555 0
-120 -129 -201 -315 -348 -420 -507 0
-120 -144 -186 -192 -234 -270 0
120 189 246 255 339 447 450 0
-120 -234 -258 -270 -282 -378 0
120 246 258 264 342 360 468 0
-376 -391 -443 -458 -465 -472 -474 0
376 412 424 484 502 0
376 418 426 432 458 508 597 0
-376 -427 -434 -438 -448 -465 -479 0
-376 -430 -452 -468 -530 -540 -550 0
-121 -151 -229 -277 -289 -301 -397 0
-121 -159 -213 -233 -307 -329 -411 0
121 165 287 355 425 477 499 0
-121 -185 -209 -225 -319 -321 -389 0
-121 -207 -209 -289 -399 -407 -529 0
121 213 227 299 379 391 393 0
121 245 273 341 355 441 541 0
-377 -378 -411 -445 -476 -568 -569 0
378 396 438 534 546 552 0
-378 -396 -438 -534 -546 -552 0
123 257 277 375 379 401 429 0
-123 -132 -234 -267 -363 -366 -393 0
-123 -141 -165 -225 -237 -321 0
123 150 258 339 450 498 537 0
-123 -153 -285 -315 -333 -417 -471 0
123 153 243 261 381 435 453 0
123 207 351 357 399 531 537 0
125 285 331 335 465 503 547 0
-125 -285 -331 -335 -465 -503 -547 0
-125 -286 -308 -309 -397 -408 -527 0
125 287 353 479 569 0
-125 -149 -155 -161 -221 -227 -245 0
-125 -149 -155 -179 -191 -227 -251 0
-125 -151 -213 -299 -391 -489 -521 0
125 152 161 194 221 230 269 0
-125 -153 -223 -309 -403 -431 -507 0
125 155 269 365 413 437 590 0
125 201 305 343 387 433 545 0
381 391 417 427 459 461 473 0
381 393 411 507 555 0
126 129 150 159 186 0
-126 -132 -162 -276 0
-126 -132 -192 -210 -234 -240 0
-126 -132 -234 -240 -264 0
126 150 159 174 186 189 0
126 159 180 186 0
-126 -159 -180 -186 0
126 177 222 330 375 399 564 0
126 222 237 318 351 363 420 0
-126 -228 -300 -360 -396 -420 0
126 228 384 408 444 540 0
126 246 342 348 450 540 576 0
126 252 258 306 312 408 0
382 402 410 418 484 486 506 0
127 287 351 373 407 519 547 0
384 396 402 450 456 552 0
-384 -396 -402 -450 -456 -552 0
-129 -144 -213 -234 -336 -381 -396 0
129 163 287 301 425 477 517 0
129 165 249 351 381 435 477 0
-129 -177 -243 -249 -279 -285 0
-129 -201 -252 -348 -396 -399 -489 0
-129 -205 -287 -367 -369 -443 -525 0
-129 -207 -315 -321 -441 -519 -525 0
-129 -228 -261 -300 -309 -426 -549 0
385 391 433 475 529 0
-385 -397 -399 -431 -435 -437 -495 0
385 403 427 511 547 571 0
-385 -403 -427 -511 -547 -571 0
-385 -411 -467 -495 -499 -521 0
-385 -427 -529 -535 -553 0
-385 -427 -505 -517 -553 -559 0
-385 -431 -485 -553 -555 -561 0
385 433 457 499 529 0
-385 -437 -453 -507 -535 -559 -563 0
385 447 551 555 561 565 0
-385 -475 -529 -553 0
385 501 519 541 545 571 575 0
-385 -501 -519 -541 -545 -571 -575 0
-386 -396 -418 -433 -441 -455 0
386 413 414 431 459 460 469 0
-386 -452 -479 -542 -560 -569 0
131 241 261 347 349 437 459 0
-387 -389 -395 -397 -423 -437 0
-387 -389 -397 -423 -437 -595 0
-387 -389 -403 -435 -439 -473 0
387 391 411 473 511 537 539 0
-387 -393 -411 -435 -477 0
-387 -393 -423 -447 -459 -471 0
-387 -395 -443 -465 -469 -481 -491 0
387 399 465 501 507 519 0
387 405 447 453 471 0
-387 -405 -447 -453 -471 0
-387 -411 -423 -435 -441 -459 0
-387 -411 -444 -456 -459 -468 0
387 411 465 507 555 567 0
-387 -411 -465 -507 -555 -567 0
387 429 453 525 537 561 0
-387 -429 -453 -525 -537 -561 0
-387 -447 -453 -459 -477 0
387 447 453 477 561 567 0
-387 -453 -477 -495 -501 -537 0
132 270 282 378 402 450 522 0
-132 -270 -282 -378 -402 -450 -522 0
-132 -135 -192 -228 -285 -345 -378 0
132 156 159 165 180 192 0
-132 -156 -159 -165 -180 -192 0
-132 -156 -228 -234 -282 -336 -366 0
-132 -162 -198 -216 -312 -408 -438 0
132 166 212 214 240 292 314 0
-132 -216 -288 -300 -402 -432 -516 0
132 216 252 342 360 396 408 0
132 246 276 348 366 450 474 0
-132 -246 -276 -348 -366 -450 -474 0
388 390 401 403 404 477 0
-388 -446 -532 -548 -552 -568 -576 0
-133 -241 -247 -313 -337 -367 0
-389 -517 -521 -525 -553 -561 -575 0
-389 -539 -545 -548 -551 -560 -566 0
389 390 398 400 403 420 459 0
389 390 400 403 404 526 561 0
389 391 397 417 459 461 507 0
389 391 411 415 431 441 443 0
-389 -391 -435 -495 -509 -529 -545 0
389 392 395 476 497 506 0
-389 -395 -401 -461 0
389 395 401 473 0
389 395 404 407 410 422 443 0
-389 -397 -411 -415 -541 -598 0
-389 -397 -411 -437 -485 -489 -553 0
389 397 426 506 526 555 565 0
-389 -399 -403 -405 -463 -503 -537 0
389 401 425 437 479 569 0
389 403 453 549 565 573 575 0
-389 -405 -421 -485 -495 -547 0
-389 -411 -417 -419 -427 -457 -505 0
-389 -411 -451 -491 -513 -515 -517 0
-389 -415 -447 -485 -529 -537 -593 0
389 419 425 437 497 0
389 419 485 491 539 545 0
-389 -419 -485 -491 -539 -545 0
-389 -427 -435 -453 -491 -529 -543 0
-389 -427 -465 -491 -525 -539 -571 0
389 431 443 455 539 0
389 439 465 503 513 525 529 0
-389 -441 -472 -491 -540 -553 -597 0
-389 -451 -493 -541 -545 -573 -598 0
389 475 477 511 513 527 559 0
389 477 529 543 547 549 551 0
389 509 515 551 0
134 159 205 246 304 359 453 0
-390 -522 -528 -552 -576 0
390 522 540 552 576 0
-390 -522 -540 -552 -576 0
-390 -392 -411 -439 -461 -468 -472 0
-390 -394 -399 -425 -499 -525 -530 0
390 394 401 453 498 499 512 0
-390 -396 -402 -510 -540 -552 -570 0
-390 -396 -414 -420 -426 -438 0
390 396 414 420 492 540 570 0
390 396 414 450 456 0
390 402 432 474 480 0
-390 -402 -480 -492 -546 -552 0
-390 -408 -426 -468 -516 -552 0
-390 -408 -435 -465 -513 -516 -537 0
390 408 444 486 492 552 599 0
390 408 480 0
390 408 492 510 558 0
-390 -411 -420 -516 -555 -573 -576 0
-390 -414 -522 -528 -552 0
390 420 432 516 576 0
-390 -420 -432 -516 -576 0
390 420 432 456 0
390 420 444 480 486 516 564 0
-390 -426 -552 -558 -576 0
390 426 444 498 546 558 0
-390 -426 -444 -498 -546 -558 0
390 426 474 498 546 599 0
390 426 474 504 510 522 0
-390 -432 -468 -528 -540 -576 0
-390 -450 -456 -468 -480 0
390 450 492 504 516 534 0
390 456 468 540 564 570 0
390 456 474 492 498 522 0
390 492 534 540 546 558 0
390 492 498 516 558 0
-390 -492 -498 -516 -558 0
135 261 267 285 339 0
135 276 294 315 417 504 519 0
-135 -276 -294 -315 -417 -504 -519 0
135 145 281 333 373 397 473 0
135 145 164 184 209 220 234 0
-135 -165 -261 -273 -285 0
-135 -177 -192 -240 -255 -270 -285 0
135 197 277 315 329 411 427 0
135 207 345 351 357 0
135 213 229 281 307 381 585 0
135 221 241 317 363 411 415 0
-135 -225 -249 -321 -411 -471 -555 0
-135 -241 -251 -297 -371 -393 -463 0
391 393 401 433 443 465 539 0
-391 -393 -403 -437 -481 -513 -539 0
391 393 451 473 475 479 0
-391 -395 -403 -405 -425 -441 0
-391 -395 -411 -417 -425 -433 0
391 397 445 460 493 0
-391 -397 -445 -460 -493 0
-391 -399 -437 -493 -495 -497 -525 0
391 403 433 451 463 0
391 407 411 437 465 505 513 0
391 409 481 493 529 553 0
-391 -425 -465 -517 -523 -555 -575 0
-391 -427 -469 -511 -535 0
391 429 495 497 503 519 565 0
391 445 505 553 559 601 0
-391 -447 -493 -501 -525 -527 0
391 465 545 551 553 555 567 0
392 395 410 473 488 503 527 0
392 402 412 422 426 478 518 0
392 404 458 482 488 494 512 0
392 404 464 494 506 524 0
392 425 497 506 512 569 597 0
-392 -479 -539 -548 -563 -566 0
137 203 275 335 371 431 0
393 519 537 549 555 0
393 399 411 465 0
-393 -399 -411 -465 0
393 399 435 459 0
-393 -399 -435 -459 0
393 399 435 471 495 567 0
393 399 435 501 513 525 0
-393 -401 -427 -499 -501 -513 -551 0
393 403 491 505 509 537 553 0
393 405 411 435 489 537 598 0
393 405 435 507 513 537 0
-393 -405 -435 -507 -513 -537 0
393 405 489 501 537 573 598 0
-393 -405 -489 -501 -537 -573 -598 0
393 408 411 441 468 537 540 0
393 411 417 429 465 0
-393 -411 -417 -435 -441 -447 -459 0
393 411 435 441 465 477 0
-393 -411 -435 -465 -471 -477 0
-393 -411 -453 -495 -519 -543 0
393 411 459 477 513 537 555 0
-393 -417 -447 -453 -465 0
-393 -417 -450 -462 -465 -516 -531 0
393 417 453 489 507 0
-393 -417 -465 -471 -507 -513 0
393 441 447 453 477 519 0
-393 -443 -451 -465 -515 -529 -555 0
393 447 453 459 477 0
-393 -447 -453 -459 -477 0
-393 -447 -471 -495 -501 -573 0
393 453 519 537 549 0
-393 -453 -519 -537 -549 0
393 453 471 495 0
-393 -453 -471 -495 0
-393 -453 -471 -495 -519 -549 0
-393 -453 -489 -507 -519 0
-393 -453 -507 -513 -531 -537 0
-393 -463 -473 -489 -499 -535 -563 0
393 471 513 531 561 0
-393 -471 -513 -531 -561 0
393 471 477 507 513 0
393 479 497 517 523 551 567 0
393 485 495 519 533 571 0
393 489 503 513 547 553 563 0
393 509 513 529 571 575 0
-394 -446 -468 -534 -540 -568 -572 0
-139 -152 -220 -273 -311 -384 -439 0
-139 -193 -277 -325 -349 -457 0
139 203 301 339 437 441 487 0
139 241 265 349 445 505 553 0
139 245 261 343 461 471 547 0
395 396 427 430 512 514 555 0
-395 -399 -445 -499 -503 -513 0
395 404 410 425 431 461 0
-395 -411 -415 -417 -461 -477 0
395 411 419 423 427 475 0
-395 -419 -425 -437 -461 0
-395 -433 -465 -487 -503 -525 -561 0
395 439 477 489 503 529 551 0
-395 -440 -446 -479 -551 -560 0
-395 -451 -471 -497 -499 -541 -549 0
395 453 475 541 545 549 0
140 161 167 179 182 0
-396 -399 -411 -414 -420 -477 -489 0
-396 -402 -408 -480 0
396 402 426 480 540 0
-396 -402 -426 -492 -540 0
396 402 456 468 0
396 402 456 480 0
396 402 468 522 528 540 0
396 404 410 420 472 502 506 0
-396 -408 -450 -474 -498 -564 -570 0
-396 -408 -450 -498 -522 -552 0
396 408 480 510 522 558 0
396 410 448 498 512 520 526 0
-396 -411 -420 -426 -459 -489 -528 0
396 414 426 522 546 570 0
396 414 468 486 498 522 552 0
-396 -414 -468 -486 -498 -522 -552 0
396 416 436 490 494 516 518 0
396 420 516 522 552 558 0
-396 -420 -423 -429 -432 -453 0
396 420 426 432 462 474 0
-396 -426 -450 -492 -498 -504 -510 0
396 426 486 492 504 564 0
-396 -426 -486 -492 -504 -564 0
396 426 504 516 576 0
-396 -426 -504 -516 -576 0
396 432 456 474 0
-396 -432 -486 -516 -552 -558 0
-396 -433 -436 -459 -461 -531 -566 0
-396 -442 -446 -538 -542 -560 -576 0
-396 -468 -522 -570 -576 0
396 471 489 495 498 504 552 0
396 474 540 546 558 576 0
396 474 510 522 540 564 570 0
396 477 483 495 504 531 534 0
-141 -273 -315 -363 -393 -513 -537 0
141 279 339 375 387 507 519 0
-141 -150 -159 -162 -168 0
-141 -153 -174 -192 -234 -276 -285 0
-141 -169 -209 -309 -331 -411 -425 0
-141 -183 -243 -249 -339 -375 -459 0
141 215 247 339 355 437 453 0
141 221 243 247 313 371 459 0
-141 -225 -381 -447 -453 -573 0
141 243 249 339 375 459 465 0
-397 -403 -413 -427 -453 -471 -473 0
-397 -407 -471 -507 -519 -521 -541 0
-397 -411 -425 -521 -525 -559 -573 0
-397 -421 -433 -436 -478 -484 -493 0
-397 -436 -456 -473 -494 -519 -565 0
397 471 473 541 555 573 575 0
397 487 489 513 515 527 535 0
-397 -487 -489 -513 -515 -527 -535 0
-398 -437 -446 -545 -566 -572 -575 0
399 403 413 433 437 445 453 0
-399 -403 -433 -479 -497 -517 -549 0
-399 -403 -439 -453 -473 -477 0
-399 -403 -495 -515 -523 -537 0
-399 -405 -417 -447 -453 -477 0
-399 -405 -465 -525 -549 -573 0
399 407 463 483 485 529 551 0
399 409 479 541 551 573 0
-399 -409 -479 -541 -551 -573 0
-399 -411 -414 -501 -504 -573 0
399 411 429 453 471 495 0
-399 -411 -435 -441 -459 -471 0
399 411 435 441 459 471 495 0
-399 -411 -459 -477 -483 -555 0
399 411 459 489 495 519 525 0
-399 -411 -459 -489 -495 -519 -525 0
-399 -411 -465 -513 -519 -555 -567 0
399 411 477 537 561 0
399 417 429 441 489 495 525 0
-399 -417 -435 -555 0
399 417 453 501 549 0
-399 -417 -465 -513 -525 -561 0
399 425 519 551 553 565 0
-399 -425 -519 -551 -553 -565 0
399 435 441 471 495 525 0
399 441 471 495 519 525 0
-399 -441 -471 -495 -519 -525 0
399 443 493 517 519 527 573 0
-399 -443 -493 -517 -519 -527 -573 0
399 447 471 531 549 573 0
-399 -447 -471 -531 -549 -573 0
399 453 465 525 537 549 0
-399 -457 -471 -473 -479 0
399 465 471 519 525 531 567 0
-399 -465 -471 -519 -525 -531 -567 0
-399 -475 -481 -497 -501 -503 -519 0
-399 -503 -505 -507 -515 -525 -529 0
144 270 294 366 414 522 558 0
144 153 276 363 366 477 528 0
144 156 162 168 180 186 192 0
144 156 204 210 252 0
144 201 222 228 276 0
145 267 329 331 425 477 565 0
-145 -213 -221 -293 -339 -343 -433 0
401 437 443 479 545 0
-401 -443 -452 -461 -560 -575 0
401 472 477 521 546 565 597 0
401 475 477 509 513 553 565 0
-401 -479 -515 -521 -527 -575 0
146 189 265 329 336 412 567 0
-402 -516 -534 -558 -576 0
402 404 466 492 496 506 516 0
402 408 411 453 495 552 0
-402 -408 -444 -480 -516 -528 0
-402 -408 -498 -516 -546 -552 0
402 408 498 516 552 0
-402 -408 -498 -516 -552 0
-402 -411 -423 -426 -432 -447 -516 0
-402 -414 -423 -465 0
402 414 426 456 0
-402 -414 -426 -456 0
402 414 432 465 0
-402 -414 -432 -465 0
402 416 418 424 474 498 506 0
402 420 432 522 528 564 0
-402 -420 -432 -522 -528 -564 -576 0
402 420 444 468 510 558 0
-402 -420 -456 -480 0
402 423 435 453 495 546 0
-402 -423 -435 -453 -495 -546 0
402 426 522 558 576 0
-402 -426 -522 -558 -576 0
402 426 432 468 504 546 576 0
-402 -426 -432 -468 -504 -546 -576 0
402 426 432 474 498 558 0
-402 -426 -432 -474 -498 -558 0
402 426 486 492 504 576 0
402 426 504 564 0
-402 -426 -504 -564 0
402 432 492 504 540 546 0
-402 -432 -492 -504 -540 -546 0
402 444 450 474 492 498 552 0
402 450 558 576 0
-402 -450 -558 -576 0
402 450 456 468 0
-402 -450 -456 -468 0
402 453 501 531 546 552 599 0
-402 -456 -522 -534 -576 0
402 468 492 522 558 0
402 474 498 528 540 558 0
-402 -474 -498 -528 -540 -558 0
402 480 498 540 570 0
-402 -480 -498 -540 -570 0
402 486 546 552 570 0
-402 -486 -546 -552 -570 0
402 492 498 516 540 570 0
402 492 510 528 540 0
402 504 540 552 564 576 0
-402 -504 -540 -552 -564 -576 0
147 207 213 309 393 501 519 0
-147 -207 -213 -309 -393 -501 -519 0
-403 -409 -493 -499 -535 0
403 411 515 553 555 559 569 0
403 411 485 497 507 529 0
-403 -421 -425 -455 -471 -593 0
-403 -425 -523 -561 -575 0
403 425 471 503 571 573 593 0
-403 -431 -435 -503 -531 -535 -593 0
-403 -436 -448 -466 0
403 436 490 499 571 0
403 439 451 457 463 475 595 0
403 439 451 469 475 0
403 439 469 481 499 0
-403 -439 -469 -481 -499 0
-403 -441 -461 -525 -527 -547 -575 0
-403 -447 -487 -495 -527 -551 -567 0
-403 -453 -461 -495 -517 -519 -527 0
-403 -453 -463 -473 -571 -573 -575 0
403 461 485 495 503 541 549 0
-403 -461 -485 -495 -503 -541 -549 0
403 465 533 535 545 547 567 0
-403 -475 -493 -529 -547 0
-403 -493 -553 -565 0
403 511 517 529 535 0
-404 -530 -560 -566 -572 0
-404 -406 -417 -427 -474 -479 -537 0
404 416 470 488 500 506 524 0
404 455 485 497 506 512 521 0
404 480 498 508 512 520 524 0
149 287 353 473 521 527 0
149 224 247 276 353 358 363 0
405 411 477 489 513 525 0
-405 -411 -477 -489 -513 -525 0
405 413 417 451 503 511 561 0
-405 -415 -493 -497 -501 -503 -573 0
405 420 498 501 504 525 567 0
-405 -420 -498 -501 -504 -525 -567 0
-405 -426 -465 -474 -519 -561 -576 0
-405 -441 -465 -507 -555 -561 0
405 471 531 543 549 555 561 0
-405 -471 -531 -543 -549 -555 -561 0
405 471 495 507 519 543 0
-405 -471 -495 -507 -519 -543 0
150 159 207 261 282 318 0
-150 -159 -207 -261 -282 -318 0
150 180 276 318 330 432 564 0
150 204 228 324 456 540 564 0
-150 -216 -222 -318 -336 -426 -432 0
406 433 484 493 505 553 0
-406 -433 -484 -493 -505 -553 0
-406 -440 -456 -538 -552 -564 -566 0
151 183 281 301 303 413 421 0
-151 -229 -355 -397 -403 -541 0
-407 -409 -465 -505 -555 -557 0
407 417 471 475 479 519 0
-407 -427 -477 -495 -521 -539 -565 0
-407 -437 -539 -551 -575 0
-407 -441 -445 -451 -503 -523 -549 0
407 443 539 551 569 0
-152 -166 -180 -254 -256 -270 -586 0
152 202 206 234 300 322 386 0
-408 -516 -540 -546 -552 0
-408 -414 -426 -474 -480 -546 -600 0
408 414 432 504 576 0
-408 -414 -432 -504 -576 0
408 414 492 498 504 534 546 0
-408 -414 -492 -498 -504 -534 -546 0
-408 -417 -444 -531 -555 -564 0
-408 -420 -426 -432 -462 0
-408 -420 -426 -456 -492 -498 -504 0
-408 -420 -426 -456 -504 -570 -576 0
408 425 482 484 485 519 529 0
-408 -425 -482 -484 -485 -519 -529 0
-408 -426 -444 -498 -528 -546 -576 0
408 426 510 522 570 576 0
-408 -426 -510 -522 -570 -576 0
-408 -432 -444 -462 -468 -480 -540 0
408 432 444 462 480 516 540 0
-408 -446 -460 -530 -538 -552 -568 0
-408 -450 -456 -480 -492 -546 -552 0
408 450 468 504 528 576 0
-408 -450 -468 -504 -528 -576 0
408 456 492 558 576 0
408 462 486 504 534 540 546 0
-408 -462 -486 -504 -534 -540 -546 0
408 468 474 546 552 558 0
-408 -468 -486 -504 -540 -576 0
408 471 501 516 519 0
408 486 492 498 528 540 0
408 492 498 558 576 0
408 492 498 504 576 0
408 498 522 546 558 0
-408 -498 -522 -546 -558 0
408 504 540 558 576 0
-408 -510 -519 -522 -555 -558 -561 0
153 187 193 275 321 323 463 0
-153 -207 -213 -381 -399 -429 -495 0
153 243 267 315 327 363 411 0
409 415 421 427 445 0
409 415 427 451 475 0
-409 -419 -447 -497 -507 -545 -553 0
409 427 455 471 513 569 571 0
-409 -427 -455 -471 -513 -569 -571 0
-409 -435 -441 -455 -461 0
409 437 529 535 549 551 0
409 477 491 511 513 575 0
-409 -477 -491 -511 -513 -575 0
410 412 416 424 432 438 492 0
410 432 454 484 498 512 520 0
-410 -446 -542 -554 -560 -566 0
155 207 263 277 281 283 285 0
-155 -207 -229 -357 -377 -475 -575 0
411 513 528 537 555 576 0
411 519 525 535 571 575 0
-411 -414 -432 -492 -522 -549 0
-411 -417 -519 -531 -549 -561 0
-411 -417 -531 -561 -567 -573 0
-411 -417 -420 -426 -444 0
411 417 423 435 459 465 0
-411 -417 -435 -513 -519 0
411 417 435 471 0
-411 -417 -435 -471 0
-411 -417 -441 -453 -519 0
411 417 441 456 468 489 0
-411 -417 -447 -519 -549 0
411 417 453 519 0
411 417 465 495 501 0
411 417 507 537 555 573 0
-411 -417 -507 -537 -555 -573 0
-411 -420 -507 -516 -528 -540 -561 0
411 423 429 507 549 555 0
-411 -425 -439 -489 -499 -501 -527 0
-411 -429 -447 -453 -471 0
411 435 453 513 537 555 0
-411 -435 -453 -465 -555 0
411 435 453 471 0
-411 -435 -453 -471 0
411 435 459 489 513 549 0
411 435 465 507 519 555 0
-411 -437 -439 -481 -495 -529 -545 0
411 437 475 505 507 529 545 0
-411 -437 -483 -503 -505 -531 -535 0
411 437 499 501 529 531 545 0
-411 -445 -461 -465 -511 -555 -563 0
411 447 513 531 561 573 0
-411 -447 -513 -531 -561 -573 0
411 447 471 495 501 525 543 0
-411 -447 -471 -495 -501 -525 -543 0
411 447 489 495 513 519 0
-411 -447 -489 -495 -513 -519 0
411 453 555 561 573 0
-411 -453 -555 -561 -573 0
411 453 471 519 525 567 573 0
-411 -453 -471 -519 -525 -567 -573 0
-411 -465 -471 -495 -501 0
-411 -465 -483 -519 -555 -567 0
411 465 501 519 525 573 598 0
411 471 489 531 537 555 561 0
411 471 501 507 519 0
-411 -471 -501 -507 -519 0
-411 -474 -519 -522 -525 -558 -600 0
-411 -477 -489 -495 -513 -531 -561 0
-411 -483 -529 -531 -551 -569 -571 0
411 483 493 495 497 551 553 0
411 489 513 525 567 0
411 489 525 537 549 561 573 0
-411 -489 -525 -537 -549 -561 -573 0
411 489 495 507 525 567 0
-411 -489 -495 -507 -525 -567 0
-411 -495 -501 -519 -525 -573 -598 0
411 495 505 511 527 543 0
411 498 537 555 576 0
-156 -165 -213 -264 -279 -312 0
-156 -198 -300 -336 -390 -426 -504 0
156 222 282 318 378 426 438 0
-156 -222 -282 -318 -378 -426 -438 0
156 222 240 336 366 0
-412 -530 -532 -546 -550 -554 0
157 285 323 331 453 539 547 0
-157 -285 -323 -331 -453 -539 -547 0
-157 -205 -247 -313 -349 -397 -457 0
413 437 443 467 479 539 0
-414 -538 -554 -556 -570 -572 0
414 420 426 450 0
414 420 504 534 540 576 0
414 426 432 462 522 558 600 0
-414 -426 -432 -462 -522 -558 -600 0
414 426 444 510 522 528 564 0
-414 -426 -444 -510 -522 -528 -564 0
-414 -432 -450 -456 0
-414 -432 -453 -477 0
414 438 474 516 558 0
-414 -438 -474 -516 -558 0
414 444 552 570 576 0
414 456 462 528 558 570 0
-414 -456 -462 -528 -558 -570 0
-414 -456 -468 -474 -510 -576 0
-414 -460 -461 -469 -471 -523 -542 0
-414 -474 -498 -516 -558 0
414 492 516 534 570 576 0
-414 -492 -516 -534 -570 -576 0
-159 -199 -225 -227 -241 -251 -345 0
-159 -206 -241 -306 -412 -443 -549 0
-159 -235 -263 -357 -443 -451 -501 0
-159 -237 -285 -381 -423 -471 -561 0
159 245 283 339 365 457 582 0
159 255 327 339 459 471 561 0
-415 -417 -425 -451 -471 -473 -477 0
415 425 495 509 521 553 598 0
415 427 453 479 497 525 541 0
415 435 437 465 533 547 0
415 437 487 501 541 545 549 0
416 425 434 482 503 0
-416 -479 -530 -545 -566 -569 0
-161 -165 -265 -347 -357 -391 -489 0
161 189 277 333 409 461 507 0
161 247 344 363 454 467 586 0
417 519 531 561 567 573 0
-417 -420 -465 -483 -510 -555 -570 0
417 423 429 453 465 477 0
-417 -423 -429 -453 -465 -477 0
-417 -427 -431 -446 -460 -471 -474 0
417 429 435 519 555 567 573 0
-417 -429 -435 -465 -561 -567 -573 0
417 429 447 465 513 525 537 0
417 435 453 519 525 0
-417 -435 -489 -525 -561 0
417 453 459 471 531 0
-417 -453 -459 -471 -531 0
417 465 477 537 543 549 561 0
-417 -465 -477 -537 -543 -549 -561 0
417 471 477 495 519 567 0
417 471 483 507 519 525 0
417 489 495 525 549 0
-417 -489 -495 -525 -549 0
417 489 501 507 513 525 567 0
417 489 507 555 561 567 0
417 493 505 507 515 525 563 0
417 497 515 525 535 561 0
-417 -497 -515 -525 -535 -561 0
417 499 503 521 525 549 0
162 186 276 378 420 516 0
-162 -189 -261 -297 -342 -450 -537 0
-162 -204 -300 -336 -456 -552 -576 0
-162 -216 -234 -306 -408 -420 -504 0
-418 -538 -540 -542 -560 -574 -576 0
418 444 482 516 520 0
-163 -241 -247 -295 -457 -529 -535 0
-419 -434 -437 -440 -479 -554 0
419 437 443 479 545 563 0
-419 -437 -461 -473 -491 -533 0
419 497 521 527 551 0
-419 -497 -521 -527 -551 0
420 426 450 474 498 510 558 0
420 426 468 516 540 570 0
-420 -426 -474 -534 -570 -576 0
420 426 492 498 504 540 0
-420 -426 -492 -498 -504 -540 0
420 426 498 522 540 546 0
420 432 450 510 558 576 0
-420 -432 -450 -510 -558 -576 0
420 435 441 453 456 0
420 438 468 516 528 540 0
-420 -438 -468 -516 -528 -540 0
420 444 456 534 540 0
-420 -444 -486 -492 -504 -522 -528 0
-420 -444 -492 -498 -504 -552 -600 0
-420 -446 -538 -550 -552 -560 -564 0
-420 -450 -474 -498 -522 -534 0
420 450 486 510 528 540 552 0
-420 -462 -480 -492 -504 -546 0
420 462 510 516 552 558 564 0
-420 -462 -510 -516 -552 -558 -564 0
420 468 534 540 570 576 0
420 474 492 516 528 534 552 0
-420 -474 -492 -498 -528 0
-420 -480 -498 -516 -528 0
-420 -480 -504 -516 -522 -576 -600 0
420 486 516 528 570 576 0
-420 -486 -498 -516 -528 -564 0
-420 -486 -504 -516 -564 -576 0
420 492 498 522 540 546 0
420 492 504 510 534 540 0
-420 -492 -504 -510 -534 -540 0
420 498 504 528 546 0
-420 -498 -504 -528 -546 0
165 169 213 287 373 377 381 0
-165 -192 -207 -213 -252 -276 0
165 192 207 213 252 276 348 0
165 193 243 281 289 305 435 0
-165 -201 -267 -315 -321 -339 -417 0
165 207 213 309 393 495 507 0
-165 -207 -213 -309 -393 -495 -507 0
165 213 240 300 333 411 480 0
165 240 249 324 420 465 555 0
421 435 485 491 505 513 535 0
-421 -435 -485 -491 -505 -513 -535 0
421 437 447 451 453 455 0
421 439 451 463 475 0
-421 -491 -503 -535 -549 -559 -561 0
-422 -446 -542 -548 -554 -566 0
-423 -441 -453 -519 -531 -543 -567 0
168 258 294 306 402 546 570 0
-168 -276 -282 -300 -348 -444 -480 0
-168 -174 -192 -240 -264 0
168 201 210 213 294 342 363 0
-168 -201 -210 -213 -294 -342 -363 0
168 222 228 330 378 480 0
-168 -222 -228 -330 -378 -480 0
-168 -228 -276 -294 -324 -348 0
-168 -234 -246 -258 -270 -306 -378 0
168 240 252 348 408 420 581 0
168 246 252 264 288 300 0
168 252 261 333 432 504 519 0
-424 -540 -554 -560 -574 -576 0
-169 -249 -263 -307 -339 -407 -433 0
-425 -530 -533 -551 -554 -563 -572 0
425 429 499 503 511 525 537 0
425 431 437 473 485 545 0
425 435 437 439 447 493 495 0
425 437 443 485 497 545 0
-425 -443 -485 -509 -545 0
-425 -453 -535 -537 -539 -561 -571 0
-425 -455 -491 -509 -527 0
425 471 529 535 549 551 563 0
-425 -473 -485 -509 -515 -527 0
-425 -477 -505 -515 -535 -537 -573 0
-425 -485 -509 -515 -527 -569 0
425 491 537 543 545 547 0
-425 -491 -537 -543 -545 -547 0
-426 -534 -540 -556 -566 -568 0
-426 -429 -450 -465 -468 -570 0
426 432 492 498 504 546 0
-426 -432 -492 -498 -504 -546 0
-426 -441 -468 -561 -564 -576 0
426 444 498 504 546 558 0
426 450 456 534 540 552 0
-426 -450 -456 -534 -540 -552 0
-426 -450 -468 -516 -546 -564 0
426 450 480 540 0
-426 -450 -480 -540 0
426 450 480 498 558 0
-426 -450 -480 -498 -558 0
426 450 510 528 546 600 0
426 456 552 564 576 0
426 456 468 492 0
-426 -456 -468 -492 0
426 456 498 516 528 540 0
426 460 484 494 498 500 520 0
426 462 474 504 522 546 0
426 462 498 522 528 576 0
-426 -462 -498 -522 -528 -576 0
426 468 498 504 528 0
-426 -468 -498 -504 -528 0
426 474 534 546 570 576 0
-426 -474 -480 -522 -540 -552 -570 0
426 474 498 528 558 0
-426 -474 -498 -528 -558 0
426 480 498 504 558 0
-426 -486 -492 -504 -528 -576 0
426 492 516 540 564 0
-426 -492 -516 -540 -564 -576 0
426 492 498 516 522 546 0
-426 -492 -498 -516 -522 -546 0
426 492 498 522 540 552 0
426 492 498 504 537 543 549 0
426 498 516 522 546 570 576 0
426 498 534 540 546 558 0
426 498 534 546 570 576 0
-426 -498 -534 -546 -570 -576 0
-426 -510 -516 -522 -552 -570 0
426 510 540 552 558 0
-426 -510 -540 -552 -558 0
171 251 363 373 419 513 571 0
427 541 553 571 0
-427 -429 -489 -513 -521 -533 -559 0
427 437 441 503 547 549 551 0
-427 -437 -453 -489 -539 -561 -571 0
427 437 485 507 511 531 563 0
427 447 509 543 553 567 0
-427 -447 -509 -543 -553 -567 0
427 467 477 503 519 541 567 0
427 489 491 501 515 553 0
-427 -495 -505 -507 -551 0
-428 -442 -456 -460 -532 -542 -546 0
-173 -191 -251 -263 -311 -347 -371 0
429 435 465 507 513 531 555 0
-429 -435 -465 -507 -513 -531 -555 0
-429 -437 -501 -517 -529 -551 -567 0
-429 -439 -465 -479 -563 -567 -571 0
-429 -441 -495 -531 -543 0
429 447 465 471 561 0
-429 -447 -465 -471 -561 0
-429 -453 -507 -513 -537 -555 -561 0
429 471 483 507 0
-429 -471 -483 -507 0
-429 -471 -495 -519 -531 -555 -567 0
429 483 495 531 543 573 0
-429 -483 -495 -531 -543 -573 0
429 489 495 525 537 543 0
-429 -489 -495 -525 -537 -543 0
429 491 531 535 545 547 549 0
429 492 507 513 561 0
-429 -492 -507 -513 -561 0
429 495 503 515 535 541 543 0
429 503 505 513 551 571 0
174 192 228 240 264 336 0
-174 -246 -276 -378 -456 -498 -540 0
175 207 263 337 351 407 541 0
431 457 471 525 527 547 569 0
431 465 471 473 475 541 545 0
-431 -479 -533 -551 -569 -575 0
-432 -456 -468 -480 -546 -552 -576 0
432 474 540 546 558 0
-177 -180 -261 -276 -324 -339 -345 0
177 186 207 282 324 462 477 0
177 192 240 255 270 276 285 0
177 199 251 363 433 437 549 0
177 203 247 345 359 361 453 0
177 213 291 417 489 513 0
-177 -213 -291 -417 -489 -513 0
-177 -219 -231 -285 -309 -321 0
-177 -229 -263 -331 -381 -399 -407 0
433 515 561 565 569 0
-433 -515 -561 -565 -569 0
-433 -466 -484 -517 -529 -553 0
433 471 473 501 519 547 551 0
179 207 301 353 445 477 575 0
-179 -207 -301 -353 -445 -477 -575 0
-179 -207 -229 -289 -305 -309 -431 0
179 221 227 305 317 323 395 0
435 441 453 465 495 501 531 0
-435 -451 -495 -497 -519 -533 -553 0
-435 -453 -519 -525 -531 -567 0
-435 -453 -456 -465 -480 -519 -558 0
-435 -453 -495 -513 -519 0
-435 -465 -471 -489 -513 -555 -561 0
435 467 483 493 495 497 535 0
435 471 525 549 567 0
-435 -471 -525 -549 -567 0
435 483 527 545 553 555 0
435 485 489 495 515 529 541 0
435 489 507 509 515 529 541 0
435 501 549 561 0
-435 -501 -549 -561 0
-435 -505 -527 -545 -549 -555 0
-435 -507 -519 -525 -555 0
-180 -186 -204 -300 -408 -420 -492 0
-180 -189 -213 -324 -417 -507 -599 0
-180 -201 -240 -345 -456 -519 -576 0
-180 -204 -258 -294 -360 -402 0
180 222 270 294 378 414 474 0
-436 -446 -465 -505 -533 -546 -572 0
-436 -465 -495 -529 -539 -546 -566 0
436 484 514 526 574 0
-436 -490 -532 -556 -568 0
-437 -439 -447 -461 -505 -507 -575 0
437 441 517 527 537 561 0
437 447 507 513 529 533 553 0
437 453 513 529 549 551 571 0
-437 -471 -475 -505 -519 -575 0
437 471 499 501 519 541 545 0
-437 -471 -499 -501 -519 -541 -545 0
437 473 485 491 545 551 0
-437 -477 -493 -543 -545 -567 -571 0
437 485 488 491 497 512 0
437 485 497 527 545 551 0
-437 -489 -497 -511 -517 -527 -537 0
437 493 525 535 551 0
-437 -493 -525 -535 -551 0
437 497 505 507 509 511 513 0
437 499 515 535 537 551 561 0
437 499 501 529 531 545 557 0
437 501 535 549 551 569 0
437 509 515 553 555 561 565 0
-437 -509 -515 -553 -555 -561 -565 0
-183 -261 -285 -345 -357 -405 -429 0
183 207 225 231 309 333 387 0
439 445 475 523 535 0
439 459 461 507 511 513 575 0
440 484 490 498 506 510 518 0
-185 -189 -211 -249 -287 -345 -379 0
441 447 501 525 531 0
-441 -447 -501 -525 -531 0
-441 -453 -483 -489 -501 -507 0
-441 -453 -507 -543 -567 0
441 465 513 531 537 598 0
-441 -465 -513 -531 -537 -598 0
441 465 471 513 537 561 0
441 465 507 519 555 561 0
-441 -465 -507 -519 -555 -561 0
441 471 513 537 555 561 0
-441 -471 -513 -537 -555 -561 0
441 475 497 513 535 551 0
441 479 483 499 503 535 539 0
-441 -479 -483 -499 -503 -535 -539 0
-441 -497 -513 -531 -535 -551 0
186 198 330 366 414 516 0
-186 -198 -234 -330 -336 -414 -426 0
186 200 205 303 472 498 569 0
-186 -210 -279 -330 -333 -366 0
186 216 276 372 480 558 576 0
186 222 228 237 249 285 0
186 246 300 342 390 0
-186 -246 -300 -342 -390 0
442 494 512 516 522 526 0
187 207 329 373 435 529 569 0
-187 -217 -241 -247 -295 -361 -391 0
443 517 519 561 569 571 575 0
-443 -517 -519 -561 -569 -571 -575 0
443 451 465 541 545 555 598 0
444 453 477 498 525 549 552 0
-444 -453 -477 -498 -525 -549 -552 0
189 243 267 315 327 351 471 0
446 482 506 512 524 0
191 267 277 325 329 351 461 0
191 203 245 305 437 497 0
191 203 245 323 395 443 0
-447 -453 -468 -501 -543 -576 0
447 453 471 489 501 567 0
-447 -453 -471 -489 -501 -567 0
447 465 489 513 555 561 0
-447 -465 -489 -513 -555 -561 0
192 270 294 306 330 0
192 206 223 315 425 460 528 0
-192 -210 -222 -234 -270 -294 -306 0
192 210 246 330 378 474 0
192 216 246 294 306 396 0
192 243 276 285 330 375 420 0
-193 -261 -317 -325 -401 -433 -435 0
-193 -307 -355 -415 -427 -475 -535 0
193 333 371 429 475 499 515 0
193 335 373 381 471 479 565 0
-193 -351 -377 -425 -475 -499 -525 0
-193 -199 -223 -241 -247 -283 -295 0
-193 -201 -351 -377 -421 -473 -598 0
-193 -204 -251 -301 -308 -309 -316 0
193 243 257 261 341 375 379 0
-450 -468 -516 -546 -564 0
-195 -321 -369 -417 -441 -537 -549 0
-195 -363 -435 -453 -531 -561 0
195 207 213 273 321 0
195 207 213 285 0
195 207 213 237 243 0
195 213 261 291 315 0
195 228 294 327 363 378 0
451 481 489 491 507 539 553 0
452 482 494 496 504 522 526 0
197 241 351 371 443 451 471 0
453 513 545 547 0
-453 -513 -545 -547 0
-453 -515 -535 -541 -545 -549 -561 0
453 459 477 525 549 0
-453 -459 -477 -525 -549 0
453 461 475 501 551 571 573 0
453 462 477 498 567 573 576 0
-453 -465 -525 -543 -555 -573 0
453 465 471 513 549 573 0
-453 -465 -471 -513 -549 -573 0
453 465 489 495 513 519 0
-453 -465 -489 -495 -513 -519 0
453 465 501 519 531 543 549 0
-453 -465 -501 -519 -531 -543 -549 0
453 468 501 543 576 0
453 471 489 555 561 0
-453 -471 -489 -555 -561 0
453 474 498 534 540 543 549 0
453 477 483 489 501 519 0
-453 -477 -483 -489 -501 -519 0
453 485 513 547 551 571 573 0
453 485 501 535 543 551 559 0
453 489 507 525 537 561 0
-453 -489 -507 -525 -537 -561 0
453 491 553 559 567 573 575 0
453 495 513 561 573 0
-453 -495 -513 -561 -573 0
-453 -495 -501 -504 -537 -552 -564 0
453 495 507 513 531 537 0
453 497 533 535 537 553 561 0
-453 -497 -533 -535 -537 -553 -561 0
-453 -497 -501 -505 -515 -537 -565 0
453 507 519 561 567 573 0
-453 -507 -519 -561 -567 -573 0
198 348 372 468 474 534 564 0
198 201 210 216 225 252 0
198 204 216 228 276 0
-198 -222 -228 -234 -270 0
-198 -225 -249 -294 -309 -396 -435 0
-198 -246 -294 -300 -306 -318 0
-199 -285 -319 -321 -323 -329 -459 0
199 287 305 309 397 471 497 0
-199 -287 -305 -309 -397 -471 -497 0
199 294 365 400 465 487 560 0
199 325 339 377 397 461 0
-199 -342 -365 -435 -472 -512 -553 0
-455 -461 -485 -509 -545 0
-200 -205 -213 -221 -256 -294 -319 0
200 219 283 316 323 324 417 0
-200 -227 -269 -275 -284 -296 -323 0
-456 -474 -492 -498 -504 -522 0
-456 -474 -504 -534 -540 -546 0
-456 -507 -510 -516 -519 -522 -567 0
201 257 297 379 391 395 489 0
-201 -257 -303 -311 -331 -335 0
-201 -279 -303 -309 -471 0
201 279 321 417 483 531 593 0
201 287 295 339 443 529 555 0
201 301 305 307 309 329 375 0
-201 -303 -311 -355 -397 -405 -431 0
-201 -339 -357 -381 -435 -459 -477 0
201 339 369 441 471 561 0
-201 -378 -381 -384 -426 -465 -477 0
-201 -204 -213 -252 -306 -315 0
201 207 213 261 279 0
-201 -207 -213 -285 -303 -309 0
201 207 246 258 279 282 0
-201 -207 -246 -258 -279 -282 0
-201 -211 -221 -323 -369 -391 -461 0
201 213 267 309 327 333 411 0
201 220 324 371 379 393 440 0
-201 -221 -357 -367 -391 -443 -489 0
-201 -228 -276 -330 -345 -381 -384 0
-201 -228 -237 -240 -270 -276 0
201 231 279 351 375 447 471 0
-201 -241 -315 -323 -397 -431 -483 0
-201 -249 -255 -267 -315 -363 -369 0
202 265 277 349 364 367 370 0
-202 -370 -376 -382 0
-202 -213 -294 -323 -397 -513 -542 0
-203 -263 -305 -329 -353 -401 -407 0
203 279 339 349 377 389 421 0
-203 -313 -329 -363 -411 -433 -569 0
203 315 325 431 477 511 527 0
-203 -317 -321 -331 -419 -457 -471 0
203 207 238 300 308 339 355 0
203 236 257 305 338 350 389 0
459 465 525 531 598 0
459 471 495 573 0
-459 -471 -495 -573 0
-204 -258 -270 -294 -300 0
204 270 294 300 348 360 402 0
204 324 336 366 432 462 522 0
-204 -324 -336 -366 -432 -462 -522 0
204 210 213 246 285 0
-204 -210 -213 -246 -285 0
-204 -210 -246 -264 -282 -294 -312 0
-204 -213 -231 -255 -258 0
204 222 294 330 342 366 390 0
-204 -234 -294 -306 -330 -366 0
-204 -243 -264 -276 -279 -285 0
204 246 342 366 384 480 0
205 261 263 363 371 379 451 0
-205 -275 -315 -421 -437 -495 -541 0
205 299 309 415 453 527 571 0
-205 -315 -323 -475 -477 -515 -571 0
-205 -331 -406 -469 -526 -547 -589 0
205 221 317 363 415 513 527 0
-205 -235 -301 -313 -421 -445 0
205 241 319 391 487 0
-205 -251 -313 -321 -369 -371 -391 0
-461 -479 -485 -509 0
461 495 497 547 549 551 565 0
-206 -366 -382 -452 -474 -568 -572 0
206 235 322 381 396 419 499 0
-207 -268 -346 -349 -350 -371 -384 0
-207 -273 -291 -321 -393 -411 -525 0
-207 -283 -315 -317 -389 -469 -519 0
207 285 297 309 393 417 561 0
-207 -285 -297 -309 -393 -417 -561 0
207 286 294 305 457 458 555 0
-207 -309 -375 -393 -417 -429 -495 0
207 315 345 465 513 531 0
-207 -315 -411 -471 -507 -561 0
-207 -321 -345 -393 -411 -465 0
207 339 357 369 381 465 0
-207 -339 -357 -369 -381 -465 0
-207 -357 -366 -456 -471 -501 -576 0
207 210 234 246 249 258 279 0
-207 -210 -234 -246 -249 -258 -279 0
207 213 279 345 351 357 0
-207 -228 -240 -285 -288 0
-207 -229 -275 -307 -333 -397 -407 0
-207 -229 -315 -359 -421 -425 -519 0
-207 -231 -243 -246 -288 -294 -303 0
-207 -237 -279 -291 -339 -351 -375 0
207 237 291 315 363 387 471 0
207 240 306 387 396 525 552 0
207 249 303 327 351 411 459 0
463 471 485 517 521 529 567 0
-463 -471 -485 -517 -521 -529 -567 0
-208 -220 -232 -280 -292 -298 -340 0
208 251 300 440 513 574 595 0
-209 -265 -309 -389 -427 -485 -513 0
209 266 308 326 329 0
-209 -267 -313 -333 -403 -413 -483 0
209 277 327 329 331 459 475 0
209 347 371 437 455 461 551 0
-209 -210 -212 -277 -317 -340 -351 0
209 213 355 431 465 515 535 0
-209 -213 -355 -431 -465 -515 -535 0
209 241 295 339 443 465 535 0
-209 -243 -329 -331 -399 -541 -545 0
-209 -254 -260 -356 -365 -371 -380 0
-465 -471 -477 -495 -519 -531 -567 0
465 471 495 525 555 573 0
465 477 483 519 555 573 598 0
465 477 495 519 567 0
-465 -477 -495 -507 -513 -561 0
-465 -478 -499 -532 -551 -572 -576 0
465 481 535 543 545 551 567 0
465 483 507 525 561 0
-465 -483 -507 -525 -561 0
465 485 505 511 525 537 0
465 489 509 515 531 535 571 0
465 491 493 527 537 571 0
465 493 503 533 549 573 0
-465 -493 -503 -533 -549 -573 0
465 495 519 537 567 0
-465 -495 -519 -537 -573 0
465 501 525 531 543 549 0
-465 -501 -525 -531 -543 -549 0
465 507 537 549 561 0
-465 -507 -537 -549 -561 0
465 511 513 517 533 561 569 0
210 261 273 276 285 0
-210 -261 -273 -276 -285 0
210 270 276 282 288 0
210 276 336 384 420 474 516 0
210 279 294 339 393 402 0
210 213 219 252 261 264 0
-210 -216 -336 -384 -408 -468 -576 0
210 216 240 294 306 360 408 0
-210 -228 -234 -336 -378 0
-210 -228 -255 -291 -297 -306 -390 0
210 240 276 288 312 336 384 0
211 255 325 329 423 437 565 0
-212 -340 -342 -436 -470 -566 -576 0
-468 -513 -516 -546 -561 -564 0
-468 -474 -486 -516 -534 -570 -576 0
468 474 486 522 534 558 0
-468 -474 -486 -522 -534 -558 0
468 474 498 504 510 570 0
468 483 492 498 501 504 537 0
468 486 522 570 576 0
-468 -486 -492 -522 -534 -564 0
-468 -492 -522 -552 -570 0
468 498 540 576 0
468 498 507 537 540 0
-213 -263 -295 -327 -397 -401 -489 0
-213 -264 -294 -369 -408 -435 -498 0
213 265 345 371 391 479 537 0
-213 -265 -345 -371 -391 -479 -537 0
213 267 309 345 357 399 441 0
213 269 307 377 381 451 479 0
213 277 291 301 305 395 451 0
-213 -277 -305 -325 -385 -411 -431 0
213 279 291 309 333 393 0
-213 -281 -307 -381 -383 -391 -393 0
-213 -289 -365 -385 -437 -441 -507 0
-213 -295 -309 -383 -391 -465 -590 0
213 295 347 393 395 505 507 0
213 303 345 387 393 483 519 0
213 303 363 375 0
213 307 383 393 535 575 585 0
-213 -307 -383 -393 -535 -575 -585 0
-213 -309 -331 -383 -389 -391 -399 0
-213 -315 -375 -411 -447 -471 0
-213 -317 -329 -367 -369 -415 -417 0
213 334 341 385 446 450 537 0
-213 -343 -345 -383 -417 -431 -457 0
-213 -216 -333 -348 -390 -453 -546 0
213 222 270 282 0
-213 -222 -270 -282 0
-213 -222 -228 -234 -300 -345 0
-213 -228 -291 -294 -336 -414 -471 0
-213 -229 -305 -309 -313 -353 -357 0
213 229 333 371 379 0
-213 -230 -283 -286 -324 -335 -367 0
213 237 246 258 0
-213 -237 -246 -258 0
-213 -241 -263 -351 -353 -379 -381 0
213 245 349 399 425 503 565 0
-213 -245 -349 -399 -425 -503 -565 0
213 246 258 276 0
213 246 300 309 381 0
-213 -246 -300 -309 -381 0
-213 -247 -313 -323 -387 -397 -407 0
213 249 309 357 375 381 477 0
213 249 339 369 381 0
-213 -249 -339 -369 -381 0
213 249 252 258 264 267 0
213 255 285 345 369 465 0
-213 -255 -285 -345 -369 -465 0
-213 -255 -309 -345 -411 0
-214 -364 -376 -442 -472 0
-215 -315 -373 -425 -465 -521 -565 0
471 513 519 537 555 561 0
-471 -513 -519 -537 -555 -561 0
471 519 537 543 549 0
-471 -519 -537 -543 -549 0
-471 -521 -545 -549 -553 -555 0
-471 -477 -483 -507 -513 -561 0
471 477 489 501 513 549 0
-471 -477 -489 -501 -513 -549 0
-471 -483 -495 -513 -561 0
-471 -489 -537 -561 -567 0
-471 -493 -521 -535 -543 -573 -575 0
471 493 495 515 545 0
-471 -493 -495 -515 -545 0
-471 -495 -513 -519 -525 -537 0
-471 -501 -507 -519 -549 0
-471 -505 -519 -525 -541 -545 -551 0
216 267 339 348 411 414 459 0
216 294 300 312 318 348 0
216 342 384 450 456 540 546 0
-216 -222 -330 -336 -414 -468 -564 0
216 222 330 342 366 0
-216 -222 -234 -252 -294 -306 -324 0
-216 -234 -330 -366 -402 -474 0
217 335 381 403 425 541 567 0
-474 -522 -534 -552 -576 0
474 492 516 576 0
-474 -492 -516 -576 0
474 492 540 546 558 0
-474 -498 -504 -510 -534 -570 0
474 504 522 534 540 546 0
219 261 357 363 435 0
219 263 313 401 411 493 531 0
-219 -279 -291 -315 -345 -387 -459 0
219 285 345 417 453 549 0
-219 -285 -345 -417 -453 -549 0
219 294 321 378 393 396 423 0
-219 -300 -309 -393 -402 -444 -501 0
219 375 399 423 429 549 0
-219 -375 -399 -423 -429 -549 0
-219 -221 -223 -279 -289 -303 0
219 225 234 291 294 363 0
219 225 234 246 291 294 0
219 229 295 323 363 389 465 0
-219 -231 -255 -273 -327 -339 -351 0
219 237 363 387 489 561 0
-219 -249 -261 -279 -285 0
475 484 490 499 535 571 0
-475 -484 -490 -499 -535 -571 0
-475 -495 -497 -533 -541 -553 -555 0
-221 -260 -347 -350 -356 -461 -476 0
-221 -261 -319 -341 -415 -459 -557 0
221 265 351 361 383 459 461 0
221 305 341 395 0
-221 -313 -326 -378 -399 -425 -430 0
221 333 379 395 403 525 551 0
221 351 373 431 475 495 503 0
-221 -351 -373 -431 -475 -495 -503 0
-221 -247 -323 -333 -415 -555 -563 0
-477 -513 -525 -549 -555 -561 0
-477 -495 -507 -513 -555 -561 0
477 495 507 519 531 567 0
-477 -495 -507 -519 -531 -567 0
222 264 330 366 462 480 570 0
-222 -264 -330 -366 -462 -480 -570 0
-222 -267 -282 -285 -339 -384 0
222 276 384 438 450 480 0
222 312 348 444 456 0
-222 -312 -348 -444 -456 0
-222 -330 -360 -384 -426 -468 -474 0
222 348 396 408 498 552 0
-222 -225 -235 -236 -304 -323 -378 0
-222 -234 -282 -306 -330 -336 -396 0
-222 -237 -249 -270 -276 -330 0
222 240 285 357 363 378 432 0
222 246 264 306 318 342 390 0
222 246 294 300 306 330 366 0
222 252 330 378 390 402 498 0
222 252 336 414 474 528 564 0
-222 -252 -336 -414 -474 -528 -564 0
-223 -261 -315 -323 -385 -497 -513 0
223 301 325 331 355 0
223 322 331 430 439 475 589 0
-223 -326 -327 -436 -473 -528 -559 0
223 339 371 451 465 535 563 0
223 245 261 295 305 339 349 0
479 485 509 515 0
-479 -485 -509 -515 0
225 275 283 295 339 371 435 0
225 291 327 351 363 399 447 0
225 300 357 438 453 492 543 0
-225 -345 -363 -381 -441 -459 0
-225 -353 -379 -471 -475 -525 -551 0
225 373 377 475 477 497 543 0
225 243 249 339 345 351 0
481 525 527 549 563 565 567 0
481 527 547 549 561 563 575 0
481 485 491 505 519 531 543 0
481 487 493 505 529 541 553 0
-481 -487 -505 -535 -547 0
-481 -493 -535 -541 -553 0
-481 -493 -505 -511 -535 -547 -559 0
481 495 497 525 543 551 565 0
-481 -497 -513 -531 -571 0
-481 -499 -501 -503 -519 -573 -575 0
-481 -501 -503 -551 -559 -561 0
481 505 515 519 555 561 569 0
-481 -505 -515 -519 -555 -569 -575 0
481 507 513 515 529 551 0
481 507 525 527 545 551 565 0
-226 -340 -376 -442 -448 -454 0
-482 -532 -546 -550 -552 -556 -566 0
482 490 504 513 539 547 563 0
-482 -490 -504 -513 -539 -547 -563 0
-227 -277 -319 -321 -341 -439 -465 0
227 289 291 341 397 447 503 0
227 289 317 339 397 413 435 0
-227 -301 -329 -375 -435 -445 -461 0
-227 -341 -371 -443 -461 -545 -569 0
227 357 379 431 469 501 527 0
227 363 365 367 435 473 0
-483 -513 -531 -555 -573 0
483 513 537 543 549 573 0
-483 -513 -537 -563 -565 -575 0
483 515 519 531 535 563 565 0
483 515 521 535 541 555 0
483 515 531 535 553 563 565 0
-483 -515 -531 -535 -553 -563 -565 0
483 519 525 561 0
-483 -519 -525 -561 0
483 519 531 537 549 567 0
-483 -519 -531 -537 -555 0
483 519 555 561 567 573 0
-483 -519 -561 -567 -573 0
483 525 551 553 559 0
483 529 549 551 553 0
483 537 543 547 551 565 0
-483 -537 -545 -549 -551 -553 -559 0
483 537 549 555 573 0
-483 -537 -549 -555 -573 0
-483 -485 -515 -519 -535 -543 -553 0
483 485 493 495 517 543 551 0
-483 -485 -495 -505 -547 -575 0
483 485 503 545 549 565 0
-483 -485 -503 -545 -549 -565 0
483 487 513 523 551 0
483 489 513 531 543 0
-483 -489 -513 -531 -543 0
483 489 523 537 551 563 571 0
-483 -489 -523 -551 -563 -571 0
483 489 527 535 565 569 0
-483 -489 -527 -535 -565 -569 0
483 489 491 493 515 553 0
483 489 493 503 527 565 0
-483 -489 -493 -503 -527 -565 0
483 489 495 513 531 0
-483 -489 -495 -513 -531 0
483 489 495 531 567 0
-483 -489 -495 -531 -567 0
483 489 501 513 561 0
-483 -489 -501 -513 -561 0
-483 -489 -505 -513 -515 -529 -569 0
483 489 507 525 537 549 0
-483 -489 -507 -525 -537 -549 0
-483 -489 -511 -515 -535 -537 -575 0
483 492 495 501 516 537 0
-483 -492 -495 -501 -516 -537 0
-483 -492 -498 -501 -552 -573 -576 0
-483 -492 -507 -516 -552 -561 0
483 495 513 525 543 0
483 495 513 531 549 567 0
-483 -495 -513 -531 -549 -567 0
-483 -495 -513 -537 -543 -549 0
483 495 519 525 555 0
483 495 525 543 561 0
-483 -495 -525 -543 -561 0
483 495 531 549 555 567 0
-483 -495 -531 -549 -555 -567 0
483 495 533 547 551 553 555 0
483 495 537 549 555 567 0
-483 -495 -499 -509 -565 -575 0
483 495 501 519 525 573 598 0
-483 -495 -501 -519 -525 -573 -598 0
-483 -495 -501 -531 -537 -549 -573 0
483 495 501 537 549 573 0
-483 -495 -501 -507 -531 -537 0
483 495 505 547 565 575 0
483 495 507 513 543 561 0
-483 -495 -507 -513 -555 0
483 495 511 525 545 551 559 0
483 495 511 535 551 0
-483 -495 -511 -535 -551 0
-483 -497 -499 -507 -525 -545 -565 0
483 497 505 507 511 533 553 0
-483 -498 -537 -549 -552 -573 0
483 498 549 552 573 0
483 499 517 527 547 551 567 0
-483 -499 -543 -545 -549 -559 0
483 499 503 509 547 567 0
483 501 513 519 555 561 0
-483 -501 -513 -519 -555 -561 0
-483 -501 -513 -525 -531 0
483 501 513 525 549 573 0
483 501 513 537 549 573 0
483 501 513 537 567 0
-483 -501 -513 -537 -567 0
483 501 519 525 549 567 0
-483 -501 -519 -525 -549 -567 0
483 501 525 531 549 567 0
-483 -501 -525 -531 -549 -567 0
483 501 507 519 525 543 0
-483 -501 -507 -519 -525 -543 0
483 503 535 537 551 565 0
483 503 505 507 519 545 0
-483 -503 -505 -507 -519 -545 0
483 505 525 527 535 557 0
483 505 525 527 567 0
483 505 509 543 563 571 0
483 507 513 519 555 0
-483 -507 -513 -519 -555 0
483 507 513 525 549 573 0
483 507 513 531 549 555 0
-483 -507 -513 -531 -549 -555 0
483 507 531 543 573 0
-483 -507 -531 -543 -573 0
483 509 529 533 537 541 555 0
-228 -261 -321 -324 -366 -372 0
-228 -270 -306 -330 -342 -366 -378 0
228 276 282 312 324 336 0
-228 -287 -355 -458 -477 -490 -563 0
228 294 300 348 402 0
228 294 366 378 0
228 231 330 375 471 528 543 0
-228 -237 -243 -267 -270 -285 0
228 246 258 270 276 0
-228 -246 -342 -348 -396 -504 -546 0
-484 -526 -546 -560 -570 -574 0
484 485 516 531 545 565 566 0
-484 -490 -532 -552 -558 -560 -572 0
484 490 492 508 558 572 0
484 492 502 554 558 0
484 492 506 520 522 528 572 0
484 492 506 542 0
-484 -492 -509 -545 -553 -555 -566 0
-484 -493 -529 -553 -565 -568 -574 0
484 496 504 506 520 522 530 0
-484 -502 -546 -566 -576 0
-484 -504 -528 -546 -560 0
-229 -287 -291 -295 -389 -393 -415 0
-229 -299 -321 -391 -441 -443 -505 0
-229 -301 -321 -353 -407 -427 -429 0
-229 -319 -331 -379 -385 -397 -409 0
-229 -325 -355 -391 -397 -493 -499 0
-229 -339 -353 -427 -471 -547 -551 0
229 341 381 451 471 551 571 0
485 515 527 539 545 0
-485 -515 -527 -551 0
-485 -515 -539 -551 -575 0
485 521 533 545 548 566 0
485 525 529 533 571 0
485 525 549 553 563 565 567 0
-485 -525 -549 -553 -563 -565 -567 0
-485 -527 -539 -545 -551 0
485 529 537 545 555 571 0
485 535 537 545 555 571 0
-485 -539 -545 -551 -557 0
-485 -545 -549 -553 -565 -567 0
485 545 551 563 0
-485 -545 -551 -563 0
-485 -489 -497 -505 -549 -553 -555 0
-485 -489 -499 -545 -553 -561 0
-485 -491 -539 -545 -551 -563 0
485 491 545 551 575 0
485 491 497 515 563 0
485 491 501 523 543 559 573 0
485 493 495 507 563 0
-485 -493 -507 -515 -553 -555 0
-485 -493 -509 -517 -555 -561 0
-485 -495 -543 -547 -563 -571 0
-485 -495 -497 -525 -535 -547 0
485 495 497 543 565 571 573 0
485 495 505 541 549 575 0
-485 -495 -511 -529 -535 -545 -567 0
-485 -497 -515 -545 -551 0
485 497 527 545 551 0
-485 -497 -503 -525 -549 -553 -565 0
485 497 503 509 521 533 0
485 499 501 519 535 563 573 0
485 499 505 513 519 561 569 0
485 499 507 551 555 561 0
-485 -499 -507 -551 -555 -561 0
485 501 547 549 561 569 0
485 503 575 0
-485 -503 -575 0
485 503 505 519 559 567 569 0
-485 -503 -509 -545 -569 -575 0
485 505 513 521 525 527 535 0
485 505 513 525 527 535 565 0
-485 -505 -507 -519 -521 -535 -543 0
485 505 507 545 547 567 0
485 507 509 513 519 559 0
-485 -507 -509 -513 -519 -559 0
-485 -509 -515 -551 -575 0
485 509 527 557 575 0
485 509 551 569 575 0
-485 -511 -513 -525 -527 -535 0
486 514 516 520 566 0
486 522 534 540 546 564 0
-486 -522 -534 -540 -546 -564 0
486 522 540 552 576 0
486 522 570 576 0
-486 -522 -570 -576 0
486 534 540 546 558 564 0
-486 -534 -540 -546 -558 -564 0
486 546 552 576 0
-486 -546 -552 -576 0
486 492 516 522 534 540 558 0
486 492 528 546 570 0
486 492 528 546 576 0
-486 -492 -528 -546 -576 0
486 492 540 546 552 570 0
486 492 540 576 0
-486 -492 -540 -576 0
-486 -492 -546 -552 -570 0
486 492 496 528 562 566 572 0
486 492 498 522 534 0
-486 -492 -498 -522 -534 0
486 492 498 522 540 552 0
486 492 498 522 540 558 0
486 492 498 522 558 570 0
-486 -492 -498 -522 -558 -570 0
486 492 498 504 516 534 0
-486 -492 -498 -504 -522 -540 0
486 492 498 510 534 0
-486 -492 -498 -510 -534 0
486 492 504 516 522 570 0
-486 -492 -504 -516 -522 -570 0
486 492 504 522 558 0
-486 -492 -504 -522 -558 0
-486 -492 -504 -534 -558 -576 0
486 492 504 534 570 576 0
-486 -492 -504 -534 -570 -576 0
486 492 504 558 564 576 0
486 492 510 552 558 570 0
-486 -492 -510 -552 -558 -570 0
486 494 496 504 524 548 574 0
486 498 516 522 540 552 0
-486 -498 -516 -522 -540 -552 0
486 498 516 522 540 558 0
-486 -498 -516 -546 -552 -564 0
486 498 540 546 552 558 0
-486 -498 -540 -546 -552 -558 0
486 498 504 528 540 0
-486 -498 -504 -528 -540 0
486 498 504 540 546 558 0
486 498 504 564 0
-486 -498 -504 -564 0
486 498 504 576 0
-486 -498 -504 -576 0
486 498 504 510 552 558 0
486 498 510 516 534 540 0
486 504 516 528 564 576 0
-486 -504 -516 -528 -576 0
-486 -504 -516 -546 -558 -570 0
-486 -504 -522 -528 -576 0
486 504 528 540 558 0
-486 -504 -528 -540 -558 0
-486 -504 -528 -558 -576 0
486 504 552 570 576 0
-486 -504 -552 -570 -576 0
486 504 558 564 576 0
-486 -504 -558 -564 -576 0
-486 -504 -510 -516 -552 -558 0
-486 -510 -516 -528 -540 -552 0
486 510 516 528 558 570 0
-486 -510 -516 -528 -558 -570 0
-486 -510 -516 -546 -558 -570 0
-486 -510 -528 -534 -576 0
231 321 381 393 561 0
-231 -321 -381 -393 -561 0
-231 -345 -367 -371 -395 -457 -537 0
231 249 339 351 363 381 0
-231 -249 -339 -351 -363 -381 0
487 523 531 551 0
-487 -523 -531 -551 0
487 529 535 553 565 0
487 531 545 551 555 571 0
487 535 565 571 0
-487 -535 -565 -571 0
-487 -489 -497 -501 -537 -545 -553 0
-487 -489 -507 -515 -541 -575 0
487 490 511 547 568 571 0
-487 -490 -511 -547 -568 -571 0
-487 -491 -499 -503 -507 -509 -555 0
-487 -493 -553 -559 -565 0
-487 -493 -499 -517 -535 -541 -547 0
-487 -493 -505 -511 -523 -529 0
-487 -495 -515 -521 -543 -545 0
-487 -495 -519 -527 -541 -543 -551 0
-487 -495 -521 -529 -543 -545 0
-487 -495 -505 -515 -545 0
487 499 535 553 0
487 499 509 525 539 555 567 0
-487 -505 -529 -541 -553 0
487 505 509 525 531 543 545 0
487 507 515 519 553 569 0
-487 -507 -515 -519 -553 -569 0
487 509 513 515 555 571 0
487 509 513 519 527 559 561 0
-487 -511 -529 -545 -549 -551 0
-232 -279 -330 -377 -409 -513 -597 0
232 283 346 379 430 463 523 0
232 292 322 325 337 391 400 0
-232 -244 -346 -358 -382 -442 0
232 255 299 403 408 530 531 0
-488 -534 -538 -548 -562 -564 0
-488 -490 -494 -540 -552 -556 -570 0
488 498 502 522 568 0
233 269 359 365 461 473 575 0
-233 -307 -381 -395 -403 -515 -525 0
-233 -247 -291 -323 -415 -419 -435 0
489 513 519 525 555 561 0
-489 -513 -519 -525 -555 -561 0
489 513 519 531 0
-489 -513 -519 -531 0
-489 -513 -519 -531 -561 0
489 513 519 537 549 0
-489 -513 -519 -537 -549 0
-489 -513 -525 -555 -567 0
489 513 531 543 561 0
489 513 543 567 573 0
-489 -513 -543 -567 -573 0
-489 -515 -535 -541 -543 -551 -559 0
-489 -519 -525 -543 -549 0
489 519 525 543 555 0
-489 -519 -525 -543 -555 0
-489 -519 -531 -543 -555 0
489 519 534 549 561 576 0
489 519 561 567 0
-489 -519 -561 -567 0
489 525 531 555 0
-489 -525 -531 -555 0
-489 -525 -537 -555 -567 0
489 525 543 549 555 0
-489 -525 -543 -549 -555 0
-489 -531 -535 -541 -551 -555 -563 0
489 531 543 555 561 0
-489 -531 -543 -555 -561 0
-489 -537 -553 -563 -565 0
489 537 561 567 0
-489 -537 -561 -567 0
-489 -490 -491 -503 -504 -506 -535 0
-489 -491 -495 -509 -529 -571 0
-489 -491 -497 -505 -515 -535 -555 0
-489 -491 -499 -501 -515 -541 -571 0
489 491 499 503 517 531 541 0
-489 -491 -503 -507 -511 -535 -555 0
-489 -491 -505 -515 -535 -549 -555 0
489 491 507 519 535 551 0
-489 -491 -507 -519 -535 -551 0
-489 -491 -507 -537 -563 -571 0
-489 -492 -498 -507 -516 -561 0
489 493 513 521 533 535 555 0
489 493 521 529 531 539 555 0
-489 -493 -523 -527 -549 -551 -565 0
-489 -493 -527 -535 -549 -551 -561 0
489 493 495 527 551 565 0
-489 -493 -495 -527 -551 -565 0
489 493 499 513 515 551 561 0
489 493 499 527 535 549 551 0
489 493 501 545 553 0
-489 -493 -501 -545 -553 0
489 493 507 515 537 553 0
-489 -493 -507 -515 -537 -553 0
-489 -493 -507 -509 -541 -551 -555 0
489 493 509 513 519 547 0
-489 -493 -509 -513 -519 -547 0
-489 -493 -509 -513 -547 -575 0
489 495 513 525 549 0
-489 -495 -513 -525 -549 0
-489 -495 -513 -525 -555 0
489 495 513 561 573 0
-489 -495 -513 -561 -573 0
489 495 519 525 543 0
-489 -495 -519 -525 -543 0
-489 -495 -519 -525 -555 -561 0
489 495 521 525 535 539 0
489 495 525 537 543 567 0
489 495 525 537 549 573 0
-489 -495 -525 -537 -549 -573 0
-489 -495 -525 -537 -567 0
489 495 525 545 551 553 565 0
489 495 555 0
-489 -495 -555 0
489 495 497 509 529 535 557 0
489 495 501 513 519 561 0
489 495 501 519 543 549 0
-489 -495 -501 -519 -543 -549 0
-489 -495 -501 -543 -549 -561 0
489 495 504 531 576 0
-489 -495 -504 -531 -576 0
-489 -495 -507 -513 -519 -537 0
-489 -495 -507 -513 -537 -549 -573 0
489 495 507 531 543 0
-489 -495 -507 -531 -543 0
-489 -497 -525 -535 -541 -545 -573 0
-489 -497 -499 -501 -513 -515 -553 0
489 497 505 517 535 545 561 0
489 497 505 521 525 529 535 0
-489 -498 -507 -513 -549 -576 0
489 499 501 521 525 563 565 0
-489 -499 -501 -525 -541 -545 -551 0
489 499 501 545 563 0
-489 -499 -501 -545 -563 0
-489 -499 -507 -547 -551 -565 -575 0
489 499 509 513 519 521 547 0
489 501 513 519 549 567 0
489 501 513 525 531 0
489 501 513 525 549 567 0
-489 -501 -513 -525 -549 -567 0
-489 -501 -515 -539 -541 -543 -559 0
-489 -501 -519 -531 -543 -573 0
489 501 525 555 561 573 0
489 501 537 549 555 561 0
-489 -501 -505 -515 -523 -527 -551 0
489 501 505 521 529 551 553 0
489 501 507 531 543 573 0
-489 -501 -507 -531 -543 -573 0
489 504 513 540 555 561 564 0
489 505 507 515 523 529 551 0
489 505 507 511 513 515 575 0
489 507 513 519 537 0
489 507 513 519 573 0
-489 -507 -513 -519 -573 0
489 507 513 525 561 573 0
-489 -507 -513 -525 -561 -573 0
489 507 513 531 555 561 573 0
-489 -507 -513 -531 -555 -561 -573 0
489 507 513 543 567 0
489 507 519 525 537 549 561 0
489 507 521 527 555 559 565 0
489 507 525 537 549 573 0
-489 -507 -525 -537 -549 -573 0
-489 -507 -527 -547 -563 -571 0
489 507 531 537 549 573 0
489 507 531 543 561 567 573 0
-489 -507 -543 -555 0
489 507 545 547 551 561 565 0
-489 -507 -549 -555 -561 -567 0
-489 -507 -509 -513 -547 -563 -571 0
-489 -509 -525 -535 -551 -553 -561 0
489 509 511 515 535 553 573 0
-489 -509 -511 -515 -549 -553 -573 0
489 509 511 521 525 529 573 0
489 511 513 545 571 573 575 0
234 260 302 304 322 324 326 0
-234 -261 -276 -339 -351 -384 0
234 270 276 294 342 378 0
-234 -270 -276 -294 -342 -378 0
-234 -276 -285 -300 -345 -381 0
234 276 384 456 462 468 0
-234 -294 -312 -414 -438 -450 0
-234 -312 -384 -420 -456 -516 0
234 320 330 364 400 422 426 0
-234 -336 -342 -432 -546 -576 0
234 348 384 396 456 504 540 0
-234 -356 -370 -444 -476 -532 -576 0
234 237 240 261 276 0
-234 -237 -240 -261 -276 0
234 240 285 309 315 366 468 0
234 246 288 294 330 342 414 0
-234 -246 -288 -294 -330 -342 -414 0
234 246 294 306 312 348 0
-234 -246 -342 -348 -450 0
-234 -252 -270 -294 -306 -330 -342 0
-490 -524 -530 -532 -538 -540 -570 0
-490 -538 -546 -560 -572 -574 -576 0
-490 -546 -556 -564 -566 0
490 493 553 565 0
-490 -493 -553 -565 0
490 494 503 504 525 535 575 0
-490 -498 -502 -526 -560 -576 0
490 504 513 527 547 566 575 0
-490 -504 -513 -527 -547 -566 -575 0
235 275 361 375 437 477 529 0
235 289 301 391 397 445 0
235 315 377 415 477 563 601 0
-235 -315 -377 -415 -477 -563 -601 0
-491 -513 -515 -529 -545 0
-491 -513 -527 -531 -535 -541 -561 0
491 513 535 537 551 553 555 0
491 513 535 537 551 553 575 0
-491 -513 -535 -537 -551 -553 -575 0
491 515 519 535 547 549 0
-491 -515 -519 -561 -565 0
491 515 521 563 0
-491 -515 -521 -563 0
-491 -515 -527 -539 -551 -557 -575 0
491 515 539 545 551 0
491 515 561 565 569 0
491 521 551 563 0
491 527 537 547 555 559 567 0
-491 -527 -541 -543 -567 -571 0
491 527 551 569 0
-491 -533 -551 -563 -575 0
-491 -535 -543 -559 -561 0
491 537 543 545 547 561 0
-491 -537 -543 -545 -547 -561 0
491 543 551 571 573 0
-491 -493 -515 -517 -531 -567 -573 0
491 493 499 507 555 575 0
491 493 507 513 527 535 561 0
-491 -493 -511 -521 -531 -543 -567 0
-491 -495 -501 -519 -545 -547 -565 0
-491 -495 -501 -545 -547 -557 -565 0
491 495 505 509 529 531 547 0
491 495 507 519 535 547 563 0
-491 -497 -513 -523 -525 -571 -573 0
-491 -497 -519 -529 -543 -553 0
491 497 551 575 0
-491 -497 -551 -575 0
-491 -497 -503 -515 -563 0
-491 -497 -503 -515 -569 0
491 497 503 527 569 575 0
491 499 503 513 537 553 0
491 499 505 519 543 575 0
-491 -499 -505 -519 -543 -575 0
491 503 545 563 575 0
491 503 509 515 527 569 0
491 503 509 575 0
-491 -503 -509 -575 0
491 505 513 519 557 0
-491 -505 -513 -519 -557 0
-491 -505 -515 -531 -549 -565 0
491 505 515 537 547 573 0
491 505 515 571 573 0
491 505 531 541 543 551 0
491 505 535 543 549 551 567 0
-491 -505 -535 -543 -549 -551 -567 0
-491 -505 -543 -553 -555 -567 -575 0
491 505 543 571 573 0
-491 -505 -543 -571 -573 0
-491 -505 -507 -515 -517 -529 -537 0
-491 -505 -509 -511 -529 -549 -561 0
-491 -507 -529 -555 -571 0
491 507 537 551 565 571 0
-491 -507 -509 -517 -565 -567 0
-491 -507 -509 -511 -513 -527 -541 0
-491 -507 -509 -511 -513 -541 0
-491 -507 -509 -511 -525 -545 -565 0
491 507 511 535 541 545 555 0
-491 -509 -527 -541 -543 -567 0
491 509 527 551 0
-491 -509 -527 -551 0
-491 -509 -535 -537 -541 -545 0
-491 -509 -537 -541 -553 -563 0
491 511 517 527 543 573 575 0
-491 -511 -517 -531 -567 -569 -573 0
-491 -511 -543 -563 -571 -573 0
492 513 525 528 555 561 0
-492 -513 -525 -528 -555 -561 0
492 516 522 552 558 0
-492 -516 -522 -552 -558 0
492 516 522 564 576 0
-492 -516 -522 -564 -576 0
-492 -516 -528 -546 -552 -564 0
492 516 540 546 552 0
-492 -516 -540 -546 -552 0
492 516 540 570 576 0
-492 -516 -540 -570 -576 0
-492 -522 -534 -552 -570 -576 0
492 526 528 530 548 574 0
492 528 540 546 558 0
-492 -528 -546 -564 -570 -576 0
-492 -531 -537 -555 -561 -576 0
492 531 537 561 564 576 0
-492 -540 -546 -552 -576 0
492 540 558 576 0
492 546 552 576 0
-492 -546 -552 -576 0
492 546 564 570 576 0
492 494 496 498 504 526 554 0
492 494 498 506 518 526 562 0
492 495 519 558 567 0
-492 -495 -519 -558 -567 0
492 495 525 537 576 0
-492 -495 -525 -537 -576 0
-492 -495 -498 -528 -549 -567 0
492 495 510 519 549 0
492 498 516 540 558 0
-492 -498 -516 -546 -564 -570 0
492 498 516 576 0
-492 -498 -516 -576 0
492 498 522 528 552 564 0
492 498 522 552 570 0
-492 -498 -522 -570 -576 0
492 498 528 534 540 546 552 0
492 498 528 534 546 552 564 0
-492 -498 -528 -534 -558 -570 0
492 498 531 543 567 570 0
-492 -498 -531 -543 -567 -570 0
492 498 534 540 552 564 570 0
492 498 546 576 0
-492 -498 -546 -576 0
492 498 504 522 534 0
-492 -498 -504 -522 -534 0
492 498 504 522 546 0
-492 -498 -504 -522 -558 0
492 498 504 552 570 0
-492 -498 -504 -552 -570 0
492 498 504 506 514 520 548 0
492 498 504 510 522 552 0
-492 -498 -504 -510 -552 0
492 498 510 540 576 0
-492 -498 -510 -564 -576 0
-492 -504 -513 -531 -561 0
492 504 522 528 534 558 0
-492 -504 -522 -528 -534 -558 0
492 504 522 528 558 576 0
-492 -504 -522 -528 -558 -576 0
492 504 522 534 576 0
-492 -504 -522 -534 -576 0
-492 -504 -522 -546 -570 0
492 504 522 558 564 576 0
492 504 522 558 570 0
-492 -504 -522 -558 -570 0
-492 -504 -525 -531 -534 -537 -570 0
492 504 528 534 546 576 0
-492 -504 -528 -534 -546 -576 0
492 504 528 552 558 564 0
492 504 534 540 546 576 0
-492 -504 -534 -540 -576 0
-492 -504 -534 -546 -552 -570 0
492 504 534 552 564 0
-492 -504 -534 -552 -564 0
-492 -504 -534 -552 -570 0
-492 -504 -534 -564 -570 0
-492 -504 -540 -546 -552 -576 0
492 504 540 546 558 0
-492 -504 -540 -546 -558 0
492 504 540 558 576 0
-492 -504 -540 -558 -576 0
-492 -504 -546 -552 -558 0
492 504 546 564 570 576 0
-492 -504 -552 -558 -564 -576 0
492 504 564 570 576 0
-492 -504 -564 -570 -576 0
492 504 510 516 528 534 576 0
492 504 510 522 576 0
-492 -504 -510 -522 -576 0
492 504 510 546 0
-492 -504 -510 -546 0
492 504 510 558 570 576 0
-492 -504 -510 -558 -570 -576 0
492 510 516 522 540 0
492 510 522 528 564 576 0
492 510 522 552 570 0
492 510 540 552 576 0
-492 -510 -540 -552 -576 0
237 303 309 351 399 435 489 0
237 314 355 406 408 431 573 0
-237 -314 -355 -406 -408 -431 -573 0
237 249 339 351 459 471 549 0
-237 -249 -339 -351 -459 -471 -549 0
-237 -252 -300 -312 -345 -435 0
493 513 515 533 535 555 0
-493 -513 -525 -539 -553 0
-493 -513 -549 -551 -563 -571 -573 0
-493 -513 -551 -555 -557 -567 0
493 515 519 521 523 553 555 0
493 517 535 553 565 0
-493 -517 -535 -553 -565 0
493 519 533 545 547 567 0
-493 -519 -533 -545 -547 -567 0
-493 -519 -545 -547 -561 -567 0
-493 -519 -545 -551 -553 -573 -598 0
493 523 535 559 565 0
-493 -525 -537 -551 -553 -561 -569 0
-493 -529 -541 -547 -553 -565 0
493 529 547 553 0
-493 -529 -553 -565 -571 0
-493 -531 -535 -551 -567 -569 -573 0
493 533 537 543 549 551 565 0
-493 -533 -551 -561 -571 0
493 535 545 561 567 0
-493 -535 -545 -561 -567 0
493 545 551 561 567 571 0
493 549 551 561 567 571 0
493 495 515 535 545 0
493 495 519 535 563 575 0
-493 -495 -519 -535 -563 -575 0
493 495 497 525 531 541 551 0
-493 -495 -497 -499 -525 -539 -567 0
493 495 501 529 549 551 569 0
-493 -495 -501 -505 -545 -553 0
-493 -495 -501 -509 -515 -523 -551 0
493 495 505 525 545 567 575 0
-493 -497 -513 -525 -539 -555 -559 0
-493 -497 -519 -549 -551 -553 -567 0
493 497 543 547 551 555 0
493 497 507 519 521 523 567 0
-493 -497 -507 -523 -525 -551 -567 0
-493 -497 -507 -509 -529 -573 0
-493 -497 -511 -547 -551 -555 0
493 499 513 515 525 541 551 0
493 499 527 537 571 0
-493 -499 -527 -537 -571 0
-493 -499 -529 -541 -565 0
493 499 535 559 0
493 499 501 509 529 543 563 0
-493 -499 -505 -529 -535 0
493 499 505 547 571 0
493 499 511 517 571 0
-493 -499 -511 -517 -571 0
493 499 511 565 571 0
493 501 525 533 535 551 567 0
-493 -501 -525 -533 -535 -551 -567 0
493 501 509 519 525 545 0
-493 -501 -509 -519 -525 -545 0
493 501 509 527 529 543 563 0
493 501 509 511 519 549 563 0
-493 -503 -535 -551 -567 -573 0
493 503 507 515 535 555 0
-493 -505 -529 -535 -553 0
493 505 535 541 553 0
493 505 535 553 565 0
493 505 553 559 565 0
-493 -505 -553 -559 -565 0
493 505 511 571 0
493 507 525 535 551 0
-493 -507 -525 -535 -551 0
-493 -507 -533 -539 -541 -553 -555 0
493 507 509 517 537 0
-493 -507 -509 -517 -537 0
493 509 519 525 545 551 0
-493 -509 -519 -525 -545 -551 0
-493 -509 -527 -537 -541 -573 0
-493 -509 -527 -537 -565 -573 0
493 509 511 519 547 551 555 0
-493 -511 -513 -515 -531 -563 0
-493 -511 -517 -529 -553 -565 0
-493 -511 -523 -553 -559 -571 0
-494 -558 -566 -568 -574 0
494 497 506 509 521 536 0
239 303 313 317 411 425 469 0
495 513 519 525 573 0
-495 -513 -519 -525 -573 0
495 513 519 527 535 545 0
-495 -513 -519 -527 -535 -545 0
495 513 519 543 567 0
-495 -513 -519 -543 -567 0
495 513 519 549 0
-495 -513 -519 -549 0
495 513 519 555 567 0
-495 -513 -519 -555 -567 0
495 513 525 537 561 0
-495 -513 -525 -537 -561 0
495 513 525 549 555 573 0
-495 -513 -525 -549 -567 0
-495 -513 -525 -549 -573 0
495 513 531 555 0
-495 -513 -531 -555 0
495 513 531 561 573 0
495 513 543 555 0
495 513 543 567 573 0
-495 -513 -551 -565 -575 0
-495 -515 -527 -541 -567 -571 0
495 515 529 531 535 539 543 0
-495 -515 -529 -531 -535 -539 -543 0
495 515 541 543 551 565 0
495 516 519 522 525 549 0
495 517 519 535 551 0
-495 -517 -519 -535 -551 0
-495 -517 -525 -545 -553 -569 -573 0
495 517 529 535 551 0
-495 -519 -525 -527 -533 -559 -565 0
495 519 525 535 545 565 0
-495 -519 -525 -535 -545 -565 0
-495 -519 -525 -540 -576 0
495 519 525 555 567 0
-495 -519 -529 -535 -551 -569 -575 0
495 519 531 549 555 567 0
-495 -519 -531 -549 -561 0
495 519 535 549 563 575 0
495 519 537 555 573 0
-495 -519 -537 -555 -573 0
495 523 539 543 545 547 549 0
-495 -523 -549 -551 -553 -573 0
495 525 537 549 567 0
-495 -525 -537 -549 -567 0
-495 -525 -541 -549 -551 -553 0
-495 -525 -543 -555 0
495 525 555 567 0
-495 -525 -555 -567 0
-495 -531 -535 -567 -569 -571 -575 0
-495 -531 -555 -567 -573 0
495 535 541 545 549 575 0
495 537 543 561 0
-495 -537 -543 -561 0
495 537 561 567 0
-495 -537 -561 -567 0
-495 -541 -545 -549 -551 -553 0
-495 -545 -549 -559 -565 -575 0
-495 -545 -551 -553 -565 -567 0
495 549 561 567 0
-495 -549 -561 -567 0
495 555 567 573 0
-495 -555 -567 -573 0
-495 -497 -515 -519 -547 -553 -567 0
-495 -497 -517 -525 -529 -551 0
495 497 517 529 551 0
495 497 499 503 519 557 565 0
495 497 499 509 543 567 571 0
495 497 503 535 543 559 0
-495 -497 -503 -505 -555 0
495 497 505 507 545 553 575 0
-495 -497 -505 -507 -545 -553 -575 0
-495 -498 -525 -549 -564 -567 0
495 498 531 537 540 543 564 0
495 498 504 522 537 540 543 0
-495 -498 -504 -540 -552 -567 0
495 498 504 540 567 0
495 499 517 549 563 575 0
495 499 501 529 549 551 575 0
495 499 501 505 507 527 533 0
495 499 503 515 567 571 0
-495 -499 -507 -545 -547 -551 -569 0
495 499 509 525 541 551 0
-495 -499 -509 -525 -541 -551 0
-495 -499 -509 -551 -565 -567 -573 0
-495 -499 -511 -533 -547 -551 -555 0
495 501 513 519 525 537 0
-495 -501 -513 -519 -525 -537 0
495 501 513 519 531 0
-495 -501 -513 -519 -531 0
495 501 513 525 543 0
-495 -501 -513 -525 -543 0
495 501 513 525 561 0
-495 -501 -513 -525 -561 0
495 501 513 531 537 543 0
495 501 515 519 529 541 551 0
495 501 519 535 551 553 569 0
495 501 525 527 553 575 0
495 501 525 543 555 0
495 501 529 537 545 557 565 0
495 501 505 513 545 553 0
-495 -501 -505 -525 -529 -545 -551 0
495 501 505 525 535 545 563 0
495 501 505 531 533 535 563 0
-495 -501 -507 -513 -525 -573 0
495 501 507 531 543 0
-495 -501 -507 -531 -543 0
495 501 509 511 515 525 571 0
495 503 515 519 553 565 0
495 503 515 535 565 0
495 503 505 519 527 543 571 0
495 503 511 551 573 0
-495 -505 -525 -535 -545 -563 0
495 505 507 531 533 551 0
-495 -505 -507 -533 -551 0
495 505 509 539 553 0
495 507 513 519 525 555 561 0
495 507 513 519 543 0
495 507 513 537 567 0
-495 -507 -513 -537 -567 0
495 507 513 549 561 573 0
-495 -507 -513 -555 -567 0
-495 -507 -515 -521 -535 -545 -553 0
495 507 519 525 531 537 0
-495 -507 -519 -525 -531 -555 0
-495 -507 -519 -525 -555 -561 0
495 507 519 531 543 549 0
495 507 519 531 561 0
495 507 525 531 537 0
495 507 537 549 555 561 0
-495 -507 -537 -549 -555 -561 0
495 507 543 573 0
-495 -507 -543 -573 0
495 509 513 559 571 0
-495 -509 -513 -559 -571 0
495 509 521 543 547 553 0
-495 -509 -521 -543 -547 -553 0
495 509 527 543 547 567 571 0
495 509 529 531 559 0
495 509 567 569 571 0
495 511 519 527 547 549 0
-495 -511 -519 -527 -547 -549 0
495 511 523 537 549 551 0
-495 -511 -523 -537 -549 -551 0
495 511 525 545 551 571 0
495 511 525 547 551 0
-495 -511 -525 -547 -551 0
495 511 529 531 545 0
495 511 539 553 563 567 0
-240 -258 -300 -306 -312 -342 -456 0
240 294 378 426 450 0
-240 -294 -378 -426 -450 -558 0
-240 -346 -348 -364 -368 -458 -480 0
240 246 342 348 366 450 480 0
-240 -255 -264 -267 -273 0
-496 -520 -558 -560 -576 0
-496 -528 -550 -560 -572 -576 0
-241 -256 -322 -349 -397 -505 -568 0
241 286 364 379 457 466 594 0
241 301 355 403 469 493 571 0
241 319 391 487 547 0
-241 -319 -391 -487 -547 0
241 329 345 389 439 459 553 0
241 331 355 367 379 451 0
-497 -513 -519 -551 -565 -571 -573 0
-497 -513 -527 -547 -553 -555 -567 0
497 513 547 549 561 571 0
497 515 551 575 0
-497 -515 -551 -575 0
-497 -519 -531 -535 -571 -575 0
497 519 545 551 553 567 571 0
497 519 545 553 567 571 0
-497 -529 -535 -537 -545 -561 0
-497 -529 -555 -565 -573 -575 0
497 531 543 547 555 575 0
-497 -531 -543 -547 -555 -575 0
497 545 551 557 0
-497 -545 -551 -557 0
497 545 551 563 0
497 499 513 529 549 563 0
497 499 513 551 561 571 0
497 499 519 545 553 555 567 0
-497 -499 -519 -545 -553 -555 -567 0
497 499 521 525 537 565 0
-497 -499 -505 -507 -567 -598 0
-497 -499 -507 -543 -545 -569 0
497 501 519 541 545 559 0
-497 -503 -515 -527 -551 0
-497 -503 -531 -541 -571 0
497 503 531 547 571 0
-497 -503 -505 -531 -535 -549 -553 0
-497 -503 -507 -511 -517 -533 0
497 505 525 527 567 0
-497 -505 -525 -527 -567 0
-497 -505 -527 -537 -561 -571 0
-497 -505 -507 -531 -541 -575 0
-497 -507 -519 -527 -531 -553 -565 0
497 507 535 537 541 545 553 0
-497 -509 -521 -527 -551 0
497 509 527 560 0
-497 -509 -531 -547 -555 -575 0
497 511 519 531 541 543 0
-497 -511 -527 -535 -555 -561 0
-497 -511 -527 -543 -561 -573 0
-497 -511 -527 -553 -561 -569 0
-497 -511 -535 -555 -561 -573 -575 0
498 513 525 573 576 0
-498 -513 -525 -573 -576 0
-498 -514 -528 -554 -556 -560 -568 0
-498 -516 -528 -534 -576 0
498 516 546 558 570 0
-498 -516 -546 -558 -570 0
498 522 528 534 558 0
-498 -522 -534 -546 -570 -576 0
498 522 540 546 576 0
498 522 546 564 570 0
-498 -522 -546 -564 -570 0
498 522 564 570 576 0
-498 -522 -564 -570 -576 0
498 525 549 564 567 576 0
498 528 546 558 564 570 0
498 534 552 558 0
-498 -534 -552 -558 0
498 540 570 576 0
498 546 558 576 0
-498 -546 -558 -576 0
498 501 504 510 531 0
-498 -501 -510 -519 -531 0
-498 -504 -516 -522 -540 -552 0
498 504 516 546 0
-498 -504 -516 -546 0
498 504 516 558 576 0
-498 -504 -516 -558 -576 0
498 504 516 564 0
-498 -504 -516 -564 0
498 504 522 528 540 0
-498 -504 -522 -528 -540 0
-498 -504 -522 -528 -564 -576 0
498 504 522 534 552 0
-498 -504 -522 -534 -552 0
498 504 522 540 546 0
-498 -504 -522 -540 -546 0
498 504 522 540 552 558 0
-498 -504 -522 -540 -552 -558 0
-498 -504 -522 -552 -558 0
-498 -504 -522 -558 -576 0
-498 -504 -528 -534 -546 0
498 504 534 576 0
-498 -504 -534 -576 0
498 504 540 546 570 0
-498 -504 -540 -546 -570 0
498 504 540 552 564 576 0
-498 -504 -546 -552 -558 0
498 504 510 516 540 552 0
-498 -504 -510 -516 -540 -552 0
498 504 510 522 576 0
-498 -504 -510 -522 -576 0
-498 -504 -510 -552 -576 0
498 507 525 537 555 558 0
-498 -507 -525 -537 -555 -558 0
498 510 516 522 558 576 0
498 510 516 546 570 0
-498 -510 -516 -546 -570 0
498 510 516 558 570 576 0
-498 -510 -516 -558 -570 -576 0
498 510 522 534 564 0
-498 -510 -522 -534 -564 0
498 510 525 549 576 0
-498 -510 -528 -546 -552 -558 0
-498 -510 -528 -558 -576 0
498 510 564 576 0
-498 -510 -564 -576 0
243 267 273 315 351 363 387 0
243 276 294 327 339 363 0
-243 -276 -294 -327 -339 -363 0
-243 -289 -293 -327 -401 -415 -429 0
-243 -297 -309 -393 -399 -549 -555 0
-243 -303 -321 -399 -411 -459 0
243 321 339 411 435 519 531 0
243 333 345 453 477 513 537 0
-243 -333 -345 -453 -477 -513 -537 0
243 341 355 387 473 495 553 0
-243 -255 -264 -306 -375 -384 -471 0
499 513 525 533 537 575 0
499 513 527 533 535 573 0
-499 -515 -521 -543 -553 -567 0
499 515 525 547 567 569 0
-499 -515 -527 -551 -553 -555 -567 0
499 517 535 571 0
499 519 521 525 551 553 575 0
499 519 535 551 553 555 575 0
-499 -525 -527 -533 -535 -561 -571 0
499 525 535 551 555 575 0
499 529 535 553 0
-499 -529 -535 -553 0
-499 -535 -539 -549 -561 -569 0
499 535 549 555 573 575 0
-499 -535 -549 -555 -573 -575 0
-499 -537 -541 -545 -549 -551 -569 0
-499 -541 -543 -551 -561 0
499 541 547 559 0
-499 -545 -549 -551 -553 -561 0
499 545 551 555 565 573 0
-499 -545 -551 -555 -565 -573 0
-499 -501 -503 -529 -549 -551 -567 0
499 501 503 537 547 553 0
499 501 505 519 525 551 563 0
499 501 505 519 545 563 0
-499 -501 -505 -519 -545 -563 0
-499 -501 -505 -549 -563 -571 -575 0
499 501 511 513 557 573 575 0
-499 -503 -521 -525 -549 -553 0
-499 -503 -525 -531 -547 -551 0
-499 -503 -543 -545 -549 -559 -569 0
-499 -503 -505 -531 -551 -569 0
-499 -503 -507 -515 -531 -555 0
-499 -505 -515 -543 -549 -598 0
-499 -505 -527 -531 -555 -567 -575 0
499 505 527 537 561 571 0
-499 -505 -527 -537 -561 -571 0
-499 -505 -527 -551 -555 -559 -567 0
-499 -505 -529 -553 0
499 505 535 571 0
-499 -505 -535 -571 0
499 505 541 571 0
499 505 511 547 565 571 0
-499 -507 -513 -515 -547 -555 -575 0
499 507 515 525 559 567 0
-499 -507 -515 -535 -555 -563 0
499 507 509 511 551 557 567 0
-499 -507 -511 -519 -545 -561 -563 0
499 509 513 541 551 567 0
499 509 525 535 551 561 567 0
499 509 511 513 515 525 561 0
-499 -509 -511 -513 -515 -525 -561 0
-499 -511 -517 -535 -571 0
499 511 519 521 525 561 575 0
499 511 527 543 549 573 575 0
-499 -511 -529 -535 0
499 511 529 535 541 0
-499 -511 -529 -559 -565 0
499 511 535 553 0
-499 -511 -535 -553 0
244 304 322 406 412 430 484 0
-500 -532 -534 -560 -574 0
-245 -299 -309 -313 -315 -325 -401 0
-245 -315 -325 -417 -461 -511 -569 0
245 322 338 351 396 407 445 0
-501 -513 -519 -525 -555 -573 0
-501 -513 -521 -529 -535 -545 0
501 513 525 537 567 0
-501 -513 -525 -537 -567 0
501 519 537 555 573 0
-501 -519 -537 -555 -573 0
501 519 549 561 0
-501 -519 -549 -561 0
501 525 529 551 575 0
-501 -525 -531 -543 -549 -555 0
501 525 537 549 567 0
-501 -525 -537 -549 -567 0
501 525 543 549 552 558 576 0
501 531 535 539 543 565 569 0
501 531 561 0
-501 -531 -561 0
501 537 549 555 561 0
-501 -537 -549 -555 -561 0
-501 -503 -519 -527 -535 -547 0
501 503 525 529 563 567 0
501 503 505 513 525 539 0
-501 -503 -505 -513 -525 -539 0
501 503 507 519 527 535 541 0
501 505 513 515 551 561 0
-501 -505 -513 -515 -551 -561 0
501 505 513 545 551 553 565 0
501 505 519 549 563 571 575 0
501 505 525 535 539 551 553 0
-501 -505 -525 -539 -545 -549 -553 0
501 505 507 519 541 545 569 0
501 505 509 539 561 0
-501 -505 -509 -539 -561 0
501 507 513 525 561 0
-501 -507 -513 -525 -561 0
501 507 513 555 0
-501 -507 -513 -555 0
501 507 519 537 555 0
-501 -507 -519 -537 -555 0
-501 -507 -519 -549 -555 0
501 507 525 549 561 0
-501 -509 -513 -535 -537 -545 -553 0
-501 -511 -529 -545 -549 -551 0
246 258 282 294 300 342 0
-246 -264 -318 -390 -498 -558 0
246 267 279 315 324 0
-246 -285 -369 -372 -426 -459 -525 0
-246 -300 -312 -342 -372 -390 0
246 308 322 392 400 402 498 0
246 324 330 336 378 384 420 0
-246 -324 -330 -336 -378 -384 -420 0
246 324 348 372 408 420 432 0
-246 -324 -348 -372 -408 -420 -432 0
-502 -546 -560 -564 -566 -568 -576 0
247 281 363 365 397 519 569 0
247 301 331 373 379 451 0
-247 -331 -379 -451 -475 -493 0
503 513 535 537 541 551 561 0
-503 -515 -519 -529 -531 -571 0
-503 -515 -527 -539 -545 -575 0
-503 -515 -533 -557 -563 0
-503 -515 -545 -551 -569 0
503 521 531 541 547 0
503 531 547 555 571 0
-503 -531 -547 -555 -571 0
503 535 545 551 561 573 0
-503 -535 -545 -551 -561 -573 0
503 535 551 561 567 573 0
-503 -535 -551 -561 -567 -573 0
503 545 551 563 0
-503 -545 -551 -563 0
503 505 515 535 543 563 567 0
-503 -505 -511 -519 -525 -567 -569 0
503 507 529 551 555 567 0
-503 -507 -529 -551 -555 -567 0
-503 -507 -509 -511 -525 -553 -561 0
503 507 509 511 553 561 0
-503 -509 -515 -527 -551 0
503 509 541 565 569 573 0
-503 -509 -551 -563 -575 0
-503 -511 -567 -573 -575 0
504 516 522 528 540 0
504 516 522 540 552 0
-504 -516 -522 -540 -552 0
-504 -516 -522 -546 -552 -576 0
-504 -516 -522 -558 -570 0
-504 -516 -528 -534 -546 -570 0
504 516 532 568 572 0
504 516 534 540 552 570 0
504 516 534 540 564 576 0
504 516 534 558 570 0
-504 -516 -534 -558 -570 0
504 516 534 558 576 0
-504 -516 -534 -558 -576 0
504 516 540 546 570 0
-504 -516 -540 -546 -570 0
504 516 540 546 576 0
-504 -516 -540 -546 -576 0
504 516 540 558 564 0
-504 -516 -540 -558 -564 0
504 516 546 558 576 0
-504 -516 -546 -558 -576 0
504 522 528 534 546 576 0
-504 -522 -528 -534 -546 -576 0
504 522 528 540 552 576 0
-504 -522 -528 -546 -558 -576 0
-504 -522 -534 -546 -570 -576 0
-504 -522 -546 -558 -570 -576 0
504 528 531 543 0
-504 -528 -531 -543 0
-504 -528 -534 -552 -558 -576 0
504 528 540 570 0
-504 -528 -540 -570 0
504 528 540 570 576 0
504 531 543 561 0
-504 -531 -543 -561 0
-504 -532 -556 -566 -570 0
-504 -534 -546 -552 -558 -576 0
504 537 540 543 549 558 0
-504 -540 -546 -552 -558 -576 0
504 540 546 558 576 0
504 540 552 570 576 0
-504 -540 -552 -570 -576 0
504 507 513 561 576 0
504 507 555 567 0
-504 -507 -555 -567 0
504 510 516 534 540 576 0
504 510 540 552 570 0
-504 -510 -540 -552 -570 0
-249 -264 -300 -345 -390 -498 -519 0
-249 -269 -297 -367 -371 -395 -451 0
-249 -285 -291 -363 -411 -465 -513 0
249 309 315 411 417 507 0
-249 -309 -315 -411 -417 -507 0
-505 -513 -515 -551 -561 -571 0
-505 -513 -519 -539 -553 -555 -569 0
-505 -513 -551 -555 -557 -571 -573 0
505 515 517 525 545 561 573 0
-505 -515 -517 -525 -545 -561 -573 0
505 515 519 525 541 543 0
-505 -515 -519 -527 -531 -555 -571 0
-505 -515 -519 -529 -551 -553 -555 0
-505 -515 -535 -543 -555 -563 -567 0
-505 -523 -529 -553 0
505 527 533 535 555 561 575 0
505 527 535 555 559 573 575 0
505 527 535 555 561 573 575 0
-505 -527 -535 -555 -561 -573 -575 0
505 529 535 541 565 0
-505 -529 -535 -565 -571 0
-505 -531 -543 -549 -553 -575 0
505 535 537 545 549 551 555 0
-505 -535 -537 -545 -549 -551 -555 0
-505 -537 -549 -551 -553 -555 -563 0
-505 -539 -547 -551 -555 -561 -573 0
-505 -507 -515 -519 -527 -543 -547 0
-505 -507 -515 -523 -531 -555 -563 0
-505 -507 -517 -537 -551 -575 0
505 507 535 551 561 0
-505 -507 -535 -551 -561 0
-505 -507 -541 -553 -561 -575 0
505 507 509 519 545 555 559 0
505 507 509 511 513 525 545 0
-505 -507 -509 -511 -525 -545 -565 0
-505 -509 -519 -525 -529 -561 0
505 511 515 517 525 537 563 0
505 511 515 527 535 537 555 0
-505 -511 -515 -527 -535 -537 -555 0
505 511 517 529 553 559 0
-506 -532 -538 -540 -560 -570 -576 0
-251 -295 -301 -305 -321 -399 -401 0
251 317 377 413 473 521 533 0
-251 -317 -377 -413 -473 -521 -533 0
251 331 357 425 427 471 545 0
-251 -331 -357 -425 -427 -471 -545 0
507 513 515 523 547 561 569 0
-507 -513 -519 -531 -537 -555 0
507 513 519 537 555 561 0
-507 -513 -519 -537 -555 -561 0
507 513 519 541 545 551 565 0
-507 -513 -519 -543 0
507 513 525 531 567 0
-507 -513 -525 -531 -567 0
507 513 531 543 567 0
507 513 535 551 561 565 0
-507 -513 -535 -551 -561 -565 0
-507 -513 -537 -555 -561 -567 0
507 513 549 567 0
507 513 549 598 0
-507 -513 -549 -598 0
507 515 525 529 553 563 0
-507 -515 -531 -553 -555 -571 0
-507 -516 -528 -540 -555 -561 0
-507 -517 -521 -541 -555 -563 -565 0
507 519 521 525 541 569 0
507 519 525 531 543 0
-507 -519 -525 -531 -543 0
507 519 525 543 555 0
-507 -519 -525 -543 -555 0
-507 -519 -525 -543 -561 0
507 519 531 537 555 0
-507 -519 -531 -555 -561 0
507 519 533 540 565 566 568 0
-507 -519 -535 -547 -557 -561 0
-507 -519 -537 -549 -555 -561 0
507 519 543 561 0
-507 -519 -543 -561 0
507 525 531 549 555 573 0
-507 -525 -531 -549 -555 -573 0
507 525 537 561 567 573 0
-507 -527 -531 -535 -553 -561 -575 0
-507 -527 -535 -551 -561 -571 0
507 527 535 561 571 0
-507 -527 -535 -561 -571 0
507 527 541 547 567 0
-507 -527 -541 -547 -567 0
-507 -529 -531 -543 -545 -547 -551 0
-507 -529 -561 -563 -565 -569 -575 0
-507 -531 -535 -539 -543 -551 -571 0
-507 -531 -537 -543 -573 0
507 531 543 555 561 567 0
507 537 549 555 567 0
-507 -537 -555 -561 -567 0
-507 -541 -545 -555 -573 -575 0
507 541 559 561 563 567 0
507 543 549 561 573 0
-507 -543 -549 -561 -573 0
507 543 555 561 0
-507 -543 -555 -561 0
-507 -509 -513 -537 -551 -559 0
507 509 513 551 559 0
-507 -509 -513 -551 -559 0
-507 -509 -511 -513 -527 -541 -567 0
-507 -509 -511 -517 -533 -561 -567 0
507 510 513 552 555 570 0
-507 -510 -513 -552 -555 -570 0
-507 -511 -519 -527 -547 -561 -563 0
509 515 521 545 0
-509 -515 -521 -545 0
509 515 527 551 569 0
-509 -517 -537 -555 -565 -575 0
509 527 545 551 0
-509 -527 -545 -551 0
509 533 545 551 0
-509 -533 -545 -551 0
509 533 545 575 0
-509 -533 -545 -575 0
509 535 537 541 545 0
-509 -535 -537 -541 -545 0
509 535 543 551 0
-509 -535 -543 -551 0
509 535 543 565 0
-509 -535 -543 -565 0
-509 -539 -545 -551 -557 -575 0
509 551 555 565 567 573 0
-509 -551 -555 -565 -567 -573 0
509 511 513 545 553 555 561 0
-509 -511 -513 -545 -553 -555 -561 0
-509 -511 -537 -539 -545 -553 -555 0
254 294 322 416 426 518 520 0
-510 -513 -516 -519 -525 -534 -567 0
510 513 525 537 540 561 570 0
510 516 522 528 540 576 0
-510 -516 -522 -540 -552 -564 -570 0
510 516 522 546 0
-510 -516 -522 -546 0
510 516 528 534 540 558 0
510 516 528 552 576 0
-510 -516 -552 -558 -576 0
-510 -522 -534 -546 -558 -576 0
510 522 534 546 564 0
-510 -522 -534 -546 -564 -576 0
510 540 546 558 576 0
-510 -540 -546 -558 -576 0
510 540 552 558 576 0
-255 -273 -279 -321 -363 -381 0
-255 -289 -327 -335 -415 -419 -495 0
255 348 381 450 471 495 570 0
-511 -513 -527 -545 -555 -565 0
-511 -513 -551 -561 -565 -575 0
511 517 527 543 561 0
-511 -517 -527 -543 -561 0
511 519 527 535 545 561 573 0
-511 -521 -527 -549 -563 -565 -567 0
511 523 529 535 553 0
-511 -523 -535 -559 -565 0
-511 -527 -531 -553 -561 -569 0
-511 -527 -547 -563 -565 -567 -573 0
511 535 537 561 563 569 0
511 535 541 553 571 0
-511 -535 -541 -553 -571 0
511 537 545 551 561 571 0
511 549 551 553 571 575 0
511 551 559 567 573 575 0
802 803 804 805 806 484 0
802 803 804 805 806 496 0
802 803 804 805 806 520 0
-802 803 804 805 806 484 0
-802 803 804 805 806 496 0
-802 803 804 805 806 520 0
802 -803 804 805 806 484 0
802 -803 804 805 806 502 0
802 -803 804 805 806 -514 0
802 -803 804 805 806 -520 0
-802 -803 804 805 806 484 0
-802 -803 804 805 806 502 0
-802 -803 804 805 806 -514 0
-802 -803 804 805 806 -520 0
802 803 -804 805 806 484 0
802 803 -804 805 806 490 0
802 803 -804 805 806 -496 0
802 803 -804 805 806 532 0
802 803 -804 805 806 556 0
802 803 -804 805 806 -562 0
-802 803 -804 805 806 484 0
-802 803 -804 805 806 496 0
-802 803 -804 805 806 520 0
802 -803 -804 805 806 484 0
802 -803 -804 805 806 496 0
802 -803 -804 805 806 520 0
-802 -803 -804 805 806 484 0
-802 -803 -804 805 806 502 0
-802 -803 -804 805 806 -514 0
-802 -803 -804 805 806 -520 0
802 803 804 -805 806 484 0
802 803 804 -805 806 502 0
802 803 804 -805 806 -514 0
802 803 804 -805 806 -520 0
-802 803 804 -805 806 484 0
-802 803 804 -805 806 490 0
-802 803 804 -805 806 -496 0
-802 803 804 -805 806 -502 0
-802 803 804 -805 806 -526 0
-802 803 804 -805 806 532 0
-802 803 804 -805 806 538 0
-802 803 804 -805 806 556 0
-802 803 804 -805 806 562 0
-802 803 804 -805 806 -568 0
-802 803 804 -805 806 -574 0
802 -803 804 -805 806 484 0
802 -803 804 -805 806 496 0
802 -803 804 -805 806 520 0
-802 -803 804 -805 806 484 0
-802 -803 804 -805 806 496 0
-802 -803 804 -805 806 520 0
802 803 -804 -805 806 484 0
802 803 -804 -805 806 496 0
802 803 -804 -805 806 520 0
-802 803 -804 -805 806 -484 0
-802 803 -804 -805 806 490 0
-802 803 -804 -805 806 -514 0
-802 803 -804 -805 806 -526 0
-802 803 -804 -805 806 532 0
-802 803 -804 -805 806 556 0
-802 803 -804 -805 806 568 0
-802 803 -804 -805 806 -574 0
802 -803 -804 -805 806 484 0
802 -803 -804 -805 806 496 0
802 -803 -804 -805 806 520 0
-802 -803 -804 -805 806 -484 0
-802 -803 -804 -805 806 490 0
-802 -803 -804 -805 806 -514 0
-802 -803 -804 -805 806 -526 0
-802 -803 -804 -805 806 532 0
-802 -803 -804 -805 806 556 0
-802 -803 -804 -805 806 568 0
-802 -803 -804 -805 806 -574 0
802 803 804 805 -806 484 0
802 803 804 805 -806 526 0
802 803 804 805 -806 574 0
-802 803 804 805 -806 490 0
-802 803 804 805 -806 502 0
-802 803 804 805 -806 526 0
-802 803 804 805 -806 -532 0
-802 803 804 805 -806 538 0
-802 803 804 805 -806 -568 0
-802 803 804 805 -806 574 0
802 -803 804 805 -806 484 0
802 -803 804 805 -806 526 0
802 -803 804 805 -806 574 0
-802 -803 804 805 -806 490 0
-802 -803 804 805 -806 502 0
-802 -803 804 805 -806 526 0
-802 -803 804 805 -806 -532 0
-802 -803 804 805 -806 538 0
-802 -803 804 805 -806 -568 0
-802 -803 804 805 -806 574 0
802 803 -804 805 -806 490 0
802 803 -804 805 -806 502 0
802 803 -804 805 -806 526 0
802 803 -804 805 -806 -532 0
802 803 -804 805 -806 538 0
802 803 -804 805 -806 -568 0
802 803 -804 805 -806 574 0
-802 803 -804 805 -806 490 0
-802 803 -804 805 -806 502 0
-802 803 -804 805 -806 526 0
-802 803 -804 805 -806 -532 0
-802 803 -804 805 -806 538 0
-802 803 -804 805 -806 -568 0
-802 803 -804 805 -806 574 0
802 -803 -804 805 -806 -490 0
802 -803 -804 805 -806 496 0
802 -803 -804 805 -806 -508 0
802 -803 -804 805 -806 520 0
802 -803 -804 805 -806 550 0
-802 -803 -804 805 -806 -502 0
-802 -803 -804 805 -806 514 0
-802 -803 -804 805 -806 520 0
-802 -803 -804 805 -806 556 0
-802 -803 -804 805 -806 568 0
802 803 804 -805 -806 -502 0
802 803 804 -805 -806 514 0
802 803 804 -805 -806 520 0
802 803 804 -805 -806 556 0
802 803 804 -805 -806 568 0
-802 803 804 -805 -806 502 0
-802 803 804 -805 -806 -514 0
-802 803 804 -805 -806 -520 0
-802 803 804 -805 -806 532 0
-802 803 804 -805 -806 538 0
-802 803 804 -805 -806 556 0
-802 803 804 -805 -806 568 0
802 -803 804 -805 -806 -514 0
802 -803 804 -805 -806 -520 0
802 -803 804 -805 -806 -526 0
802 -803 804 -805 -806 532 0
802 -803 804 -805 -806 538 0
802 -803 804 -805 -806 556 0
802 -803 804 -805 -806 -562 0
802 -803 804 -805 -806 568 0
802 -803 804 -805 -806 574 0
-802 -803 804 -805 -806 -490 0
-802 -803 804 -805 -806 496 0
-802 -803 804 -805 -806 -508 0
-802 -803 804 -805 -806 520 0
-802 -803 804 -805 -806 550 0
802 803 -804 -805 -806 -502 0
802 803 -804 -805 -806 514 0
802 803 -804 -805 -806 520 0
802 803 -804 -805 -806 556 0
802 803 -804 -805 -806 568 0
-802 803 -804 -805 -806 -502 0
-802 803 -804 -805 -806 514 0
-802 803 -804 -805 -806 520 0
-802 803 -804 -805 -806 556 0
-802 803 -804 -805 -806 568 0
802 -803 -804 -805 -806 502 0
802 -803 -804 -805 -806 -514 0
802 -803 -804 -805 -806 -520 0
802 -803 -804 -805 -806 532 0
802 -803 -804 -805 -806 538 0
802 -803 -804 -805 -806 556 0
802 -803 -804 -805 -806 568 0
-802 -803 -804 -805 -806 -484 0
-802 -803 -804 -805 -806 -496 0
-802 -803 -804 -805 -806 -508 0
-802 -803 -804 -805 -806 -514 0
-802 -803 -804 -805 -806 -520 0
-802 -803 -804 -805 -806 -526 0
-802 -803 -804 -805 -806 532 0
-802 -803 -804 -805 -806 538 0
-802 -803 -804 -805 -806 550 0
-802 -803 -804 -805 -806 556 0
-802 -803 -804 -805 -806 562 0
-802 -803 -804 -805 -806 568 0
-802 -803 -804 -805 -806 574 0
