p cnf 3486 7190
-43 904 0
907 -44 0
-904 907 0
910 -45 0
910 -907 0
-46 913 0
913 -910 0
916 -47 0
916 -913 0
-48 919 0
919 -916 0
922 -49 0
922 -919 0
-919 -49 923 0
925 -50 0
925 -922 0
-923 926 0
-51 928 0
928 -925 0
-926 929 0
-51 -925 929 0
-52 931 0
931 -928 0
-929 932 0
-53 934 0
934 -931 0
-932 935 0
-53 -931 935 0
-54 937 0
937 -934 0
-935 938 0
-54 -934 938 0
-55 940 0
940 -937 0
-938 941 0
-55 -937 941 0
943 -56 0
943 -940 0
944 -941 0
-940 944 -56 0
-57 946 0
946 -943 0
947 -944 0
-57 947 -943 0
949 -58 0
949 -946 0
950 -947 0
950 -58 -946 0
-59 952 0
952 -949 0
953 -950 0
-59 953 -949 0
-60 955 0
955 -952 0
956 -953 0
-60 956 -952 0
958 -61 0
958 -955 0
959 -956 0
959 -61 -955 0
-62 961 0
961 -958 0
962 -959 0
-62 962 -958 0
964 -63 0
964 -961 0
965 -962 0
967 -64 0
967 -964 0
968 -965 0
-64 968 -964 0
970 -65 0
970 -967 0
971 -968 0
971 -967 -65 0
973 -66 0
973 -970 0
974 -971 0
-66 974 -970 0
-67 976 0
976 -973 0
977 -974 0
-67 977 -973 0
979 -68 0
979 -976 0
980 -977 0
-68 980 -976 0
982 -69 0
982 -979 0
983 -980 0
983 -69 -979 0
-70 985 0
985 -982 0
986 -983 0
-70 986 -982 0
-71 988 0
988 -985 0
989 -986 0
-71 989 -985 0
-72 991 0
991 -988 0
992 -989 0
-72 992 -988 0
994 -73 0
994 -991 0
995 -992 0
-74 997 0
997 -994 0
998 -995 0
-74 998 -994 0
1000 -75 0
1000 -997 0
1001 -998 0
-75 1001 -997 0
1003 -76 0
1003 -1000 0
1004 -1001 0
-77 1006 0
1006 -1003 0
1007 -1004 0
-77 1007 -1003 0
-78 1009 0
1009 -1006 0
1010 -1007 0
-78 1010 -1006 0
-79 1012 0
1012 -1009 0
1013 -1010 0
-79 1013 -1009 0
-80 1015 0
1015 -1012 0
1016 -1013 0
-80 1016 -1012 0
-81 1018 0
1018 -1015 0
1019 -1016 0
-81 1019 -1015 0
-82 1021 0
1021 -1018 0
1022 -1019 0
-82 1022 -1018 0
-83 1024 0
1024 -1021 0
1025 -1022 0
1027 -84 0
1027 -1024 0
1028 -1025 0
1028 -84 -1024 0
1030 -85 0
1030 -1027 0
1031 -1028 0
1031 -85 -1027 0
-86 1033 0
1033 -1030 0
1034 -1031 0
-86 1034 -1030 0
-87 1036 0
1036 -1033 0
1037 -1034 0
-87 1037 -1033 0
-88 1039 0
1039 -1036 0
1040 -1037 0
-88 1040 -1036 0
-89 1042 0
1042 -1039 0
1043 -1040 0
-90 1045 0
1045 -1042 0
1046 -1043 0
1048 -91 0
1048 -1045 0
1049 -1046 0
-92 1051 0
1051 -1048 0
1052 -1049 0
-93 1054 0
1054 -1051 0
1055 -1052 0
1057 -94 0
1057 -1054 0
1058 -1055 0
-94 1058 -1054 0
-95 1060 0
1060 -1057 0
1061 -1058 0
-96 1063 0
1063 -1060 0
1064 -1061 0
-96 1064 -1060 0
1066 -97 0
1066 -1063 0
1067 -1064 0
1067 -97 -1063 0
-98 1069 0
1069 -1066 0
1070 -1067 0
-98 1070 -1066 0
-99 1072 0
1072 -1069 0
1073 -1070 0
-99 1073 -1069 0
1075 -100 0
1075 -1072 0
1076 -1073 0
-100 1076 -1072 0
-101 1078 0
1078 -1075 0
1079 -1076 0
-101 1079 -1075 0
-102 1081 0
1081 -1078 0
1082 -1079 0
-102 1082 -1078 0
-103 1084 0
1084 -1081 0
1085 -1082 0
-103 1085 -1081 0
-104 1087 0
1087 -1084 0
1088 -1085 0
-104 1088 -1084 0
-105 1090 0
1090 -1087 0
1091 -1088 0
-105 1091 -1087 0
-106 1093 0
1093 -1090 0
1094 -1091 0
-107 1096 0
1096 -1093 0
1097 -1094 0
-107 1097 -1093 0
-108 1099 0
1099 -1096 0
1100 -1097 0
-108 1100 -1096 0
-109 1102 0
1102 -1099 0
1103 -1100 0
-109 1103 -1099 0
-110 1105 0
1105 -1102 0
1106 -1103 0
-110 1106 -1102 0
-111 1108 0
1108 -1105 0
1109 -1106 0
-111 1109 -1105 0
-112 1111 0
1111 -1108 0
1112 -1109 0
-112 1112 -1108 0
1114 -113 0
1114 -1111 0
1115 -1112 0
-113 1115 -1111 0
1117 -114 0
1117 -1114 0
1118 -1115 0
1118 -114 -1114 0
1120 -115 0
1120 -1117 0
1121 -1118 0
1121 -115 -1117 0
-116 1123 0
1123 -1120 0
1124 -1121 0
1126 -117 0
1126 -1123 0
1127 -1124 0
-117 1127 -1123 0
1129 -118 0
1129 -1126 0
1130 -1127 0
-118 1130 -1126 0
1132 -119 0
1132 -1129 0
1133 -1130 0
1133 -119 -1129 0
-119 -1130 1134 0
-120 1135 0
1135 -1132 0
1136 -1133 0
-1134 1137 0
-120 1136 -1132 0
1138 -121 0
1138 -1135 0
1139 -1136 0
-1137 1140 0
-121 1139 -1135 0
1141 -122 0
1141 -1138 0
1142 -1139 0
-1140 1143 0
1142 -122 -1138 0
-123 1144 0
1144 -1141 0
1145 -1142 0
-1143 1146 0
1147 -124 0
1147 -1144 0
1148 -1145 0
-1146 1149 0
1148 -124 -1144 0
1150 -125 0
1150 -1147 0
1151 -1148 0
-1149 1152 0
1153 -126 0
1153 -1150 0
1154 -1151 0
-1152 1155 0
-126 1154 -1150 0
-127 1156 0
1156 -1153 0
1157 -1154 0
-1155 1158 0
-127 1157 -1153 0
-128 1159 0
1159 -1156 0
1160 -1157 0
-1158 1161 0
-128 1160 -1156 0
1162 -129 0
1162 -1159 0
1163 -1160 0
-1161 1164 0
1163 -129 -1159 0
-130 1165 0
1165 -1162 0
1166 -1163 0
-1164 1167 0
-130 1166 -1162 0
-131 1168 0
1168 -1165 0
1169 -1166 0
-1167 1170 0
-131 1169 -1165 0
-132 1171 0
1171 -1168 0
1172 -1169 0
-1170 1173 0
-132 1172 -1168 0
-133 1174 0
1174 -1171 0
1175 -1172 0
-1173 1176 0
-133 1175 -1171 0
-134 1177 0
1177 -1174 0
1178 -1175 0
-1176 1179 0
-134 1178 -1174 0
-135 1180 0
1180 -1177 0
1181 -1178 0
-1179 1182 0
-135 1181 -1177 0
-136 1183 0
1183 -1180 0
1184 -1181 0
-1182 1185 0
-136 1184 -1180 0
-137 1186 0
1186 -1183 0
1187 -1184 0
-1185 1188 0
-137 1187 -1183 0
-138 1189 0
1189 -1186 0
1190 -1187 0
-1188 1191 0
-138 1190 -1186 0
-139 1192 0
1192 -1189 0
1193 -1190 0
-1191 1194 0
-139 1193 -1189 0
-140 1195 0
1195 -1192 0
1196 -1193 0
-1194 1197 0
-140 1196 -1192 0
-141 1198 0
1198 -1195 0
1199 -1196 0
-1197 1200 0
-141 1199 -1195 0
-142 1201 0
1201 -1198 0
1202 -1199 0
-1200 1203 0
-142 1202 -1198 0
-143 1204 0
1204 -1201 0
1205 -1202 0
-1203 1206 0
-143 1205 -1201 0
-144 1207 0
1207 -1204 0
1208 -1205 0
-1206 1209 0
-144 1208 -1204 0
-145 1210 0
1210 -1207 0
1211 -1208 0
-1209 1212 0
-145 1211 -1207 0
-146 1213 0
1213 -1210 0
1214 -1211 0
-1212 1215 0
-146 1214 -1210 0
1216 -147 0
1216 -1213 0
1217 -1214 0
-1215 1218 0
1217 -147 -1213 0
1219 -148 0
1219 -1216 0
1220 -1217 0
-1218 1221 0
1220 -148 -1216 0
-149 1222 0
1222 -1219 0
1223 -1220 0
-1221 1224 0
-149 1223 -1219 0
1225 -150 0
1225 -1222 0
1226 -1223 0
-1224 1227 0
1226 -150 -1222 0
1228 -151 0
1228 -1225 0
1229 -1226 0
-1227 1230 0
-151 1229 -1225 0
1231 -152 0
1231 -1228 0
1232 -1229 0
-1230 1233 0
-152 1232 -1228 0
1234 -153 0
1234 -1231 0
1235 -1232 0
-1233 1236 0
1235 -153 -1231 0
-154 1237 0
1237 -1234 0
1238 -1235 0
-1236 1239 0
-154 1238 -1234 0
-155 1240 0
1240 -1237 0
1241 -1238 0
-1239 1242 0
-155 1241 -1237 0
-156 1243 0
1243 -1240 0
1244 -1241 0
-1242 1245 0
-156 1244 -1240 0
1246 -157 0
1246 -1243 0
1247 -1244 0
-1245 1248 0
1247 -157 -1243 0
-158 1249 0
1249 -1246 0
1250 -1247 0
-1248 1251 0
-158 1250 -1246 0
-159 1252 0
1252 -1249 0
1253 -1250 0
-1251 1254 0
-159 1253 -1249 0
-160 1255 0
1255 -1252 0
1256 -1253 0
-1254 1257 0
-160 1256 -1252 0
1258 -1255 0
1259 -1256 0
-1257 1260 0
-161 1259 -1255 0
-162 1261 0
1261 -1258 0
1262 -1259 0
-1260 1263 0
-162 1262 -1258 0
1264 -163 0
1264 -1261 0
1265 -1262 0
-1263 1266 0
-163 1265 -1261 0
-164 1267 0
1267 -1264 0
1268 -1265 0
-1266 1269 0
-164 1268 -1264 0
-165 1270 0
1270 -1267 0
1271 -1268 0
-1269 1272 0
-165 1271 -1267 0
1273 -166 0
1273 -1270 0
1274 -1271 0
-1272 1275 0
1274 -166 -1270 0
-167 1276 0
1276 -1273 0
1277 -1274 0
-1275 1278 0
-167 1277 -1273 0
-168 1279 0
1279 -1276 0
1280 -1277 0
-1278 1281 0
-168 1280 -1276 0
-169 1282 0
1282 -1279 0
1283 -1280 0
-1281 1284 0
-169 1283 -1279 0
1285 -170 0
1285 -1282 0
1286 -1283 0
-1284 1287 0
-170 1286 -1282 0
-171 1288 0
1288 -1285 0
1289 -1286 0
-1287 1290 0
-171 1289 -1285 0
-172 1291 0
1291 -1288 0
1292 -1289 0
-1290 1293 0
-172 1292 -1288 0
-173 1294 0
1294 -1291 0
1295 -1292 0
-1293 1296 0
-173 1295 -1291 0
-174 1297 0
1297 -1294 0
1298 -1295 0
-1296 1299 0
-174 1298 -1294 0
-175 1300 0
1300 -1297 0
1301 -1298 0
-1299 1302 0
-175 1301 -1297 0
-176 1303 0
1303 -1300 0
1304 -1301 0
-1302 1305 0
-176 1304 -1300 0
-177 1306 0
1306 -1303 0
1307 -1304 0
-1305 1308 0
-177 1307 -1303 0
1309 -178 0
1309 -1306 0
1310 -1307 0
-1308 1311 0
-178 1310 -1306 0
-179 1312 0
1312 -1309 0
1313 -1310 0
-1311 1314 0
-179 1313 -1309 0
-180 1315 0
1315 -1312 0
1316 -1313 0
-1314 1317 0
-180 1316 -1312 0
-181 1318 0
1318 -1315 0
1319 -1316 0
-1317 1320 0
-181 1319 -1315 0
-182 1321 0
1321 -1318 0
1322 -1319 0
-1320 1323 0
-182 1322 -1318 0
-183 1324 0
1324 -1321 0
1325 -1322 0
-1323 1326 0
-183 1325 -1321 0
1327 -184 0
1327 -1324 0
1328 -1325 0
-1326 1329 0
1328 -184 -1324 0
1330 -185 0
1330 -1327 0
1331 -1328 0
-1329 1332 0
1331 -185 -1327 0
-186 1333 0
1333 -1330 0
1334 -1331 0
-1332 1335 0
-186 1334 -1330 0
1336 -187 0
1336 -1333 0
1337 -1334 0
-1335 1338 0
1337 -187 -1333 0
-188 1339 0
1339 -1336 0
1340 -1337 0
-1338 1341 0
-188 1340 -1336 0
-189 1342 0
1342 -1339 0
1343 -1340 0
-1341 1344 0
-189 1343 -1339 0
1345 -190 0
1345 -1342 0
1346 -1343 0
-1344 1347 0
1346 -190 -1342 0
-190 -1343 1347 0
1348 -191 0
1348 -1345 0
1349 -1346 0
-1347 1350 0
-191 1349 -1345 0
-192 1351 0
1351 -1348 0
1352 -1349 0
-1350 1353 0
-193 1354 0
1354 -1351 0
1355 -1352 0
-1353 1356 0
-193 1355 -1351 0
1357 -194 0
1357 -1354 0
1358 -1355 0
-1356 1359 0
-194 1358 -1354 0
-195 1360 0
1360 -1357 0
1361 -1358 0
-1359 1362 0
-196 1363 0
1363 -1360 0
1364 -1361 0
-1362 1365 0
-196 1364 -1360 0
-197 1366 0
1366 -1363 0
1367 -1364 0
-1365 1368 0
-197 1367 -1363 0
-198 1369 0
1369 -1366 0
1370 -1367 0
-1368 1371 0
-198 1370 -1366 0
-199 1372 0
1372 -1369 0
1373 -1370 0
-1371 1374 0
-199 1373 -1369 0
-200 1375 0
1375 -1372 0
1376 -1373 0
-1374 1377 0
-200 1376 -1372 0
-201 1378 0
1378 -1375 0
1379 -1376 0
-1377 1380 0
-201 1379 -1375 0
-202 1381 0
1381 -1378 0
1382 -1379 0
-1380 1383 0
-202 1382 -1378 0
1384 -203 0
1384 -1381 0
1385 -1382 0
-1383 1386 0
1385 -203 -1381 0
-203 -1382 1386 0
1387 -1384 0
1388 -1385 0
-1386 1389 0
-204 1388 -1384 0
-205 1390 0
1390 -1387 0
1391 -1388 0
-1389 1392 0
-205 1391 -1387 0
1393 -206 0
1393 -1390 0
1394 -1391 0
-1392 1395 0
1394 -206 -1390 0
-206 -1391 1395 0
-207 1396 0
1396 -1393 0
1397 -1394 0
-1395 1398 0
-207 1397 -1393 0
1399 -1396 0
1400 -1397 0
-1398 1401 0
-208 1400 -1396 0
-209 1402 0
1402 -1399 0
1403 -1400 0
-1401 1404 0
1405 -1402 0
1406 -1403 0
-1404 1407 0
-210 1406 -1402 0
-211 1408 0
1408 -1405 0
1409 -1406 0
-1407 1410 0
1411 -212 0
1411 -1408 0
1412 -1409 0
-1410 1413 0
1412 -212 -1408 0
-213 1414 0
1414 -1411 0
1415 -1412 0
-1413 1416 0
1415 -213 -1411 0
-214 1417 0
1417 -1414 0
1418 -1415 0
-1416 1419 0
-214 1418 -1414 0
1420 -215 0
1420 -1417 0
1421 -1418 0
-1419 1422 0
1421 -215 -1417 0
-215 -1418 1422 0
-216 1423 0
1423 -1420 0
1424 -1421 0
-1422 1425 0
-216 1424 -1420 0
1426 -1423 0
1427 -1424 0
-1425 1428 0
-217 1427 -1423 0
1429 -218 0
1429 -1426 0
1430 -1427 0
-1428 1431 0
1430 -218 -1426 0
1432 -1429 0
1433 -1430 0
-1431 1434 0
-219 1433 -1429 0
-220 1435 0
1435 -1432 0
1436 -1433 0
-1434 1437 0
-220 1436 -1432 0
-221 1438 0
1438 -1435 0
1439 -1436 0
-1437 1440 0
-221 1439 -1435 0
-222 1441 0
1441 -1438 0
1442 -1439 0
-1440 1443 0
-222 1442 -1438 0
1444 -223 0
1444 -1441 0
1445 -1442 0
-1443 1446 0
1445 -223 -1441 0
-224 1447 0
1447 -1444 0
1448 -1445 0
-1446 1449 0
-224 1448 -1444 0
1450 -225 0
1450 -1447 0
1451 -1448 0
-1449 1452 0
1451 -225 -1447 0
-225 -1448 1452 0
-226 1453 0
1453 -1450 0
1454 -1451 0
-1452 1455 0
-226 1454 -1450 0
1456 -227 0
1456 -1453 0
1457 -1454 0
-1455 1458 0
1457 -227 -1453 0
1459 -228 0
1459 -1456 0
1460 -1457 0
-1458 1461 0
1460 -228 -1456 0
-229 1462 0
1462 -1459 0
1463 -1460 0
-1461 1464 0
-229 1463 -1459 0
1465 -230 0
1465 -1462 0
1466 -1463 0
-1464 1467 0
1466 -230 -1462 0
1468 -231 0
1468 -1465 0
1469 -1466 0
-1467 1470 0
1469 -231 -1465 0
-232 1471 0
1471 -1468 0
1472 -1469 0
-1470 1473 0
-232 1472 -1468 0
1474 -233 0
1474 -1471 0
1475 -1472 0
-1473 1476 0
1475 -233 -1471 0
1477 -234 0
1477 -1474 0
1478 -1475 0
-1476 1479 0
-234 1478 -1474 0
-235 1480 0
1480 -1477 0
1481 -1478 0
-1479 1482 0
-235 1481 -1477 0
1483 -236 0
1483 -1480 0
1484 -1481 0
-1482 1485 0
1484 -236 -1480 0
-236 -1481 1485 0
-237 1486 0
1486 -1483 0
1487 -1484 0
-1485 1488 0
-237 1487 -1483 0
1489 -238 0
1489 -1486 0
1490 -1487 0
-1488 1491 0
1490 -238 -1486 0
-239 1492 0
1492 -1489 0
1493 -1490 0
-1491 1494 0
-239 1493 -1489 0
-240 1495 0
1495 -1492 0
1496 -1493 0
-1494 1497 0
-240 1496 -1492 0
1498 -1495 0
1499 -1496 0
-1497 1500 0
-241 1499 -1495 0
-242 1501 0
1501 -1498 0
1502 -1499 0
-1500 1503 0
-242 1502 -1498 0
-243 1504 0
1504 -1501 0
1505 -1502 0
-1503 1506 0
-243 1505 -1501 0
-244 1507 0
1507 -1504 0
1508 -1505 0
-1506 1509 0
-244 1508 -1504 0
-245 1510 0
1510 -1507 0
1511 -1508 0
-1509 1512 0
-245 1511 -1507 0
-246 1513 0
1513 -1510 0
1514 -1511 0
-1512 1515 0
-246 1514 -1510 0
1516 -1513 0
1517 -1514 0
-1515 1518 0
-247 1517 -1513 0
1519 -248 0
1519 -1516 0
1520 -1517 0
-1518 1521 0
-248 1520 -1516 0
1522 -249 0
1522 -1519 0
1523 -1520 0
-1521 1524 0
1523 -249 -1519 0
-249 -1520 1524 0
1525 -1522 0
1526 -1523 0
-1524 1527 0
-250 1526 -1522 0
1528 -251 0
1528 -1525 0
1529 -1526 0
-1527 1530 0
1529 -251 -1525 0
-251 -1526 1530 0
-252 1531 0
1531 -1528 0
1532 -1529 0
-1530 1533 0
-252 1532 -1528 0
1534 -253 0
1534 -1531 0
1535 -1532 0
-1533 1536 0
1537 -254 0
1537 -1534 0
1538 -1535 0
-1536 1539 0
-254 1538 -1534 0
-255 1540 0
1540 -1537 0
1541 -1538 0
-1539 1542 0
-255 1541 -1537 0
1543 -256 0
1543 -1540 0
1544 -1541 0
-1542 1545 0
1544 -256 -1540 0
1546 -257 0
1546 -1543 0
1547 -1544 0
-1545 1548 0
1547 -257 -1543 0
-257 -1544 1548 0
-258 1549 0
1549 -1546 0
1550 -1547 0
-1548 1551 0
-258 1550 -1546 0
1552 -1549 0
1553 -1550 0
-1551 1554 0
1553 -259 -1549 0
-260 1555 0
1555 -1552 0
1556 -1553 0
-1554 1557 0
-260 1556 -1552 0
1558 -261 0
1558 -1555 0
1559 -1556 0
-1557 1560 0
-261 1559 -1555 0
-262 1561 0
1561 -1558 0
1562 -1559 0
-1560 1563 0
-262 1562 -1558 0
-263 1564 0
1564 -1561 0
1565 -1562 0
-1563 1566 0
-263 1565 -1561 0
-264 1567 0
1567 -1564 0
1568 -1565 0
-1566 1569 0
-264 1568 -1564 0
-265 1570 0
1570 -1567 0
1571 -1568 0
-1569 1572 0
-265 1571 -1567 0
-266 1573 0
1573 -1570 0
1574 -1571 0
-1572 1575 0
1576 -267 0
1576 -1573 0
1577 -1574 0
-1575 1578 0
-267 1577 -1573 0
-268 1579 0
1579 -1576 0
1580 -1577 0
-1578 1581 0
-268 1580 -1576 0
-269 1582 0
1582 -1579 0
1583 -1580 0
-1581 1584 0
1585 -270 0
1585 -1582 0
1586 -1583 0
-1584 1587 0
1586 -270 -1582 0
-271 1588 0
1588 -1585 0
1589 -1586 0
-1587 1590 0
-271 1589 -1585 0
1591 -272 0
1591 -1588 0
1592 -1589 0
-1590 1593 0
1592 -272 -1588 0
-273 1594 0
1594 -1591 0
1595 -1592 0
-1593 1596 0
-273 1595 -1591 0
-274 1597 0
1597 -1594 0
1598 -1595 0
-1596 1599 0
-274 1598 -1594 0
1600 -275 0
1600 -1597 0
1601 -1598 0
-1599 1602 0
1601 -275 -1597 0
-275 -1598 1602 0
-276 1603 0
1603 -1600 0
1604 -1601 0
-1602 1605 0
-276 1604 -1600 0
1606 -277 0
1606 -1603 0
1607 -1604 0
-1605 1608 0
1607 -277 -1603 0
-277 -1604 1608 0
-278 1609 0
1609 -1606 0
1610 -1607 0
-1608 1611 0
-278 1610 -1606 0
1612 -1609 0
1613 -1610 0
-1611 1614 0
-279 1613 -1609 0
1615 -280 0
1615 -1612 0
1616 -1613 0
-1614 1617 0
1616 -280 -1612 0
-281 1618 0
1618 -1615 0
1619 -1616 0
-1617 1620 0
-281 1619 -1615 0
-282 1621 0
1621 -1618 0
1622 -1619 0
-1620 1623 0
-282 1622 -1618 0
-283 1624 0
1624 -1621 0
1625 -1622 0
-1623 1626 0
-283 1625 -1621 0
-284 1627 0
1627 -1624 0
1628 -1625 0
-1626 1629 0
-284 1628 -1624 0
-285 1630 0
1630 -1627 0
1631 -1628 0
-1629 1632 0
1633 -286 0
1633 -1630 0
1634 -1631 0
-1632 1635 0
1634 -286 -1630 0
-286 -1631 1635 0
-287 1636 0
1636 -1633 0
1637 -1634 0
-1635 1638 0
-288 1639 0
1639 -1636 0
1640 -1637 0
-1638 1641 0
-288 1640 -1636 0
-289 1642 0
1642 -1639 0
1643 -1640 0
-1641 1644 0
1645 -1642 0
1646 -1643 0
-1644 1647 0
-290 1646 -1642 0
-291 1648 0
1648 -1645 0
1649 -1646 0
-1647 1650 0
-291 1649 -1645 0
-292 1651 0
1651 -1648 0
1652 -1649 0
-1650 1653 0
1654 -1651 0
1655 -1652 0
-1653 1656 0
-294 1657 0
1657 -1654 0
1658 -1655 0
-1656 1659 0
-294 1658 -1654 0
-295 1660 0
1660 -1657 0
1661 -1658 0
-1659 1662 0
-295 1661 -1657 0
-296 1663 0
1663 -1660 0
1664 -1661 0
-1662 1665 0
-296 1664 -1660 0
-297 1666 0
1666 -1663 0
1667 -1664 0
-1665 1668 0
-297 1667 -1663 0
1669 -298 0
1669 -1666 0
1670 -1667 0
-1668 1671 0
-298 1670 -1666 0
-299 1672 0
1672 -1669 0
1673 -1670 0
-1671 1674 0
-299 1673 -1669 0
-300 1675 0
1675 -1672 0
1676 -1673 0
-1674 1677 0
-300 1676 -1672 0
1678 -301 0
1678 -1675 0
1679 -1676 0
-1677 1680 0
1679 -301 -1675 0
-302 1681 0
1681 -1678 0
1682 -1679 0
-1680 1683 0
1684 -303 0
1684 -1681 0
1685 -1682 0
-1683 1686 0
1685 -303 -1681 0
1687 -1684 0
1688 -1685 0
-1686 1689 0
-304 1688 -1684 0
1690 -1687 0
1691 -1688 0
-1689 1692 0
-305 1691 -1687 0
1693 -1690 0
1694 -1691 0
-1692 1695 0
-306 1694 -1690 0
-307 1696 0
1696 -1693 0
1697 -1694 0
-1695 1698 0
-307 1697 -1693 0
1699 -1696 0
1700 -1697 0
-1698 1701 0
-308 1700 -1696 0
-309 1702 0
1702 -1699 0
1703 -1700 0
-1701 1704 0
-309 1703 -1699 0
1705 -310 0
1705 -1702 0
1706 -1703 0
-1704 1707 0
1706 -310 -1702 0
-310 -1703 1707 0
-311 1708 0
1708 -1705 0
1709 -1706 0
-1707 1710 0
-311 1709 -1705 0
1711 -1708 0
1712 -1709 0
-1710 1713 0
-312 1712 -1708 0
1714 -313 0
1714 -1711 0
1715 -1712 0
-1713 1716 0
1715 -313 -1711 0
1717 -1714 0
1718 -1715 0
-1716 1719 0
1718 -314 -1714 0
-314 -1715 1719 0
1720 -315 0
1720 -1717 0
1721 -1718 0
-1719 1722 0
1721 -315 -1717 0
-316 1723 0
1723 -1720 0
1724 -1721 0
-1722 1725 0
-316 1724 -1720 0
-317 1726 0
1726 -1723 0
1727 -1724 0
-1725 1728 0
-317 1727 -1723 0
1729 -1726 0
1730 -1727 0
-1728 1731 0
-318 1730 -1726 0
-319 1732 0
1732 -1729 0
1733 -1730 0
-1731 1734 0
-319 1733 -1729 0
-320 1735 0
1735 -1732 0
1736 -1733 0
-1734 1737 0
-320 1736 -1732 0
-321 1738 0
1738 -1735 0
1739 -1736 0
-1737 1740 0
-321 1739 -1735 0
-322 1741 0
1741 -1738 0
1742 -1739 0
-1740 1743 0
-322 1742 -1738 0
-323 1744 0
1744 -1741 0
1745 -1742 0
-1743 1746 0
-323 1745 -1741 0
-324 1747 0
1747 -1744 0
1748 -1745 0
-1746 1749 0
-324 1748 -1744 0
1750 -325 0
1750 -1747 0
1751 -1748 0
-1749 1752 0
1751 -325 -1747 0
-326 1753 0
1753 -1750 0
1754 -1751 0
-1752 1755 0
-326 1754 -1750 0
1756 -1753 0
1757 -1754 0
-1755 1758 0
-327 1757 -1753 0
-328 1759 0
1759 -1756 0
1760 -1757 0
-1758 1761 0
-328 1760 -1756 0
-329 1762 0
1762 -1759 0
1763 -1760 0
-1761 1764 0
-329 1763 -1759 0
-330 1765 0
1765 -1762 0
1766 -1763 0
-1764 1767 0
-330 1766 -1762 0
1768 -1765 0
1769 -1766 0
-1767 1770 0
-331 1769 -1765 0
-332 1771 0
1771 -1768 0
1772 -1769 0
-1770 1773 0
-332 1772 -1768 0
-333 1774 0
1774 -1771 0
1775 -1772 0
-1773 1776 0
-333 1775 -1771 0
1777 -334 0
1777 -1774 0
1778 -1775 0
-1776 1779 0
1778 -334 -1774 0
-335 1780 0
1780 -1777 0
1781 -1778 0
-1779 1782 0
-335 1781 -1777 0
-336 1783 0
1783 -1780 0
1784 -1781 0
-1782 1785 0
-336 1784 -1780 0
-337 1786 0
1786 -1783 0
1787 -1784 0
-1785 1788 0
-337 1787 -1783 0
-338 1789 0
1789 -1786 0
1790 -1787 0
-1788 1791 0
-338 1790 -1786 0
-339 1792 0
1792 -1789 0
1793 -1790 0
-1791 1794 0
-339 1793 -1789 0
-340 1795 0
1795 -1792 0
1796 -1793 0
-1794 1797 0
-340 1796 -1792 0
-341 1798 0
1798 -1795 0
1799 -1796 0
-1797 1800 0
-341 1799 -1795 0
-342 1801 0
1801 -1798 0
1802 -1799 0
-1800 1803 0
-342 1802 -1798 0
-343 1804 0
1804 -1801 0
1805 -1802 0
-1803 1806 0
-343 1805 -1801 0
1807 -1804 0
1808 -1805 0
-1806 1809 0
-344 1808 -1804 0
-345 1810 0
1810 -1807 0
1811 -1808 0
-1809 1812 0
-345 1811 -1807 0
1813 -346 0
1813 -1810 0
1814 -1811 0
-1812 1815 0
1814 -346 -1810 0
-346 -1811 1815 0
-347 1816 0
1816 -1813 0
1817 -1814 0
-1815 1818 0
-347 1817 -1813 0
1819 -1816 0
1820 -1817 0
-1818 1821 0
1820 -348 -1816 0
-348 -1817 1821 0
1822 -1819 0
1823 -1820 0
-1821 1824 0
1825 -1822 0
1826 -1823 0
-1824 1827 0
1826 -350 -1822 0
-350 -1823 1827 0
1828 -1825 0
1829 -1826 0
-1827 1830 0
-351 1829 -1825 0
-352 1831 0
1831 -1828 0
1832 -1829 0
-1830 1833 0
-352 1832 -1828 0
1834 -1831 0
1835 -1832 0
-1833 1836 0
-353 1835 -1831 0
1837 -354 0
1837 -1834 0
1838 -1835 0
-1836 1839 0
-354 1838 -1834 0
-355 1840 0
1840 -1837 0
1841 -1838 0
-1839 1842 0
-355 1841 -1837 0
-356 1843 0
1843 -1840 0
1844 -1841 0
-1842 1845 0
-356 1844 -1840 0
1846 -1843 0
1847 -1844 0
-1845 1848 0
-357 1847 -1843 0
-358 1849 0
1849 -1846 0
1850 -1847 0
-1848 1851 0
-358 1850 -1846 0
-359 1852 0
1852 -1849 0
1853 -1850 0
-1851 1854 0
-359 1853 -1849 0
1855 -360 0
1855 -1852 0
1856 -1853 0
-1854 1857 0
-360 1856 -1852 0
-361 1858 0
1858 -1855 0
1859 -1856 0
-1857 1860 0
-361 1859 -1855 0
-362 1861 0
1861 -1858 0
1862 -1859 0
-1860 1863 0
-362 1862 -1858 0
-363 1864 0
1864 -1861 0
1865 -1862 0
-1863 1866 0
-363 1865 -1861 0
-364 1867 0
1867 -1864 0
1868 -1865 0
-1866 1869 0
-364 1868 -1864 0
-365 1870 0
1870 -1867 0
1871 -1868 0
-1869 1872 0
-365 1871 -1867 0
-366 1873 0
1873 -1870 0
1874 -1871 0
-1872 1875 0
-366 1874 -1870 0
1876 -367 0
1876 -1873 0
1877 -1874 0
-1875 1878 0
1877 -367 -1873 0
-368 1879 0
1879 -1876 0
1880 -1877 0
-1878 1881 0
-368 1880 -1876 0
1882 -1879 0
1883 -1880 0
-1881 1884 0
-369 1883 -1879 0
-370 1885 0
1885 -1882 0
1886 -1883 0
-1884 1887 0
-370 1886 -1882 0
-371 1888 0
1888 -1885 0
1889 -1886 0
-1887 1890 0
-371 1889 -1885 0
-372 1891 0
1891 -1888 0
1892 -1889 0
-1890 1893 0
-372 1892 -1888 0
-373 1894 0
1894 -1891 0
1895 -1892 0
-1893 1896 0
-373 1895 -1891 0
1897 -374 0
1897 -1894 0
1898 -1895 0
-1896 1899 0
1898 -374 -1894 0
-374 -1895 1899 0
1900 -1897 0
1901 -1898 0
-1899 1902 0
-375 1901 -1897 0
-376 1903 0
1903 -1900 0
1904 -1901 0
-1902 1905 0
-376 1904 -1900 0
-377 1906 0
1906 -1903 0
1907 -1904 0
-1905 1908 0
-377 1907 -1903 0
-378 1909 0
1909 -1906 0
1910 -1907 0
-1908 1911 0
-378 1910 -1906 0
1912 -1909 0
1913 -1910 0
-1911 1914 0
-379 1913 -1909 0
1915 -1912 0
1916 -1913 0
-1914 1917 0
-380 1916 -1912 0
1918 -381 0
1918 -1915 0
1919 -1916 0
-1917 1920 0
1919 -381 -1915 0
-381 -1916 1920 0
-382 1921 0
1921 -1918 0
1922 -1919 0
-1920 1923 0
-382 1922 -1918 0
1924 -1921 0
1925 -1922 0
-1923 1926 0
1925 -383 -1921 0
-383 -1922 1926 0
-384 1927 0
1927 -1924 0
1928 -1925 0
-1926 1929 0
-384 1928 -1924 0
-385 1930 0
1930 -1927 0
1931 -1928 0
-1929 1932 0
-385 1931 -1927 0
1933 -1930 0
1934 -1931 0
-1932 1935 0
1934 -386 -1930 0
1936 -387 0
1936 -1933 0
1937 -1934 0
-1935 1938 0
1937 -387 -1933 0
1939 -1936 0
1940 -1937 0
-1938 1941 0
-388 1940 -1936 0
1942 -389 0
1942 -1939 0
1943 -1940 0
-1941 1944 0
1943 -389 -1939 0
-390 1945 0
1945 -1942 0
1946 -1943 0
-1944 1947 0
-390 1946 -1942 0
1948 -391 0
1948 -1945 0
1949 -1946 0
-1947 1950 0
-391 1949 -1945 0
-391 -1946 1950 0
-392 1951 0
1951 -1948 0
1952 -1949 0
-1950 1953 0
-392 1952 -1948 0
-393 1954 0
1954 -1951 0
1955 -1952 0
-1953 1956 0
-393 1955 -1951 0
-394 1957 0
1957 -1954 0
1958 -1955 0
-1956 1959 0
-394 1958 -1954 0
-395 1960 0
1960 -1957 0
1961 -1958 0
-1959 1962 0
-395 1961 -1957 0
-396 1963 0
1963 -1960 0
1964 -1961 0
-1962 1965 0
-396 1964 -1960 0
1966 -397 0
1966 -1963 0
1967 -1964 0
-1965 1968 0
1967 -397 -1963 0
-398 1969 0
1969 -1966 0
1970 -1967 0
-1968 1971 0
-398 1970 -1966 0
-399 1972 0
1972 -1969 0
1973 -1970 0
-1971 1974 0
-399 1973 -1969 0
-400 1975 0
1975 -1972 0
1976 -1973 0
-1974 1977 0
-400 1976 -1972 0
-401 1978 0
1978 -1975 0
1979 -1976 0
-1977 1980 0
-401 1979 -1975 0
-402 1981 0
1981 -1978 0
1982 -1979 0
-1980 1983 0
-402 1982 -1978 0
1984 -403 0
1984 -1981 0
1985 -1982 0
-1983 1986 0
1985 -403 -1981 0
-404 1987 0
1987 -1984 0
1988 -1985 0
-1986 1989 0
-404 1988 -1984 0
-405 1990 0
1990 -1987 0
1991 -1988 0
-1989 1992 0
-405 1991 -1987 0
1993 -1990 0
1994 -1991 0
-1992 1995 0
-406 1994 -1990 0
-407 1996 0
1996 -1993 0
1997 -1994 0
-1995 1998 0
-407 1997 -1993 0
1999 -1996 0
2000 -1997 0
-1998 2001 0
-408 2000 -1996 0
2002 -1999 0
2003 -2000 0
-2001 2004 0
-409 2003 -1999 0
-410 2005 0
2005 -2002 0
2006 -2003 0
-2004 2007 0
-410 2006 -2002 0
2008 -411 0
2008 -2005 0
2009 -2006 0
-2007 2010 0
2009 -411 -2005 0
-411 -2006 2010 0
2011 -2008 0
2012 -2009 0
-2010 2013 0
-412 2012 -2008 0
-413 2014 0
2014 -2011 0
2015 -2012 0
-2013 2016 0
-413 2015 -2011 0
2017 -414 0
2017 -2014 0
2018 -2015 0
-2016 2019 0
2018 -414 -2014 0
2020 -415 0
2020 -2017 0
2021 -2018 0
-2019 2022 0
2021 -415 -2017 0
-416 2023 0
2023 -2020 0
2024 -2021 0
-2022 2025 0
-416 2024 -2020 0
-417 2026 0
2026 -2023 0
2027 -2024 0
-2025 2028 0
-417 2027 -2023 0
-418 2029 0
2029 -2026 0
2030 -2027 0
-2028 2031 0
-418 2030 -2026 0
2032 -419 0
2032 -2029 0
2033 -2030 0
-2031 2034 0
2033 -419 -2029 0
-419 -2030 2034 0
2035 -420 0
2035 -2032 0
2036 -2033 0
-2034 2037 0
2036 -420 -2032 0
2038 -421 0
2038 -2035 0
2039 -2036 0
-2037 2040 0
2039 -421 -2035 0
-422 2041 0
2041 -2038 0
2042 -2039 0
-2040 2043 0
-422 2042 -2038 0
-423 2044 0
2044 -2041 0
2045 -2042 0
-2043 2046 0
-423 2045 -2041 0
-424 2047 0
2047 -2044 0
2048 -2045 0
-2046 2049 0
-424 2048 -2044 0
-425 2050 0
2050 -2047 0
2051 -2048 0
-2049 2052 0
-425 2051 -2047 0
-426 2053 0
2053 -2050 0
2054 -2051 0
-2052 2055 0
-426 2054 -2050 0
2056 -2053 0
2057 -2054 0
-2055 2058 0
-427 2057 -2053 0
2059 -428 0
2059 -2056 0
2060 -2057 0
-2058 2061 0
2060 -428 -2056 0
-429 2062 0
2062 -2059 0
2063 -2060 0
-2061 2064 0
-429 2063 -2059 0
-430 2065 0
2065 -2062 0
2066 -2063 0
-2064 2067 0
-430 2066 -2062 0
-431 2068 0
2068 -2065 0
2069 -2066 0
-2067 2070 0
-431 2069 -2065 0
2071 -2068 0
2072 -2069 0
-2070 2073 0
2072 -432 -2068 0
-432 -2069 2073 0
2074 -433 0
2074 -2071 0
2075 -2072 0
-2073 2076 0
2075 -433 -2071 0
2077 -434 0
2077 -2074 0
2078 -2075 0
-2076 2079 0
2078 -434 -2074 0
2080 -2077 0
2081 -2078 0
-2079 2082 0
2083 -436 0
2083 -2080 0
2084 -2081 0
-2082 2085 0
2086 -437 0
2086 -2083 0
2087 -2084 0
-2085 2088 0
2087 -437 -2083 0
-437 -2084 2088 0
2089 -2086 0
2090 -2087 0
-2088 2091 0
2092 -439 0
2092 -2089 0
2093 -2090 0
-2091 2094 0
2093 -439 -2089 0
2095 -2092 0
2096 -2093 0
-2094 2097 0
2096 -440 -2092 0
2098 -441 0
2098 -2095 0
2099 -2096 0
-2097 2100 0
-441 -2096 2100 0
2101 -442 0
2101 -2098 0
2102 -2099 0
-2100 2103 0
2102 -442 -2098 0
2104 -443 0
2104 -2101 0
2105 -2102 0
-2103 2106 0
2105 -443 -2101 0
-443 -2102 2106 0
2107 -444 0
2107 -2104 0
2108 -2105 0
-2106 2109 0
2108 -444 -2104 0
2110 -445 0
2110 -2107 0
2111 -2108 0
-2109 2112 0
2111 -445 -2107 0
-445 -2108 2112 0
2113 -446 0
2113 -2110 0
2114 -2111 0
-2112 2115 0
2114 -446 -2110 0
-446 -2111 2115 0
2116 -2113 0
2117 -2114 0
-2115 2118 0
2117 -447 -2113 0
-447 -2114 2118 0
2119 -448 0
2119 -2116 0
2120 -2117 0
-2118 2121 0
2120 -448 -2116 0
-448 -2117 2121 0
2122 -449 0
2122 -2119 0
2123 -2120 0
-2121 2124 0
-449 -2120 2124 0
2125 -450 0
2125 -2122 0
2126 -2123 0
-2124 2127 0
2126 -450 -2122 0
2128 -451 0
2128 -2125 0
2129 -2126 0
-2127 2130 0
2129 -451 -2125 0
-451 -2126 2130 0
2131 -452 0
2131 -2128 0
2132 -2129 0
-2130 2133 0
2132 -452 -2128 0
-452 -2129 2133 0
2134 -453 0
2134 -2131 0
2135 -2132 0
-2133 2136 0
2135 -453 -2131 0
-453 -2132 2136 0
-454 2137 0
2137 -2134 0
2138 -2135 0
-2136 2139 0
-454 2138 -2134 0
2140 -2137 0
2141 -2138 0
-2139 2142 0
2141 -455 -2137 0
-455 -2138 2142 0
2143 -456 0
2143 -2140 0
2144 -2141 0
-2142 2145 0
2144 -456 -2140 0
2146 -2143 0
2147 -2144 0
-2145 2148 0
-457 2147 -2143 0
-457 -2144 2148 0
2149 -2146 0
2150 -2147 0
-2148 2151 0
2150 -458 -2146 0
2152 -459 0
2152 -2149 0
2153 -2150 0
-2151 2154 0
2153 -459 -2149 0
-459 -2150 2154 0
2155 -460 0
2155 -2152 0
2156 -2153 0
-2154 2157 0
2156 -460 -2152 0
-460 -2153 2157 0
2158 -2155 0
2159 -2156 0
-2157 2160 0
2159 -461 -2155 0
-461 -2156 2160 0
2161 -2158 0
2162 -2159 0
-2160 2163 0
-462 2162 -2158 0
2164 -2161 0
2165 -2162 0
-2163 2166 0
2165 -463 -2161 0
-463 -2162 2166 0
2167 -2164 0
2168 -2165 0
-2166 2169 0
2168 -464 -2164 0
-464 -2165 2169 0
2170 -465 0
2170 -2167 0
2171 -2168 0
-2169 2172 0
2171 -465 -2167 0
-465 -2168 2172 0
2173 -2170 0
2174 -2171 0
-2172 2175 0
2174 -466 -2170 0
-466 -2171 2175 0
2176 -2173 0
2177 -2174 0
-2175 2178 0
2177 -467 -2173 0
-467 -2174 2178 0
2179 -2176 0
2180 -2177 0
-2178 2181 0
2180 -468 -2176 0
-468 -2177 2181 0
2182 -469 0
2182 -2179 0
2183 -2180 0
-2181 2184 0
2183 -469 -2179 0
-469 -2180 2184 0
2185 -2182 0
2186 -2183 0
-2184 2187 0
2186 -470 -2182 0
-470 -2183 2187 0
2188 -2185 0
2189 -2186 0
-2187 2190 0
2189 -471 -2185 0
-471 -2186 2190 0
2191 -472 0
2191 -2188 0
2192 -2189 0
-2190 2193 0
2192 -472 -2188 0
-472 -2189 2193 0
2194 -2191 0
2195 -2192 0
-2193 2196 0
-473 2195 -2191 0
2197 -2194 0
2198 -2195 0
-2196 2199 0
2198 -474 -2194 0
-474 -2195 2199 0
2200 -2197 0
2201 -2198 0
-2199 2202 0
2201 -475 -2197 0
2203 -476 0
2203 -2200 0
2204 -2201 0
-2202 2205 0
2204 -476 -2200 0
-476 -2201 2205 0
2206 -2203 0
2207 -2204 0
-2205 2208 0
2207 -477 -2203 0
-477 -2204 2208 0
2209 -2206 0
2210 -2207 0
-2208 2211 0
2210 -478 -2206 0
2212 -479 0
2212 -2209 0
2213 -2210 0
-2211 2214 0
2213 -479 -2209 0
-479 -2210 2214 0
2215 -480 0
2215 -2212 0
2216 -2213 0
-2214 2217 0
2216 -480 -2212 0
-480 -2213 2217 0
2218 -2215 0
2219 -2216 0
-2217 2220 0
2219 -481 -2215 0
-481 -2216 2220 0
2221 -2218 0
2222 -2219 0
-2220 2223 0
-482 2222 -2218 0
2224 -483 0
2224 -2221 0
2225 -2222 0
-2223 2226 0
2225 -483 -2221 0
-483 -2222 2226 0
2227 -2224 0
2228 -2225 0
-2226 2229 0
2228 -484 -2224 0
-484 -2225 2229 0
2230 -2227 0
2231 -2228 0
-2229 2232 0
2231 -485 -2227 0
-485 -2228 2232 0
2233 -2230 0
2234 -2231 0
-2232 2235 0
2234 -486 -2230 0
-486 -2231 2235 0
2236 -2233 0
2237 -2234 0
-2235 2238 0
2237 -487 -2233 0
2239 -488 0
2239 -2236 0
2240 -2237 0
-2238 2241 0
2240 -488 -2236 0
-488 -2237 2241 0
2242 -489 0
2242 -2239 0
2243 -2240 0
-2241 2244 0
-489 2243 -2239 0
2245 -2242 0
2246 -2243 0
-2244 2247 0
2246 -490 -2242 0
-490 -2243 2247 0
2248 -491 0
2248 -2245 0
2249 -2246 0
-2247 2250 0
2249 -491 -2245 0
-491 -2246 2250 0
2251 -2248 0
2252 -2249 0
-2250 2253 0
2252 -492 -2248 0
-492 -2249 2253 0
2254 -2251 0
2255 -2252 0
-2253 2256 0
-493 2255 -2251 0
2257 -2254 0
2258 -2255 0
-2256 2259 0
2258 -494 -2254 0
-494 -2255 2259 0
2260 -2257 0
2261 -2258 0
-2259 2262 0
2261 -495 -2257 0
-495 -2258 2262 0
2263 -2260 0
2264 -2261 0
-2262 2265 0
2264 -496 -2260 0
-496 -2261 2265 0
2266 -497 0
2266 -2263 0
2267 -2264 0
-2265 2268 0
2267 -497 -2263 0
-497 -2264 2268 0
2269 -2266 0
2270 -2267 0
-2268 2271 0
2270 -498 -2266 0
2272 -499 0
2272 -2269 0
2273 -2270 0
-2271 2274 0
2273 -499 -2269 0
2275 -500 0
2275 -2272 0
2276 -2273 0
-2274 2277 0
2276 -500 -2272 0
-500 -2273 2277 0
2278 -2275 0
2279 -2276 0
-2277 2280 0
-501 2279 -2275 0
2281 -502 0
2281 -2278 0
2282 -2279 0
-2280 2283 0
2282 -502 -2278 0
-502 -2279 2283 0
2284 -503 0
2284 -2281 0
2285 -2282 0
-2283 2286 0
2285 -503 -2281 0
-503 -2282 2286 0
2287 -2284 0
2288 -2285 0
-2286 2289 0
2288 -504 -2284 0
-504 -2285 2289 0
2290 -2287 0
2291 -2288 0
-2289 2292 0
2291 -505 -2287 0
-505 -2288 2292 0
2293 -2290 0
2294 -2291 0
-2292 2295 0
2294 -506 -2290 0
-506 -2291 2295 0
2296 -507 0
2296 -2293 0
2297 -2294 0
-2295 2298 0
2297 -507 -2293 0
-507 -2294 2298 0
2299 -2296 0
2300 -2297 0
-2298 2301 0
2300 -508 -2296 0
2302 -2299 0
2303 -2300 0
-2301 2304 0
2303 -509 -2299 0
-509 -2300 2304 0
2305 -2302 0
2306 -2303 0
-2304 2307 0
2306 -510 -2302 0
-510 -2303 2307 0
2308 -2305 0
2309 -2306 0
-2307 2310 0
2309 -511 -2305 0
-511 -2306 2310 0
2311 -512 0
2311 -2308 0
2312 -2309 0
-2310 2313 0
2312 -512 -2308 0
-512 -2309 2313 0
2314 -2311 0
2315 -2312 0
-2313 2316 0
2315 -513 -2311 0
2317 -2314 0
2318 -2315 0
-2316 2319 0
2318 -514 -2314 0
-514 -2315 2319 0
2320 -515 0
2320 -2317 0
2321 -2318 0
-2319 2322 0
2321 -515 -2317 0
-515 -2318 2322 0
2323 -2320 0
2324 -2321 0
-2322 2325 0
2324 -516 -2320 0
2326 -517 0
2326 -2323 0
2327 -2324 0
-2325 2328 0
2327 -517 -2323 0
-517 -2324 2328 0
2329 -518 0
2329 -2326 0
2330 -2327 0
-2328 2331 0
2330 -518 -2326 0
2332 -519 0
2332 -2329 0
2333 -2330 0
-2331 2334 0
2333 -519 -2329 0
-519 -2330 2334 0
2335 -2332 0
2336 -2333 0
-2334 2337 0
2336 -520 -2332 0
-520 -2333 2337 0
2338 -521 0
2338 -2335 0
2339 -2336 0
-2337 2340 0
2339 -521 -2335 0
2341 -522 0
2341 -2338 0
2342 -2339 0
-2340 2343 0
2342 -522 -2338 0
-522 -2339 2343 0
2344 -523 0
2344 -2341 0
2345 -2342 0
-2343 2346 0
2345 -523 -2341 0
-523 -2342 2346 0
2347 -524 0
2347 -2344 0
2348 -2345 0
-2346 2349 0
2348 -524 -2344 0
-524 -2345 2349 0
2350 -2347 0
2351 -2348 0
-2349 2352 0
2351 -525 -2347 0
-525 -2348 2352 0
2353 -2350 0
2354 -2351 0
-2352 2355 0
2354 -526 -2350 0
-526 -2351 2355 0
2356 -527 0
2356 -2353 0
2357 -2354 0
-2355 2358 0
2357 -527 -2353 0
-527 -2354 2358 0
2359 -2356 0
2360 -2357 0
-2358 2361 0
2360 -528 -2356 0
-528 -2357 2361 0
2362 -2359 0
2363 -2360 0
-2361 2364 0
-529 2363 -2359 0
2365 -530 0
2365 -2362 0
2366 -2363 0
-2364 2367 0
2366 -530 -2362 0
-530 -2363 2367 0
2368 -2365 0
2369 -2366 0
-2367 2370 0
2369 -531 -2365 0
-531 -2366 2370 0
2371 -2368 0
2372 -2369 0
-2370 2373 0
2372 -532 -2368 0
-532 -2369 2373 0
2374 -2371 0
2375 -2372 0
-2373 2376 0
2375 -533 -2371 0
-533 -2372 2376 0
2377 -2374 0
2378 -2375 0
-2376 2379 0
2378 -534 -2374 0
-534 -2375 2379 0
2380 -535 0
2380 -2377 0
2381 -2378 0
-2379 2382 0
-535 2381 -2377 0
2383 -536 0
2383 -2380 0
2384 -2381 0
-2382 2385 0
2384 -536 -2380 0
-536 -2381 2385 0
2386 -537 0
2386 -2383 0
2387 -2384 0
-2385 2388 0
2387 -537 -2383 0
-537 -2384 2388 0
2389 -2386 0
2390 -2387 0
-2388 2391 0
2390 -538 -2386 0
-538 -2387 2391 0
2392 -539 0
2392 -2389 0
2393 -2390 0
-2391 2394 0
2393 -539 -2389 0
-539 -2390 2394 0
2395 -2392 0
2396 -2393 0
-2394 2397 0
2396 -540 -2392 0
-540 -2393 2397 0
2398 -2395 0
2399 -2396 0
-2397 2400 0
2399 -541 -2395 0
-541 -2396 2400 0
2401 -2398 0
2402 -2399 0
-2400 2403 0
2402 -542 -2398 0
-542 -2399 2403 0
2404 -2401 0
2405 -2402 0
-2403 2406 0
2405 -543 -2401 0
-543 -2402 2406 0
2407 -2404 0
2408 -2405 0
-2406 2409 0
2408 -544 -2404 0
2410 -2407 0
2411 -2408 0
-2409 2412 0
2411 -545 -2407 0
2413 -2410 0
2414 -2411 0
-2412 2415 0
2414 -546 -2410 0
-546 -2411 2415 0
2416 -547 0
2416 -2413 0
2417 -2414 0
-2415 2418 0
2417 -547 -2413 0
-547 -2414 2418 0
2419 -548 0
2419 -2416 0
2420 -2417 0
-2418 2421 0
2420 -548 -2416 0
-548 -2417 2421 0
-549 2422 0
2422 -2419 0
2423 -2420 0
-2421 2424 0
-549 2423 -2419 0
2425 -2422 0
2426 -2423 0
-2424 2427 0
2426 -550 -2422 0
-550 -2423 2427 0
2428 -551 0
2428 -2425 0
2429 -2426 0
-2427 2430 0
-551 2429 -2425 0
2431 -2428 0
2432 -2429 0
-2430 2433 0
2432 -552 -2428 0
2434 -553 0
2434 -2431 0
2435 -2432 0
-2433 2436 0
2435 -553 -2431 0
-553 -2432 2436 0
2437 -2434 0
2438 -2435 0
-2436 2439 0
2438 -554 -2434 0
-554 -2435 2439 0
2440 -2437 0
2441 -2438 0
-2439 2442 0
2441 -555 -2437 0
-555 -2438 2442 0
2443 -556 0
2443 -2440 0
2444 -2441 0
-2442 2445 0
2444 -556 -2440 0
2446 -2443 0
2447 -2444 0
-2445 2448 0
2447 -557 -2443 0
-557 -2444 2448 0
-558 2449 0
2449 -2446 0
2450 -2447 0
-2448 2451 0
-558 2450 -2446 0
2452 -2449 0
2453 -2450 0
-2451 2454 0
-559 2453 -2449 0
-559 -2450 2454 0
-560 2455 0
2455 -2452 0
2456 -2453 0
-2454 2457 0
-560 2456 -2452 0
2458 -561 0
2458 -2455 0
2459 -2456 0
-2457 2460 0
2459 -561 -2455 0
-561 -2456 2460 0
2461 -562 0
2461 -2458 0
2462 -2459 0
-2460 2463 0
2462 -562 -2458 0
-562 -2459 2463 0
2464 -563 0
2464 -2461 0
2465 -2462 0
-2463 2466 0
2465 -563 -2461 0
-563 -2462 2466 0
2467 -2464 0
2468 -2465 0
-2466 2469 0
2468 -564 -2464 0
-564 -2465 2469 0
2470 -565 0
2470 -2467 0
2471 -2468 0
-2469 2472 0
-565 2471 -2467 0
2473 -566 0
2473 -2470 0
2474 -2471 0
-2472 2475 0
2474 -566 -2470 0
-566 -2471 2475 0
2476 -2473 0
2477 -2474 0
-2475 2478 0
2477 -567 -2473 0
-567 -2474 2478 0
2479 -568 0
2479 -2476 0
2480 -2477 0
-2478 2481 0
2480 -568 -2476 0
2482 -569 0
2482 -2479 0
2483 -2480 0
-2481 2484 0
2483 -569 -2479 0
-569 -2480 2484 0
2485 -570 0
2485 -2482 0
2486 -2483 0
-2484 2487 0
2486 -570 -2482 0
2488 -2485 0
2489 -2486 0
-2487 2490 0
2489 -571 -2485 0
-571 -2486 2490 0
2491 -572 0
2491 -2488 0
2492 -2489 0
-2490 2493 0
2492 -572 -2488 0
2494 -2491 0
2495 -2492 0
-2493 2496 0
2495 -573 -2491 0
-573 -2492 2496 0
2497 -2494 0
2498 -2495 0
-2496 2499 0
2498 -574 -2494 0
-574 -2495 2499 0
2500 -575 0
2500 -2497 0
2501 -2498 0
-2499 2502 0
2501 -575 -2497 0
-575 -2498 2502 0
2503 -576 0
2503 -2500 0
2504 -2501 0
-2502 2505 0
2504 -576 -2500 0
-576 -2501 2505 0
2506 -2503 0
2507 -2504 0
-2505 2508 0
2507 -577 -2503 0
-577 -2504 2508 0
2509 -2506 0
2510 -2507 0
-2508 2511 0
2510 -578 -2506 0
-578 -2507 2511 0
2512 -2509 0
2513 -2510 0
-2511 2514 0
2513 -579 -2509 0
-579 -2510 2514 0
2515 -2512 0
2516 -2513 0
-2514 2517 0
-580 2516 -2512 0
2518 -2515 0
2519 -2516 0
-2517 2520 0
2519 -581 -2515 0
2521 -2518 0
2522 -2519 0
-2520 2523 0
2522 -582 -2518 0
-582 -2519 2523 0
2524 -2521 0
2525 -2522 0
-2523 2526 0
2525 -583 -2521 0
-583 -2522 2526 0
2527 -584 0
2527 -2524 0
2528 -2525 0
-2526 2529 0
2528 -584 -2524 0
-584 -2525 2529 0
2530 -585 0
2530 -2527 0
2531 -2528 0
-2529 2532 0
2531 -585 -2527 0
-585 -2528 2532 0
2533 -2530 0
2534 -2531 0
-2532 2535 0
2534 -586 -2530 0
-586 -2531 2535 0
2536 -587 0
2536 -2533 0
2537 -2534 0
-2535 2538 0
2537 -587 -2533 0
-587 -2534 2538 0
2539 -2536 0
2540 -2537 0
-2538 2541 0
2540 -588 -2536 0
-588 -2537 2541 0
2542 -2539 0
2543 -2540 0
-2541 2544 0
2543 -589 -2539 0
-589 -2540 2544 0
2545 -590 0
2545 -2542 0
2546 -2543 0
-2544 2547 0
2546 -590 -2542 0
-590 -2543 2547 0
2548 -591 0
2548 -2545 0
2549 -2546 0
-2547 2550 0
2549 -591 -2545 0
-591 -2546 2550 0
2551 -592 0
2551 -2548 0
2552 -2549 0
-2550 2553 0
2552 -592 -2548 0
-592 -2549 2553 0
2554 -593 0
2554 -2551 0
2555 -2552 0
-2553 2556 0
2555 -593 -2551 0
-593 -2552 2556 0
2557 -594 0
2557 -2554 0
2558 -2555 0
-2556 2559 0
2558 -594 -2554 0
-594 -2555 2559 0
2560 -2557 0
2561 -2558 0
-2559 2562 0
2561 -595 -2557 0
-595 -2558 2562 0
2563 -596 0
2563 -2560 0
2564 -2561 0
-2562 2565 0
2564 -596 -2560 0
-596 -2561 2565 0
2566 -597 0
2566 -2563 0
2567 -2564 0
-2565 2568 0
2567 -597 -2563 0
-597 -2564 2568 0
2569 -2566 0
2570 -2567 0
-2568 2571 0
2570 -598 -2566 0
-598 -2567 2571 0
2572 -2569 0
2573 -2570 0
-2571 2574 0
2573 -599 -2569 0
-599 -2570 2574 0
2575 -2572 0
2576 -2573 0
-2574 2577 0
2576 -600 -2572 0
-600 -2573 2577 0
2578 -601 0
2578 -2575 0
2579 -2576 0
-2577 2580 0
2579 -601 -2575 0
-601 -2576 2580 0
2581 -602 0
2581 -2578 0
2582 -2579 0
-2580 2583 0
2582 -602 -2578 0
-602 -2579 2583 0
2584 -603 0
2584 -2581 0
2585 -2582 0
-2583 2586 0
2585 -603 -2581 0
-603 -2582 2586 0
2587 -604 0
2587 -2584 0
2588 -2585 0
-2586 2589 0
2588 -604 -2584 0
-604 -2585 2589 0
2590 -605 0
2590 -2587 0
2591 -2588 0
-2589 2592 0
2591 -605 -2587 0
-605 -2588 2592 0
2593 -606 0
2593 -2590 0
2594 -2591 0
-2592 2595 0
2594 -606 -2590 0
-606 -2591 2595 0
2596 -607 0
2596 -2593 0
2597 -2594 0
-2595 2598 0
2597 -607 -2593 0
-607 -2594 2598 0
2599 -2596 0
2600 -2597 0
-2598 2601 0
2600 -608 -2596 0
-608 -2597 2601 0
2602 -609 0
2602 -2599 0
2603 -2600 0
-2601 2604 0
2603 -609 -2599 0
-609 -2600 2604 0
2605 -2602 0
2606 -2603 0
-2604 2607 0
2606 -610 -2602 0
-610 -2603 2607 0
2608 -611 0
2608 -2605 0
2609 -2606 0
-2607 2610 0
2609 -611 -2605 0
-611 -2606 2610 0
2611 -2608 0
2612 -2609 0
-2610 2613 0
2612 -612 -2608 0
-612 -2609 2613 0
2614 -2611 0
2615 -2612 0
-2613 2616 0
2615 -613 -2611 0
-613 -2612 2616 0
2617 -2614 0
2618 -2615 0
-2616 2619 0
2618 -614 -2614 0
-614 -2615 2619 0
2620 -615 0
2620 -2617 0
2621 -2618 0
-2619 2622 0
2621 -615 -2617 0
-615 -2618 2622 0
2623 -616 0
2623 -2620 0
2624 -2621 0
-2622 2625 0
2624 -616 -2620 0
-616 -2621 2625 0
2626 -617 0
2626 -2623 0
2627 -2624 0
-2625 2628 0
2627 -617 -2623 0
-617 -2624 2628 0
2629 -618 0
2629 -2626 0
2630 -2627 0
-2628 2631 0
2630 -618 -2626 0
-618 -2627 2631 0
2632 -619 0
2632 -2629 0
2633 -2630 0
-2631 2634 0
2633 -619 -2629 0
-619 -2630 2634 0
2635 -2632 0
2636 -2633 0
-2634 2637 0
2636 -620 -2632 0
-620 -2633 2637 0
2638 -2635 0
2639 -2636 0
-2637 2640 0
2639 -621 -2635 0
-621 -2636 2640 0
2641 -2638 0
2642 -2639 0
-2640 2643 0
2642 -622 -2638 0
-622 -2639 2643 0
2644 -623 0
2644 -2641 0
2645 -2642 0
-2643 2646 0
2645 -623 -2641 0
-623 -2642 2646 0
2647 -2644 0
2648 -2645 0
-2646 2649 0
2648 -624 -2644 0
-624 -2645 2649 0
2650 -2647 0
2651 -2648 0
-2649 2652 0
2651 -625 -2647 0
-625 -2648 2652 0
2653 -2650 0
2654 -2651 0
-2652 2655 0
2654 -626 -2650 0
-626 -2651 2655 0
2656 -627 0
2656 -2653 0
2657 -2654 0
-2655 2658 0
2657 -627 -2653 0
-627 -2654 2658 0
2659 -628 0
2659 -2656 0
2660 -2657 0
-2658 2661 0
2660 -628 -2656 0
-628 -2657 2661 0
2662 -629 0
2662 -2659 0
2663 -2660 0
-2661 2664 0
2663 -629 -2659 0
-629 -2660 2664 0
2665 -630 0
2665 -2662 0
2666 -2663 0
-2664 2667 0
2666 -630 -2662 0
-630 -2663 2667 0
2668 -2665 0
2669 -2666 0
-2667 2670 0
2669 -631 -2665 0
-631 -2666 2670 0
2671 -632 0
2671 -2668 0
2672 -2669 0
-2670 2673 0
2672 -632 -2668 0
-632 -2669 2673 0
2674 -633 0
2674 -2671 0
2675 -2672 0
-2673 2676 0
2675 -633 -2671 0
-633 -2672 2676 0
2677 -634 0
2677 -2674 0
2678 -2675 0
-2676 2679 0
-634 2678 -2674 0
-634 -2675 2679 0
2680 -635 0
2680 -2677 0
2681 -2678 0
-2679 2682 0
2681 -635 -2677 0
-635 -2678 2682 0
2683 -636 0
2683 -2680 0
2684 -2681 0
-2682 2685 0
2684 -636 -2680 0
-636 -2681 2685 0
2686 -637 0
2686 -2683 0
2687 -2684 0
-2685 2688 0
2687 -637 -2683 0
-637 -2684 2688 0
2689 -638 0
2689 -2686 0
2690 -2687 0
-2688 2691 0
2690 -638 -2686 0
-638 -2687 2691 0
2692 -639 0
2692 -2689 0
2693 -2690 0
-2691 2694 0
2693 -639 -2689 0
-639 -2690 2694 0
2695 -640 0
2695 -2692 0
2696 -2693 0
-2694 2697 0
2696 -640 -2692 0
-640 -2693 2697 0
2698 -641 0
2698 -2695 0
2699 -2696 0
-2697 2700 0
2699 -641 -2695 0
-641 -2696 2700 0
2701 -2698 0
2702 -2699 0
-2700 2703 0
2702 -642 -2698 0
-642 -2699 2703 0
2704 -643 0
2704 -2701 0
2705 -2702 0
-2703 2706 0
2705 -643 -2701 0
-643 -2702 2706 0
2707 -644 0
2707 -2704 0
2708 -2705 0
-2706 2709 0
2708 -644 -2704 0
-644 -2705 2709 0
2710 -645 0
2710 -2707 0
2711 -2708 0
-2709 2712 0
2711 -645 -2707 0
-645 -2708 2712 0
2713 -646 0
2713 -2710 0
2714 -2711 0
-2712 2715 0
2714 -646 -2710 0
-646 -2711 2715 0
2716 -647 0
2716 -2713 0
2717 -2714 0
-2715 2718 0
2717 -647 -2713 0
-647 -2714 2718 0
2719 -648 0
2719 -2716 0
2720 -2717 0
-2718 2721 0
2720 -648 -2716 0
2722 -2719 0
2723 -2720 0
-2721 2724 0
2723 -649 -2719 0
-649 -2720 2724 0
2725 -2722 0
2726 -2723 0
-2724 2727 0
2726 -650 -2722 0
2728 -651 0
2728 -2725 0
2729 -2726 0
-2727 2730 0
2729 -651 -2725 0
2731 -2728 0
2732 -2729 0
-2730 2733 0
2732 -652 -2728 0
-652 -2729 2733 0
2734 -2731 0
2735 -2732 0
-2733 2736 0
2735 -653 -2731 0
-653 -2732 2736 0
2737 -2734 0
2738 -2735 0
-2736 2739 0
2738 -654 -2734 0
-654 -2735 2739 0
2740 -2737 0
2741 -2738 0
-2739 2742 0
2741 -655 -2737 0
-655 -2738 2742 0
2743 -2740 0
2744 -2741 0
-2742 2745 0
2744 -656 -2740 0
-656 -2741 2745 0
2746 -2743 0
2747 -2744 0
-2745 2748 0
2747 -657 -2743 0
-657 -2744 2748 0
2749 -2746 0
2750 -2747 0
-2748 2751 0
2750 -658 -2746 0
-658 -2747 2751 0
2752 -2749 0
2753 -2750 0
-2751 2754 0
2753 -659 -2749 0
-659 -2750 2754 0
2755 -2752 0
2756 -2753 0
-2754 2757 0
2756 -660 -2752 0
-660 -2753 2757 0
2758 -2755 0
2759 -2756 0
-2757 2760 0
2759 -661 -2755 0
-661 -2756 2760 0
2761 -2758 0
2762 -2759 0
-2760 2763 0
2762 -662 -2758 0
-662 -2759 2763 0
2764 -2761 0
2765 -2762 0
-2763 2766 0
2765 -663 -2761 0
-663 -2762 2766 0
2767 -2764 0
2768 -2765 0
-2766 2769 0
2768 -664 -2764 0
-664 -2765 2769 0
2770 -665 0
2770 -2767 0
2771 -2768 0
-2769 2772 0
2771 -665 -2767 0
-665 -2768 2772 0
2773 -2770 0
2774 -2771 0
-2772 2775 0
2774 -666 -2770 0
-666 -2771 2775 0
2776 -2773 0
2777 -2774 0
-2775 2778 0
2777 -667 -2773 0
-667 -2774 2778 0
2779 -2776 0
2780 -2777 0
-2778 2781 0
2780 -668 -2776 0
-668 -2777 2781 0
2782 -2779 0
2783 -2780 0
-2781 2784 0
2783 -669 -2779 0
-669 -2780 2784 0
2785 -2782 0
2786 -2783 0
-2784 2787 0
2786 -670 -2782 0
-670 -2783 2787 0
2788 -2785 0
2789 -2786 0
-2787 2790 0
2789 -671 -2785 0
-671 -2786 2790 0
2791 -2788 0
2792 -2789 0
-2790 2793 0
2792 -672 -2788 0
-672 -2789 2793 0
2794 -2791 0
2795 -2792 0
-2793 2796 0
2795 -673 -2791 0
-673 -2792 2796 0
2797 -674 0
2797 -2794 0
2798 -2795 0
-2796 2799 0
2798 -674 -2794 0
-674 -2795 2799 0
2800 -2797 0
2801 -2798 0
-2799 2802 0
2801 -675 -2797 0
-675 -2798 2802 0
2803 -676 0
2803 -2800 0
2804 -2801 0
-2802 2805 0
2804 -676 -2800 0
-676 -2801 2805 0
2806 -2803 0
2807 -2804 0
-2805 2808 0
2807 -677 -2803 0
-677 -2804 2808 0
2809 -678 0
2809 -2806 0
2810 -2807 0
-2808 2811 0
2810 -678 -2806 0
2812 -2809 0
2813 -2810 0
-2811 2814 0
2813 -679 -2809 0
-679 -2810 2814 0
2815 -2812 0
2816 -2813 0
-2814 2817 0
2816 -680 -2812 0
-680 -2813 2817 0
2818 -681 0
2818 -2815 0
2819 -2816 0
-2817 2820 0
2819 -681 -2815 0
-681 -2816 2820 0
2821 -2818 0
2822 -2819 0
-2820 2823 0
2822 -682 -2818 0
-682 -2819 2823 0
2824 -2821 0
2825 -2822 0
-2823 2826 0
2825 -683 -2821 0
-683 -2822 2826 0
2827 -2824 0
2828 -2825 0
-2826 2829 0
2828 -684 -2824 0
-684 -2825 2829 0
2830 -685 0
2830 -2827 0
2831 -2828 0
-2829 2832 0
2831 -685 -2827 0
-685 -2828 2832 0
2833 -686 0
2833 -2830 0
2834 -2831 0
-2832 2835 0
2834 -686 -2830 0
-686 -2831 2835 0
2836 -2833 0
2837 -2834 0
-2835 2838 0
2837 -687 -2833 0
-687 -2834 2838 0
2839 -688 0
2839 -2836 0
2840 -2837 0
-2838 2841 0
2840 -688 -2836 0
-688 -2837 2841 0
2842 -689 0
2842 -2839 0
2843 -2840 0
-2841 2844 0
2843 -689 -2839 0
-689 -2840 2844 0
2845 -2842 0
2846 -2843 0
-2844 2847 0
2846 -690 -2842 0
-690 -2843 2847 0
2848 -691 0
2848 -2845 0
2849 -2846 0
-2847 2850 0
-691 -2846 2850 0
2851 -2848 0
2852 -2849 0
-2850 2853 0
2852 -692 -2848 0
-692 -2849 2853 0
2854 -693 0
2854 -2851 0
2855 -2852 0
-2853 2856 0
2855 -693 -2851 0
-693 -2852 2856 0
2857 -2854 0
2858 -2855 0
-2856 2859 0
2858 -694 -2854 0
-694 -2855 2859 0
2860 -2857 0
2861 -2858 0
-2859 2862 0
2861 -695 -2857 0
-695 -2858 2862 0
2863 -696 0
2863 -2860 0
2864 -2861 0
-2862 2865 0
2864 -696 -2860 0
-696 -2861 2865 0
2866 -697 0
2866 -2863 0
2867 -2864 0
-2865 2868 0
2867 -697 -2863 0
-697 -2864 2868 0
2869 -2866 0
2870 -2867 0
-2868 2871 0
2870 -698 -2866 0
-698 -2867 2871 0
2872 -2869 0
2873 -2870 0
-2871 2874 0
2873 -699 -2869 0
-699 -2870 2874 0
2875 -2872 0
2876 -2873 0
-2874 2877 0
2876 -700 -2872 0
-700 -2873 2877 0
2878 -701 0
2878 -2875 0
2879 -2876 0
-2877 2880 0
2879 -701 -2875 0
-701 -2876 2880 0
2881 -702 0
2881 -2878 0
2882 -2879 0
-2880 2883 0
2882 -702 -2878 0
-702 -2879 2883 0
2884 -2881 0
2885 -2882 0
-2883 2886 0
2885 -703 -2881 0
-703 -2882 2886 0
2887 -2884 0
2888 -2885 0
-2886 2889 0
2888 -704 -2884 0
-704 -2885 2889 0
2890 -2887 0
2891 -2888 0
-2889 2892 0
2891 -705 -2887 0
-705 -2888 2892 0
2893 -2890 0
2894 -2891 0
-2892 2895 0
2894 -706 -2890 0
-706 -2891 2895 0
2896 -707 0
2896 -2893 0
2897 -2894 0
-2895 2898 0
2897 -707 -2893 0
-707 -2894 2898 0
2899 -2896 0
2900 -2897 0
-2898 2901 0
2900 -708 -2896 0
-708 -2897 2901 0
2902 -709 0
2902 -2899 0
2903 -2900 0
-2901 2904 0
2903 -709 -2899 0
-709 -2900 2904 0
2905 -2902 0
2906 -2903 0
-2904 2907 0
2906 -710 -2902 0
-710 -2903 2907 0
2908 -2905 0
2909 -2906 0
-2907 2910 0
2909 -711 -2905 0
-711 -2906 2910 0
2911 -712 0
2911 -2908 0
2912 -2909 0
-2910 2913 0
2912 -712 -2908 0
-712 -2909 2913 0
2914 -713 0
2914 -2911 0
2915 -2912 0
-2913 2916 0
2915 -713 -2911 0
-713 -2912 2916 0
2917 -714 0
2917 -2914 0
2918 -2915 0
-2916 2919 0
2918 -714 -2914 0
-714 -2915 2919 0
2920 -2917 0
2921 -2918 0
-2919 2922 0
2921 -715 -2917 0
-715 -2918 2922 0
2923 -716 0
2923 -2920 0
2924 -2921 0
-2922 2925 0
2924 -716 -2920 0
-716 -2921 2925 0
2926 -717 0
2926 -2923 0
2927 -2924 0
-2925 2928 0
2927 -717 -2923 0
-717 -2924 2928 0
2929 -2926 0
2930 -2927 0
-2928 2931 0
2930 -718 -2926 0
-718 -2927 2931 0
2932 -2929 0
2933 -2930 0
-2931 2934 0
2933 -719 -2929 0
-719 -2930 2934 0
2935 -720 0
2935 -2932 0
2936 -2933 0
-2934 2937 0
2936 -720 -2932 0
-720 -2933 2937 0
2938 -2935 0
2939 -2936 0
-2937 2940 0
2939 -721 -2935 0
-721 -2936 2940 0
2941 -2938 0
2942 -2939 0
-2940 2943 0
2942 -722 -2938 0
-722 -2939 2943 0
2944 -2941 0
2945 -2942 0
-2943 2946 0
2945 -723 -2941 0
-723 -2942 2946 0
2947 -2944 0
2948 -2945 0
-2946 2949 0
2948 -724 -2944 0
-724 -2945 2949 0
2950 -2947 0
2951 -2948 0
-2949 2952 0
2951 -725 -2947 0
-725 -2948 2952 0
2953 -2950 0
2954 -2951 0
-2952 2955 0
2954 -726 -2950 0
-726 -2951 2955 0
2956 -2953 0
2957 -2954 0
-2955 2958 0
2957 -727 -2953 0
-727 -2954 2958 0
2959 -2956 0
2960 -2957 0
-2958 2961 0
2960 -728 -2956 0
-728 -2957 2961 0
2962 -2959 0
2963 -2960 0
-2961 2964 0
2963 -729 -2959 0
-729 -2960 2964 0
2965 -2962 0
2966 -2963 0
-2964 2967 0
2966 -730 -2962 0
-730 -2963 2967 0
2968 -2965 0
2969 -2966 0
-2967 2970 0
2969 -731 -2965 0
-731 -2966 2970 0
2971 -2968 0
2972 -2969 0
-2970 2973 0
2972 -732 -2968 0
-732 -2969 2973 0
2974 -2971 0
2975 -2972 0
-2973 2976 0
2975 -733 -2971 0
-733 -2972 2976 0
2977 -734 0
2977 -2974 0
2978 -2975 0
-2976 2979 0
2978 -734 -2974 0
-734 -2975 2979 0
2980 -2977 0
2981 -2978 0
-2979 2982 0
2981 -735 -2977 0
-735 -2978 2982 0
2983 -2980 0
2984 -2981 0
-2982 2985 0
2984 -736 -2980 0
-736 -2981 2985 0
2986 -2983 0
2987 -2984 0
-2985 2988 0
2987 -737 -2983 0
-737 -2984 2988 0
2989 -2986 0
2990 -2987 0
-2988 2991 0
2990 -738 -2986 0
-738 -2987 2991 0
2992 -739 0
2992 -2989 0
2993 -2990 0
-2991 2994 0
2993 -739 -2989 0
-739 -2990 2994 0
2995 -740 0
2995 -2992 0
2996 -2993 0
-2994 2997 0
2996 -740 -2992 0
-740 -2993 2997 0
2998 -741 0
2998 -2995 0
2999 -2996 0
-2997 3000 0
2999 -741 -2995 0
-741 -2996 3000 0
3001 -742 0
3001 -2998 0
3002 -2999 0
-3000 3003 0
3002 -742 -2998 0
-742 -2999 3003 0
3004 -3001 0
3005 -3002 0
-3003 3006 0
3005 -743 -3001 0
-743 -3002 3006 0
3007 -3004 0
3008 -3005 0
-3006 3009 0
3008 -744 -3004 0
-744 -3005 3009 0
3010 -3007 0
3011 -3008 0
-3009 3012 0
-745 -3008 3012 0
3013 -3010 0
3014 -3011 0
-3012 3015 0
3014 -746 -3010 0
-746 -3011 3015 0
3016 -3013 0
3017 -3014 0
-3015 3018 0
3017 -747 -3013 0
-747 -3014 3018 0
3019 -3016 0
3020 -3017 0
-3018 3021 0
3020 -748 -3016 0
-748 -3017 3021 0
3022 -749 0
3022 -3019 0
3023 -3020 0
-3021 3024 0
3023 -749 -3019 0
-749 -3020 3024 0
3025 -3022 0
3026 -3023 0
-3024 3027 0
3026 -750 -3022 0
-750 -3023 3027 0
3028 -3025 0
3029 -3026 0
-3027 3030 0
3029 -751 -3025 0
-751 -3026 3030 0
3031 -752 0
3031 -3028 0
3032 -3029 0
-3030 3033 0
3032 -752 -3028 0
-752 -3029 3033 0
3034 -753 0
3034 -3031 0
3035 -3032 0
-3033 3036 0
3035 -753 -3031 0
-753 -3032 3036 0
3037 -754 0
3037 -3034 0
3038 -3035 0
-3036 3039 0
3038 -754 -3034 0
-754 -3035 3039 0
3040 -3037 0
3041 -3038 0
-3039 3042 0
3041 -755 -3037 0
-755 -3038 3042 0
3043 -3040 0
3044 -3041 0
-3042 3045 0
3044 -756 -3040 0
-756 -3041 3045 0
3046 -3043 0
3047 -3044 0
-3045 3048 0
3047 -757 -3043 0
-757 -3044 3048 0
3049 -758 0
3049 -3046 0
3050 -3047 0
-3048 3051 0
3050 -758 -3046 0
-758 -3047 3051 0
3052 -3049 0
3053 -3050 0
-3051 3054 0
3053 -759 -3049 0
-759 -3050 3054 0
3055 -3052 0
3056 -3053 0
-3054 3057 0
3056 -760 -3052 0
-760 -3053 3057 0
3058 -3055 0
3059 -3056 0
-3057 3060 0
3059 -761 -3055 0
-761 -3056 3060 0
3061 -3058 0
3062 -3059 0
-3060 3063 0
-762 3062 -3058 0
-762 -3059 3063 0
3064 -3061 0
3065 -3062 0
-3063 3066 0
3065 -763 -3061 0
-763 -3062 3066 0
3067 -3064 0
3068 -3065 0
-3066 3069 0
3068 -764 -3064 0
-764 -3065 3069 0
3070 -3067 0
3071 -3068 0
-3069 3072 0
3071 -765 -3067 0
-765 -3068 3072 0
3073 -3070 0
3074 -3071 0
-3072 3075 0
3074 -766 -3070 0
-766 -3071 3075 0
3076 -3073 0
3077 -3074 0
-3075 3078 0
3077 -767 -3073 0
-767 -3074 3078 0
3079 -3076 0
3080 -3077 0
-3078 3081 0
3080 -768 -3076 0
-768 -3077 3081 0
3082 -769 0
3082 -3079 0
3083 -3080 0
-3081 3084 0
3083 -769 -3079 0
-769 -3080 3084 0
3085 -3082 0
3086 -3083 0
-3084 3087 0
3086 -770 -3082 0
-770 -3083 3087 0
3088 -771 0
3088 -3085 0
3089 -3086 0
-3087 3090 0
3089 -771 -3085 0
-771 -3086 3090 0
3091 -3088 0
3092 -3089 0
-3090 3093 0
3092 -772 -3088 0
-772 -3089 3093 0
3094 -773 0
3094 -3091 0
3095 -3092 0
-3093 3096 0
3095 -773 -3091 0
-773 -3092 3096 0
3097 -3094 0
3098 -3095 0
-3096 3099 0
3098 -774 -3094 0
-774 -3095 3099 0
3100 -775 0
3100 -3097 0
3101 -3098 0
-3099 3102 0
3101 -775 -3097 0
-775 -3098 3102 0
3103 -776 0
3103 -3100 0
3104 -3101 0
-3102 3105 0
3104 -776 -3100 0
-776 -3101 3105 0
3106 -3103 0
3107 -3104 0
-3105 3108 0
3107 -777 -3103 0
-777 -3104 3108 0
3109 -778 0
3109 -3106 0
3110 -3107 0
-3108 3111 0
3110 -778 -3106 0
-778 -3107 3111 0
3112 -779 0
3112 -3109 0
3113 -3110 0
-3111 3114 0
3113 -779 -3109 0
-779 -3110 3114 0
3115 -780 0
3115 -3112 0
3116 -3113 0
-3114 3117 0
3116 -780 -3112 0
-780 -3113 3117 0
3118 -781 0
3118 -3115 0
3119 -3116 0
-3117 3120 0
3119 -781 -3115 0
-781 -3116 3120 0
3121 -782 0
3121 -3118 0
3122 -3119 0
-3120 3123 0
3122 -782 -3118 0
-782 -3119 3123 0
3124 -783 0
3124 -3121 0
3125 -3122 0
-3123 3126 0
3125 -783 -3121 0
-783 -3122 3126 0
3127 -3124 0
3128 -3125 0
-3126 3129 0
3128 -784 -3124 0
-784 -3125 3129 0
3130 -3127 0
3131 -3128 0
-3129 3132 0
3131 -785 -3127 0
-785 -3128 3132 0
3133 -786 0
3133 -3130 0
3134 -3131 0
-3132 3135 0
3134 -786 -3130 0
-786 -3131 3135 0
3136 -787 0
3136 -3133 0
3137 -3134 0
-3135 3138 0
3137 -787 -3133 0
-787 -3134 3138 0
3139 -788 0
3139 -3136 0
3140 -3137 0
-3138 3141 0
3140 -788 -3136 0
3142 -3139 0
3143 -3140 0
-3141 3144 0
3143 -789 -3139 0
-789 -3140 3144 0
3145 -3142 0
3146 -3143 0
-3144 3147 0
3146 -790 -3142 0
-790 -3143 3147 0
3148 -3145 0
3149 -3146 0
-3147 3150 0
3149 -791 -3145 0
-791 -3146 3150 0
3151 -3148 0
3152 -3149 0
-3150 3153 0
3152 -792 -3148 0
-792 -3149 3153 0
3154 -793 0
3154 -3151 0
3155 -3152 0
-3153 3156 0
3155 -793 -3151 0
-793 -3152 3156 0
3157 -794 0
3157 -3154 0
3158 -3155 0
-3156 3159 0
3158 -794 -3154 0
-794 -3155 3159 0
3160 -3157 0
3161 -3158 0
-3159 3162 0
3161 -795 -3157 0
-795 -3158 3162 0
3163 -796 0
3163 -3160 0
3164 -3161 0
-3162 3165 0
3164 -796 -3160 0
-796 -3161 3165 0
3166 -3163 0
3167 -3164 0
-3165 3168 0
3167 -797 -3163 0
-797 -3164 3168 0
3169 -798 0
3169 -3166 0
3170 -3167 0
-3168 3171 0
3170 -798 -3166 0
-798 -3167 3171 0
3172 -799 0
3172 -3169 0
3173 -3170 0
-3171 3174 0
3173 -799 -3169 0
-799 -3170 3174 0
3175 -800 0
3175 -3172 0
3176 -3173 0
-3174 3177 0
3176 -800 -3172 0
-800 -3173 3177 0
3178 -3175 0
3179 -3176 0
-3177 3180 0
3179 -801 -3175 0
-801 -3176 3180 0
3181 -3178 0
3182 -3179 0
-3180 3183 0
3182 -802 -3178 0
-802 -3179 3183 0
3184 -3181 0
3185 -3182 0
-3183 3186 0
-803 3185 -3181 0
-803 -3182 3186 0
3187 -3184 0
3188 -3185 0
-3186 3189 0
3188 -804 -3184 0
3190 -805 0
3190 -3187 0
3191 -3188 0
-3189 3192 0
3191 -805 -3187 0
-805 -3188 3192 0
3193 -3190 0
3194 -3191 0
-3192 3195 0
3194 -806 -3190 0
-806 -3191 3195 0
3196 -807 0
3196 -3193 0
3197 -3194 0
-3195 3198 0
3197 -807 -3193 0
-807 -3194 3198 0
3199 -808 0
3199 -3196 0
3200 -3197 0
-3198 3201 0
3200 -808 -3196 0
-808 -3197 3201 0
3202 -3199 0
3203 -3200 0
-3201 3204 0
3203 -809 -3199 0
-809 -3200 3204 0
3205 -810 0
3205 -3202 0
3206 -3203 0
-3204 3207 0
3206 -810 -3202 0
-810 -3203 3207 0
3208 -3205 0
3209 -3206 0
-3207 3210 0
3209 -811 -3205 0
-811 -3206 3210 0
3211 -3208 0
3212 -3209 0
-3210 3213 0
3212 -812 -3208 0
-812 -3209 3213 0
3214 -3211 0
3215 -3212 0
-3213 3216 0
3215 -813 -3211 0
-813 -3212 3216 0
3217 -3214 0
3218 -3215 0
-3216 3219 0
3218 -814 -3214 0
-814 -3215 3219 0
3220 -815 0
3220 -3217 0
3221 -3218 0
-3219 3222 0
3221 -815 -3217 0
-815 -3218 3222 0
3223 -3220 0
3224 -3221 0
-3222 3225 0
3224 -816 -3220 0
-816 -3221 3225 0
3226 -3223 0
3227 -3224 0
-3225 3228 0
3227 -817 -3223 0
-817 -3224 3228 0
3229 -3226 0
3230 -3227 0
-3228 3231 0
3230 -818 -3226 0
-818 -3227 3231 0
3232 -3229 0
3233 -3230 0
-3231 3234 0
3233 -819 -3229 0
-819 -3230 3234 0
3235 -3232 0
3236 -3233 0
-3234 3237 0
3236 -820 -3232 0
-820 -3233 3237 0
3238 -3235 0
3239 -3236 0
-3237 3240 0
3239 -821 -3235 0
-821 -3236 3240 0
3241 -3238 0
3242 -3239 0
-3240 3243 0
3242 -822 -3238 0
-822 -3239 3243 0
3244 -823 0
3244 -3241 0
3245 -3242 0
-3243 3246 0
3245 -823 -3241 0
-823 -3242 3246 0
3247 -3244 0
3248 -3245 0
-3246 3249 0
3248 -824 -3244 0
-824 -3245 3249 0
3250 -825 0
3250 -3247 0
3251 -3248 0
-3249 3252 0
3251 -825 -3247 0
-825 -3248 3252 0
3253 -826 0
3253 -3250 0
3254 -3251 0
-3252 3255 0
3254 -826 -3250 0
-826 -3251 3255 0
3256 -3253 0
3257 -3254 0
-3255 3258 0
3257 -827 -3253 0
-827 -3254 3258 0
3259 -3256 0
3260 -3257 0
-3258 3261 0
3260 -828 -3256 0
-828 -3257 3261 0
3262 -3259 0
3263 -3260 0
-3261 3264 0
3263 -829 -3259 0
-829 -3260 3264 0
3265 -3262 0
3266 -3263 0
-3264 3267 0
3266 -830 -3262 0
-830 -3263 3267 0
3268 -3265 0
3269 -3266 0
-3267 3270 0
3269 -831 -3265 0
-831 -3266 3270 0
3271 -832 0
3271 -3268 0
3272 -3269 0
-3270 3273 0
3272 -832 -3268 0
-832 -3269 3273 0
3274 -833 0
3274 -3271 0
3275 -3272 0
-3273 3276 0
3275 -833 -3271 0
-833 -3272 3276 0
3277 -3274 0
3278 -3275 0
-3276 3279 0
3278 -834 -3274 0
-834 -3275 3279 0
3280 -835 0
3280 -3277 0
3281 -3278 0
-3279 3282 0
3281 -835 -3277 0
-835 -3278 3282 0
3283 -3280 0
3284 -3281 0
-3282 3285 0
3284 -836 -3280 0
-836 -3281 3285 0
3286 -3283 0
3287 -3284 0
-3285 3288 0
3287 -837 -3283 0
-837 -3284 3288 0
3289 -838 0
3289 -3286 0
3290 -3287 0
-3288 3291 0
3290 -838 -3286 0
-838 -3287 3291 0
3292 -3289 0
3293 -3290 0
-3291 3294 0
3293 -839 -3289 0
-839 -3290 3294 0
3295 -3292 0
3296 -3293 0
-3294 3297 0
3296 -840 -3292 0
-840 -3293 3297 0
3298 -3295 0
3299 -3296 0
-3297 3300 0
-841 -3296 3300 0
3301 -3298 0
3302 -3299 0
-3300 3303 0
-842 -3299 3303 0
3304 -843 0
3304 -3301 0
3305 -3302 0
-3303 3306 0
-843 -3302 3306 0
3307 -3304 0
3308 -3305 0
-3306 3309 0
3308 -844 -3304 0
-844 -3305 3309 0
3310 -3307 0
3311 -3308 0
-3309 3312 0
-845 -3308 3312 0
3313 -3310 0
3314 -3311 0
-3312 3315 0
3314 -846 -3310 0
-846 -3311 3315 0
3316 -847 0
3316 -3313 0
3317 -3314 0
-3315 3318 0
3317 -847 -3313 0
-847 -3314 3318 0
3319 -848 0
3319 -3316 0
3320 -3317 0
-3318 3321 0
3320 -848 -3316 0
-848 -3317 3321 0
3322 -849 0
3322 -3319 0
3323 -3320 0
-3321 3324 0
3323 -849 -3319 0
-849 -3320 3324 0
3325 -850 0
3325 -3322 0
3326 -3323 0
-3324 3327 0
3326 -850 -3322 0
-850 -3323 3327 0
3328 -851 0
3328 -3325 0
3329 -3326 0
-3327 3330 0
3329 -851 -3325 0
-851 -3326 3330 0
3331 -852 0
3331 -3328 0
3332 -3329 0
-3330 3333 0
3332 -852 -3328 0
-852 -3329 3333 0
3334 -853 0
3334 -3331 0
3335 -3332 0
-3333 3336 0
3335 -853 -3331 0
-853 -3332 3336 0
3337 -3334 0
3338 -3335 0
-3336 3339 0
3338 -854 -3334 0
-854 -3335 3339 0
3340 -855 0
3340 -3337 0
3341 -3338 0
-3339 3342 0
3341 -855 -3337 0
-855 -3338 3342 0
3343 -3340 0
3344 -3341 0
-3342 3345 0
3344 -856 -3340 0
-856 -3341 3345 0
3346 -3343 0
3347 -3344 0
-3345 3348 0
3347 -857 -3343 0
-857 -3344 3348 0
3349 -3346 0
3350 -3347 0
-3348 3351 0
3350 -858 -3346 0
-858 -3347 3351 0
3352 -3349 0
3353 -3350 0
-3351 3354 0
3353 -859 -3349 0
-859 -3350 3354 0
3355 -3352 0
3356 -3353 0
-3354 3357 0
3356 -860 -3352 0
-860 -3353 3357 0
3358 -3355 0
3359 -3356 0
-3357 3360 0
3359 -861 -3355 0
-861 -3356 3360 0
3361 -3358 0
3362 -3359 0
-3360 3363 0
-862 -3359 3363 0
3364 -3361 0
3365 -3362 0
-3363 3366 0
3365 -863 -3361 0
-863 -3362 3366 0
3367 -3364 0
3368 -3365 0
-3366 3369 0
-864 -3365 3369 0
3370 -865 0
3370 -3367 0
3371 -3368 0
-3369 3372 0
3371 -865 -3367 0
-865 -3368 3372 0
3373 -866 0
3373 -3370 0
3374 -3371 0
-3372 3375 0
3374 -866 -3370 0
-866 -3371 3375 0
3376 -867 0
3376 -3373 0
3377 -3374 0
-3375 3378 0
3377 -867 -3373 0
-867 -3374 3378 0
3379 -3376 0
3380 -3377 0
-3378 3381 0
-868 -3377 3381 0
3382 -3379 0
3383 -3380 0
-3381 3384 0
3383 -869 -3379 0
-869 -3380 3384 0
3385 -870 0
3385 -3382 0
3386 -3383 0
-3384 3387 0
3386 -870 -3382 0
-870 -3383 3387 0
3388 -3385 0
3389 -3386 0
-3387 3390 0
3389 -871 -3385 0
-871 -3386 3390 0
3391 -3388 0
3392 -3389 0
-3390 3393 0
3392 -872 -3388 0
-872 -3389 3393 0
3394 -3391 0
3395 -3392 0
-3393 3396 0
3395 -873 -3391 0
-873 -3392 3396 0
3397 -874 0
3397 -3394 0
3398 -3395 0
-3396 3399 0
3398 -874 -3394 0
-874 -3395 3399 0
3400 -3397 0
3401 -3398 0
-3399 3402 0
3401 -875 -3397 0
-875 -3398 3402 0
3403 -3400 0
3404 -3401 0
-3402 3405 0
3404 -876 -3400 0
-876 -3401 3405 0
3406 -877 0
3406 -3403 0
3407 -3404 0
-3405 3408 0
3407 -877 -3403 0
-877 -3404 3408 0
3409 -878 0
3409 -3406 0
3410 -3407 0
-3408 3411 0
-878 -3407 3411 0
3412 -3409 0
3413 -3410 0
-3411 3414 0
3413 -879 -3409 0
-879 -3410 3414 0
3415 -3412 0
3416 -3413 0
-3414 3417 0
3416 -880 -3412 0
-880 -3413 3417 0
3418 -881 0
3418 -3415 0
3419 -3416 0
-3417 3420 0
3419 -881 -3415 0
-881 -3416 3420 0
3421 -882 0
3421 -3418 0
3422 -3419 0
-3420 3423 0
3422 -882 -3418 0
-882 -3419 3423 0
3424 -3421 0
3425 -3422 0
-3423 3426 0
3425 -883 -3421 0
-883 -3422 3426 0
3427 -3424 0
3428 -3425 0
-3426 3429 0
-884 -3425 3429 0
3430 -3427 0
3431 -3428 0
-3429 3432 0
-885 -3428 3432 0
3433 -886 0
3433 -3430 0
3434 -3431 0
-3432 3435 0
3434 -886 -3430 0
-886 -3431 3435 0
3436 -3433 0
3437 -3434 0
-3435 3438 0
3437 -887 -3433 0
-887 -3434 3438 0
3439 -3436 0
3440 -3437 0
-3438 3441 0
3440 -888 -3436 0
-888 -3437 3441 0
3442 -3439 0
3443 -3440 0
-3441 3444 0
3443 -889 -3439 0
-889 -3440 3444 0
3445 -3442 0
3446 -3443 0
-3444 3447 0
-890 -3443 3447 0
3448 -3445 0
3449 -3446 0
-3447 3450 0
3449 -891 -3445 0
-891 -3446 3450 0
3451 -3448 0
3452 -3449 0
-3450 3453 0
3452 -892 -3448 0
-892 -3449 3453 0
3454 -3451 0
3455 -3452 0
-3453 3456 0
3455 -893 -3451 0
-893 -3452 3456 0
3457 -3454 0
3458 -3455 0
-3456 3459 0
3458 -894 -3454 0
-894 -3455 3459 0
3460 -3457 0
3461 -3458 0
-3459 3462 0
3461 -895 -3457 0
-895 -3458 3462 0
3463 -3460 0
3464 -3461 0
-3462 3465 0
-896 3464 -3460 0
-896 -3461 3465 0
3466 -3463 0
3467 -3464 0
-3465 3468 0
3467 -897 -3463 0
-897 -3464 3468 0
3470 -3467 0
-3468 3471 0
3470 -898 -3466 0
-898 -3467 3471 0
3473 -3470 0
-3471 3474 0
-899 -3470 3474 0
3476 -3473 0
-3474 3477 0
-900 -3473 3477 0
3479 -3476 0
-3477 3480 0
-901 -3476 3480 0
3482 -3479 0
-3480 3483 0
-902 -3479 3483 0
-3483 3486 0
-903 -3482 3486 0
-3486 0
43 -109 44 111 46 47 48 45 112 110 0
43 -151 149 44 45 47 48 148 46 150 0
45 -787 786 784 785 46 48 47 44 43 0
43 -510 150 523 149 148 509 508 45 44 0
-619 -605 604 606 45 148 149 150 44 43 0
-799 44 786 43 150 784 148 45 149 785 0
45 -864 863 878 865 149 150 148 44 43 0
-79 43 80 121 130 82 47 122 46 124 0
43 -823 46 824 836 121 124 122 826 47 0
47 -676 46 704 508 43 511 509 674 673 0
-72 71 122 121 43 129 148 149 156 161 0
-80 -43 297 296 79 305 319 320 328 342 0
-274 148 289 287 43 149 122 121 161 275 0
148 -450 449 122 462 149 121 43 464 161 0
43 -478 148 479 122 149 121 491 493 161 0
122 -521 121 523 148 149 509 43 508 161 0
-274 43 821 806 275 709 710 731 784 785 0
-747 746 673 508 509 43 674 782 704 777 0
43 -605 604 709 710 743 784 818 785 821 0
-88 46 368 90 44 91 48 370 371 378 0
-196 48 134 44 46 198 137 136 199 210 0
-866 877 136 863 46 48 137 44 865 134 0
-179 48 181 396 44 46 182 394 397 411 0
368 -420 44 397 396 394 371 370 48 46 0
48 -607 606 44 604 46 368 630 370 371 0
49 -109 370 368 44 113 111 51 372 380 0
148 -383 44 372 49 368 152 150 370 51 0
-573 165 571 575 587 163 167 44 51 49 0
44 -620 -608 604 51 163 165 167 49 606 0
165 -800 788 51 784 786 167 163 44 49 0
-573 44 571 784 786 49 51 575 788 817 0
-44 53 823 825 79 84 55 828 832 81 0
-66 64 611 44 604 606 897 863 865 870 0
-123 71 686 129 73 121 44 673 675 681 0
-162 156 142 44 150 73 134 148 136 71 0
-687 73 673 681 142 136 134 71 44 675 0
73 -688 681 156 150 71 44 148 673 675 0
-171 163 165 394 73 44 71 396 402 410 0
402 -700 681 44 673 675 71 73 394 396 0
-98 163 879 863 165 174 44 100 865 874 0
-109 134 784 786 146 136 44 111 796 798 0
-196 134 210 802 136 44 198 784 786 798 0
-902 44 136 877 784 863 798 786 134 865 0
148 -478 150 480 493 878 893 44 865 863 0
150 -619 148 865 897 44 606 863 878 604 0
396 -451 449 465 410 165 163 476 394 44 0
163 -421 863 437 165 44 423 865 879 891 0
-179 44 604 181 880 621 606 863 865 897 0
216 -44 658 640 214 252 235 638 233 657 0
-44 298 562 823 296 846 541 825 539 855 0
-343 44 863 606 604 345 865 888 897 629 0
370 -420 44 631 396 604 394 368 630 606 0
370 -451 368 475 675 44 673 699 702 449 0
370 -707 699 44 604 606 630 673 675 368 0
-889 370 606 863 44 368 604 630 865 897 0
-421 44 812 423 604 784 606 786 818 632 0
-748 44 606 746 901 604 863 865 897 780 0
-151 161 121 46 148 449 452 462 464 124 0
-214 -228 46 134 137 217 709 712 723 728 0
-408 134 46 397 137 535 511 522 508 394 0
-46 299 277 562 542 318 274 561 539 296 0
-46 478 277 561 274 569 539 542 500 481 0
46 -537 449 476 511 452 508 535 394 397 0
-823 46 449 826 850 452 397 476 852 394 0
-68 49 456 813 449 453 64 784 788 791 0
-49 79 827 832 823 305 846 83 296 300 0
-178 49 163 148 750 167 761 152 746 762 0
49 -257 268 253 449 152 148 453 464 470 0
-274 49 289 593 278 575 152 148 571 586 0
-600 152 575 464 449 148 49 586 453 571 0
49 -512 148 746 777 523 152 750 761 508 0
163 -779 750 762 746 167 587 575 571 49 0
114 -118 58 85 84 63 53 109 115 79 0
-188 79 84 179 63 53 58 184 185 85 0
-829 828 823 832 79 84 63 53 58 85 0
58 -148 154 53 115 109 63 153 160 114 0
115 -571 109 577 583 53 63 114 576 58 0
53 -644 643 63 109 115 58 638 650 114 0
-250 53 238 233 179 63 185 184 239 58 0
53 -644 643 179 655 185 63 58 638 184 0
63 -709 179 726 715 185 58 53 714 184 0
53 -863 239 869 868 883 233 238 63 58 0
-71 327 79 324 53 76 84 319 87 328 0
-118 114 79 84 53 638 643 647 650 109 0
79 -301 53 342 296 305 319 324 84 328 0
79 -301 53 643 305 638 296 647 84 661 0
79 -348 53 848 352 343 823 828 84 832 0
-430 426 851 53 823 832 421 828 79 84 0
79 -483 478 823 853 53 487 828 832 84 0
-93 53 88 238 233 638 658 648 643 243 0
-103 120 53 426 109 114 98 421 432 433 0
179 -191 421 114 184 109 53 426 438 433 0
-331 114 421 445 53 324 426 109 319 433 0
53 -544 539 567 109 551 433 114 421 426 0
426 -666 421 650 53 114 109 643 433 638 0
53 -709 109 714 721 737 433 114 421 426 0
-250 53 238 233 638 643 184 655 658 179 0
426 -348 179 53 343 360 421 438 446 184 0
421 -666 638 53 438 426 179 643 655 184 0
179 -673 438 690 701 678 426 421 53 184 0
53 -840 828 851 426 438 179 823 421 184 0
179 -483 184 655 668 53 495 638 643 478 0
319 -662 658 238 233 53 643 339 324 638 0
238 -858 843 53 658 233 823 638 643 828 0
-571 324 445 576 595 599 319 53 421 426 0
-53 394 773 399 513 746 751 777 535 508 0
421 -571 53 576 828 823 856 851 599 426 0
58 -293 220 274 280 283 214 79 223 85 0
58 -349 343 280 274 79 283 365 85 352 0
79 -484 478 500 274 283 58 487 85 280 0
-94 58 119 286 274 109 88 284 115 280 0
-245 214 233 115 109 226 220 58 252 239 0
58 -293 286 280 274 115 214 220 226 109 0
-58 140 259 508 514 253 522 134 267 529 0
-368 390 280 185 274 385 179 58 291 374 0
185 -673 58 695 179 291 274 690 679 280 0
58 -293 252 294 274 220 239 214 233 280 0
-296 148 311 155 64 303 508 515 523 531 0
-296 148 311 155 64 303 571 578 586 594 0
-409 155 148 456 401 464 64 476 449 394 0
456 -892 878 148 464 64 863 449 155 870 0
-896 148 878 586 863 870 155 64 578 571 0
148 -716 155 724 64 900 863 870 878 709 0
196 -64 478 569 203 539 546 557 496 485 0
-319 326 449 473 64 808 791 784 813 456 0
64 -680 673 699 475 702 449 456 368 375 0
368 -602 597 571 375 64 515 534 508 578 0
64 -638 534 669 645 664 515 508 368 375 0
-811 401 784 449 456 394 64 476 791 813 0
64 -638 535 669 645 508 515 401 665 394 0
-811 401 604 818 611 631 784 394 64 791 0
-64 428 855 567 421 823 539 830 546 851 0
-633 813 449 611 784 456 818 64 791 604 0
-64 478 546 830 855 853 485 569 539 823 0
64 -637 611 818 578 571 784 791 604 817 0
64 -716 571 742 817 821 578 709 784 791 0
-902 64 604 897 784 863 611 791 818 870 0
156 -457 449 464 148 71 129 462 121 161 0
129 -584 571 586 148 156 121 71 579 161 0
71 -688 686 673 148 156 129 121 681 161 0
-408 71 402 394 142 261 267 415 134 253 0
71 -553 -539 134 142 253 261 267 547 560 0
-687 694 673 681 261 142 267 253 134 71 0
-516 261 253 529 508 156 268 148 523 71 0
148 -592 253 261 586 71 268 579 156 571 0
253 -717 709 730 156 261 268 148 71 724 0
-214 71 253 272 222 261 394 402 413 415 0
71 -539 261 673 253 547 560 681 694 705 0
306 -97 296 88 274 305 283 284 79 318 0
-107 79 853 98 823 832 478 487 834 489 0
-79 163 458 465 394 410 476 172 449 403 0
-205 367 79 328 319 361 343 352 196 337 0
214 -508 79 343 533 352 362 223 517 527 0
343 -663 657 214 638 647 79 223 362 352 0
214 -746 343 755 771 79 765 223 362 352 0
79 -842 823 848 343 214 362 223 832 352 0
214 -497 478 638 668 79 487 647 657 223 0
-501 79 478 283 296 500 305 487 318 274 0
-845 846 274 832 296 283 823 79 318 305 0
478 -673 283 695 703 682 79 500 487 274 0
79 -784 296 846 862 823 807 832 793 305 0
79 -503 478 823 352 343 832 848 487 853 0
79 -858 853 478 638 647 487 668 823 832 0
-207 196 206 88 108 109 120 98 208 119 0
-285 284 98 274 109 286 108 120 88 119 0
120 -449 119 459 461 460 109 108 98 88 0
-134 144 145 478 88 488 108 98 489 492 0
-285 284 98 274 233 88 244 243 108 294 0
478 -498 488 88 489 108 244 233 243 98 0
478 -649 108 668 88 638 98 489 488 648 0
478 -784 98 795 794 814 489 108 488 88 0
-121 109 119 638 88 131 648 650 651 133 0
-163 196 206 88 208 109 212 173 175 119 0
-292 196 284 274 286 208 88 109 206 119 0
-394 196 404 208 206 109 88 412 406 119 0
196 -656 88 650 206 208 109 638 648 119 0
-245 109 119 88 233 638 648 650 658 243 0
-308 306 286 318 274 284 88 296 109 119 0
-549 109 119 286 539 274 551 561 88 284 0
-660 284 286 650 274 109 88 648 638 119 0
-163 196 206 488 173 88 212 494 478 496 0
-189 179 313 274 284 88 296 291 306 318 0
-656 668 206 496 648 638 196 488 478 88 0
-316 284 318 88 243 306 294 296 274 233 0
-253 295 284 296 274 263 88 317 306 318 0
284 -660 478 668 648 488 274 500 638 88 0
-549 306 670 296 539 562 638 648 661 88 0
-88 581 571 742 673 709 706 683 745 719 0
120 -121 98 133 109 132 421 432 433 434 0
109 -550 539 567 98 551 421 120 432 433 0
-134 145 98 228 225 190 214 179 193 231 0
-285 478 291 190 98 179 489 500 495 274 0
421 -506 190 478 179 489 98 495 438 432 0
-840 851 823 834 190 438 179 98 421 432 0
-649 478 190 655 179 98 638 489 668 495 0
252 -508 233 528 98 244 519 225 214 527 0
214 -746 225 766 765 244 252 233 98 757 0
-354 233 244 98 848 343 834 823 843 363 0
478 -498 489 98 244 823 834 233 843 853 0
-508 233 854 519 98 244 528 823 834 843 0
-253 442 98 851 432 264 844 421 823 834 0
-508 319 445 519 532 98 536 330 421 432 0
478 -506 421 98 823 853 834 432 489 851 0
-508 421 432 536 98 823 834 851 519 854 0
489 -604 98 634 857 615 823 834 853 478 0
-98 745 571 673 709 582 742 720 706 684 0
-191 -556 109 179 551 539 638 650 655 670 0
109 -439 433 208 361 343 196 446 421 355 0
196 -604 557 636 109 208 551 622 539 616 0
214 -440 446 343 109 226 362 421 433 355 0
421 -443 286 551 109 274 561 567 539 433 0
478 -490 286 274 569 539 500 109 561 551 0
-308 109 562 638 670 296 551 539 650 661 0
109 -571 567 599 551 583 539 603 421 433 0
-835 855 567 823 851 539 109 551 421 433 0
-109 508 520 673 782 704 758 685 777 746 0
-407 -617 121 394 604 631 746 759 773 780 0
121 -539 552 778 686 782 705 746 759 673 0
-162 134 900 148 724 709 878 863 877 723 0
247 -233 804 449 134 784 469 798 463 813 0
-687 694 470 673 134 702 267 449 253 463 0
253 -805 267 813 463 798 134 449 470 784 0
-738 821 709 723 449 134 813 798 463 784 0
-134 478 553 668 670 569 539 492 638 652 0
134 -585 571 723 709 742 798 784 817 821 0
134 -618 604 723 709 784 743 798 818 821 0
134 -902 877 723 784 821 798 863 900 709 0
-148 248 559 670 638 653 233 539 658 554 0
-478 148 900 709 724 739 493 863 893 878 0
148 -619 604 900 709 724 743 863 878 897 0
-296 163 312 762 769 901 863 879 746 886 0
163 -725 689 745 587 709 706 571 673 742 0
163 -620 604 762 897 901 746 863 879 780 0
163 -638 781 654 689 673 708 762 746 782 0
-899 163 746 673 762 901 863 782 879 689 0
213 -439 438 343 196 179 361 421 446 360 0
196 -503 495 179 213 343 478 496 360 361 0
213 -556 495 557 569 196 496 179 539 478 0
362 -663 655 214 638 657 360 231 343 179 0
-366 179 360 365 296 313 274 291 343 318 0
-368 390 291 179 274 318 313 296 391 385 0
360 -449 179 471 343 291 274 365 474 466 0
478 -660 291 668 274 495 500 179 638 655 0
367 -251 361 233 343 337 339 196 363 319 0
478 -604 557 622 539 196 636 496 569 634 0
-656 670 539 569 196 478 668 496 557 638 0
-316 233 539 559 658 670 562 296 638 661 0
367 -441 339 445 446 363 343 233 421 319 0
388 -233 706 591 571 368 597 673 693 699 0
-863 883 559 823 895 903 233 843 539 855 0
-233 804 571 709 591 729 817 742 784 821 0
368 -389 253 702 470 449 475 673 699 694 0
253 -700 673 415 476 394 694 449 470 702 0
253 -638 508 659 535 529 669 415 665 394 0
253 -539 570 673 705 508 560 694 529 704 0
253 -539 560 673 694 705 709 741 730 745 0
-394 478 500 505 561 416 569 566 539 274 0
-845 478 569 853 539 561 500 274 823 855 0
-274 821 604 626 806 709 743 731 784 818 0
-274 863 604 901 626 768 746 780 885 897 0
-444 421 296 823 567 562 851 846 855 539 0
-296 901 604 746 886 769 780 897 863 627 0
-508 319 445 533 536 367 343 446 421 532 0
319 -746 445 770 771 774 446 367 421 343 0
-564 567 446 539 848 421 823 855 851 343 0
-343 821 571 709 596 734 742 817 784 809 0
-343 900 604 629 709 734 743 863 888 897 0
368 -735 571 745 706 597 673 709 699 742 0
-890 901 604 631 780 394 897 773 746 863 0
478 -506 421 539 823 853 851 567 855 569 0
478 -604 569 634 636 823 857 853 855 539 0
-783 901 604 780 897 900 863 709 743 746 0
-55 344 54 56 45 48 47 345 346 348 0
-81 48 80 118 45 82 47 111 112 110 0
-99 45 344 47 48 100 101 345 346 354 0
45 -481 479 48 490 110 112 47 480 111 0
47 -787 786 45 110 785 112 48 111 796 0
47 -640 639 48 45 641 666 422 423 424 0
-50 45 425 422 480 51 506 479 423 482 0
-60 45 427 59 790 785 786 812 423 422 0
-72 45 486 429 423 479 480 506 73 422 0
-135 45 798 796 136 110 785 111 146 786 0
45 -703 685 480 111 490 110 479 675 674 0
-814 45 480 796 785 479 110 111 490 786 0
111 -820 796 675 674 685 45 110 785 786 0
-197 45 812 439 785 423 786 802 198 422 0
-45 321 747 779 573 595 572 748 770 320 0
-45 450 747 779 600 573 748 572 451 775 0
-47 256 257 50 297 254 317 299 300 52 0
52 -47 864 50 254 884 256 257 867 866 0
56 -84 130 82 122 80 47 126 124 54 0
-114 56 509 112 47 54 520 511 513 110 0
56 -277 47 122 279 124 126 287 275 54 0
56 -481 54 491 483 479 124 47 126 122 0
47 -828 824 836 124 126 122 54 826 56 0
219 -828 824 842 215 217 54 47 826 56 0
47 -714 346 734 54 344 710 56 712 348 0
56 -395 399 511 47 397 54 509 513 535 0
-47 65 747 753 74 78 72 749 754 67 0
118 -721 718 47 112 82 110 80 710 712 0
130 -722 718 47 124 122 82 80 710 712 0
47 -832 824 836 826 124 82 130 122 80 0
424 -737 710 422 82 80 47 712 718 430 0
-89 47 842 224 215 824 833 217 826 91 0
-99 47 344 101 734 720 712 710 354 346 0
-226 47 215 835 842 112 110 217 824 826 0
-369 47 826 380 835 371 110 849 824 112 0
110 -481 479 490 511 112 509 538 47 520 0
47 -650 112 669 110 511 509 641 639 520 0
-854 47 509 835 110 520 112 824 511 826 0
112 -676 674 826 835 859 110 47 685 824 0
124 -676 122 686 836 47 859 826 674 824 0
47 -395 413 217 215 824 826 842 850 397 0
-851 424 215 842 217 824 440 422 47 826 0
-481 47 215 710 217 728 739 712 497 479 0
-860 217 215 842 728 47 712 710 824 826 0
-47 256 625 572 574 592 637 605 607 254 0
47 -744 734 344 639 641 663 710 712 346 0
-848 858 346 639 641 663 824 344 826 47 0
-395 47 535 669 397 639 641 509 665 511 0
47 -536 509 666 669 639 641 511 422 424 0
47 -851 424 858 666 641 824 639 422 826 0
47 -676 674 824 859 639 641 708 826 858 0
-142 78 50 138 72 75 68 135 141 65 0
-167 164 72 50 68 78 75 170 171 65 0
-204 65 50 197 78 75 72 203 200 68 0
78 -261 257 72 254 260 50 75 68 65 0
65 -710 50 717 716 78 75 72 713 68 0
75 -750 747 754 72 78 753 68 50 65 0
65 -210 50 197 138 141 135 203 200 68 0
65 -267 254 138 68 135 257 50 260 141 0
-271 197 203 257 254 200 260 50 68 65 0
65 -674 50 691 200 203 197 68 680 677 0
65 -710 203 713 716 727 200 197 50 68 0
297 -627 304 72 605 50 300 612 608 75 0
327 -323 75 887 871 867 864 50 72 320 0
-372 50 889 369 376 864 867 871 72 75 0
50 -453 75 457 612 633 605 72 608 450 0
50 -897 612 871 864 867 608 605 72 75 0
-102 50 605 99 264 257 254 608 615 625 0
50 -540 138 543 608 636 135 553 618 605 0
50 -575 572 608 637 618 138 605 135 585 0
-271 197 257 200 622 605 254 608 50 625 0
395 -631 622 200 412 197 605 50 398 608 0
50 -674 622 677 707 197 200 608 605 691 0
-50 278 425 275 440 215 293 218 443 422 0
417 -415 257 395 300 254 317 297 50 398 0
50 -575 254 592 864 257 572 867 884 896 0
50 -540 297 543 566 300 562 395 398 417 0
50 -540 398 864 543 566 890 895 867 395 0
50 -674 398 677 700 864 867 890 899 395 0
69 221 -65 215 275 219 293 281 279 54 0
-54 320 72 864 327 76 868 871 887 324 0
54 -153 279 122 287 149 161 275 126 289 0
287 -500 275 126 279 491 122 479 54 483 0
287 -561 122 552 279 540 275 126 544 54 0
126 -789 785 279 797 275 122 806 54 287 0
-426 54 215 422 219 440 483 479 497 506 0
-297 54 479 501 531 301 483 509 538 513 0
-54 320 628 595 572 576 605 609 637 324 0
344 -714 710 741 54 734 564 540 544 348 0
54 -747 540 751 778 570 544 509 777 513 0
-115 59 479 520 110 538 484 490 509 514 0
122 -651 -280 639 127 275 59 287 644 660 0
-320 325 540 127 332 122 545 552 563 59 0
344 -356 785 127 349 790 797 809 122 59 0
127 -434 479 422 59 427 484 122 491 506 0
122 -569 59 484 491 545 127 540 479 552 0
127 -853 836 484 122 824 59 491 479 829 0
-679 545 540 686 705 127 122 552 59 674 0
-816 127 785 122 545 790 797 540 59 552 0
127 -855 836 545 122 824 540 552 59 829 0
127 -679 122 686 829 836 859 824 674 59 0
127 -862 836 59 785 797 824 829 122 790 0
-135 140 809 344 785 790 798 59 349 357 0
-164 169 639 437 59 644 654 666 427 422 0
-59 180 588 466 600 455 450 572 577 185 0
-320 325 644 662 639 824 829 847 59 858 0
59 -668 663 344 503 479 484 639 644 349 0
59 -715 484 739 710 503 479 734 344 349 0
344 -605 59 610 809 818 785 790 629 349 0
344 -715 59 734 785 790 809 821 710 349 0
-59 395 374 400 369 889 864 869 420 890 0
-59 450 572 577 455 600 896 864 892 869 0
-80 65 87 747 72 86 753 754 755 78 0
-142 65 78 72 747 135 753 754 760 141 0
65 -762 747 753 171 164 170 78 72 754 0
65 -578 572 585 747 779 753 760 141 135 0
65 -479 197 485 203 212 170 496 494 164 0
65 -824 254 844 260 269 170 830 164 839 0
-344 65 764 197 203 361 350 747 753 771 0
-375 65 386 203 197 747 753 764 772 369 0
197 -479 203 496 747 776 485 753 764 65 0
-80 327 72 87 328 320 342 297 305 304 0
-96 450 457 459 72 864 892 871 873 89 0
-106 330 72 754 99 757 747 327 770 320 0
-106 450 457 460 99 775 72 747 754 757 0
-142 135 754 376 369 382 760 747 72 772 0
164 -465 457 633 171 612 72 605 620 450 0
164 -509 516 605 620 171 635 612 72 524 0
390 -275 297 72 391 369 282 376 318 304 0
304 -769 754 770 747 342 320 297 72 327 0
-392 320 871 864 887 889 72 369 327 376 0
-473 320 612 72 605 633 628 457 450 327 0
572 -579 327 595 628 320 637 72 612 605 0
572 -579 320 72 871 864 887 595 896 327 0
72 -780 747 327 770 628 754 612 605 320 0
72 -710 376 735 717 747 754 783 772 369 0
72 -785 747 822 754 792 810 369 376 772 0
72 -780 775 457 633 612 747 605 450 754 0
450 -897 892 612 864 457 633 605 72 871 0
-72 858 639 674 681 708 824 831 859 646 0
-369 80 380 242 118 388 245 234 110 377 0
80 -682 674 685 693 242 245 118 234 110 0
-180 80 194 130 149 157 122 188 192 161 0
-197 149 205 130 122 157 80 161 209 211 0
-283 157 287 161 275 80 130 122 149 289 0
149 -487 479 491 493 157 80 130 122 161 0
161 -554 149 552 130 80 157 122 540 548 0
130 -487 479 498 80 242 246 234 491 122 0
80 -559 122 552 246 234 540 242 130 548 0
80 -682 674 686 693 242 246 234 130 122 0
122 -793 804 234 797 242 246 130 80 785 0
130 -682 80 686 705 122 548 674 540 552 0
130 -722 710 741 552 718 80 122 540 548 0
80 -254 268 730 262 149 157 718 710 724 0
-864 157 724 872 878 900 710 718 149 80 0
430 -737 729 80 441 242 234 710 422 718 0
80 -254 540 262 710 718 548 560 730 741 0
-149 145 99 89 108 135 159 162 144 158 0
135 -463 459 89 450 144 99 145 108 460 0
-234 273 108 243 254 99 244 263 264 89 0
-307 317 99 108 263 306 264 89 297 254 0
-470 450 460 89 254 99 108 263 264 459 0
-509 450 460 99 518 537 89 108 519 459 0
-110 164 208 173 175 89 206 197 212 119 0
-122 266 884 89 864 873 263 254 131 876 0
89 -614 605 618 164 173 177 144 135 620 0
197 -509 212 518 526 89 524 173 206 164 0
-312 306 317 173 269 263 164 297 89 254 0
-378 197 -475 89 206 450 459 467 386 369 0
-476 395 206 467 197 89 450 412 404 459 0
-509 526 206 467 89 459 450 197 518 537 0
197 -614 89 622 206 605 459 450 467 633 0
-234 395 89 414 864 883 873 243 890 404 0
395 -415 89 254 864 263 873 884 890 404 0
-581 263 572 592 254 864 884 89 873 896 0
297 -785 417 807 811 794 306 89 395 404 0
450 -476 395 892 89 864 873 890 459 404 0
-639 89 459 648 864 873 667 892 898 450 0
-89 549 540 745 674 683 705 710 719 741 0
-149 145 615 99 135 159 162 605 618 619 0
-215 180 190 225 99 135 145 228 193 231 0
99 -621 618 605 193 180 615 145 190 135 0
99 -684 -674 135 145 180 190 193 687 690 0
180 -763 747 135 145 190 193 99 760 757 0
145 -479 135 757 776 489 99 747 760 492 0
145 -582 99 585 760 779 135 747 757 572 0
-215 180 190 225 99 450 460 466 468 231 0
-621 180 190 466 460 605 615 99 633 450 0
-470 450 460 615 625 633 264 254 605 99 0
-473 320 775 460 99 747 770 757 450 330 0
330 -582 572 637 595 605 320 628 615 99 0
-99 745 540 550 674 684 705 710 720 741 0
-297 110 479 509 501 531 520 490 308 538 0
-110 450 461 637 633 572 600 605 616 583 0
149 -799 797 122 785 806 275 161 287 289 0
164 -122 381 369 269 176 254 384 389 266 0
-434 234 812 122 441 422 785 797 804 246 0
-843 246 686 836 122 824 234 693 859 674 0
287 -695 674 824 845 859 686 836 122 275 0
-450 122 462 702 824 686 852 859 836 674 0
164 -587 572 605 637 135 585 177 620 618 0
180 -310 297 391 193 313 369 382 385 135 0
-422 180 447 385 193 135 369 438 382 435 0
135 -699 -674 180 193 687 690 385 369 382 0
180 -411 395 193 135 585 572 588 598 408 0
-621 572 588 618 605 193 585 637 180 135 0
135 -706 -674 180 193 572 585 588 687 690 0
395 -310 417 297 382 135 369 408 391 420 0
-333 135 320 585 572 605 618 628 637 595 0
408 -877 420 889 382 864 135 369 890 395 0
382 -597 585 779 369 135 772 760 747 572 0
135 -463 572 605 633 585 600 618 450 637 0
135 -540 572 553 605 603 585 618 636 637 0
149 -254 529 268 493 509 499 523 479 538 0
-653 660 275 530 669 523 639 149 509 289 0
149 -740 739 479 523 710 724 509 538 493 0
-335 320 164 605 212 337 622 628 620 197 0
212 -710 369 727 197 164 735 725 384 386 0
212 -762 747 772 197 164 386 369 384 764 0
269 -630 625 369 164 254 620 605 384 389 0
-824 269 625 857 164 620 605 844 254 839 0
180 -411 412 420 369 386 213 197 385 395 0
180 -270 385 254 317 313 391 389 369 297 0
180 -785 313 810 297 369 391 801 807 385 0
572 -763 747 775 779 180 600 588 450 466 0
197 -314 417 412 395 297 420 386 391 369 0
197 -589 572 595 747 779 770 764 320 337 0
-344 361 197 412 393 369 395 386 419 420 0
-881 386 369 889 412 395 197 864 890 420 0
197 -479 386 496 747 764 776 504 772 369 0
197 -479 467 496 747 775 507 450 764 776 0
-605 440 275 623 632 443 626 293 422 215 0
-692 558 215 705 745 710 540 674 741 728 0
-294 234 804 710 729 731 275 785 821 806 0
-572 234 804 591 710 729 742 785 817 821 0
389 -769 369 772 297 254 747 317 391 767 0
254 -785 369 807 805 810 317 391 297 389 0
-340 320 625 572 592 605 595 628 637 254 0
364 -254 741 560 564 710 730 734 540 344 0
254 -785 369 805 864 810 884 889 902 389 0
395 -415 572 254 592 890 884 864 896 598 0
-254 529 509 708 659 704 669 694 639 674 0
-824 254 592 884 844 856 903 572 896 864 0
390 -275 297 416 391 420 369 318 417 395 0
-572 821 275 731 742 710 593 785 806 817 0
-710 369 391 735 395 417 732 297 736 420 0
297 -785 369 810 811 417 395 391 807 420 0
320 -509 572 595 605 602 628 635 532 637 0
344 -572 821 734 742 710 596 809 817 785 0
344 -605 821 743 629 734 809 710 818 785 0
-369 859 639 664 708 699 674 824 849 858 0
-422 450 477 779 747 572 599 600 775 774 0
450 -639 600 671 864 898 667 572 896 892 0
-52 90 51 189 183 181 182 92 48 91 0
-55 48 56 201 100 198 199 103 207 101 0
-48 -303 67 299 298 66 541 542 546 562 0
-108 370 101 379 90 48 91 371 378 100 0
424 -438 431 181 91 189 182 48 423 90 0
90 -206 48 199 198 91 424 439 431 423 0
-216 90 217 440 224 423 91 424 431 48 0
48 -190 181 397 182 396 101 411 100 405 0
48 -432 424 198 439 101 100 207 199 423 0
-193 48 182 136 181 191 111 137 146 112 0
137 -510 111 511 522 136 146 48 112 520 0
112 -787 786 111 136 137 146 48 796 798 0
-825 826 137 136 835 837 146 48 112 111 0
-866 880 112 111 181 182 191 48 865 875 0
-825 48 210 826 841 199 137 198 136 837 0
-866 865 136 137 198 199 210 48 877 881 0
48 -711 357 723 734 137 136 712 346 345 0
-787 786 199 802 439 48 198 812 423 424 0
-48 273 236 235 276 295 277 256 294 255 0
396 -640 448 641 665 666 424 397 48 423 0
-51 68 827 543 546 855 541 825 66 830 0
-75 73 486 482 51 480 506 429 423 425 0
-51 81 825 305 827 298 846 832 300 83 0
-158 90 51 183 92 152 150 181 189 194 0
-173 90 165 51 167 181 92 183 189 195 0
90 -438 431 423 51 189 183 181 92 425 0
51 -794 90 809 786 788 92 345 347 353 0
90 -447 431 425 51 92 370 372 378 423 0
90 -794 425 812 423 51 786 788 431 92 0
370 -120 51 111 113 100 102 372 379 380 0
100 -432 174 437 423 167 51 165 102 425 0
51 -573 174 575 582 587 167 165 100 102 0
51 -795 100 809 345 786 788 347 102 354 0
-867 100 102 888 865 874 51 345 347 354 0
-138 113 146 51 111 786 136 798 788 796 0
113 -748 181 750 758 183 191 111 763 51 0
191 -801 796 183 51 113 181 786 111 788 0
-867 875 51 111 865 181 183 191 113 880 0
-321 331 808 113 111 323 786 788 51 796 0
-355 347 796 345 111 51 788 809 786 113 0
113 -433 425 111 423 796 788 51 786 812 0
-494 506 437 480 165 167 51 482 423 425 0
-800 165 786 812 437 423 167 788 51 425 0
-200 788 198 812 51 786 425 802 439 423 0
-51 860 510 512 740 713 711 825 827 854 0
-219 55 220 84 60 216 63 223 85 81 0
-242 84 235 60 63 55 238 239 85 81 0
55 -580 573 577 84 85 576 81 60 63 0
63 -644 643 647 84 60 640 55 85 81 0
60 -675 84 679 682 678 55 63 85 81 0
-111 60 583 114 115 63 55 573 577 576 0
60 -591 239 238 63 576 573 235 577 55 0
60 -865 238 883 869 239 63 235 868 55 0
-454 55 451 738 60 63 455 711 715 714 0
55 81 825 828 86 66 84 830 832 -69 0
-73 55 321 87 327 84 324 76 328 81 0
55 -513 321 517 532 328 324 81 510 84 0
55 -662 647 321 640 328 324 84 643 81 0
84 -847 832 328 324 321 825 828 55 81 0
-580 81 671 55 573 84 576 640 643 647 0
84 -786 55 789 828 862 825 832 793 81 0
-181 55 711 655 643 640 714 726 744 184 0
-258 55 844 273 235 825 828 843 255 238 0
235 -751 748 238 55 766 770 321 324 339 0
-591 643 573 576 671 658 235 238 640 55 0
-729 744 640 658 238 235 643 711 55 714 0
321 -606 576 609 628 595 55 573 637 324 0
55 -544 541 573 576 603 855 825 828 856 0
55 -606 573 609 825 576 856 828 637 857 0
223 -514 510 517 527 220 60 216 81 85 0
220 -752 748 223 216 60 755 765 81 85 0
-458 85 451 471 283 276 455 60 280 81 0
216 -150 220 239 60 235 154 248 252 229 0
-181 60 185 466 451 600 573 577 455 588 0
-181 60 711 466 451 726 185 715 455 738 0
-60 202 786 802 439 427 198 790 812 423 0
-469 468 451 60 220 239 252 235 216 455 0
-396 414 280 60 294 239 235 416 400 276 0
60 -593 276 600 280 455 573 471 451 577 0
86 -262 255 748 66 260 753 755 767 81 0
-345 86 830 350 352 66 825 832 848 81 0
487 -480 66 748 485 86 755 81 753 776 0
86 -718 711 753 81 66 716 755 783 748 0
-791 66 -786 86 748 753 755 793 822 81 0
-861 86 748 825 832 66 753 755 830 81 0
-165 123 170 66 128 255 266 269 260 176 0
266 -730 711 260 123 722 128 255 66 716 0
-66 186 181 865 880 194 150 155 870 878 0
-66 186 411 631 606 611 181 621 401 396 0
-198 66 203 716 783 727 711 753 748 764 0
-240 66 830 559 541 235 855 843 825 546 0
-423 66 748 428 737 716 753 774 783 711 0
66 -480 855 830 569 825 485 541 853 546 0
-741 860 546 716 66 541 711 825 855 830 0
-73 81 304 282 283 298 276 305 318 87 0
90 -541 73 547 556 549 189 187 181 96 0
73 -612 606 181 90 187 189 614 96 621 0
90 -446 431 423 96 429 353 345 73 351 0
90 -612 351 614 345 73 606 629 96 353 0
429 -701 683 90 675 96 681 73 423 431 0
-361 100 351 354 207 204 106 73 345 198 0
204 -691 684 198 675 100 207 681 73 106 0
351 -573 106 579 582 100 345 596 73 354 0
351 -698 684 100 106 675 345 681 73 354 0
-871 888 354 865 345 100 73 106 351 874 0
100 -432 405 448 73 106 396 423 429 402 0
100 -640 106 681 649 684 675 73 646 708 0
73 -825 191 831 835 840 117 187 111 181 0
117 -825 111 831 681 73 835 685 675 859 0
-123 156 204 211 161 198 150 73 209 129 0
-235 241 204 142 136 210 73 198 247 251 0
-255 267 198 261 136 73 210 204 142 271 0
142 -871 136 881 198 73 210 204 877 865 0
-792 357 786 809 351 142 136 73 345 798 0
156 -255 270 261 150 181 194 73 268 187 0
194 -495 187 493 181 156 150 73 480 486 0
156 -436 211 198 423 439 204 150 73 429 0
156 -496 211 493 198 150 73 204 486 480 0
73 -825 411 831 850 396 187 181 402 840 0
-73 321 748 717 711 733 754 327 770 783 0
-73 516 451 457 537 510 740 711 717 738 0
216 -315 657 223 298 305 647 640 661 81 0
223 -777 765 517 81 216 748 527 510 755 0
81 -786 510 803 815 527 223 517 793 216 0
223 -842 517 854 216 527 510 825 832 81 0
-781 223 640 765 81 647 657 216 748 755 0
283 -660 640 661 298 276 318 647 305 81 0
298 -531 510 532 305 342 517 328 321 81 0
305 -675 298 682 697 696 328 321 342 81 0
342 -718 298 733 732 81 328 321 305 711 0
81 -769 755 770 298 748 342 328 321 305 0
81 -786 298 793 846 807 825 832 862 305 0
-847 328 517 832 321 532 81 510 825 854 0
-345 81 832 510 533 517 352 825 854 848 0
-580 81 573 832 602 856 517 510 825 854 0
-873 90 189 880 897 181 606 614 621 865 0
-90 273 235 276 243 295 263 294 255 284 0
90 -541 370 699 549 683 675 705 565 378 0
100 -298 312 307 879 174 165 886 874 865 0
-359 100 888 345 354 174 165 874 865 879 0
410 -640 165 665 396 100 649 174 405 654 0
165 -573 174 587 582 706 100 675 689 684 0
273 -100 767 235 748 757 244 255 766 264 0
-100 273 825 834 843 235 255 264 244 844 0
-896 100 -573 582 596 865 874 888 354 345 0
100 -711 345 734 865 874 888 720 354 900 0
565 -541 379 550 684 675 699 705 370 100 0
-208 881 210 198 146 136 111 865 877 875 0
-298 308 310 136 111 146 877 875 865 886 0
-321 331 146 808 111 333 798 786 136 796 0
191 -616 606 621 875 181 865 897 880 111 0
-355 345 480 888 111 865 503 875 893 490 0
111 -510 370 699 534 675 520 704 380 685 0
-825 835 675 699 849 111 685 859 370 380 0
-433 893 506 423 480 891 111 875 865 490 0
-111 650 451 461 573 583 600 640 667 671 0
216 -669 657 123 510 527 640 651 521 227 0
216 -865 510 882 894 123 527 521 876 227 0
255 -659 266 671 640 592 584 123 573 651 0
-423 123 434 521 536 573 584 599 602 510 0
-462 123 451 744 651 640 667 711 722 738 0
521 -606 602 637 635 584 123 510 573 617 0
123 -552 541 603 671 640 670 573 651 584 0
-276 288 210 198 806 292 786 798 136 802 0
-435 439 891 210 198 877 865 881 423 136 0
357 -711 136 734 786 798 809 821 345 723 0
-136 670 541 553 573 652 671 603 585 640 0
150 -748 194 761 763 901 880 878 181 865 0
-150 248 541 559 855 554 235 825 838 843 0
-436 150 893 506 423 480 865 878 891 493 0
195 -438 437 181 165 423 891 865 879 880 0
-212 439 437 198 423 165 881 879 865 891 0
-165 860 510 524 740 711 725 839 825 854 0
-360 345 888 621 629 606 181 865 897 880 0
-438 897 891 621 632 181 423 865 880 606 0
-181 671 451 573 466 667 588 600 655 640 0
-198 783 451 467 764 775 711 727 738 748 0
216 -272 273 235 748 765 252 766 255 767 0
216 -669 658 252 510 640 657 235 527 528 0
216 -842 527 854 252 528 843 235 825 510 0
-345 216 771 468 451 474 748 765 775 362 0
216 -865 537 882 527 894 510 451 468 892 0
235 -768 767 748 294 273 766 255 276 295 0
295 -845 843 273 255 294 825 276 235 844 0
-529 273 528 844 854 235 255 825 510 843 0
321 -847 843 528 235 510 532 825 854 339 0
-345 235 528 533 825 848 843 363 854 510 0
-235 804 441 624 423 606 632 786 812 818 0
-591 602 528 573 843 856 235 825 854 510 0
235 -729 528 740 843 860 711 510 854 825 0
-370 390 298 255 276 391 317 318 389 295 0
255 -594 592 856 298 825 844 846 317 573 0
255 -470 451 767 592 600 775 748 573 779 0
-276 897 443 606 626 423 632 865 885 891 0
-298 444 606 632 423 891 886 897 865 627 0
298 -472 451 738 640 711 744 661 732 667 0
-594 671 541 573 562 640 298 661 603 670 0
-594 603 562 573 825 846 856 855 298 541 0
-741 860 541 732 562 298 711 825 855 846 0
-473 321 738 451 711 733 770 748 775 783 0
-634 865 480 629 897 345 503 888 893 606 0
-890 891 448 606 632 897 631 865 423 396 0
-423 783 451 477 711 748 775 738 737 774 0
-852 854 600 602 856 825 573 451 510 537 0
-742 825 573 740 860 510 602 854 856 711 0
-52 57 379 373 371 103 372 102 101 56 0
-62 52 871 61 75 77 867 866 74 869 0
-62 52 679 869 899 676 677 61 867 866 0
-82 78 52 86 74 87 75 68 67 83 0
74 -611 608 612 68 75 78 67 607 52 0
78 -681 680 68 67 676 75 74 52 677 0
52 -712 67 717 716 74 78 75 68 713 0
52 -750 749 754 753 78 75 74 68 67 0
67 -870 52 871 867 866 78 75 74 68 0
-137 138 680 68 67 141 687 676 677 52 0
52 -750 749 753 767 260 68 256 257 67 0
-870 52 680 899 676 68 67 866 677 867 0
-278 52 277 282 74 318 299 75 300 304 0
75 -547 299 562 74 300 52 304 542 543 0
299 -712 304 717 732 300 75 74 52 713 0
304 -886 871 74 52 299 300 75 867 866 0
52 -511 516 512 866 871 75 74 894 867 0
74 -826 52 903 75 -831 866 867 871 827 0
-52 -827 183 826 112 113 182 191 835 840 0
-560 299 562 52 543 317 300 542 257 256 0
52 -575 574 607 257 256 592 608 625 637 0
-694 707 257 625 676 256 52 607 677 608 0
52 -826 257 903 256 844 866 867 884 827 0
300 -627 543 636 52 299 562 607 608 542 0
-641 670 543 542 300 299 661 52 642 562 0
-826 855 543 562 846 542 299 52 827 300 0
52 -897 607 899 707 608 677 866 676 867 0
151 154 -56 239 61 236 153 238 63 248 0
56 -67 375 373 371 103 105 69 101 379 0
56 -84 377 373 93 82 378 371 91 97 0
56 -387 378 217 371 224 93 91 373 219 0
56 -542 91 558 224 544 217 93 219 549 0
219 -828 93 842 217 224 91 833 826 56 0
91 -714 93 719 734 712 353 56 346 348 0
56 -542 378 549 91 373 565 544 93 371 0
56 -828 378 833 849 93 826 91 371 373 0
232 -225 56 199 101 207 219 201 217 103 0
56 -386 379 201 373 207 103 199 371 101 0
56 -542 346 564 348 103 354 544 101 550 0
373 -460 475 379 103 452 101 56 454 371 0
103 -519 535 511 56 399 405 101 513 397 0
56 -828 826 836 841 201 199 126 209 124 0
-407 124 452 399 126 462 397 476 454 56 0
56 -542 124 126 552 454 452 568 462 544 0
232 -228 56 137 139 201 199 210 217 219 0
56 -256 201 258 139 199 137 210 267 271 0
56 -277 279 513 139 511 522 530 288 137 0
-299 366 137 310 139 301 348 357 346 56 0
-408 56 399 511 139 397 522 513 535 137 0
-426 56 413 440 397 399 219 217 424 448 0
56 -256 535 258 513 415 399 511 397 529 0
454 -828 826 850 452 397 476 56 852 399 0
56 -749 535 777 751 513 399 397 511 773 0
-241 77 236 277 280 61 239 74 294 282 0
-241 74 236 866 61 239 77 869 871 883 0
61 -452 282 471 277 455 77 457 74 280 0
-885 74 280 871 77 61 282 277 866 869 0
-371 77 889 376 869 866 61 871 74 374 0
77 -452 74 455 866 61 457 869 871 892 0
74 -681 679 899 866 869 676 61 871 77 0
-61 202 829 124 209 826 127 841 836 199 0
-217 151 239 220 229 252 236 61 154 248 0
61 -610 607 688 619 707 154 151 679 676 0
61 -878 866 899 154 151 679 676 869 688 0
-61 202 641 644 656 829 858 826 199 841 0
273 -259 61 280 294 277 295 256 236 239 0
239 -545 236 559 866 883 61 542 869 895 0
61 -591 574 883 866 896 239 869 236 577 0
-693 866 236 679 899 239 61 869 883 676 0
-259 256 884 61 592 577 869 866 574 896 0
61 -885 280 899 277 679 695 676 866 869 0
61 -545 542 577 603 896 574 895 869 866 0
61 -706 676 866 899 869 574 679 896 577 0
67 -486 481 485 494 171 166 78 74 170 0
74 -762 754 67 749 171 170 166 78 753 0
170 -124 256 266 128 67 260 269 166 176 0
-791 67 787 805 260 269 256 800 166 170 0
166 -826 256 844 260 269 830 67 839 170 0
166 -689 481 703 494 676 67 485 680 170 0
67 -762 494 776 753 170 749 485 481 166 0
-199 67 203 481 557 496 542 546 485 569 0
-240 273 236 67 260 256 749 767 753 766 0
-281 67 277 481 561 500 485 546 542 569 0
-67 375 669 534 515 641 511 371 645 664 0
67 -778 776 485 569 542 749 481 546 753 0
67 -782 776 485 680 481 749 703 676 753 0
-82 87 749 822 74 754 755 787 793 792 0
-156 151 787 166 171 74 178 792 799 800 0
290 -626 74 612 277 171 607 620 282 166 0
-806 282 792 171 277 74 787 290 800 166 0
-312 166 807 299 74 787 304 792 800 171 0
-335 327 171 322 74 607 612 620 628 166 0
74 -879 166 902 787 800 171 866 871 792 0
-74 424 222 217 448 413 402 429 440 397 0
-74 222 850 217 397 402 826 831 413 842 0
282 -547 74 561 299 277 304 562 542 318 0
304 -769 754 770 749 342 322 299 74 327 0
74 -886 304 902 299 787 792 807 866 871 0
327 -511 516 612 635 532 628 74 322 607 0
327 -712 322 733 770 754 717 749 783 74 0
-808 327 787 871 792 887 866 902 322 74 0
-371 74 889 787 376 810 866 871 902 792 0
74 -511 516 815 866 902 792 787 894 871 0
74 -547 542 787 792 816 866 871 895 902 0
74 -901 749 902 787 822 792 754 871 866 0
118 -119 91 191 112 182 189 97 82 188 0
-131 82 192 124 189 130 91 97 188 182 0
-144 143 719 712 91 97 723 137 718 82 0
97 -438 424 430 189 182 188 91 82 431 0
82 -542 91 548 549 556 189 182 97 188 0
182 -726 719 189 91 718 97 82 712 188 0
82 -447 97 430 371 431 424 378 377 91 0
82 -459 458 475 91 452 97 371 377 378 0
377 -574 82 581 97 91 597 580 371 378 0
371 -735 719 91 97 82 712 718 377 378 0
-120 118 101 112 380 82 371 377 379 107 0
-132 130 82 207 101 199 205 124 107 209 0
-145 205 210 207 101 137 199 143 82 107 0
377 -460 475 371 107 101 458 82 452 379 0
405 -736 718 107 397 712 720 403 101 82 0
580 -574 107 712 582 742 101 82 718 720 0
-208 82 210 205 143 199 118 137 146 112 0
118 -236 245 242 112 82 146 247 143 137 0
118 -517 511 520 137 143 146 112 82 522 0
118 -721 712 723 137 143 146 112 82 718 0
82 -832 826 835 182 191 118 112 840 188 0
130 -213 205 124 209 182 199 188 192 82 0
205 -467 209 458 462 452 124 199 130 82 0
143 -435 82 210 199 439 424 137 205 430 0
143 -832 826 841 199 205 137 82 210 837 0
143 -738 723 458 137 82 463 452 712 718 0
-166 424 410 82 437 397 448 403 172 430 0
199 -647 82 656 641 439 430 666 424 205 0
82 -477 458 476 452 448 424 403 397 430 0
-82 487 676 820 481 814 703 682 787 793 0
166 -91 800 481 494 794 787 814 488 173 0
91 -385 378 182 371 833 849 826 840 189 0
-387 91 378 224 217 371 826 833 842 849 0
-404 91 413 224 826 833 842 217 850 397 0
224 -851 842 424 440 91 826 217 431 833 0
91 -574 224 590 712 728 581 719 742 217 0
91 -607 224 614 743 217 712 719 728 623 0
273 -91 295 294 236 243 263 256 284 277 0
-91 256 787 794 805 866 884 902 263 873 0
91 -648 641 826 849 371 664 833 378 858 0
91 -676 378 683 699 833 849 826 859 371 0
-386 207 649 101 641 371 379 664 199 656 0
-834 841 656 826 858 649 199 641 207 101 0
-101 339 236 757 770 749 244 766 322 330 0
101 -519 379 534 669 511 641 649 371 664 0
-834 858 641 649 850 405 665 397 101 826 0
-101 489 481 757 822 776 749 814 787 795 0
-193 191 137 182 511 520 522 525 112 146 0
-226 -228 112 137 146 217 826 835 837 842 0
-256 267 137 265 511 146 112 522 529 520 0
288 -286 -277 137 146 112 511 522 530 520 0
-299 308 310 520 137 511 112 522 531 146 0
-854 146 511 835 826 837 137 522 112 520 0
-385 380 849 371 191 826 835 840 182 112 0
-406 191 411 397 850 840 826 112 182 835 0
-322 331 112 380 392 847 826 835 849 371 0
380 -650 112 664 669 641 371 511 520 534 0
-112 551 542 574 603 607 637 616 583 636 0
-147 124 452 463 137 852 826 836 837 462 0
-322 192 840 124 336 182 847 826 332 836 0
124 -749 182 759 861 836 763 826 192 840 0
-651 209 641 199 826 841 858 124 836 656 0
-124 256 617 574 266 592 625 607 584 637 0
-407 124 452 850 462 826 836 852 476 397 0
232 -228 137 217 210 199 826 837 841 842 0
-467 210 452 463 199 826 137 837 841 852 0
199 -652 641 826 837 841 858 137 210 656 0
-322 333 452 137 473 852 826 837 847 463 0
-382 852 452 463 137 475 371 826 837 849 0
-137 636 481 553 492 634 569 542 607 618 0
-371 178 384 166 383 151 799 800 810 787 0
151 -555 554 620 636 178 619 607 166 542 0
178 -555 554 800 787 816 166 799 151 542 0
-689 688 676 707 178 166 151 607 619 620 0
-818 178 607 800 619 620 799 787 166 151 0
178 -689 676 799 820 688 166 151 800 787 0
-217 151 692 803 229 676 787 688 820 799 0
151 -624 559 236 607 554 619 636 542 248 0
248 -804 559 816 542 799 554 236 151 787 0
-705 820 554 688 676 799 787 151 542 816 0
151 -878 866 895 554 902 799 787 816 542 0
-199 212 634 481 494 496 166 607 620 622 0
230 -166 437 440 217 413 424 397 448 410 0
290 -249 236 277 166 269 256 294 295 273 0
-499 269 277 500 494 290 256 295 481 166 0
-499 256 481 625 494 269 166 620 607 634 0
-826 256 620 844 857 269 166 625 839 607 0
-879 884 787 800 902 166 805 866 269 256 0
-626 634 277 481 494 290 166 620 500 607 0
-231 413 411 182 217 826 842 840 850 397 0
-256 -844 182 850 826 840 415 397 411 270 0
-182 299 690 820 313 676 787 807 696 801 0
-182 820 481 495 703 801 676 690 787 814 0
-657 656 641 666 217 424 232 199 440 439 0
-199 322 622 691 707 337 628 676 607 697 0
-412 858 641 397 656 665 199 826 841 850 0
-199 707 481 496 607 622 634 676 691 703 0
-468 217 452 476 842 850 852 413 826 397 0
-217 902 676 692 803 820 866 899 787 882 0
256 -901 884 766 273 236 883 749 767 866 0
-826 273 236 903 843 844 256 866 884 883 0
367 -346 236 749 766 322 339 363 770 771 0
-511 322 236 866 887 883 528 532 894 339 0
-563 866 236 559 339 322 895 883 887 542 0
-693 697 236 676 866 883 887 899 322 339 0
317 -694 256 695 299 277 318 295 696 676 0
-371 256 884 787 805 810 866 902 889 389 0
-424 256 774 442 574 599 592 779 749 767 0
-817 822 574 779 592 256 767 787 749 805 0
256 -694 676 805 820 884 866 899 902 787 0
299 -705 695 562 318 676 696 277 561 542 0
-397 703 277 505 416 500 676 700 695 481 0
-806 814 277 703 820 695 676 481 500 787 0
-808 342 697 787 322 696 299 820 676 807 0
-322 418 641 662 397 665 826 847 850 858 0
322 -563 542 607 637 595 603 636 628 574 0
322 -563 542 574 595 603 866 887 896 895 0
-706 866 574 697 887 899 595 896 676 322 0
-420 852 397 452 476 371 826 849 475 850 0
475 -667 664 849 858 641 452 852 371 826 0
371 -676 452 702 826 859 475 849 699 852 0
-371 822 481 504 749 772 776 787 814 810 0
-854 858 511 534 664 669 826 641 371 849 0
424 -536 448 641 665 666 511 669 397 535 0
-851 850 666 397 858 665 641 448 424 826 0
-854 858 511 641 535 826 397 665 669 850 0
-397 896 542 566 574 598 603 895 866 890 0
902 -397 542 787 566 895 866 811 816 890 0
902 -397 676 700 820 899 866 811 890 787 0
-601 636 569 574 542 607 603 634 481 637 0
-893 895 569 866 481 542 814 787 816 902 0
-641 902 542 670 819 816 866 787 898 895 0
62 57 102 -63 103 104 167 168 169 174 0
57 -284 93 279 278 219 224 293 218 92 0
57 -488 92 93 497 219 224 482 218 483 0
581 -576 575 93 224 590 219 57 218 92 0
57 -284 768 93 279 750 278 751 92 756 0
-393 353 92 348 93 378 57 373 372 347 0
378 -543 372 544 549 92 565 93 57 373 0
-290 57 279 285 167 102 174 168 278 103 0
57 -576 174 587 575 582 102 167 168 103 0
-757 762 750 751 167 168 174 103 102 57 0
-200 57 201 103 278 207 102 279 285 292 0
103 -757 750 768 278 102 279 285 57 751 0
57 -543 103 544 102 565 379 550 372 373 0
57 -468 218 465 454 453 168 167 219 230 0
-765 230 751 762 218 219 57 168 750 167 0
-290 57 279 768 278 751 750 167 762 168 0
168 -775 751 453 454 167 762 57 465 750 0
57 -765 750 768 218 751 219 278 293 279 0
57 -576 483 482 575 503 601 596 347 348 0
-367 62 325 94 349 329 92 353 347 323 0
353 62 750 756 752 92 347 349 -771 94 0
-300 104 312 302 102 169 174 167 62 307 0
167 -577 575 582 587 169 174 104 62 102 0
-300 347 102 307 302 104 62 349 354 366 0
104 -489 503 102 62 347 484 482 349 354 0
62 -543 347 564 104 102 545 550 349 354 0
104 -642 62 644 649 663 349 347 102 354 0
62 -185 195 323 167 169 183 325 335 336 0
-220 230 338 169 325 167 218 62 335 323 0
323 -455 62 473 169 167 465 453 325 335 0
62 -642 169 644 654 662 167 323 325 335 0
62 -774 750 437 425 752 169 167 762 427 0
62 -642 169 654 781 644 750 752 762 167 0
62 -445 325 790 808 812 788 323 425 427 0
62 -455 325 813 473 788 790 808 453 323 0
62 -577 575 790 349 809 788 347 596 817 0
-303 78 83 305 75 86 87 68 304 300 0
68 -718 716 83 713 86 87 78 75 717 0
68 -831 830 827 832 87 78 86 83 75 0
-347 68 848 350 86 827 832 830 83 352 0
-482 68 853 485 86 827 832 83 830 487 0
86 -548 546 855 83 68 543 830 832 827 0
83 -859 827 682 830 86 832 677 68 680 0
331 -68 380 392 113 372 326 375 323 116 0
-267 147 266 125 138 141 128 68 260 257 0
68 -552 128 553 125 141 147 138 546 543 0
141 -645 642 651 125 68 138 128 652 147 0
128 -686 125 687 68 141 147 138 677 680 0
128 -836 257 844 830 260 266 125 68 827 0
-837 855 546 553 830 68 543 827 141 138 0
-68 323 464 152 456 326 453 334 473 155 0
-482 200 203 485 68 557 569 496 546 543 0
200 -741 727 203 546 713 716 68 543 557 0
-841 855 203 543 546 830 200 68 827 557 0
200 -745 727 203 680 691 713 677 68 716 0
68 -750 713 753 764 783 203 200 716 727 0
68 -730 713 860 830 260 257 844 716 827 0
-303 68 300 713 716 732 827 830 860 846 0
-425 68 851 428 716 827 737 830 860 713 0
-741 860 546 713 716 543 827 830 855 68 0
305 -646 300 647 304 87 83 642 75 661 0
83 -788 75 792 305 304 793 807 300 87 0
-613 612 512 635 517 87 516 608 83 75 0
-788 516 512 792 815 87 517 83 75 793 0
-75 250 237 183 113 191 187 117 245 241 0
-402 304 417 75 717 713 732 300 736 398 0
-831 304 732 860 827 717 713 300 846 75 0
580 -83 174 107 575 172 582 167 102 587 0
-83 250 249 167 195 237 172 188 242 183 0
-278 83 305 696 318 283 300 682 677 695 0
-323 83 328 305 677 300 682 696 342 697 0
83 -548 543 670 300 562 661 647 642 305 0
-708 305 642 696 300 647 83 677 682 661 0
-347 83 848 533 352 827 832 512 854 517 0
-872 903 512 832 867 517 854 894 827 83 0
-92 125 408 131 144 147 138 404 407 398 0
-92 125 873 257 867 876 263 266 884 131 0
-92 125 867 518 894 521 512 873 876 131 0
323 -231 92 218 183 189 224 329 336 338 0
189 -543 92 750 756 556 778 549 183 763 0
189 -608 183 614 756 750 92 621 780 763 0
323 -445 329 440 425 92 338 218 431 224 0
218 -827 224 842 833 323 92 847 329 338 0
-387 218 372 378 581 224 92 590 597 575 0
92 -599 581 590 431 425 224 575 218 440 0
92 -543 323 563 549 392 565 378 329 372 0
92 -595 581 597 378 323 329 575 392 372 0
372 -677 581 699 706 575 683 597 92 378 0
-384 372 102 597 379 174 575 582 167 587 0
-365 347 575 102 354 582 278 596 593 285 0
-713 742 582 596 720 575 347 102 734 354 0
372 -677 102 706 582 597 699 684 575 379 0
-102 857 512 519 608 635 827 834 854 615 0
-113 125 721 722 406 713 407 736 133 398 0
-113 125 642 133 651 650 713 721 722 744 0
-175 195 167 750 763 762 191 183 758 113 0
237 -766 750 245 183 763 758 191 113 250 0
250 -801 804 191 183 245 113 796 237 788 0
331 -257 323 183 113 270 265 340 191 336 0
-770 191 750 758 183 113 336 323 331 763 0
191 -827 323 835 840 847 183 336 113 331 0
-113 398 412 551 557 543 566 208 200 406 0
388 -461 372 469 245 237 475 453 380 113 0
380 -504 498 237 245 113 490 482 388 372 0
380 -677 245 693 699 685 237 372 113 388 0
804 -810 372 380 237 788 796 245 113 388 0
245 -814 804 113 498 490 788 796 237 482 0
113 -583 575 796 817 788 804 245 237 591 0
331 -286 278 341 323 788 806 796 808 113 0
113 -776 -770 482 490 502 750 758 331 323 0
-218 227 651 228 138 657 125 642 652 147 0
147 -552 408 566 543 138 553 398 407 125 0
407 -665 652 138 642 651 398 147 125 408 0
398 -723 722 736 147 138 125 713 407 408 0
287 -125 152 323 334 289 278 332 161 341 0
-218 227 882 125 527 521 867 876 894 512 0
-125 788 453 469 462 237 813 246 804 797 0
-372 125 257 381 889 389 867 876 884 266 0
-659 884 257 642 651 898 876 125 867 266 0
-309 125 300 651 642 744 661 713 722 732 0
-535 407 512 740 125 713 521 722 736 398 0
-535 398 894 125 890 521 867 876 512 407 0
125 -552 407 867 876 398 566 890 543 895 0
407 -686 677 700 867 876 899 398 125 890 0
125 -552 898 651 642 670 867 895 543 876 0
-152 138 554 543 553 162 566 408 409 398 0
408 -152 677 687 138 688 700 162 409 398 0
-138 323 798 788 808 278 806 288 341 333 0
-482 138 636 492 553 569 543 608 618 634 0
-482 138 677 687 608 634 492 618 703 707 0
138 -672 652 543 636 670 553 618 608 642 0
-178 323 464 167 334 465 453 152 473 335 0
-291 194 341 152 183 278 336 334 323 289 0
194 -512 183 750 525 777 523 152 763 761 0
-200 211 152 575 593 589 586 289 278 292 0
-248 498 152 237 575 601 493 586 591 482 0
-770 341 750 761 334 278 152 289 323 768 0
152 -799 278 806 808 323 788 289 341 334 0
278 -779 768 152 586 593 575 750 761 289 0
-867 878 750 152 901 761 885 278 768 289 0
-300 311 575 152 493 601 482 586 594 501 0
323 -383 372 464 475 473 392 453 152 334 0
-358 347 493 152 503 575 586 596 601 482 0
-152 857 543 554 619 608 827 855 838 636 0
250 -466 195 469 465 249 183 237 167 453 0
250 -588 587 575 237 591 195 183 167 249 0
195 -766 750 249 237 167 763 183 250 762 0
-398 195 411 183 763 750 773 762 410 167 0
-290 230 167 335 293 278 218 323 338 341 0
167 -595 575 338 218 587 590 230 323 335 0
-339 335 473 167 249 237 453 469 465 323 0
-477 167 441 465 237 249 437 425 453 469 0
167 -599 587 249 441 437 575 237 591 425 0
167 -800 804 812 441 437 249 788 237 425 0
167 -600 591 453 237 249 465 469 575 587 0
167 -677 453 693 465 689 469 249 237 702 0
167 -800 587 817 575 804 591 249 237 788 0
-167 857 512 524 620 635 827 839 608 854 0
-183 313 744 300 642 655 661 713 726 732 0
-347 361 691 700 200 698 412 677 419 398 0
398 -631 622 200 557 412 566 543 608 636 0
-570 200 512 557 608 622 543 526 636 635 0
200 -704 622 707 512 608 635 526 677 691 0
200 -705 622 707 543 608 636 557 677 691 0
278 -827 323 842 845 847 293 218 341 338 0
278 -608 443 623 626 632 440 293 425 218 0
278 -803 812 788 293 218 443 440 425 806 0
-362 347 218 575 497 590 503 596 601 482 0
-237 273 257 827 843 867 903 844 883 884 0
-810 388 591 817 237 575 597 804 788 372 0
-237 414 559 890 566 398 895 867 883 543 0
-814 482 441 812 237 498 506 788 804 425 0
788 -599 804 812 575 591 817 441 237 425 0
804 -814 482 817 591 237 601 575 498 788 0
-237 898 543 559 670 867 658 642 883 895 0
788 -713 591 729 742 575 237 804 821 817 0
-730 732 257 713 846 860 317 827 844 300 0
-788 902 257 805 827 884 903 862 867 844 0
-471 473 453 813 278 808 788 341 806 323 0
278 -608 443 626 632 818 788 806 812 425 0
417 -850 827 543 562 566 398 855 846 300 0
300 -745 700 417 736 696 398 713 732 677 0
323 -810 372 813 453 475 473 788 808 392 0
788 -713 575 742 809 817 347 734 596 821 0
-705 895 677 700 899 398 543 566 890 867 0
-425 860 512 536 737 827 713 740 851 854 0
-482 857 543 608 634 569 855 636 853 827 0
-570 857 512 543 608 855 635 854 827 636 0
-743 857 608 635 860 827 740 854 512 713 0
-788 903 512 815 827 854 867 862 894 902 0
-279 63 280 282 283 76 87 85 84 77 0
84 -790 789 793 792 87 77 76 63 85 0
63 -872 871 87 868 84 77 76 869 85 0
-156 -117 160 63 115 77 153 154 76 114 0
-117 114 715 76 115 714 77 721 717 63 0
63 -187 184 714 76 77 715 717 726 185 0
-373 76 889 868 77 376 869 871 63 374 0
63 -579 77 896 869 871 576 868 76 577 0
-900 76 714 871 63 715 77 717 868 869 0
-279 63 679 280 283 695 678 84 85 682 0
94 -63 751 545 544 549 752 756 778 93 0
160 -427 433 436 426 114 154 153 63 115 0
160 -586 583 154 63 577 153 115 114 576 0
63 -610 609 619 616 115 160 154 153 114 0
160 -685 154 688 679 678 114 153 63 115 0
201 -63 126 202 309 302 209 314 301 127 0
-63 259 210 271 202 201 140 139 267 258 0
63 -829 828 838 843 154 153 238 239 248 0
-279 63 695 280 679 678 690 185 291 184 0
-373 63 185 385 715 714 726 735 374 184 0
-644 643 588 576 63 577 185 655 671 184 0
185 -706 690 184 63 577 679 576 588 678 0
185 -880 184 899 678 679 63 869 690 868 0
259 -63 348 484 483 349 499 503 258 364 0
-63 259 514 560 513 545 258 570 544 529 0
-325 63 324 887 697 899 678 868 679 869 0
-829 828 577 868 576 63 903 869 896 856 0
95 -306 219 221 315 301 224 69 93 303 0
95 -576 69 224 578 93 590 581 219 221 0
95 -609 224 614 623 219 611 93 69 221 0
95 -518 513 534 93 515 378 69 373 375 0
69 -546 565 544 549 378 93 375 373 95 0
-170 69 307 103 174 301 105 168 312 303 0
69 -203 105 279 201 292 207 285 103 281 0
69 -225 221 219 315 301 303 103 307 105 0
-318 279 303 285 281 105 307 301 103 69 0
-390 69 373 103 379 375 281 279 105 285 0
69 -868 105 870 874 885 103 285 279 281 0
69 -350 348 307 103 366 301 354 105 303 0
105 -519 307 531 513 103 69 301 515 303 0
105 -546 565 544 103 69 379 550 373 375 0
69 -519 535 513 515 103 405 105 399 401 0
-141 69 139 301 513 515 522 531 303 310 0
-318 315 219 69 279 281 293 301 221 303 0
221 -485 301 501 219 497 483 315 69 303 0
-527 315 515 531 301 221 69 513 219 303 0
69 -882 -868 219 221 301 315 870 886 303 0
69 -609 221 631 611 413 219 623 399 401 0
-318 279 530 531 301 513 515 281 69 303 0
-390 69 530 373 375 515 534 279 281 513 0
69 -391 303 373 454 472 456 301 475 375 0
69 -753 301 769 513 531 751 777 515 303 0
-324 69 456 373 392 473 326 454 375 475 0
69 -537 476 513 515 401 535 399 456 454 0
69 -753 515 777 513 751 401 535 399 773 0
87 -513 76 517 532 327 516 328 324 84 0
87 -751 84 754 755 822 789 793 792 76 0
-76 222 558 219 547 96 93 224 549 544 0
-76 272 219 402 415 261 222 413 399 258 0
-241 327 871 238 76 868 883 887 339 324 0
-76 351 483 258 348 261 486 499 503 364 0
-429 426 327 737 445 714 717 733 324 76 0
76 -579 576 595 871 868 887 896 327 324 0
324 -681 76 697 868 887 871 899 678 327 0
-373 76 889 789 376 810 792 868 871 902 0
76 -646 643 789 819 868 871 792 898 902 0
76 -681 678 871 820 868 899 789 902 792 0
-84 201 210 271 139 205 143 258 267 262 0
84 -157 862 153 793 799 828 832 789 838 0
-188 84 678 184 682 690 789 793 820 801 0
-84 458 470 258 568 560 454 544 262 548 0
-301 84 305 789 862 846 832 807 828 793 0
-263 272 219 258 560 558 549 93 224 544 0
558 -765 751 224 93 756 778 549 219 544 0
-263 353 564 258 560 93 544 348 549 364 0
-771 93 564 751 756 549 778 544 348 353 0
-518 373 565 570 513 93 549 544 534 378 0
-678 373 544 699 705 549 565 93 683 378 0
-518 513 570 751 778 544 549 756 777 93 0
-93 902 643 819 648 868 794 789 873 898 0
-103 159 862 153 789 834 828 799 795 838 0
201 -212 103 314 301 168 207 174 307 312 0
-417 312 399 410 174 405 307 168 301 103 0
174 -757 751 762 769 168 103 301 307 312 0
-359 168 348 564 174 354 555 550 103 544 0
103 -643 174 665 399 405 168 649 410 654 0
399 -757 751 762 773 174 168 103 405 410 0
301 -576 594 207 201 103 589 582 307 314 0
-264 103 258 354 364 348 544 560 564 550 0
-489 366 348 354 501 483 503 301 307 103 0
103 -562 301 564 348 354 366 550 544 307 0
-393 103 565 348 564 544 354 373 550 379 0
103 -714 564 734 741 544 348 720 550 354 0
-126 114 584 133 433 583 599 576 426 434 0
114 -126 744 133 721 643 714 650 722 651 0
-168 114 609 160 616 175 178 619 620 153 0
114 -544 160 554 436 551 567 426 433 153 0
433 -666 653 160 436 426 643 153 650 114 0
160 -724 714 737 153 721 436 433 426 114 0
-331 114 637 595 576 324 583 616 628 609 0
-454 426 461 433 477 576 583 600 114 599 0
-454 426 461 477 714 721 737 738 114 433 0
114 -672 671 583 576 616 609 637 643 650 0
161 -153 126 462 472 454 464 301 309 311 0
232 -227 126 279 219 287 201 293 292 209 0
201 -238 209 251 309 301 126 246 314 316 0
-764 768 751 759 201 279 126 209 287 292 0
126 -789 201 797 802 279 806 209 287 292 0
-764 769 314 751 759 209 201 126 301 309 0
-227 301 483 501 491 497 126 315 309 219 0
-238 498 301 483 126 246 309 491 501 316 0
279 -561 287 751 768 778 126 544 759 552 0
-828 836 759 768 279 126 751 861 287 845 0
309 -521 513 531 751 759 769 126 301 777 0
-324 332 563 473 552 126 454 462 544 568 0
-521 513 570 778 126 552 759 751 777 544 0
-126 898 576 584 643 671 651 868 896 876 0
-177 168 139 310 301 454 463 465 472 312 0
-139 184 193 435 576 438 585 588 599 426 0
-139 184 576 585 588 655 652 643 671 193 0
-295 201 292 288 210 139 271 267 258 279 0
271 -526 210 513 258 267 201 139 529 522 0
301 -526 314 531 513 201 139 522 210 310 0
201 -868 314 877 886 301 139 210 881 310 0
-295 279 267 529 258 288 139 513 522 530 0
-474 139 348 258 454 470 463 267 357 364 0
139 -553 267 564 258 560 364 544 348 357 0
-408 267 513 139 399 529 535 522 415 258 0
139 -537 267 454 258 529 513 522 463 470 0
139 -553 470 568 454 463 258 267 544 560 0
-474 139 348 454 301 472 366 463 357 310 0
139 -492 348 366 501 301 503 357 483 310 0
139 -533 357 522 366 301 531 348 513 310 0
-760 769 522 751 139 513 301 777 531 310 0
-168 178 789 862 153 838 828 800 839 799 0
-194 153 819 643 653 655 789 799 801 184 0
238 -348 248 843 828 848 358 363 838 153 0
-153 301 751 513 311 531 523 777 761 769 0
-334 153 324 609 678 619 628 697 688 707 0
153 -586 576 828 436 838 426 851 856 599 0
426 -632 619 436 838 857 153 828 851 609 0
-859 436 688 828 153 851 701 678 838 426 0
153 -724 436 737 828 714 838 851 860 426 0
153 -812 789 838 851 426 862 828 799 436 0
678 -859 828 153 857 707 609 688 619 838 0
-818 828 609 789 857 862 153 799 619 838 0
153 -708 643 819 820 678 688 799 789 653 0
153 -878 789 903 902 862 828 868 799 838 0
-426 168 444 315 230 219 440 312 437 301 0
-494 230 483 497 501 315 168 219 301 312 0
168 -576 587 312 315 219 230 301 594 590 0
230 -765 751 769 219 762 315 168 301 312 0
-417 312 399 773 762 769 410 751 301 168 0
168 -524 312 531 751 762 769 513 301 777 0
535 -524 410 751 513 773 762 399 777 168 0
270 -184 513 258 411 415 399 525 529 535 0
-184 270 258 560 570 513 529 525 544 556 0
-301 184 313 655 661 643 789 801 807 819 0
-336 426 438 445 701 678 690 697 324 184 0
-336 426 438 445 714 324 726 733 737 184 0
-821 184 643 801 726 655 744 714 789 819 0
-295 279 292 258 271 293 219 272 201 232 0
-412 271 399 219 258 415 413 272 232 201 0
-201 337 622 691 707 628 324 678 609 697 0
272 -468 415 470 476 258 454 219 413 399 0
-505 272 497 219 399 483 499 413 415 258 0
272 -527 415 513 219 413 258 529 399 535 0
272 -566 415 258 558 219 544 560 399 413 0
-714 728 483 497 739 258 499 272 219 730 0
-219 902 643 657 789 819 868 898 803 882 0
-219 678 692 803 899 820 868 789 902 882 0
238 -591 576 595 868 883 887 896 324 339 0
-317 364 483 501 258 503 366 301 499 348 0
-317 301 483 501 529 258 531 538 513 499 0
-533 364 348 258 513 564 570 560 529 544 0
-566 258 470 476 568 454 560 544 415 399 0
535 -566 415 258 570 560 544 399 529 513 0
535 -643 399 669 529 258 415 513 659 665 0
535 -767 751 773 258 415 529 777 399 513 0
499 -569 538 258 570 483 560 529 513 544 0
-678 560 258 694 705 570 529 544 704 513 0
-767 544 751 778 560 258 529 777 570 513 0
-258 857 576 625 844 637 592 856 828 609 0
-258 902 789 884 903 805 828 862 868 844 0
-776 501 751 769 777 483 513 531 301 538 0
301 -562 531 751 769 513 570 778 777 544 0
-751 770 445 595 774 324 779 576 426 599 0
324 -897 576 609 628 637 595 868 887 896 0
535 -643 399 669 773 781 513 665 777 751 0
-399 678 700 820 899 868 902 789 890 811 0
-454 898 576 667 600 868 892 671 896 643 0
-678 513 570 704 705 751 778 777 782 544 0
-513 903 902 789 828 868 894 815 854 862 0
-544 898 896 576 603 643 670 671 868 895 0
903 -544 902 789 855 868 816 828 862 895 0
903 -897 637 868 576 896 828 857 609 856 0
-858 868 643 671 903 576 828 896 898 856 0
-817 896 576 789 828 902 862 856 868 903 0
-859 862 789 820 868 899 678 902 903 828 0
95 70 627 302 611 614 94 610 -306 303 0
95 70 -374 329 392 326 375 378 325 94 0
70 -350 366 307 349 302 104 354 105 303 0
104 -519 514 531 307 302 105 70 515 303 0
307 -661 649 70 644 302 104 645 105 303 0
70 -869 302 870 886 104 874 307 105 303 0
-330 70 105 644 649 325 645 104 662 326 0
70 -455 473 813 790 325 791 456 808 326 0
70 -628 325 790 818 791 808 610 611 326 0
70 -350 349 610 611 629 790 791 818 809 0
-377 87 376 390 283 282 77 374 85 280 0
-77 104 351 349 564 106 547 550 354 545 0
-169 290 390 376 77 282 171 384 374 280 0
-169 171 374 715 384 376 717 725 735 77 0
-77 204 656 202 831 841 644 829 646 858 0
-85 205 143 210 202 271 259 262 140 267 0
85 -349 365 280 283 679 682 695 352 698 0
85 -403 700 280 416 679 682 695 283 400 0
-144 94 847 325 329 829 833 837 333 140 0
-715 743 610 629 349 734 353 614 719 94 0
94 -679 861 683 752 756 782 829 833 859 0
-104 154 225 159 239 220 248 252 229 244 0
174 -757 752 769 169 312 762 302 307 104 0
349 -670 649 104 545 550 564 644 663 354 0
331 -115 146 325 265 333 267 259 140 340 0
154 -380 160 387 374 229 226 115 220 383 0
-413 220 409 154 115 226 400 229 160 406 0
-878 -875 869 154 160 220 226 229 115 882 0
160 -545 551 554 566 400 154 115 406 409 0
-191 115 185 588 466 600 455 577 461 583 0
115 -590 220 600 461 455 468 577 226 583 0
220 -728 461 738 115 468 715 455 226 721 0
220 -875 226 892 115 455 468 869 461 882 0
115 -545 551 286 566 561 416 406 400 280 0
-380 115 374 715 406 721 736 735 420 400 0
406 -476 461 721 738 715 455 736 400 115 0
140 -147 210 302 202 209 127 309 314 310 0
-154 161 202 127 211 309 302 314 311 209 0
-154 161 501 127 309 302 491 493 484 311 0
-807 309 314 802 127 202 790 209 797 302 0
-846 302 314 841 202 127 829 209 836 309 0
-337 127 829 325 209 836 841 847 332 202 0
-434 127 802 439 427 797 790 812 202 209 0
-342 127 502 302 501 332 325 484 309 491 0
-356 349 309 366 503 127 501 491 302 484 0
127 -617 309 769 302 610 780 627 752 759 0
-846 309 759 752 769 836 829 861 127 302 0
325 -455 473 836 332 462 829 847 852 127 0
-127 407 374 381 736 715 420 722 735 400 0
-127 407 374 381 400 889 420 869 876 890 0
-140 154 374 383 420 400 382 409 162 408 0
-239 140 302 202 210 247 251 314 316 310 0
302 -869 314 877 881 886 202 140 210 310 0
140 -553 545 564 560 259 267 349 357 364 0
259 -805 349 809 267 790 140 798 357 364 0
140 -652 259 659 267 514 529 522 644 669 0
140 -492 484 302 501 349 357 366 503 310 0
140 -618 610 627 629 366 357 302 349 310 0
140 -807 357 809 790 302 366 798 349 310 0
154 -194 374 185 383 229 231 385 387 220 0
220 -878 154 883 229 239 252 869 248 882 0
154 -790 383 803 229 387 220 810 799 374 0
239 -693 400 700 679 248 154 688 409 414 0
-154 268 493 325 334 484 259 340 499 502 0
-699 700 383 688 154 400 409 679 420 374 0
-790 799 383 400 811 409 154 810 420 374 0
-839 335 654 847 858 169 644 662 325 829 0
-620 672 437 610 644 169 654 666 632 427 0
169 -524 514 669 752 777 654 644 762 781 0
169 -679 555 689 705 752 782 778 762 545 0
-349 220 185 468 360 466 474 455 362 231 0
220 -475 468 231 387 374 385 185 466 455 0
185 -790 231 801 803 810 387 220 385 374 0
385 -880 387 889 231 220 869 185 882 374 0
220 -590 468 600 231 185 466 577 455 588 0
231 -702 692 185 455 220 679 466 690 468 0
220 -880 466 892 869 882 185 455 468 231 0
-302 185 291 280 318 690 696 679 695 313 0
-731 390 374 715 385 185 291 726 735 280 0
-427 185 455 599 466 438 600 477 588 577 0
-185 556 545 514 777 778 763 570 525 752 0
-661 666 314 656 302 439 427 444 202 644 0
-337 325 656 202 644 829 841 847 662 858 0
-202 386 374 736 420 715 727 400 412 735 0
-388 220 889 387 239 252 869 883 882 374 0
239 -469 455 892 220 252 468 882 869 883 0
239 -514 252 528 882 883 894 220 527 869 0
-220 325 338 272 484 497 499 502 340 259 0
-220 -765 623 769 627 752 610 780 302 315 0
-239 427 441 624 610 818 632 804 790 812 0
-400 418 644 340 659 662 325 259 415 665 0
-844 340 659 847 858 325 259 644 662 829 0
349 -715 564 741 560 259 730 734 545 364 0
259 -668 499 669 529 484 538 644 514 659 0
259 -679 545 694 705 529 560 704 570 514 0
-302 390 280 420 318 400 416 374 417 391 0
390 -349 374 280 400 420 365 419 393 416 0
390 -484 374 504 500 505 416 400 280 420 0
427 -280 672 610 626 632 443 660 666 644 0
-280 861 858 644 660 752 768 781 829 845 0
-807 809 610 790 818 627 349 302 629 366 0
-869 349 610 886 629 627 302 888 897 366 0
302 -536 531 444 427 501 506 484 514 538 0
-661 672 627 644 781 780 610 302 769 752 0
325 -374 858 849 644 662 664 392 829 847 0
349 -446 427 663 610 632 666 644 672 629 0
400 -699 679 899 889 420 869 890 374 700 0
-400 427 666 610 644 448 631 672 632 665 0
-545 895 566 577 598 603 400 869 890 896 0
-400 781 610 672 631 752 780 644 773 665 0
-635 780 514 610 669 672 644 752 781 777 0
-351 78 350 771 754 86 87 352 753 755 0
-78 105 649 646 401 405 645 665 106 402 0
117 -78 241 250 186 191 187 240 116 245 0
-429 78 428 717 783 754 716 753 774 737 0
-456 78 783 457 753 738 717 716 775 754 0
-86 116 242 250 186 191 188 245 118 240 0
-143 86 687 487 141 682 703 680 492 485 0
-143 86 755 141 485 487 753 760 492 776 0
-86 186 880 872 878 194 870 157 155 188 0
-172 86 830 494 487 485 170 839 832 853 0
-205 86 203 691 496 487 485 680 682 703 0
-221 86 350 680 352 362 692 698 682 223 0
-281 86 680 350 352 682 695 283 365 698 0
86 -861 832 487 755 853 776 753 485 830 0
86 -791 485 793 814 853 862 487 830 832 0
-95 170 131 128 269 173 263 176 260 266 0
95 -830 326 840 833 847 189 186 329 336 0
329 -628 623 95 611 224 221 614 326 338 0
224 -830 338 842 326 95 847 221 833 329 0
95 -459 473 456 475 392 329 326 378 375 0
375 -680 378 683 706 597 699 95 581 578 0
95 -648 614 664 645 611 630 672 375 378 0
-105 128 432 260 132 442 428 264 434 266 0
-159 105 307 303 311 870 874 878 886 155 0
-898 105 -203 207 645 649 656 870 874 881 0
-330 105 660 341 645 285 649 662 326 281 0
285 -795 578 817 806 281 582 105 593 791 0
-896 307 594 874 105 870 578 886 582 303 0
105 -519 515 534 645 649 664 669 375 379 0
105 -680 645 684 708 649 664 699 375 379 0
-116 128 133 434 350 446 428 433 355 356 0
-141 116 870 308 146 875 877 886 303 310 0
-116 170 208 355 203 175 212 350 359 361 0
186 -313 250 191 116 245 308 240 316 303 0
-260 336 191 270 186 265 326 331 116 340 0
116 -385 380 191 392 331 186 336 326 375 0
116 -391 245 388 240 303 316 308 380 375 0
456 -461 245 469 316 308 240 116 472 303 0
116 -485 240 501 245 316 308 490 498 303 0
245 -528 308 531 116 316 240 515 520 303 0
245 -528 388 534 515 240 520 375 116 380 0
388 -680 380 693 699 245 685 240 375 116 0
-810 116 392 808 380 791 796 326 331 375 0
170 -357 359 147 356 176 350 177 141 128 0
-375 128 147 384 382 381 177 176 141 170 0
170 -611 128 617 620 176 177 147 141 618 0
147 -578 435 585 599 141 584 128 428 434 0
147 -686 141 701 128 435 680 687 428 434 0
147 -723 141 737 128 722 716 435 428 434 0
147 -759 141 760 128 753 435 774 428 434 0
-128 161 194 326 155 192 186 332 334 336 0
128 -836 830 844 269 260 839 266 170 176 0
356 -734 725 128 350 359 722 716 176 170 0
-836 356 350 848 170 128 359 830 176 839 0
-375 170 716 384 128 176 381 722 725 735 0
-375 128 447 428 381 266 434 442 260 389 0
260 -730 266 737 128 442 722 716 428 434 0
-128 326 791 813 332 473 808 456 462 797 0
128 -734 446 737 722 716 350 356 428 434 0
356 -759 753 771 774 128 446 350 428 434 0
-186 141 703 193 492 485 495 680 687 690 0
-141 326 463 791 813 473 456 333 798 808 0
-401 141 485 703 408 687 700 492 680 505 0
141 -506 435 776 485 753 760 774 492 428 0
-578 141 553 599 603 567 546 585 435 428 0
428 -778 760 553 753 141 567 546 435 774 0
428 -782 760 141 680 753 687 435 701 774 0
141 -611 485 680 634 707 492 687 703 618 0
-155 170 830 358 350 839 838 178 848 359 0
194 -619 186 621 870 878 897 155 611 880 0
-229 155 293 326 281 289 341 334 338 221 0
473 -471 464 155 456 281 341 289 326 334 0
281 -653 645 660 155 662 341 289 326 334 0
281 -887 878 341 334 870 885 289 326 155 0
281 -753 155 761 768 870 885 901 878 289 0
-342 303 472 473 155 334 311 456 464 326 0
155 -892 878 456 464 472 870 886 311 303 0
155 -485 303 501 311 870 493 878 886 893 0
-894 303 878 531 311 870 523 886 515 155 0
311 -619 611 627 878 870 897 886 155 303 0
-155 428 567 855 436 554 830 838 546 851 0
212 -503 350 494 203 361 496 170 485 359 0
212 -515 350 526 203 533 361 524 170 359 0
212 -762 753 764 771 361 203 170 350 359 0
-841 853 496 839 212 203 494 485 830 170 0
-364 170 830 350 839 844 848 269 260 359 0
170 -515 350 533 848 839 830 854 524 359 0
170 -437 428 716 725 737 830 839 860 851 0
170 -739 725 853 716 830 494 839 860 485 0
170 -515 860 524 716 725 740 830 854 839 0
-186 361 680 213 350 690 691 360 698 203 0
186 -313 303 886 621 627 611 870 897 880 0
186 -466 476 473 326 418 411 456 336 401 0
418 -655 645 662 665 411 401 326 336 186 0
361 -456 203 474 467 764 753 771 775 350 0
-401 412 203 485 505 546 566 557 569 496 0
428 -439 203 727 737 783 764 753 774 716 0
281 -657 293 662 645 660 341 221 326 338 0
221 -803 791 808 326 806 281 293 341 338 0
221 -637 626 293 281 578 593 590 611 623 0
281 -657 611 672 626 623 221 293 645 660 0
293 -882 870 885 897 626 281 623 611 221 0
-882 221 623 886 870 627 611 897 315 303 0
221 -468 473 476 326 456 418 413 338 401 0
418 -657 645 662 665 413 401 338 326 221 0
326 -830 413 842 847 850 418 401 338 221 0
303 -391 375 594 388 578 591 316 597 240 0
-339 388 240 475 456 469 473 392 375 326 0
240 -658 624 664 611 630 645 672 375 388 0
-428 240 441 812 611 624 632 791 818 804 0
240 -716 804 742 817 578 729 591 821 791 0
-364 428 350 260 442 446 753 767 771 774 0
-260 415 515 659 401 529 645 665 669 535 0
260 -730 442 737 844 860 830 851 716 428 0
-416 401 660 281 611 631 626 645 665 672 0
281 -819 806 626 672 611 818 791 660 645 0
281 -898 885 626 870 672 611 660 645 897 0
-716 731 611 626 806 821 818 281 791 743 0
-428 303 444 891 611 632 870 897 627 886 0
-326 428 697 350 367 698 445 701 680 446 0
-532 326 515 534 645 662 664 669 375 392 0
456 -667 662 418 476 665 326 645 401 473 0
-830 858 645 662 850 401 665 418 326 847 0
-326 428 733 783 716 445 737 753 770 774 0
-782 428 753 771 446 350 680 774 698 701 0
-861 428 753 851 446 774 350 771 830 848 0
-375 428 735 447 783 753 716 737 774 772 0
-635 535 515 672 631 669 645 611 401 665 0
-456 428 783 477 737 738 753 716 775 774 0
-578 428 546 603 856 599 855 851 830 567 0
-741 855 546 716 737 860 851 567 830 428 0
-87 205 204 209 156 129 157 161 130 211 0
-87 580 157 211 579 586 205 156 589 204 0
-87 188 402 187 262 270 415 411 403 261 0
-222 223 516 87 527 815 793 517 792 803 0
304 -531 516 532 87 328 342 517 305 327 0
87 -808 807 328 793 792 342 304 305 327 0
87 -531 304 793 516 517 807 815 792 305 0
87 -613 612 628 635 516 327 517 532 328 0
87 -486 487 755 776 754 792 793 822 814 0
-131 96 686 831 681 683 129 833 836 859 0
-96 171 792 524 173 794 800 516 518 815 0
-263 261 187 547 556 189 560 270 549 96 0
96 -518 -516 187 189 525 547 549 556 570 0
-855 189 547 840 96 556 831 549 833 187 0
-690 831 681 683 187 189 96 859 833 840 0
-404 96 413 831 402 224 833 222 842 850 0
431 -567 440 558 96 224 547 549 429 222 0
558 -692 683 224 222 96 705 549 547 681 0
222 -856 842 579 831 96 590 224 833 581 0
224 -692 683 831 222 681 96 859 833 842 0
351 -488 96 601 596 579 581 503 486 353 0
-376 96 378 681 683 699 831 833 859 849 0
-132 129 681 547 550 552 106 684 686 705 0
-171 106 681 174 654 649 646 684 689 708 0
-282 285 204 106 292 646 649 656 660 207 0
204 -691 681 706 582 207 106 579 589 684 0
204 -691 656 646 684 708 681 207 106 649 0
-264 351 261 354 106 646 649 659 364 663 0
-106 330 612 635 327 615 628 532 516 519 0
351 -489 106 579 486 582 596 601 503 354 0
351 -671 649 663 596 582 106 646 579 354 0
106 -717 579 742 720 734 351 582 596 354 0
351 -698 684 663 106 681 646 649 708 354 0
-834 850 646 649 665 831 405 106 858 402 0
-133 129 831 192 191 835 187 836 840 117 0
117 -208 210 831 204 146 835 142 837 841 0
-304 117 146 308 310 245 142 316 247 241 0
241 -792 804 146 142 245 247 117 798 796 0
-327 331 265 333 146 142 117 267 261 340 0
117 -516 261 522 146 265 267 142 529 520 0
117 -687 685 835 837 859 146 142 681 831 0
-160 156 117 265 191 187 194 268 261 270 0
187 -843 840 250 245 191 831 117 835 241 0
-406 117 187 411 402 191 270 261 265 415 0
117 -551 560 547 556 270 261 191 265 187 0
261 -844 840 187 270 831 835 265 191 117 0
117 -690 685 831 859 681 191 187 840 835 0
-226 117 497 499 265 222 261 272 490 486 0
-273 117 681 685 265 694 693 241 245 261 0
-703 117 486 693 241 245 498 490 685 681 0
117 -703 694 261 486 681 499 685 265 490 0
117 -844 265 859 831 835 685 681 261 694 0
-376 117 380 681 859 685 831 835 849 699 0
-327 336 129 161 194 192 156 187 332 334 0
156 -754 761 763 194 759 187 192 129 161 0
156 -248 209 251 204 246 241 129 161 211 0
-282 156 292 129 287 211 204 161 289 209 0
204 -838 156 841 831 836 129 161 209 211 0
-129 171 617 176 524 516 620 635 612 521 0
-213 192 831 204 187 209 836 840 841 129 0
192 -559 250 556 246 547 129 241 552 187 0
129 -612 187 621 192 241 246 250 -617 624 0
-690 831 681 686 859 129 836 840 187 192 0
192 -754 187 759 763 831 836 840 861 129 0
209 -843 841 251 241 831 246 836 129 204 0
204 -691 681 209 129 831 686 836 841 859 0
129 -457 462 702 686 859 831 852 681 836 0
129 -754 681 782 759 686 831 836 859 861 0
142 -652 646 837 841 858 210 204 831 656 0
-156 178 792 383 799 171 800 384 810 376 0
-409 156 402 194 411 268 270 187 261 415 0
194 -495 187 493 499 268 270 261 486 156 0
204 -653 646 659 268 261 156 271 656 211 0
-351 390 393 376 282 171 365 290 359 384 0
-831 857 612 635 854 171 524 516 620 839 0
261 -516 270 525 411 529 535 402 187 415 0
556 -690 681 694 187 270 560 261 547 705 0
-187 304 385 801 391 792 807 810 313 376 0
204 -557 271 558 547 272 261 222 232 560 0
241 -658 646 666 251 441 439 204 656 429 0
-844 271 659 858 841 204 656 646 261 831 0
-412 204 666 646 402 439 448 665 429 656 0
204 -851 429 858 841 656 646 666 831 439 0
-204 516 457 467 537 612 526 633 635 622 0
-442 272 222 448 261 440 415 429 413 402 0
272 -692 558 694 261 681 560 547 222 705 0
-304 444 506 501 497 440 429 315 222 486 0
-222 387 754 822 765 772 803 376 792 810 0
-222 516 527 792 815 882 894 902 871 803 0
351 -419 364 646 659 663 402 261 415 665 0
-261 389 767 822 376 792 772 754 805 810 0
-700 402 646 659 681 261 694 708 415 665 0
-516 261 529 669 694 659 646 681 704 708 0
-670 681 646 659 694 705 261 560 708 547 0
-717 745 547 694 560 261 741 681 705 730 0
304 -531 516 717 732 733 532 740 327 342 0
-821 376 391 792 735 304 717 732 807 810 0
304 -769 376 772 810 807 822 391 792 754 0
-327 418 646 402 858 665 831 847 850 662 0
-402 902 792 889 811 376 810 871 890 420 0
-429 376 447 783 717 737 754 735 772 774 0
-475 376 457 717 735 738 754 775 783 772 0
-376 858 646 664 681 699 831 849 708 859 0
429 -612 448 666 672 646 632 665 402 631 0
-700 831 646 681 859 402 708 850 858 665 0
-754 781 646 681 831 859 782 861 708 858 0
-158 580 157 97 719 742 718 586 581 724 0
-243 97 242 250 189 613 614 621 624 188 0
-385 188 556 378 565 189 377 548 549 97 0
97 -438 431 613 430 189 614 621 632 188 0
189 -636 621 549 97 556 548 614 613 188 0
188 -755 556 756 549 189 763 778 97 548 0
-726 743 614 719 97 613 189 621 718 188 0
-223 97 548 719 558 741 728 549 718 224 0
-97 306 647 661 794 648 793 819 807 305 0
377 -447 613 97 614 431 630 378 632 430 0
580 -603 377 565 549 548 97 378 581 597 0
97 -682 581 683 706 580 699 597 377 378 0
430 -737 97 743 632 614 613 718 719 431 0
97 -794 -793 613 614 632 812 818 431 430 0
487 -97 819 648 488 668 794 647 814 793 0
580 -603 97 718 719 741 549 548 581 742 0
97 -682 549 683 745 741 718 719 548 705 0
-873 900 613 743 614 97 719 718 872 897 0
-159 580 742 107 157 586 582 718 720 724 0
-384 580 377 597 107 172 379 174 582 587 0
580 -598 403 587 172 174 582 107 405 410 0
410 -890 879 405 174 872 874 403 172 107 0
-895 174 550 107 879 872 874 548 172 555 0
-725 879 718 720 872 174 172 107 900 874 0
207 -727 718 872 881 205 720 107 900 874 0
-107 223 755 822 803 757 793 765 795 225 0
-244 242 107 580 582 597 591 379 388 377 0
-352 107 354 734 550 564 548 718 720 741 0
-352 888 354 734 107 720 872 874 900 718 0
565 -682 548 705 107 550 684 699 377 379 0
-735 565 718 720 107 548 550 379 377 741 0
580 -682 377 699 706 379 582 597 684 107 0
580 -735 377 742 107 720 718 582 597 379 0
-107 862 517 519 793 795 834 815 832 854 0
-895 900 550 720 107 741 874 548 718 872 0
143 -305 146 308 245 310 247 242 316 118 0
-382 118 388 377 146 245 247 242 143 380 0
118 -793 804 798 796 242 146 245 247 143 0
-382 377 -389 143 146 262 265 267 380 118 0
143 -517 265 520 529 146 262 118 267 522 0
118 -721 718 723 143 267 146 730 265 262 0
143 -721 118 723 872 875 877 900 718 146 0
-175 118 872 195 875 191 172 879 880 188 0
118 -273 191 270 262 265 242 245 250 188 0
377 -389 -385 191 262 265 270 188 118 380 0
161 -755 194 761 763 157 130 188 192 759 0
157 -876 872 878 880 194 130 188 192 161 0
205 -584 580 589 157 130 586 161 209 211 0
-328 130 473 161 334 464 462 458 332 157 0
-176 172 195 250 249 246 242 188 192 130 0
188 -617 242 621 613 246 250 192 130 624 0
-130 356 533 227 352 223 527 362 521 517 0
130 -381 388 246 377 469 458 475 462 242 0
247 -273 210 271 143 262 251 267 242 205 0
205 -585 580 589 242 247 251 143 210 591 0
205 -793 804 802 143 242 251 247 210 798 0
205 -884 881 210 271 262 872 877 267 143 0
-727 872 718 723 877 205 143 900 210 881 0
-793 804 729 821 723 247 718 143 242 798 0
247 -883 877 900 729 872 723 143 718 242 0
-884 267 730 900 723 877 872 143 262 718 0
194 -755 157 761 880 878 872 901 188 763 0
580 -592 271 211 262 268 157 589 205 586 0
-157 223 692 820 688 793 229 799 803 682 0
580 -592 586 724 742 157 718 262 268 730 0
580 -487 157 601 718 493 724 742 586 739 0
-487 157 900 718 724 872 493 739 878 893 0
403 -414 410 249 195 411 188 242 172 250 0
188 -438 430 441 249 195 242 250 172 437 0
172 -524 -517 195 525 535 410 411 188 403 0
403 -223 448 413 410 440 437 230 430 172 0
312 -305 172 249 430 444 441 437 242 316 0
458 -682 465 693 469 172 242 249 689 702 0
-172 487 494 793 853 839 814 832 800 862 0
403 -625 411 631 270 613 415 262 188 621 0
556 -726 718 730 741 560 270 262 548 188 0
188 -438 430 613 872 621 880 891 897 632 0
-188 487 495 668 819 801 647 655 793 814 0
-727 729 251 718 742 242 591 205 580 589 0
205 -622 613 632 872 439 881 891 897 430 0
-242 223 363 252 755 352 766 765 362 771 0
-338 367 223 517 533 527 532 352 328 362 0
-458 223 352 533 537 527 517 468 474 362 0
352 -704 698 223 517 527 682 533 692 362 0
-809 815 533 793 527 223 352 517 803 362 0
223 -782 771 352 682 698 765 362 755 692 0
-377 387 223 793 822 803 810 765 772 755 0
-242 339 533 517 532 528 328 367 352 363 0
-242 363 517 533 832 843 352 854 528 848 0
388 -633 630 377 469 458 475 242 613 624 0
580 -735 597 742 242 729 718 591 377 388 0
-414 403 441 613 448 631 624 632 430 242 0
-793 812 441 613 632 242 804 818 624 430 0
580 -487 498 591 718 729 242 601 742 739 0
-262 305 793 844 317 807 862 805 832 846 0
458 -738 730 741 568 560 262 470 718 548 0
-569 262 -487 499 548 560 718 730 739 741 0
-341 342 328 318 305 682 696 695 697 283 0
-341 367 682 695 328 698 283 697 352 365 0
-283 900 613 885 743 731 872 718 897 626 0
-305 444 613 897 872 627 632 430 891 886 0
305 -548 862 562 807 793 832 846 816 855 0
-328 377 563 565 568 458 548 473 475 392 0
-430 352 446 536 851 517 832 533 854 848 0
-352 900 613 629 734 872 888 718 897 743 0
-377 487 504 772 755 776 822 793 814 810 0
-647 672 448 613 631 666 632 665 403 430 0
-403 487 505 811 703 700 682 820 793 814 0
487 -538 517 793 815 854 853 862 832 814 0
-146 147 108 120 131 133 132 145 144 119 0
-161 120 108 160 131 133 132 119 159 158 0
-405 132 406 131 108 133 120 404 407 119 0
-462 132 461 108 119 133 460 131 120 459 0
132 -520 519 108 518 521 133 131 120 119 0
120 -649 132 651 131 133 648 650 108 119 0
120 -224 160 108 226 159 158 225 229 119 0
-431 158 433 432 159 160 120 108 436 119 0
159 -464 461 460 119 160 158 459 120 108 0
144 -614 108 615 618 145 147 132 131 617 0
-529 108 521 266 263 518 132 264 519 131 0
-462 108 537 132 518 519 521 459 460 131 0
-614 108 519 615 518 617 635 132 521 131 0
132 -874 873 519 894 108 518 521 876 131 0
-493 159 492 488 108 162 158 145 144 489 0
158 -798 795 108 799 794 145 159 162 144 0
145 -756 489 757 760 144 776 108 492 488 0
-268 158 273 243 108 159 264 244 263 248 0
159 -523 519 528 518 108 244 243 248 158 0
-268 158 263 108 794 264 159 795 799 805 0
-224 108 225 537 459 460 518 519 527 468 0
273 -804 794 805 795 264 244 243 263 108 0
-833 273 244 834 843 844 264 243 108 263 0
-469 537 459 460 528 519 244 518 108 243 0
264 -756 263 757 822 108 767 795 794 805 0
-405 108 404 489 505 488 795 811 794 814 0
-431 108 432 477 536 518 460 519 537 459 0
-756 108 460 757 775 776 507 489 488 459 0
108 -813 459 814 460 488 489 507 795 794 0
108 -813 460 815 518 519 795 537 459 794 0
-108 549 550 745 683 684 705 719 720 741 0
-265 175 119 266 133 176 173 131 269 263 0
176 -520 119 524 518 521 133 175 173 131 0
175 -614 176 616 617 620 133 173 131 119 0
175 -654 176 133 131 648 650 173 651 119 0
407 -581 404 583 598 133 131 406 584 119 0
407 -665 404 133 131 648 650 651 406 119 0
404 -719 406 721 736 407 133 131 722 119 0
-353 158 119 355 358 160 359 175 173 178 0
173 -654 653 648 175 178 160 158 650 119 0
160 -796 794 158 799 800 178 175 173 119 0
-549 160 554 409 404 551 158 566 406 119 0
-490 284 119 500 505 404 416 488 286 406 0
-581 650 119 461 583 671 600 648 667 459 0
144 -522 177 524 518 131 521 173 147 176 0
-877 876 873 890 147 144 408 131 404 407 0
-287 290 173 284 263 295 269 266 131 176 0
-529 269 131 263 524 176 266 518 173 521 0
131 -797 794 805 269 266 263 800 176 173 0
-246 898 658 243 883 131 651 648 873 876 0
266 -581 263 584 873 131 896 876 884 592 0
-378 407 381 131 889 873 876 890 404 420 0
-535 407 131 404 894 873 876 518 521 890 0
-581 521 518 584 602 873 876 894 896 131 0
-131 861 683 836 686 756 833 759 782 859 0
-247 158 658 248 243 144 162 648 653 652 0
408 -683 404 687 688 700 162 158 144 409 0
-268 158 178 805 263 269 794 799 173 800 0
158 -683 404 700 688 799 811 820 409 794 0
-549 158 554 819 648 653 670 799 794 816 0
212 -538 526 206 496 524 173 488 518 494 0
212 -802 496 814 173 206 488 494 800 794 0
212 -719 524 727 740 206 725 518 173 526 0
273 -249 243 290 294 173 269 263 284 295 0
290 -806 805 284 263 794 269 295 800 173 0
290 -465 284 507 471 488 494 173 500 459 0
-173 549 555 782 689 705 756 683 762 778 0
-189 213 496 507 206 459 466 467 488 495 0
-404 189 411 861 756 833 773 763 850 840 0
-189 648 459 507 667 495 655 668 466 488 0
-881 894 206 873 518 892 537 467 459 526 0
-284 293 731 743 224 623 614 626 719 728 0
-306 444 614 431 224 623 627 632 315 440 0
558 -855 847 224 563 549 833 842 329 338 0
-362 353 623 614 719 629 728 734 743 224 0
-224 898 459 468 667 648 882 873 657 892 0
-224 518 527 803 894 873 794 882 902 815 0
224 -636 614 719 743 558 728 549 741 623 0
273 -659 658 883 884 648 263 873 243 898 0
243 -833 273 873 883 843 903 844 263 884 0
-498 414 284 500 505 294 243 488 404 416 0
-329 339 243 528 532 518 887 873 883 894 0
-469 243 459 667 648 873 898 883 892 658 0
243 -833 528 843 873 854 883 903 894 518 0
-243 581 745 693 719 706 729 591 742 683 0
-378 389 889 263 794 902 873 805 810 884 0
-263 560 694 741 549 705 719 730 745 683 0
-501 306 417 505 284 500 416 488 318 404 0
353 -488 581 503 719 739 601 596 734 742 0
475 -459 378 683 702 833 849 852 859 699 0
-535 518 794 404 815 890 894 811 873 902 0
-549 902 566 404 794 816 873 811 890 895 0
404 -665 902 648 873 811 794 819 890 898 0
404 -683 902 700 820 811 794 899 890 873 0
-893 892 507 667 488 459 668 648 898 873 0
-549 902 670 873 819 898 794 648 816 895 0
549 -783 778 719 683 705 745 756 741 782 0
-817 648 -581 671 794 819 873 896 898 902 0
-648 861 858 683 756 708 782 781 833 859 0
433 -632 617 434 133 132 120 432 616 615 0
159 -685 -684 692 160 225 226 229 120 688 0
-835 834 432 851 160 838 159 120 436 433 0
-758 765 225 460 461 120 757 226 468 775 0
120 -520 460 633 461 519 615 616 537 635 0
-174 147 132 145 176 615 177 618 620 617 0
228 -522 519 521 225 527 147 145 132 227 0
228 -623 617 132 225 227 615 147 145 618 0
147 -759 225 760 765 132 145 228 757 227 0
145 -491 147 618 634 489 132 492 615 617 0
-174 132 615 519 521 524 176 620 635 617 0
-623 635 519 617 521 227 225 132 527 615 0
-379 132 447 434 381 266 264 442 432 389 0
-332 330 519 521 532 536 445 434 132 432 0
-462 434 432 537 477 521 519 132 536 460 0
-632 635 519 617 434 132 521 536 432 615 0
132 -582 519 635 637 521 615 602 584 617 0
-247 228 225 159 248 229 162 252 145 244 0
162 -684 225 687 692 228 229 159 688 145 0
-761 760 225 765 145 229 162 159 228 757 0
-379 159 436 383 435 447 382 145 162 432 0
159 -550 162 554 567 436 145 553 435 432 0
162 -837 834 838 851 436 435 159 145 432 0
-763 193 190 765 225 228 145 760 757 231 0
435 -463 193 466 190 460 145 438 477 432 0
-621 634 495 615 145 492 489 618 193 190 0
193 -684 492 687 690 190 489 145 703 495 0
-145 357 307 310 874 366 354 886 877 888 0
145 -582 435 585 599 757 779 774 760 432 0
145 -684 489 687 703 707 634 618 492 615 0
489 -780 776 145 615 492 634 618 757 760 0
-159 289 207 586 292 211 593 582 589 285 0
159 -878 -874 225 229 244 248 252 882 883 0
159 -684 225 692 803 688 799 795 820 229 0
-842 862 225 803 838 795 159 799 229 834 0
159 -354 244 838 248 363 358 848 834 843 0
159 -441 432 851 838 436 834 248 244 843 0
159 -550 248 559 834 244 843 855 838 554 0
248 -624 619 843 857 838 244 834 159 615 0
159 -804 795 834 248 843 244 799 838 862 0
-812 436 795 834 851 159 838 799 862 432 0
-493 159 834 489 814 795 853 799 862 838 0
-244 174 312 249 591 587 582 594 316 307 0
-359 312 174 366 596 354 582 587 594 307 0
307 -696 174 706 587 582 689 312 594 684 0
-174 489 494 620 839 853 634 615 857 834 0
174 -757 684 778 689 555 705 550 762 782 0
-671 706 582 649 708 174 689 587 684 654 0
-525 795 190 519 801 815 225 803 527 231 0
-649 655 190 225 795 803 801 819 657 231 0
-720 438 190 726 737 460 477 466 738 432 0
-763 775 507 757 460 776 489 190 466 495 0
-684 489 495 703 820 690 814 190 801 795 0
489 -840 834 862 853 795 814 190 801 495 0
292 -671 656 285 660 593 589 582 649 207 0
-207 489 460 467 507 633 634 615 496 622 0
-874 883 519 244 882 527 225 252 894 528 0
-379 387 225 757 822 765 795 803 810 772 0
-874 882 460 537 892 894 468 225 527 519 0
-497 489 225 765 776 803 822 814 795 757 0
264 -874 844 883 273 903 884 834 244 843 0
330 -441 432 445 757 766 770 244 774 339 0
-624 244 528 635 628 615 330 519 532 339 0
-244 388 706 582 597 591 379 684 693 699 0
-244 745 582 706 693 684 591 720 729 742 0
-307 317 846 805 795 807 834 844 862 264 0
-379 389 757 822 264 767 795 805 810 772 0
442 -812 432 834 851 795 844 264 805 862 0
-499 264 489 814 862 844 834 853 795 805 0
-264 560 550 745 694 705 684 720 730 741 0
-365 900 354 285 731 720 734 874 885 888 0
-732 742 582 720 594 734 366 307 354 596 0
307 -615 354 627 874 886 629 888 897 366 0
-473 330 477 532 536 445 519 537 432 460 0
-847 851 519 536 854 445 532 834 432 330 0
-582 595 432 445 757 770 774 599 779 330 0
-354 536 432 460 474 477 519 533 537 446 0
-489 900 354 503 734 739 720 874 888 893 0
-615 900 354 629 874 734 720 888 743 897 0
475 -460 565 379 568 705 684 550 702 699 0
-379 489 504 757 776 814 822 795 810 772 0
-852 851 519 834 536 537 460 854 477 432 0
-720 740 519 536 737 860 432 854 851 834 0
-780 489 460 615 507 633 757 634 776 775 0
-852 489 507 853 857 615 634 633 834 460 0
-603 745 550 582 684 742 706 705 720 741 0
-230 356 226 176 133 227 359 355 362 175 0
434 -437 355 133 433 356 176 359 446 175 0
-209 407 133 722 406 721 727 736 208 412 0
362 -663 657 226 650 133 651 227 355 356 0
226 -590 583 657 671 133 651 650 584 227 0
-875 876 657 651 133 650 226 882 898 227 0
-265 266 583 584 637 592 616 617 625 133 0
434 -448 406 133 355 407 433 419 446 356 0
355 -631 -629 133 356 406 407 419 616 617 0
-596 599 446 584 133 356 355 583 433 434 0
-631 407 598 616 583 133 584 637 406 617 0
-552 133 551 583 584 603 616 617 637 636 0
-133 861 685 758 836 859 759 686 782 835 0
245 -528 308 531 146 316 247 520 522 310 0
804 -807 316 146 308 798 796 245 247 310 0
331 -492 265 267 502 146 490 499 333 340 0
331 -532 146 267 265 522 340 529 520 333 0
265 -805 267 808 798 331 796 146 333 340 0
265 -844 837 331 267 835 146 847 333 340 0
331 -461 473 463 837 847 146 852 835 333 0
331 -862 837 847 835 796 808 798 146 333 0
-146 551 553 583 636 616 618 603 585 637 0
551 -555 554 620 636 178 175 619 616 160 0
-160 194 758 761 191 901 875 763 880 878 0
-211 409 406 566 208 554 557 412 160 551 0
226 -380 383 160 358 229 362 393 355 387 0
226 -685 229 698 362 160 692 355 688 358 0
160 -464 461 653 229 226 650 667 657 468 0
436 -464 160 474 446 461 477 433 355 358 0
160 -564 355 551 436 446 554 433 567 358 0
160 -796 551 819 816 554 799 650 653 670 0
175 -490 208 494 622 616 212 620 496 634 0
212 -743 727 175 616 622 725 208 620 721 0
355 -465 461 471 474 286 175 290 359 365 0
-406 191 411 763 861 850 773 758 835 840 0
-191 650 461 583 667 671 588 600 466 655 0
191 -616 901 621 758 780 875 880 897 763 0
-903 901 191 758 835 840 880 861 875 763 0
208 -629 474 633 361 355 622 467 616 461 0
208 -490 406 505 569 551 566 557 496 412 0
-439 433 208 721 477 467 727 737 738 461 0
-568 208 461 557 633 467 616 551 622 636 0
208 -589 557 622 637 551 603 616 636 583 0
-226 331 265 499 490 497 502 340 272 338 0
245 -528 490 531 538 501 308 520 316 498 0
308 -583 245 594 601 490 591 498 501 316 0
245 -883 501 886 893 490 498 875 308 316 0
-843 245 693 849 699 685 835 859 380 388 0
-317 308 265 490 501 529 538 531 520 499 0
-767 777 694 758 782 685 265 529 704 520 0
-593 551 561 603 286 566 406 598 583 416 0
-696 704 531 685 758 308 782 769 777 520 0
331 -697 392 699 835 849 859 685 380 847 0
-596 599 446 583 477 474 461 600 433 355 0
380 -461 475 685 699 702 849 835 852 859 0
380 -772 534 782 685 699 704 777 758 520 0
-854 859 534 699 704 835 685 849 520 380 0
380 -650 859 699 858 708 835 664 685 849 0
-772 849 685 758 835 859 782 699 380 861 0
-520 536 461 477 537 721 737 738 740 433 0
-568 551 461 633 603 616 583 636 600 637 0
-551 570 520 782 704 685 778 705 758 777 0
-875 896 583 670 895 650 671 898 603 551 0
-650 861 859 685 708 835 781 758 858 782 0
-192 434 193 147 385 382 435 438 447 381 0
147 -267 266 584 585 592 618 625 637 617 0
147 -723 435 737 722 447 434 382 735 381 0
-631 407 598 618 637 408 585 584 147 617 0
434 -632 435 637 584 585 617 147 599 618 0
-266 192 194 336 268 161 332 334 270 340 0
194 -495 491 502 493 336 332 192 161 334 0
332 -838 161 840 836 194 336 334 192 847 0
192 -521 761 194 525 777 759 523 763 161 0
161 -554 194 761 759 556 778 192 763 552 0
161 -248 211 246 311 209 309 251 314 316 0
161 -838 836 841 209 845 292 289 287 211 0
161 -876 289 878 881 885 292 287 209 211 0
-507 501 464 472 311 309 491 462 493 161 0
309 -776 761 501 769 493 491 759 161 311 0
-876 893 491 501 493 886 878 309 161 311 0
-161 356 383 420 381 409 419 358 407 393 0
-230 356 393 176 359 362 387 227 384 381 0
266 -879 269 884 889 389 384 176 876 381 0
434 -437 359 447 176 384 356 393 446 381 0
384 -534 533 524 521 176 393 359 356 381 0
-629 635 533 617 359 521 524 356 176 620 0
434 -437 381 447 722 176 725 735 737 384 0
176 -534 384 725 521 524 722 735 740 381 0
434 -437 521 725 536 524 176 740 737 722 0
-176 462 465 555 705 552 686 702 568 689 0
-743 176 617 725 740 635 524 620 521 722 0
-836 857 524 620 854 635 521 176 839 617 0
-192 356 227 393 231 362 360 385 381 387 0
192 -466 473 563 568 556 462 336 332 552 0
-770 847 759 763 840 836 336 332 192 861 0
-407 192 850 411 759 773 836 763 840 861 0
-294 804 246 287 251 797 806 802 292 209 0
498 -496 314 309 251 246 316 209 491 501 0
-209 356 386 420 393 419 412 407 381 361 0
-246 227 533 252 363 356 527 521 528 362 0
-246 227 883 658 252 657 882 876 651 898 0
393 -759 387 765 772 227 362 356 771 381 0
227 -888 387 889 362 876 393 356 882 381 0
356 -629 -623 635 362 521 527 227 533 617 0
-590 602 527 584 521 876 882 894 896 227 0
-797 521 527 803 815 876 882 894 902 227 0
-339 332 469 473 808 462 246 797 813 804 0
434 -597 584 599 442 381 266 389 447 592 0
434 -759 442 767 772 266 389 447 774 381 0
-597 876 584 592 266 389 889 896 884 381 0
266 -797 389 810 805 884 876 889 902 381 0
-266 560 470 705 462 552 694 568 686 702 0
-529 521 625 635 584 592 602 617 266 637 0
341 -471 473 836 845 847 852 332 287 462 0
341 -862 845 287 332 806 797 808 847 836 0
-287 390 420 356 419 381 416 407 393 365 0
462 -816 808 563 332 552 568 473 797 813 0
462 -855 852 568 332 563 473 552 847 836 0
-332 521 532 584 637 595 602 617 628 635 0
-332 521 532 584 595 602 887 894 876 896 0
434 -759 447 771 446 772 356 393 774 381 0
407 -448 447 722 434 735 736 737 381 420 0
552 -775 759 778 462 702 782 568 705 686 0
-462 898 584 896 600 667 876 892 651 671 0
-775 861 702 759 782 462 836 852 859 686 0
-836 854 584 602 903 856 876 894 896 521 0
-552 898 896 584 603 671 670 651 876 895 0
-651 861 858 686 759 782 781 708 836 859 0
-630 178 383 620 382 619 384 177 162 618 0
178 -798 383 800 799 810 177 382 162 384 0
-837 178 619 838 857 177 162 620 839 618 0
387 -699 687 229 228 692 688 382 162 383 0
162 -798 229 799 803 810 228 382 383 387 0
229 -623 619 692 707 228 162 688 618 687 0
229 -708 692 652 228 162 657 653 688 687 0
-357 162 688 435 698 687 436 701 358 446 0
162 -798 383 799 810 811 382 409 408 420 0
-705 408 553 688 700 687 162 566 554 409 0
177 -798 504 810 814 494 492 800 382 384 0
228 -440 435 447 438 193 387 231 382 385 0
387 -664 652 228 657 193 655 231 382 385 0
382 -699 687 193 690 492 495 703 504 385 0
193 -798 495 801 504 492 810 814 382 385 0
193 -601 495 652 588 492 668 655 671 585 0
193 -708 690 492 652 655 668 495 703 687 0
-467 210 314 463 472 316 251 247 469 310 0
316 -883 881 251 886 210 247 877 314 310 0
288 -435 439 210 885 891 292 877 443 881 0
288 -903 881 210 845 841 837 885 877 292 0
-210 636 492 557 622 496 569 618 634 553 0
-294 247 731 288 804 821 729 798 723 806 0
247 -585 804 591 729 798 817 821 723 742 0
357 -492 267 730 499 739 503 734 723 364 0
-267 442 779 585 435 599 774 592 760 767 0
341 -733 723 821 288 731 806 808 333 798 0
-288 408 504 420 382 390 492 500 505 416 0
-288 408 492 505 553 500 569 416 566 561 0
288 -902 900 731 821 806 885 877 723 798 0
357 -618 366 629 627 877 886 888 897 310 0
357 -732 723 900 888 734 886 366 877 310 0
-382 852 392 475 333 473 837 847 849 463 0
-333 435 445 779 595 774 585 599 760 770 0
357 -585 821 596 742 723 798 809 817 734 0
357 -618 821 629 743 723 734 798 809 818 0
357 -618 877 629 723 734 888 897 900 743 0
408 -773 760 505 504 772 492 382 776 420 0
382 -723 447 737 760 735 774 783 435 772 0
-631 700 505 618 707 703 634 492 687 408 0
-837 851 567 585 856 553 435 603 855 599 0
-601 652 492 585 603 553 569 668 670 671 0
-837 853 553 569 857 634 636 618 492 855 0
-268 178 844 269 625 838 839 620 619 857 0
358 -809 393 810 800 384 383 178 359 799 0
178 -809 799 838 862 848 358 839 359 800 0
-849 178 383 838 799 862 384 800 839 810 0
178 -523 862 524 815 839 854 799 838 800 0
-818 839 620 799 857 800 838 619 178 862 0
-409 194 411 763 525 535 761 773 523 777 0
-248 211 251 314 586 589 591 594 311 316 0
289 -436 211 443 878 885 891 292 439 881 0
211 -764 761 768 878 881 885 901 289 292 0
211 -496 314 501 311 878 881 886 493 893 0
361 -211 386 358 419 420 409 412 383 393 0
-388 393 383 229 387 358 363 248 252 362 0
252 -523 248 528 533 527 358 229 362 363 0
-878 252 653 883 657 898 882 248 229 658 0
393 -761 383 765 771 772 229 387 362 358 0
-229 493 497 742 601 590 586 724 728 739 0
-289 248 559 566 409 416 561 554 294 414 0
-564 566 419 559 409 414 554 248 363 358 0
-554 268 464 568 560 473 470 563 334 340 0
-289 390 383 358 419 393 420 416 409 365 0
289 -500 900 731 885 739 878 724 893 493 0
-358 366 311 503 586 594 596 601 501 493 0
-311 409 700 807 696 688 799 811 417 820 0
-894 893 523 531 501 538 493 878 886 311 0
493 -732 724 878 739 893 886 900 501 311 0
-311 862 554 562 807 838 846 855 799 816 0
-809 810 383 799 811 419 393 358 409 420 0
358 -699 698 447 436 688 701 446 383 393 0
436 -761 383 771 774 772 446 358 393 447 0
-849 848 838 851 446 436 447 358 383 393 0
-859 436 446 688 838 358 851 698 701 848 0
-358 900 503 739 493 724 734 878 893 888 0
-493 819 554 814 569 670 668 653 799 816 0
-493 838 554 853 569 816 855 799 862 814 0
-195 213 393 386 384 385 360 361 359 212 0
-269 335 195 418 270 340 410 336 411 415 0
418 -655 654 662 410 411 665 195 336 335 0
-195 385 494 504 801 810 800 814 384 495 0
212 -734 727 735 725 386 393 359 361 384 0
-410 384 725 420 412 386 727 735 736 212 0
212 -802 496 810 504 494 814 800 384 386 0
212 -465 740 467 537 725 727 526 738 524 0
212 -538 494 622 635 496 524 620 634 526 0
-841 857 526 635 212 839 854 620 622 524 0
312 -620 444 632 627 437 623 230 315 440 0
-882 891 444 879 886 437 312 315 230 440 0
418 -445 230 448 440 335 413 437 410 338 0
418 -657 654 338 410 413 665 230 335 662 0
335 -839 410 842 850 413 418 230 847 338 0
-494 506 437 441 249 444 498 501 312 316 0
-725 745 249 706 591 587 729 689 742 693 0
390 -806 805 290 295 269 800 810 389 384 0
-269 560 465 555 694 689 702 470 705 568 0
-529 269 800 524 854 805 815 839 844 862 0
418 -445 437 448 662 666 654 665 335 410 0
-839 410 654 850 858 335 665 418 662 847 0
359 -629 620 635 839 524 848 854 857 533 0
-410 384 494 810 420 505 504 814 800 811 0
-384 565 465 555 702 689 705 699 568 475 0
410 -620 781 631 654 672 762 773 665 780 0
-839 850 654 773 781 861 858 762 665 410 0
-775 568 555 778 465 702 705 689 762 782 0
-855 -839 689 465 568 555 702 705 852 859 0
-232 361 213 386 387 362 385 360 393 231 0
-525 526 467 466 537 213 474 533 360 361 0
213 -411 385 726 420 412 727 735 736 386 0
213 -802 496 810 504 495 801 814 385 386 0
213 -702 690 495 466 691 507 467 496 703 0
360 -293 231 291 393 385 365 387 362 390 0
-293 360 231 690 695 291 365 692 698 362 0
-315 231 313 807 803 801 391 810 387 385 0
-315 231 692 313 696 801 690 803 807 820 0
385 -664 657 801 803 819 231 810 655 387 0
-817 -590 588 655 657 671 801 803 819 231 0
-270 385 317 391 801 805 807 313 810 389 0
360 -443 393 447 291 438 390 446 365 385 0
-291 901 621 763 885 768 780 626 880 897 0
-444 385 391 447 726 735 732 737 313 438 0
385 -769 -763 801 807 810 772 822 391 313 0
-472 313 466 667 738 661 655 744 732 726 0
-556 313 819 562 661 670 807 801 655 816 0
-313 901 621 627 763 780 897 886 880 769 0
336 -466 476 847 840 852 473 418 850 411 0
336 -655 411 662 840 665 847 418 850 858 0
-475 360 474 466 438 447 477 446 385 393 0
-763 438 447 771 772 774 446 360 393 385 0
-655 535 411 763 773 669 781 665 777 525 0
-655 861 411 665 763 781 773 850 858 840 0
-690 556 525 705 763 778 782 570 704 777 0
-252 232 251 314 439 441 444 440 315 316 0
-856 232 590 841 293 589 593 842 845 292 0
-622 439 314 623 627 632 315 444 232 440 0
-294 804 251 589 591 593 292 802 806 817 0
-292 361 420 412 419 390 416 386 365 393 0
-292 412 496 505 703 695 500 691 700 416 0
292 -819 812 443 439 656 666 660 802 806 0
-898 439 443 292 656 881 891 660 666 885 0
-418 367 419 361 337 697 412 691 698 700 0
337 -439 361 446 691 698 445 701 697 367 0
-629 628 622 635 361 533 337 526 532 367 0
-502 337 496 622 634 697 707 628 691 703 0
-589 595 526 532 602 637 628 635 622 337 0
-773 393 419 771 386 772 412 764 361 420 0
386 -439 783 447 737 727 764 735 772 774 0
-852 -841 467 496 507 622 633 634 853 857 0
-589 622 467 537 637 602 633 600 635 526 0
-841 853 496 569 857 634 636 622 557 855 0
-338 252 887 532 527 339 883 882 528 894 0
-888 894 528 883 527 882 252 533 362 363 0
-252 498 742 601 728 590 739 591 497 729 0
252 -804 528 803 902 815 882 527 883 894 0
-272 387 765 822 389 772 767 803 805 810 0
-272 387 803 902 882 810 805 884 889 389 0
-500 293 497 593 728 590 731 601 739 742 0
-417 444 413 448 440 623 627 631 632 315 0
-440 775 774 446 468 474 477 362 765 771 0
-888 894 468 527 882 537 533 474 892 362 0
-362 742 497 503 590 601 728 596 739 734 0
-413 387 811 420 810 803 890 882 889 902 0
387 -534 527 803 815 882 810 889 894 902 0
387 -664 657 803 902 889 882 819 810 898 0
387 -699 692 810 820 899 803 889 882 902 0
-413 902 692 820 899 882 890 803 700 811 0
-669 882 537 667 898 468 892 657 894 527 0
-669 815 527 657 819 882 898 894 803 902 0
-558 902 657 670 803 819 898 895 882 816 0
273 -804 902 805 843 862 884 844 883 903 0
-564 294 419 559 414 566 561 363 365 416 0
-294 804 591 731 742 729 817 593 806 821 0
-807 444 441 812 818 632 627 804 624 316 0
367 -441 339 445 536 533 363 446 528 532 0
-363 804 591 729 817 734 809 596 742 821 0
-363 804 624 629 809 743 729 821 734 818 0
-591 898 559 603 896 671 883 670 658 895 0
-804 903 559 816 843 855 902 862 883 895 0
804 -637 624 742 818 743 817 729 591 821 0
-820 804 591 745 729 742 817 821 706 693 0
340 -389 565 475 560 470 563 568 473 392 0
-844 340 659 847 858 415 665 418 662 850 0
-340 442 445 595 774 767 779 599 592 770 0
-415 389 902 810 805 889 811 420 884 890 0
-730 442 447 735 772 783 774 737 389 767 0
-389 560 565 534 705 529 694 699 704 570 0
-670 669 659 694 570 560 704 708 529 705 0
-767 778 694 704 777 560 570 705 529 782 0
-529 857 592 602 625 635 637 844 856 854 0
-529 902 805 815 844 862 884 894 903 854 0
-560 903 805 816 862 884 895 855 902 844 0
-817 862 592 805 896 844 902 856 884 903 0
417 -565 566 420 391 318 416 561 390 562 0
318 -806 416 811 810 417 390 391 807 420 0
-318 901 626 780 768 769 627 886 885 897 0
393 -503 390 505 416 419 365 500 504 420 0
-365 821 593 731 817 809 734 596 742 806 0
-416 672 443 626 632 448 631 660 666 665 0
-416 780 626 631 660 781 672 768 773 665 0
-898 897 660 443 891 885 626 666 632 672 0
-774 891 626 768 780 885 632 443 897 901 0
-857 858 626 672 768 660 780 781 861 845 0
-783 897 626 768 900 901 780 885 743 731 0
366 -771 627 629 769 886 901 897 888 780 0
-501 819 562 569 668 807 670 814 661 816 0
-501 846 562 569 807 814 855 816 862 853 0
-473 367 474 536 445 532 446 477 537 533 0
-704 367 445 533 446 701 536 698 697 532 0
367 -777 774 771 445 533 532 536 770 446 0
-596 595 446 771 774 445 770 779 599 367 0
-392 783 445 447 735 733 737 770 774 772 0
473 -697 392 702 847 849 859 699 852 475 0
-473 783 445 477 738 737 770 733 775 774 0
-891 896 602 445 536 894 599 887 595 532 0
-742 770 595 733 599 445 783 774 737 779 0
-847 903 532 602 854 856 595 894 896 887 0
-475 393 447 446 474 771 775 477 774 772 0
393 -734 447 737 772 783 774 735 446 771 0
-734 740 446 536 737 860 848 851 854 533 0
-634 734 503 629 739 893 743 897 888 900 0
-637 818 596 629 742 743 809 817 734 821 0
-565 902 566 889 810 811 420 890 895 816 0
420 -699 902 700 810 811 820 889 890 899 0
-475 783 447 477 735 737 772 775 774 738 0
475 -667 664 702 849 708 699 852 859 858 0
-775 -772 702 475 699 849 782 852 859 861 0
-772 849 664 708 781 859 782 699 858 861 0
535 -635 631 773 669 672 780 781 665 777 0
-854 535 777 861 858 850 781 773 669 665 0
-817 816 603 902 598 896 811 890 566 895 0
-850 890 598 603 903 566 895 856 896 855 0
-857 858 672 781 861 631 780 850 773 665 0
-632 635 477 537 637 602 536 600 599 633 0
-891 892 537 599 477 600 602 536 894 896 0
-742 851 602 740 860 536 599 854 856 737 0
-891 903 602 856 851 536 854 599 896 894 0
896 -897 633 602 537 635 637 894 600 892 0
-852 903 537 602 854 856 892 894 896 600 0
-568 898 896 600 603 670 671 667 892 895 0
-570 903 902 815 855 862 895 816 854 894 0
-817 816 603 896 902 855 862 856 895 903 0
-859 895 -705 816 855 862 899 902 903 820 0
2 1 43 784 3 44 45 40 785 786 0
1 40 43 2 785 121 122 784 14 797 0
2 1 43 709 40 38 710 784 785 821 0
1 3 5 40 784 786 51 44 49 788 0
1 3 37 9 44 71 73 673 675 681 0
1 40 606 44 3 604 35 784 786 818 0
1 30 4 14 46 121 124 449 452 462 0
1 4 46 28 32 508 511 535 397 394 0
1 16 49 39 5 148 152 746 750 761 0
1 5 30 49 40 449 453 784 788 813 0
1 40 571 34 49 5 575 784 788 817 0
-25 -6 -29 -1 53 445 324 421 426 319 0
1 34 571 40 64 8 578 784 791 817 0
1 8 64 40 35 604 611 784 791 818 0
-1 -24 79 -10 -23 274 283 296 305 318 0
-26 -10 79 -23 -1 274 283 343 352 365 0
-1 -13 -11 -12 88 98 108 109 120 119 0
-1 -31 -11 -12 88 98 108 478 488 489 0
-1 -11 -24 -23 88 274 284 296 306 318 0
-1 -26 -29 -13 109 446 355 421 433 343 0
1 16 121 30 14 148 449 462 464 161 0
1 39 16 14 121 148 746 759 761 161 0
1 38 15 40 134 709 723 784 798 821 0
1 30 17 37 163 449 465 673 689 702 0
1 34 17 37 163 571 587 673 689 706 0
-1 -18 -24 -23 179 274 291 296 313 318 0
-1 -21 -26 -23 233 274 294 343 363 365 0
-23 -33 539 -24 274 296 -1 561 562 318 0
1 30 27 37 449 475 673 699 702 368 0
1 32 508 37 27 534 673 699 704 368 0
1 34 37 571 27 597 673 699 706 368 0
-36 -1 -31 -33 478 539 569 638 668 670 0
1 38 571 40 34 709 742 784 817 821 0
1 35 40 38 604 709 743 784 818 821 0
2 3 13 40 45 110 111 785 786 796 0
3 2 31 16 45 149 150 479 480 493 0
3 40 26 809 45 785 786 2 345 344 0
2 10 710 4 47 80 82 38 712 718 0
13 41 112 824 835 110 47 2 826 4 0
14 4 824 826 47 122 124 2 41 836 0
2 26 4 36 47 639 641 663 346 344 0
-15 -5 -8 -2 50 68 135 138 141 65 0
-19 -8 197 -5 50 68 -2 200 203 65 0
-9 -24 75 -2 50 72 -5 297 300 304 0
-35 -5 605 -2 50 72 75 -9 608 612 0
-22 -24 254 -5 50 -2 257 297 300 317 0
-2 -5 -28 -24 50 297 300 395 398 417 0
-2 -17 78 -8 72 -9 164 170 171 65 0
-2 -8 78 -39 72 -9 747 753 754 65 0
-15 -2 -8 -39 135 141 747 753 760 65 0
-2 -17 164 254 -8 170 65 260 269 -22 0
-19 -2 -39 -8 197 203 747 753 764 65 0
-2 -39 -22 -8 254 260 747 753 767 65 0
-2 -9 -24 -25 72 297 304 320 327 342 0
-2 -12 99 -25 -35 605 615 628 330 320 0
2 21 40 13 110 234 245 785 796 804 0
2 13 31 32 110 479 490 509 538 520 0
37 41 110 674 13 824 685 2 835 859 0
37 -747 686 14 39 122 674 2 759 782 0
-15 -34 572 -35 -2 135 585 605 618 637 0
23 2 16 32 149 275 509 523 530 289 0
38 2 31 16 149 479 493 710 724 739 0
-35 -22 254 -34 -2 572 592 605 625 637 0
23 2 40 29 275 443 785 806 812 422 0
23 2 40 38 275 710 731 785 806 821 0
-2 -35 -34 -25 572 595 605 628 637 320 0
2 38 40 26 710 734 785 809 821 344 0
-2 -35 450 -30 -34 572 600 605 633 637 0
36 2 639 824 41 674 708 37 859 858 0
12 26 4 3 48 100 101 345 346 354 0
13 3 15 4 48 111 112 136 137 146 0
3 4 448 48 28 29 397 423 424 396 0
3 13 40 5 786 111 113 51 788 796 0
3 5 17 29 51 165 167 437 425 423 0
3 40 26 5 51 786 788 809 347 345 0
3 40 812 29 5 786 788 51 425 423 0
-3 -7 -10 -6 55 60 63 84 81 85 0
-3 -6 55 -7 -34 60 63 573 576 577 0
-36 -10 640 -3 55 84 -6 643 647 81 0
-25 -3 -6 -21 55 235 238 321 324 339 0
-3 -7 -10 -20 60 216 220 223 85 81 0
-23 -3 -7 -21 60 235 239 276 294 280 0
-38 -8 123 -14 66 -3 128 711 716 722 0
-38 -8 66 -3 -39 711 716 748 753 783 0
3 9 73 96 37 90 11 675 681 683 0
12 3 28 9 73 100 106 396 402 405 0
12 37 675 3 73 100 106 9 681 684 0
3 16 18 9 73 150 156 181 187 194 0
3 19 198 9 73 29 204 439 429 423 0
3 28 448 429 73 9 402 423 29 396 0
-3 -10 510 -20 216 223 -32 517 527 81 0
-23 -24 276 -10 -3 283 298 305 318 81 0
-3 -24 298 -10 -25 305 321 328 342 81 0
40 15 136 13 111 3 146 786 796 798 0
3 28 448 165 17 437 29 423 396 410 0
-36 -30 468 -3 657 451 216 -20 640 667 0
-3 -22 255 -21 235 -23 273 276 294 295 0
-21 -3 235 748 255 273 -39 -22 766 767 0
-25 -3 510 -21 235 -32 528 532 339 321 0
-25 -3 748 -21 235 -39 766 770 339 321 0
-32 -41 825 843 235 510 528 -21 -3 854 0
-22 -24 255 -23 -3 276 295 298 317 318 0
-34 -39 -22 -3 255 573 592 748 767 779 0
-23 -24 541 -33 -3 298 276 561 562 318 0
-38 -3 298 -24 -25 711 732 733 342 321 0
-36 -33 670 -24 298 640 541 562 661 -3 0
-3 -41 541 825 298 855 562 -24 -33 846 0
-41 -24 711 825 -3 -38 732 298 846 860 0
-25 -3 510 -32 -34 532 573 595 602 321 0
-25 -34 573 748 -39 595 -3 770 779 321 0
26 3 606 629 40 35 786 809 818 345 0
40 3 606 812 818 632 786 35 29 423 0
-39 -34 573 748 -30 451 600 -3 775 779 0
-36 -38 640 -3 451 -30 667 711 738 744 0
-38 -3 -30 -39 451 711 738 748 775 783 0
-5 -4 52 -24 -9 74 75 299 300 304 0
-22 -4 52 -5 -24 256 257 299 300 317 0
-33 -24 542 52 -4 299 300 -5 543 562 0
11 6 219 91 20 93 4 217 224 56 0
11 4 91 26 6 93 56 346 348 353 0
6 30 454 14 124 126 452 4 462 56 0
6 20 4 28 217 219 56 397 399 413 0
-17 -8 -4 67 -22 166 256 260 269 170 0
-31 -8 -4 -39 67 481 485 749 753 776 0
-17 -9 166 787 74 -4 171 -40 792 800 0
-23 -9 -24 -4 74 277 282 299 304 318 0
-9 -25 74 -24 -4 299 304 322 327 342 0
-9 -4 -40 807 -24 299 74 787 792 304 0
-25 -9 770 749 74 -4 -39 754 327 322 0
-9 -4 749 754 74 -40 787 -39 792 822 0
-42 -9 792 -40 866 74 787 -4 871 902 0
11 10 82 91 4 18 97 182 189 188 0
27 10 371 11 82 91 97 4 377 378 0
12 10 101 28 82 4 107 397 403 405 0
30 14 458 10 82 124 130 452 4 462 0
19 15 4 10 82 137 143 199 205 210 0
28 18 10 4 82 182 188 397 403 411 0
29 28 10 4 82 448 403 424 430 397 0
30 28 10 4 82 452 458 476 403 397 0
41 4 826 91 20 217 224 11 833 842 0
38 4 712 26 101 12 720 734 354 346 0
13 4 112 15 32 137 146 511 522 520 0
13 4 -676 27 37 112 685 699 371 380 0
14 4 -467 19 30 124 199 452 462 209 0
-16 -4 -33 -40 151 542 554 787 799 816 0
-16 -4 -40 -37 151 676 688 787 799 820 0
-31 -17 -40 787 800 -4 166 494 481 814 0
41 28 411 826 840 4 18 397 182 850 0
29 20 448 217 4 28 413 424 440 397 0
20 41 826 4 217 28 842 397 413 850 0
-21 -25 -4 -39 236 749 766 770 339 322 0
-22 -4 -24 787 -40 299 256 805 807 317 0
-23 -4 277 -33 542 299 -24 561 562 318 0
-4 -24 277 676 299 -37 -23 695 696 318 0
-25 -4 299 -24 696 676 -37 697 342 322 0
-4 -40 299 -24 -33 542 562 787 807 816 0
-4 -37 -40 -24 299 676 696 787 807 820 0
-25 -4 697 -42 676 -37 866 887 899 322 0
30 41 850 4 452 476 826 28 852 397 0
36 4 641 858 826 28 665 397 41 850 0
-31 -4 481 816 -40 -33 569 542 814 787 0
-35 -31 -4 -37 481 607 634 676 703 707 0
-31 -4 -40 -37 787 703 481 676 814 820 0
-34 -4 574 -35 542 -33 603 607 636 637 0
-42 -4 -33 -40 542 787 816 866 895 902 0
-4 -37 676 -40 -42 787 866 899 902 820 0
6 5 57 11 39 92 93 750 751 756 0
23 6 57 5 39 278 279 750 751 768 0
7 5 26 40 62 788 790 809 349 347 0
7 29 62 40 5 788 790 812 427 425 0
-5 -10 78 -8 68 75 -9 83 86 87 0
-15 -8 125 68 -14 -5 128 138 141 147 0
-38 -5 -8 -14 68 125 128 713 716 722 0
-15 -8 -37 -5 68 138 141 677 680 687 0
-5 -24 83 -10 75 -9 87 300 304 305 0
-38 -24 713 -5 -9 300 75 717 732 304 0
-35 -32 -9 -5 75 512 516 608 612 635 0
-5 -42 -9 -32 75 512 516 867 871 894 0
-5 -24 677 305 -10 300 -37 682 696 83 0
-5 -10 827 846 83 300 -24 832 -41 305 0
34 5 11 20 92 218 224 575 581 590 0
5 25 27 92 11 323 329 372 378 392 0
12 5 17 34 102 167 174 575 582 587 0
21 13 5 40 113 237 245 788 796 804 0
13 40 25 5 113 788 796 808 331 323 0
-35 -5 -14 -15 125 138 147 608 618 617 0
-35 -5 512 -32 125 -14 521 608 635 617 0
-5 -32 -14 -42 125 512 521 867 876 894 0
-35 -5 -33 -15 138 543 553 608 618 636 0
-35 -5 608 -15 138 -37 618 677 687 707 0
23 16 152 34 5 278 575 586 593 289 0
34 17 167 5 20 218 575 587 590 230 0
21 34 17 5 167 237 249 575 587 591 0
-35 -5 -32 200 -19 512 526 608 622 635 0
23 25 20 5 218 278 293 323 338 341 0
21 29 237 40 5 441 788 804 812 425 0
21 40 30 5 237 453 469 788 804 813 0
-22 -5 827 844 257 300 -24 -41 846 317 0
25 5 806 323 23 788 40 808 278 341 0
23 29 443 40 278 5 788 806 812 425 0
5 34 593 788 575 278 40 23 806 817 0
-5 -33 543 -24 -28 300 562 566 417 398 0
-28 -24 677 398 300 -5 696 700 417 -37 0
-38 -5 -28 -24 736 300 732 713 417 398 0
-36 -5 642 543 300 -24 -33 562 661 670 0
-33 -5 827 855 300 -24 543 562 846 -41 0
-36 -38 -5 -24 744 642 661 300 713 732 0
-5 -41 713 -24 860 -38 732 300 827 846 0
40 30 453 5 25 473 788 808 813 323 0
34 26 575 596 5 40 788 809 817 347 0
-5 -32 -42 -41 512 827 854 867 894 903 0
-6 -16 63 -13 -7 115 153 154 160 114 0
-21 -42 238 63 -7 -6 239 868 869 883 0
-42 -6 577 868 63 576 -34 -7 869 896 0
12 6 24 8 69 103 105 301 307 303 0
12 8 28 6 69 103 105 399 401 405 0
6 8 24 20 69 219 221 301 315 303 0
6 28 69 32 8 515 535 513 399 401 0
-25 -6 -9 -35 76 609 612 628 327 324 0
26 33 11 6 93 549 564 544 348 353 0
12 17 33 6 103 168 174 550 555 544 0
-6 -16 -29 -13 153 160 436 426 433 114 0
-35 -13 609 -16 153 160 -6 616 619 114 0
6 24 454 30 126 14 462 472 309 301 0
6 14 24 39 126 751 759 769 309 301 0
23 6 530 39 279 32 751 768 513 777 0
6 26 31 24 483 501 503 301 348 366 0
6 24 531 39 32 751 769 513 301 777 0
-25 -29 445 576 -34 -6 595 599 324 426 0
-25 -6 -29 -37 445 678 697 701 324 426 0
-38 -25 -6 -29 714 445 733 737 324 426 0
-25 -37 697 -42 678 -6 868 887 899 324 0
6 28 535 32 39 751 773 513 399 777 0
-38 -41 714 -6 828 737 -29 851 860 426 0
-34 -41 828 -42 576 -6 856 868 896 903 0
-6 -42 -37 678 -40 789 868 899 902 820 0
7 8 36 25 70 644 645 662 326 325 0
7 40 25 8 70 790 791 808 326 325 0
35 11 349 7 26 353 610 614 629 94 0
7 35 427 29 11 431 610 614 632 94 0
-7 -20 -16 -13 115 154 160 220 226 229 0
-38 -13 -28 -7 115 715 721 736 406 400 0
7 19 24 14 127 202 209 302 309 314 0
7 24 752 14 127 39 759 769 309 302 0
14 25 31 484 127 7 491 502 332 325 0
15 40 790 140 25 7 798 808 333 325 0
7 25 17 36 169 644 654 662 335 325 0
-7 -30 455 -38 185 -18 466 715 726 738 0
-21 -7 882 -42 -20 239 252 220 869 883 0
-7 -42 239 890 -28 869 883 -21 414 400 0
22 25 33 7 259 545 560 563 340 325 0
-27 -23 -28 -7 390 400 416 374 280 420 0
7 26 24 31 484 501 503 302 349 366 0
7 24 484 31 444 29 501 506 302 427 0
7 35 24 29 444 610 627 632 302 427 0
7 24 514 32 39 531 752 769 302 777 0
35 26 36 7 610 629 644 663 672 349 0
7 40 629 35 610 26 790 809 818 349 0
-27 -7 -42 -28 400 869 889 890 420 374 0
-7 -42 -37 -28 679 700 869 890 899 400 0
-31 -39 -10 -8 86 485 487 753 755 776 0
25 20 95 8 11 224 221 326 329 338 0
35 8 11 20 95 224 611 614 623 221 0
8 36 645 12 105 28 649 401 405 665 0
21 13 40 8 116 240 245 791 796 804 0
8 13 24 32 116 308 515 520 531 303 0
8 24 116 42 13 308 870 875 886 303 0
13 40 25 8 116 791 796 808 331 326 0
-17 -8 -22 128 -14 260 266 269 176 170 0
-38 -17 -14 -8 128 716 722 725 176 170 0
-38 -8 -29 -14 128 716 722 737 434 428 0
-15 -17 -31 -8 141 177 485 492 494 170 0
-15 -31 -33 -8 141 485 492 546 553 569 0
-15 -8 -37 -31 141 485 492 680 687 703 0
-15 -31 -39 -8 141 485 492 753 760 776 0
8 24 456 16 155 311 30 464 472 303 0
8 24 155 16 32 311 515 523 531 303 0
34 8 24 16 155 311 578 586 594 303 0
8 16 24 42 155 311 870 878 886 303 0
8 16 456 25 155 30 464 473 334 326 0
-19 -17 350 -26 203 212 -8 170 359 361 0
-8 -41 844 839 260 269 -17 -22 830 170 0
-19 -31 -39 -8 203 485 496 753 764 776 0
23 8 25 20 281 293 221 326 338 341 0
25 20 326 8 28 221 338 401 413 418 0
21 8 24 30 240 316 456 469 472 303 0
21 35 240 40 8 611 624 791 804 818 0
23 8 25 36 281 645 660 662 341 326 0
23 40 25 8 281 791 806 808 341 326 0
34 8 281 40 23 578 593 791 806 817 0
23 8 281 40 35 611 626 791 806 818 0
35 24 611 8 42 627 870 886 897 303 0
8 25 36 27 645 662 664 326 375 392 0
8 25 456 30 28 473 476 326 401 418 0
8 25 36 28 645 662 418 326 401 665 0
40 25 456 30 8 473 791 808 813 326 0
-8 -26 -39 753 446 -29 771 774 350 428 0
-41 -29 716 -38 -8 737 830 851 860 428 0
-23 -9 -10 -24 282 87 283 304 305 318 0
-9 -10 -40 -24 87 792 793 807 305 304 0
20 41 833 831 96 222 224 11 9 842 0
33 37 96 549 11 9 547 681 683 705 0
12 34 19 9 106 204 207 579 582 589 0
12 33 106 37 9 547 550 681 684 705 0
12 36 646 37 106 9 649 681 684 708 0
13 15 831 41 117 142 146 9 835 837 0
41 13 685 831 117 859 681 9 835 37 0
19 16 9 14 129 156 204 161 209 211 0
18 9 831 836 129 187 14 41 840 192 0
21 19 14 9 129 204 241 246 251 209 0
19 41 831 9 129 204 14 836 841 209 0
14 33 552 37 129 9 547 681 686 705 0
22 15 9 19 142 204 210 261 267 271 0
-17 -9 516 -35 171 -32 524 612 620 635 0
18 28 831 411 840 9 41 402 187 850 0
34 9 579 20 204 222 232 19 589 590 0
41 20 831 850 402 222 842 28 413 9 0
22 33 37 9 261 547 560 681 694 705 0
-27 -23 -24 -9 282 304 318 376 390 391 0
-9 -24 717 304 -25 732 733 -38 327 342 0
29 36 448 28 9 646 666 429 665 402 0
36 41 831 646 28 402 665 9 850 858 0
-32 -40 815 -9 516 792 -42 871 894 902 0
41 36 831 708 646 681 9 37 859 858 0
33 11 548 10 97 189 18 549 556 188 0
35 11 10 18 97 189 613 614 621 188 0
38 33 10 12 107 548 550 718 720 741 0
12 34 10 38 107 580 582 718 720 742 0
38 42 10 12 107 718 720 872 874 900 0
22 16 10 18 157 194 262 268 270 188 0
17 33 10 18 172 195 548 555 556 188 0
22 33 18 10 262 270 548 556 560 188 0
-32 -20 793 -10 517 527 -40 803 815 223 0
-20 -39 -40 -10 755 765 793 803 822 223 0
22 30 10 33 262 458 470 548 560 568 0
22 33 718 10 262 730 38 560 548 741 0
-25 -10 682 -37 -24 696 697 305 328 342 0
-36 -10 -40 647 -24 661 793 807 819 305 0
-10 -37 -40 682 793 696 -24 807 305 820 0
-41 -10 807 793 832 -24 -40 846 862 305 0
-36 -40 487 647 -31 -10 668 793 814 819 0
-31 -10 -40 -37 487 682 703 793 814 820 0
-31 -39 487 822 755 -40 776 793 814 -10 0
-41 -40 487 832 -31 862 853 814 793 -10 0
-13 -16 108 -11 -12 120 158 159 160 119 0
-14 -22 132 -11 108 -12 263 264 266 131 0
-21 -16 -11 -12 108 158 159 243 244 248 0
-22 -12 -40 794 108 263 264 -11 795 805 0
-32 -11 -30 -12 108 459 460 518 519 537 0
-17 -16 -11 -13 158 160 173 175 178 119 0
-16 -11 -28 -13 158 160 404 406 409 119 0
-36 -13 -11 -16 158 160 648 650 653 119 0
-23 -13 -28 -11 284 286 404 406 416 119 0
-32 -14 -11 -42 518 521 873 876 894 131 0
-36 -42 -11 -14 648 651 873 876 898 131 0
25 20 833 41 224 11 842 847 338 329 0
35 20 440 614 224 11 623 632 29 431 0
-23 -11 243 -21 -28 284 294 404 414 416 0
-36 -42 -11 -21 243 648 658 873 883 898 0
-23 -24 263 -11 -22 284 295 306 317 318 0
-23 -24 404 284 -28 306 318 -11 416 417 0
-11 -40 794 -24 -28 807 811 306 404 417 0
38 35 629 11 614 26 719 734 743 353 0
30 27 -459 11 37 475 683 699 702 378 0
33 11 549 27 37 565 683 699 705 378 0
-31 -11 -28 -40 488 505 794 811 814 404 0
-42 -11 -40 -28 794 811 873 890 902 404 0
-36 -42 -11 -30 648 459 667 873 892 898 0
-36 -11 488 648 -40 -31 668 794 814 819 0
-11 -40 518 815 -42 794 -32 873 894 902 0
-36 -42 648 -11 -40 794 819 873 898 902 0
37 39 756 833 683 41 782 11 859 861 0
-20 -16 -12 -13 120 159 160 225 226 229 0
-13 -29 432 120 -16 159 160 436 433 -12 0
-35 -13 615 -16 120 159 160 -12 616 619 0
-35 -32 -12 -14 132 519 521 615 635 617 0
-16 -12 615 145 -35 159 162 -15 618 619 0
-21 -20 -16 -12 159 225 229 244 248 252 0
-41 -16 834 -12 159 244 248 -21 838 843 0
12 36 17 28 174 649 654 405 410 665 0
12 33 684 174 37 550 555 17 689 705 0
37 36 654 708 174 649 12 684 689 17 0
-20 -12 225 466 190 -30 460 -18 468 231 0
-30 -18 -29 -12 190 438 460 466 477 432 0
-31 -18 -40 -12 190 489 495 795 801 814 0
-21 -20 519 -32 527 244 252 225 -12 528 0
-21 -39 -12 -25 244 757 766 770 339 330 0
-39 -12 767 -22 264 442 757 -29 774 432 0
-25 -29 445 770 -12 757 -39 774 330 432 0
12 34 27 37 597 582 684 699 706 379 0
-39 -12 757 -30 -29 460 477 774 775 432 0
-41 -40 853 -12 489 795 814 834 -31 862 0
-14 -26 -28 -13 133 355 356 406 407 419 0
21 40 15 13 146 245 247 796 798 804 0
40 25 146 796 808 13 798 15 333 331 0
-17 -35 -16 -13 160 175 178 616 619 620 0
-13 -29 160 446 -26 436 -16 433 355 358 0
-16 -33 551 436 160 -13 -29 554 567 433 0
-33 -16 619 551 160 -13 554 616 -35 636 0
-36 -13 650 657 226 461 468 -30 -20 667 0
13 24 490 31 42 501 875 886 893 308 0
13 24 758 32 531 39 769 520 308 777 0
13 39 24 42 758 769 875 886 901 308 0
41 27 699 849 685 13 37 835 859 380 0
-38 -13 -30 -29 461 477 721 737 738 433 0
-13 -34 583 -29 551 567 -33 599 603 433 0
13 37 685 32 39 704 758 782 777 520 0
-13 -34 -33 -35 551 583 603 616 636 637 0
23 39 16 14 759 761 768 161 287 289 0
14 24 491 31 16 493 501 161 309 311 0
39 16 759 24 14 761 769 161 309 311 0
16 25 464 473 462 161 30 14 332 334 0
-35 -17 -32 -14 176 521 524 620 635 617 0
23 14 -764 19 39 759 768 292 209 287 0
-32 -14 -20 -42 521 527 876 882 894 227 0
21 14 37 30 246 462 469 686 693 702 0
40 25 797 14 23 806 808 287 332 341 0
33 25 552 473 462 30 14 563 568 332 0
40 30 797 462 14 473 25 808 813 332 0
30 25 836 41 462 473 14 847 852 332 0
-14 -32 -26 -29 446 521 533 536 356 434 0
-38 -32 -29 -14 521 536 722 737 740 434 0
37 -775 462 39 30 14 686 702 759 782 0
-35 -32 -14 -34 521 584 602 635 637 617 0
-32 -14 521 -42 -34 584 602 876 894 896 0
37 41 686 836 39 759 782 14 859 861 0
-35 -17 618 162 -15 177 178 -16 619 620 0
-16 -35 554 619 162 553 -15 618 -33 636 0
15 25 267 30 22 463 470 473 340 333 0
40 25 288 798 15 23 806 808 341 333 0
23 40 15 38 288 723 731 798 806 821 0
40 30 463 798 25 473 15 808 813 333 0
-15 -33 -29 -34 435 553 567 585 599 603 0
-15 -35 603 -33 553 585 -34 618 636 637 0
-27 -17 -26 -16 178 358 359 383 384 393 0
-20 -40 653 -16 229 -36 657 799 803 819 0
32 24 523 493 31 501 16 531 538 311 0
34 24 586 31 493 501 16 594 601 311 0
16 31 24 42 493 501 878 886 893 311 0
39 24 761 16 523 531 32 769 311 777 0
16 39 42 24 761 769 878 886 901 311 0
-27 -26 -29 -16 436 446 447 358 383 393 0
-26 -29 -37 -16 436 446 688 698 701 358 0
-41 -16 848 -26 436 446 -29 838 851 358 0
25 17 18 28 195 335 336 410 411 418 0
25 33 18 17 195 336 555 563 556 335 0
-17 -19 526 -35 212 524 -32 620 622 635 0
25 17 335 20 28 230 338 410 413 418 0
29 24 437 42 17 444 879 886 891 312 0
39 17 24 42 762 769 879 886 901 312 0
25 17 465 30 28 473 476 335 410 418 0
25 36 662 17 654 28 418 335 410 665 0
25 33 568 17 465 473 555 563 30 335 0
30 17 33 37 465 555 568 689 702 705 0
-17 -40 494 814 853 -41 800 839 -31 862 0
39 17 33 37 555 689 705 762 778 782 0
-38 -19 -18 -30 213 466 467 726 727 738 0
-19 -18 -37 -31 213 495 496 690 691 703 0
-36 -20 -18 -30 466 468 655 657 667 231 0
22 25 18 28 270 336 340 411 415 418 0
-27 -24 385 -23 291 313 318 -18 390 391 0
-23 -24 690 291 -37 -18 695 696 318 313 0
-27 -18 -40 -24 801 807 810 313 385 391 0
-36 -40 655 -24 -18 661 801 807 819 313 0
-18 -40 -37 -24 690 696 801 807 313 820 0
25 28 840 850 418 41 336 847 411 18 0
-27 -18 495 -40 -31 504 801 810 814 385 0
41 28 411 840 18 39 773 763 850 861 0
-34 -18 438 588 -30 466 477 -29 599 600 0
-38 -18 438 726 466 -30 477 -29 737 738 0
-36 -18 495 -40 -31 655 668 801 814 819 0
-31 -18 -37 -40 495 690 703 801 814 820 0
22 25 338 28 20 272 340 413 415 418 0
25 20 845 41 293 23 842 847 341 338 0
29 24 444 497 20 31 501 506 315 440 0
35 24 623 444 29 20 627 632 315 440 0
34 24 497 31 20 501 590 594 601 315 0
-36 -42 468 657 -20 -30 667 882 892 898 0
-32 -42 815 894 527 803 -40 882 -20 902 0
-36 -20 -40 657 -42 803 819 882 898 902 0
-20 -42 -37 692 803 882 899 902 820 -40 0
21 31 441 24 29 444 498 501 506 316 0
21 35 24 441 29 444 624 627 632 316 0
-25 -26 -39 -21 766 770 771 339 363 367 0
-25 -32 528 -21 -42 532 883 887 894 339 0
21 35 40 441 29 624 632 804 812 818 0
21 35 40 38 624 729 743 804 818 821 0
22 25 470 30 28 473 476 340 415 418 0
22 25 36 28 659 662 418 340 415 665 0
38 22 33 694 560 37 705 730 741 745 0
-23 -37 695 -24 -28 696 700 318 416 417 0
38 34 593 40 23 731 742 806 817 821 0
23 38 35 40 626 731 743 806 818 821 0
34 26 31 24 501 503 594 596 601 366 0
26 31 503 24 501 42 886 888 893 366 0
35 26 24 42 627 629 886 888 897 366 0
-27 -40 391 -24 -28 417 807 810 811 420 0
-33 -40 562 -24 807 566 -28 811 816 417 0
-28 -24 -40 -37 696 700 807 811 417 820 0
29 24 444 31 42 501 506 886 891 893 0
24 42 627 632 444 886 29 35 891 897 0
35 24 627 42 886 769 780 39 897 901 0
-25 -32 -26 -29 445 446 532 533 536 367 0
-25 -26 -39 -29 445 446 770 771 774 367 0
25 30 476 28 41 847 852 473 850 418 0
25 36 662 858 28 41 665 418 847 850 0
-25 -34 536 595 445 532 -29 -32 599 602 0
-38 -25 -29 -32 532 445 536 733 737 740 0
-25 -39 445 599 770 779 595 -34 774 -29 0
-38 -25 -29 -39 733 770 737 445 774 783 0
-25 -34 532 595 628 -35 602 -32 635 637 0
-32 -30 474 -29 446 -26 477 533 536 537 0
-32 -41 848 -26 446 533 536 -29 851 854 0
38 35 629 40 26 734 743 809 818 821 0
-27 -28 504 -31 -40 505 810 811 814 420 0
-27 -42 -40 -28 810 811 889 890 902 420 0
33 37 534 565 27 32 570 699 704 705 0
-31 -40 505 -28 566 -33 569 811 814 816 0
-31 -28 505 -37 700 -40 703 811 814 820 0
-42 -28 598 -34 566 -33 603 890 895 896 0
-42 -40 890 566 -28 811 816 -33 895 902 0
35 36 780 39 631 672 773 28 781 665 0
41 36 773 850 39 781 665 28 858 861 0
-42 -37 890 700 -28 811 -40 899 902 820 0
-38 -30 536 -32 477 -29 537 737 738 740 0
-41 -29 740 -38 -32 737 851 536 854 860 0
-41 -33 567 603 599 855 -29 -34 851 856 0
-35 -32 633 -34 537 600 602 -30 635 637 0
-34 -30 537 -32 -42 600 602 892 894 896 0
-36 -33 569 668 -40 819 670 814 816 -31 0
-41 -33 853 -40 569 814 816 -31 855 862 0
36 32 37 39 669 704 708 781 782 777 0
-32 -41 -40 -42 815 854 862 894 902 903 0
