p cnf 9408 1291
496 -1 0
-2 -496 0
3 1 2 -397 5 6 7 4 8 0
10 1 -398 15 11 12 13 14 9 0
-399 19 9 2 20 16 17 18 21 0
-400 3 26 25 23 24 22 10 16 0
-401 4 30 29 22 28 27 11 17 0
-402 5 33 32 23 27 31 12 18 0
-403 6 35 34 24 28 31 13 19 0
-404 7 36 34 25 29 32 14 20 0
-405 8 36 35 26 30 33 15 21 0
-37 531 0
-531 532 0
-531 -38 0
-38 532 0
-532 533 0
-533 534 0
-534 535 0
-535 536 0
-536 537 0
-537 538 0
-538 539 0
-539 540 0
-46 -539 0
-540 541 0
-47 -540 0
-541 542 0
-48 -541 0
-542 543 0
-542 -49 0
-543 544 0
-50 -543 0
-544 545 0
-544 -51 0
-545 546 0
-52 -545 0
-546 547 0
-53 -546 0
-547 548 0
-54 -547 0
-548 549 0
-55 -548 0
-549 550 0
-56 -549 0
-550 -57 0
-406 39 38 37 40 41 42 43 44 0
-407 49 37 48 45 46 47 51 50 0
-408 57 45 38 53 52 55 54 56 0
-73 566 0
-566 567 0
-566 -74 0
-74 567 0
-567 568 0
-568 569 0
-569 570 0
-570 571 0
-571 572 0
-572 573 0
-573 574 0
-574 575 0
-82 -574 0
-575 576 0
-83 -575 0
-576 577 0
-576 -84 0
-577 578 0
-85 -577 0
-578 579 0
-86 -578 0
-579 580 0
-87 -579 0
-580 581 0
-88 -580 0
-581 582 0
-89 -581 0
583 -582 0
-582 -90 0
584 -583 0
-91 -583 0
585 -584 0
-92 -584 0
-93 -585 0
75 -415 73 74 76 77 78 79 80 0
-73 416 0
416 -81 0
-416 84 81 73 85 86 82 83 87 0
417 -81 0
90 92 -417 74 81 88 89 91 93 0
601 -109 0
602 -601 0
-601 -110 0
-110 602 0
603 -602 0
604 -603 0
605 -604 0
606 -605 0
607 -606 0
608 -607 0
609 -608 0
610 -609 0
-118 -609 0
611 -610 0
-119 -610 0
612 -611 0
-120 -611 0
613 -612 0
-121 -612 0
614 -613 0
-122 -613 0
615 -614 0
-123 -614 0
616 -615 0
-124 -615 0
617 -616 0
-125 -616 0
618 -617 0
-126 -617 0
619 -618 0
-127 -618 0
620 -619 0
-128 -619 0
-129 -620 0
-424 111 109 110 112 113 114 115 116 0
-425 109 121 122 119 118 117 120 123 0
-426 110 117 129 128 124 125 126 127 0
636 -145 0
-636 637 0
-146 -636 0
-146 637 0
-637 638 0
-638 639 0
-639 640 0
-640 641 0
-641 642 0
-642 643 0
-643 644 0
-644 645 0
-154 -644 0
-645 646 0
-155 -645 0
-646 647 0
-156 -646 0
-647 648 0
-157 -647 0
-648 649 0
-158 -648 0
650 -649 0
-649 -159 0
651 -650 0
-160 -650 0
652 -651 0
-161 -651 0
653 -652 0
-162 -652 0
654 -653 0
-163 -653 0
655 -654 0
-164 -654 0
-165 -655 0
147 -433 145 146 148 149 150 151 152 0
-145 434 0
434 -153 0
-434 155 145 153 159 154 158 156 157 0
-435 165 153 146 162 160 161 164 163 0
-181 671 0
-671 672 0
-182 -671 0
-182 672 0
-672 673 0
-673 674 0
-674 675 0
-675 676 0
-676 677 0
-677 678 0
-678 679 0
-678 -189 0
-679 680 0
-190 -679 0
-680 681 0
-191 -680 0
-681 682 0
-192 -681 0
-682 683 0
-193 -682 0
-683 684 0
-194 -683 0
685 -684 0
-684 -195 0
686 -685 0
-196 -685 0
687 -686 0
-197 -686 0
688 -687 0
-198 -687 0
689 -688 0
-199 -688 0
690 -689 0
-200 -689 0
-201 -690 0
-442 183 182 181 184 185 186 187 188 0
-181 443 0
443 -189 0
-443 195 189 181 192 190 193 194 191 0
-444 198 189 182 201 200 196 197 199 0
-217 706 0
-706 707 0
-706 -218 0
-218 707 0
-707 708 0
-708 709 0
-709 710 0
-710 711 0
-711 712 0
-712 713 0
-713 714 0
-714 715 0
-714 -226 0
-715 716 0
-715 -227 0
-716 717 0
-716 -228 0
718 -717 0
-229 -717 0
719 -718 0
-230 -718 0
720 -719 0
-231 -719 0
721 -720 0
-232 -720 0
722 -721 0
-233 -721 0
723 -722 0
-234 -722 0
724 -723 0
-235 -723 0
725 -724 0
-236 -724 0
-237 -725 0
-451 219 218 217 220 221 222 223 224 0
228 231 229 217 230 226 227 225 -452 0
-453 225 218 237 236 233 232 234 235 0
-253 741 0
-741 742 0
-254 -741 0
-254 742 0
-742 743 0
-743 744 0
-744 745 0
-745 746 0
-746 747 0
-747 748 0
-748 749 0
-749 750 0
-749 -262 0
-750 751 0
-750 -263 0
-751 752 0
-751 -264 0
-752 753 0
-752 -265 0
754 -753 0
-753 -266 0
755 -754 0
-267 -754 0
756 -755 0
-268 -755 0
757 -756 0
-269 -756 0
758 -757 0
-270 -757 0
759 -758 0
-271 -758 0
760 -759 0
-272 -759 0
-273 -760 0
255 -460 253 254 256 257 258 259 260 0
-261 461 0
266 262 261 -461 267 253 265 264 263 0
-462 272 261 254 273 268 269 270 271 0
-289 776 0
-776 777 0
-776 -290 0
-290 777 0
-777 778 0
-778 779 0
-779 780 0
-780 781 0
-781 782 0
-782 783 0
-783 784 0
785 -784 0
-298 -784 0
786 -785 0
-299 -785 0
787 -786 0
-300 -786 0
788 -787 0
-301 -787 0
789 -788 0
-302 -788 0
790 -789 0
-303 -789 0
791 -790 0
-304 -790 0
792 -791 0
-305 -791 0
793 -792 0
-306 -792 0
794 -793 0
-307 -793 0
795 -794 0
-308 -794 0
-309 -795 0
292 -469 290 289 291 293 294 295 296 0
-289 470 0
470 -297 0
303 297 -470 289 298 302 300 299 301 0
309 297 290 306 -471 304 305 307 308 0
811 -325 0
-326 -811 0
-326 812 0
-812 813 0
-813 814 0
-814 815 0
-815 816 0
-816 817 0
-817 818 0
-818 819 0
-819 820 0
-819 -334 0
-820 821 0
-820 -335 0
-821 822 0
-821 -336 0
823 -822 0
-822 -337 0
824 -823 0
-823 -338 0
-824 -339 0
-478 331 326 325 332 329 330 328 327 0
-325 479 0
-333 479 0
-479 338 325 336 333 334 335 337 339 0
340 -480 326 333 341 342 343 344 345 0
846 -361 0
-846 -362 0
847 -362 0
-847 848 0
-848 849 0
-849 850 0
-850 851 0
-851 852 0
-852 853 0
-853 854 0
-854 855 0
-854 -370 0
856 -855 0
-855 -371 0
857 -856 0
-856 -372 0
858 -857 0
-857 -373 0
859 -858 0
-858 -374 0
-859 -375 0
-369 488 0
-488 375 369 371 361 370 374 372 373 0
-489 376 369 362 377 378 379 380 381 0
2285 0
-2287 0
-2 2296 -2285 0
-2296 -16 2287 0
-2296 -17 2287 0
-2296 -18 2287 0
-2296 -19 2287 0
-2296 -20 2287 0
-2296 -21 2287 0
2935 0
-3034 0
399 2944 -2935 0
2953 408 -2944 0
2962 417 -2953 0
2971 426 -2962 0
2980 435 -2971 0
2989 444 -2980 0
2998 453 -2989 0
3007 -2998 462 0
3007 -261 -2998 0
3016 -3007 471 0
-3016 3025 480 0
-362 -3025 3034 0
5634 0
-5733 0
5635 0
-5636 0
5637 0
5638 0
5639 0
5640 0
5641 0
5643 398 -5634 0
399 5644 -5635 0
5643 -1 -5634 0
-9 5643 -5634 -5635 0
-10 -5643 5636 0
-11 5643 -5634 -5637 0
-12 5643 -5634 -5638 0
-13 5643 -5634 -5639 0
-14 5643 -5634 -5640 0
-15 5643 -5634 -5641 0
5652 407 -5643 0
5653 408 -5644 0
-37 5652 -5643 0
-45 5652 -5643 -5644 0
5661 416 -5652 0
5662 417 -5653 0
-73 5661 -5652 0
5661 -81 -5653 -5652 0
5670 425 -5661 0
5671 426 -5662 0
5670 -109 -5661 0
5670 -5679 434 0
5679 434 -5670 0
5680 435 -5671 0
-145 5679 -5670 0
5688 443 -5679 0
5689 444 -5680 0
-181 -5679 5688 0
5697 452 -5688 0
5698 453 -5689 0
-217 5697 -5688 0
5706 -5697 461 0
-253 5706 -5697 0
-5706 470 5715 0
-289 -5706 5715 0
-5715 5724 479 0
5724 -325 -5715 0
488 -5724 5733 0
-361 -5724 5733 0
5849 0
-5850 0
-5949 0
-5851 0
5950 0
5852 0
5853 0
5854 0
5855 0
5856 0
5857 0
397 5858 -5849 0
398 -5859 5850 0
-5860 399 5851 0
5861 400 -5852 0
5862 401 -5853 0
5863 402 -5854 0
5864 403 -5855 0
5865 404 -5856 0
5866 405 -5857 0
-5858 -1 5850 0
5859 -1 -5849 0
-2 -5858 5851 0
5860 -2 -5849 0
-3 5858 -5849 -5852 0
-4 5858 -5849 -5853 0
-5 5858 -5849 -5854 0
-6 5858 -5849 -5855 0
-7 5858 -5849 -5856 0
-8 5858 -5849 -5857 0
-9 -5859 5850 0
-5860 -9 5850 5851 0
-10 -5859 5850 0
-5859 -11 5850 0
-5859 -12 5850 0
-5859 -13 5850 0
-5859 -14 5850 0
-15 -5859 5850 0
-5860 -16 5851 0
-5860 -17 5851 0
-5860 -18 5851 0
-5860 -19 5851 0
-5860 -20 5851 0
-21 -5860 5851 0
406 -5867 5858 0
-5868 407 5859 0
5868 407 -5859 0
-5869 408 5860 0
-5860 408 5869 0
-37 -5867 5858 0
-37 -5867 5859 0
-37 -5858 5868 0
-37 5868 -5859 0
-37 -5868 5858 5859 0
-38 -5867 5858 0
-38 -5867 5860 0
-38 -5858 5869 0
-38 -5860 5869 0
-38 -5869 5858 5860 0
-39 -5867 5858 0
-40 -5867 5858 0
-41 -5867 5858 0
-42 -5867 5858 0
-43 -5867 5858 0
-44 -5867 5858 0
-45 -5868 5859 0
-45 -5868 5860 0
-45 5869 -5859 0
-45 -5860 5869 0
-45 -5869 5859 5860 0
-46 -5868 5859 0
-46 5868 -5859 -5861 0
-47 -5868 5859 0
-47 5868 -5859 -5862 0
-48 -5868 5859 0
-48 5868 -5859 -5863 0
-49 -5868 5859 0
-49 5868 -5859 -5864 0
-50 -5868 5859 0
-50 5868 -5859 -5865 0
-51 -5868 5859 0
-51 5868 -5859 -5866 0
-52 -5869 5860 0
-52 -5860 -5861 5869 0
-53 -5869 5860 0
-53 -5860 -5862 5869 0
-54 -5869 5860 0
-54 -5860 -5863 5869 0
-55 -5869 5860 0
-55 -5860 -5864 5869 0
-56 -5869 5860 0
-56 -5860 -5865 5869 0
-57 -5869 5860 0
-57 -5860 -5866 5869 0
415 5867 -5876 0
-5877 416 5868 0
417 5869 -5878 0
417 5878 -5869 0
-73 5867 -5876 0
-73 -5876 5868 0
-73 -5867 5877 0
-73 5867 -5877 5868 0
5867 -5876 -74 0
-5876 -74 5869 0
-5867 -74 5878 0
5867 -74 -5878 5869 0
-75 5867 -5876 0
-76 5867 -5876 0
-77 5867 -5876 0
-78 5867 -5876 0
-79 5867 -5876 0
-80 5867 -5876 0
-81 -5877 5868 0
-81 -5877 5869 0
-81 5868 -5878 5869 0
-82 -5877 5868 0
-83 -5877 5868 0
-84 -5877 5868 0
-85 -5877 5868 0
-86 -5877 5868 0
-87 -5877 5868 0
-88 -5878 5869 0
-89 -5878 5869 0
-5878 -90 5869 0
-91 -5878 5869 0
-92 -5878 5869 0
-93 -5878 5869 0
424 5876 -5885 0
-5886 425 5877 0
-5887 426 5878 0
5876 -5885 -109 0
-5885 -109 5877 0
5876 -109 -5886 5877 0
-110 5876 -5885 0
-110 -5885 5878 0
-110 5876 5878 -5887 0
-111 5876 -5885 0
-112 5876 -5885 0
-113 5876 -5885 0
-114 5876 -5885 0
-115 5876 -5885 0
-116 5876 -5885 0
-117 -5886 5877 0
-117 -5886 5878 0
-117 -5887 5878 5877 0
-118 -5886 5877 0
-119 -5886 5877 0
-120 -5886 5877 0
-121 -5886 5877 0
-122 -5886 5877 0
-123 -5886 5877 0
-124 -5887 5878 0
-125 -5887 5878 0
-126 -5887 5878 0
-127 -5887 5878 0
-128 -5887 5878 0
-129 -5887 5878 0
433 5885 -5894 0
-5895 434 5886 0
434 -5886 5895 0
-5896 435 5887 0
-145 5885 -5894 0
-145 -5894 5886 0
-145 -5885 5895 0
-145 -5895 5885 5886 0
-146 5885 -5894 0
-146 5887 -5894 0
-146 5896 -5885 0
-146 5887 5885 -5896 0
-147 5885 -5894 0
-148 5885 -5894 0
-149 5885 -5894 0
-150 5885 -5894 0
-151 5885 -5894 0
-152 5885 -5894 0
-5895 -153 5886 0
5887 -153 -5895 0
-5896 -153 5886 5887 0
-154 -5895 5886 0
-155 -5895 5886 0
-156 -5895 5886 0
-157 -5895 5886 0
-158 -5895 5886 0
-159 -5895 5886 0
-160 -5896 5887 0
-161 -5896 5887 0
-162 -5896 5887 0
-163 -5896 5887 0
-164 -5896 5887 0
-165 -5896 5887 0
442 5894 -5903 0
-5904 443 5895 0
5904 -5895 443 0
-5905 444 5896 0
-181 5894 -5903 0
-181 5895 -5903 0
-181 5904 -5894 0
-181 5894 5895 -5904 0
-182 5894 -5903 0
-182 5896 -5903 0
-182 5905 -5894 0
-182 -5905 5894 5896 0
-183 5894 -5903 0
-184 5894 -5903 0
-185 5894 -5903 0
-186 5894 -5903 0
-187 5894 -5903 0
-188 5894 -5903 0
-189 5895 -5904 0
-189 5896 -5904 0
-189 5905 -5895 0
-189 -5905 5895 5896 0
-190 -5904 5895 0
-191 -5904 5895 0
-192 -5904 5895 0
-193 5895 -5904 0
-194 5895 -5904 0
-195 -5904 5895 0
-196 -5905 5896 0
-197 -5905 5896 0
-198 -5905 5896 0
-199 -5905 5896 0
-200 -5905 5896 0
-201 -5905 5896 0
451 5903 -5912 0
452 5904 -5913 0
452 5913 -5904 0
-5914 453 5905 0
-217 5903 -5912 0
-217 -5912 5904 0
-217 -5904 5912 -5903 0
-217 -5903 5913 0
-217 5913 -5904 0
-217 5903 -5913 5904 0
-218 5903 -5912 0
-218 5905 -5912 0
-218 -5914 5903 5905 0
-219 5903 -5912 0
-220 5903 -5912 0
-221 5903 -5912 0
-222 5903 -5912 0
-223 5903 -5912 0
-224 5903 -5912 0
-225 5904 -5913 0
5905 -225 -5913 0
-5905 -225 -5904 5913 0
-225 5914 -5904 0
-225 -5914 5904 5905 0
-226 5904 -5913 0
-5906 -226 -5904 5913 0
-227 5904 -5913 0
-5907 -227 -5904 5913 0
-228 5904 -5913 0
-5908 -228 -5904 5913 0
-229 5904 -5913 0
-5909 -229 -5904 5913 0
-230 5904 -5913 0
-5910 -230 -5904 5913 0
-231 5904 -5913 0
-5911 -231 -5904 5913 0
-232 -5914 5905 0
-233 -5914 5905 0
-234 -5914 5905 0
-235 -5914 5905 0
-236 -5914 5905 0
-237 -5914 5905 0
460 5912 -5921 0
461 -5922 5913 0
461 5922 -5913 0
-5923 5914 462 0
-253 5912 -5921 0
-253 -5921 5913 0
-253 -5912 5922 0
-253 -5913 5922 0
-253 5912 -5922 5913 0
-254 5912 -5921 0
-254 5914 -5921 0
-254 -5912 5923 0
-254 5914 5912 -5923 0
-255 5912 -5921 0
-256 5912 -5921 0
-257 5912 -5921 0
-258 5912 -5921 0
-259 5912 -5921 0
-260 5912 -5921 0
-261 -5922 5913 0
-5922 -261 5914 0
-5914 -261 -5913 5922 0
-261 -5913 5923 0
-261 -5923 5913 5914 0
-262 -5922 5913 0
-5915 -262 -5913 5922 0
-263 -5922 5913 0
-5916 -263 -5913 5922 0
-264 -5922 5913 0
-5917 -264 -5913 5922 0
-265 -5922 5913 0
-5918 -265 -5913 5922 0
-5922 5913 -266 0
-5913 -5919 -266 5922 0
-267 -5922 5913 0
-5920 -267 -5913 5922 0
-268 -5923 5914 0
-269 -5923 5914 0
-270 -5923 5914 0
-271 -5923 5914 0
-272 -5923 5914 0
-273 -5923 5914 0
-5930 469 5921 0
-5931 470 5922 0
470 5931 -5922 0
471 -5932 5923 0
-289 -5930 5921 0
-289 -5930 5922 0
-289 -5922 5931 0
-289 -5931 5922 5921 0
-5930 5921 -290 0
-5930 -290 5923 0
-290 -5921 5932 0
5921 -290 -5932 5923 0
-291 -5930 5921 0
-292 -5930 5921 0
-293 -5930 5921 0
-294 -5930 5921 0
-295 -5930 5921 0
-296 -5930 5921 0
-297 -5931 5922 0
-5931 -297 5923 0
-5922 -5923 -297 5931 0
-5922 -297 5932 0
-5932 5922 -297 5923 0
-298 -5931 5922 0
-299 -5931 5922 0
-300 -5931 5922 0
-301 -5931 5922 0
-302 -5931 5922 0
-303 -5931 5922 0
-304 -5932 5923 0
-305 -5932 5923 0
-306 -5932 5923 0
-307 -5932 5923 0
-308 -5932 5923 0
-309 -5932 5923 0
-5939 478 5930 0
-5940 479 5931 0
-5931 5940 479 0
480 -5941 5932 0
-5939 -325 5931 0
-325 -5931 5940 0
-325 -5940 5931 5930 0
-326 -5939 5930 0
-5930 -326 5941 0
-326 5932 -5941 5930 0
-327 -5939 5930 0
-328 -5939 5930 0
-329 -5939 5930 0
-330 -5939 5930 0
-331 -5939 5930 0
-332 -5939 5930 0
-333 -5940 5931 0
-333 -5940 5932 0
-333 -5931 -5932 5940 0
-333 5932 5931 -5941 0
-334 -5940 5931 0
-5933 -334 -5931 5940 0
-335 -5940 5931 0
-5934 -335 -5931 5940 0
-336 -5940 5931 0
-5935 -5931 -336 5940 0
-337 -5940 5931 0
-5936 -337 -5931 5940 0
-338 -5940 5931 0
-5937 -338 -5931 5940 0
-339 -5940 5931 0
-5938 -339 -5931 5940 0
-340 5932 -5941 0
-341 5932 -5941 0
-342 5932 -5941 0
-343 5932 -5941 0
-344 5932 -5941 0
-345 5932 -5941 0
-5940 488 5949 0
5941 489 -5950 0
5939 -362 5941 -5950 0
-5941 -5940 -369 5949 0
5940 -369 5941 -5950 0
-376 5941 -5950 0
-377 5941 -5950 0
-378 5941 -5950 0
-379 5941 -5950 0
-380 5941 -5950 0
-381 5941 -5950 0
5957 0
5958 0
6057 0
-5959 0
-5968 399 5959 0
-5977 408 5968 0
-52 -5977 5968 0
-53 -5977 5968 0
-54 -5977 5968 0
-55 -5977 5968 0
-56 -5977 5968 0
-5977 -57 5968 0
-5986 417 5977 0
-5985 -81 5977 0
-88 -5986 5977 0
-89 -5986 5977 0
-5986 5977 -90 0
-91 -5986 5977 0
-92 -5986 5977 0
-93 -5986 5977 0
-5994 5985 425 0
-5995 426 5986 0
-117 5986 -5994 0
-124 -5995 5986 0
-125 -5995 5986 0
-126 -5995 5986 0
-127 -5995 5986 0
-128 -5995 5986 0
-129 -5995 5986 0
-6003 5994 434 0
-6004 435 5995 0
-6003 -153 5995 0
-160 -6004 5995 0
-6004 -161 5995 0
-162 -6004 5995 0
-163 -6004 5995 0
-164 -6004 5995 0
-165 -6004 5995 0
-6012 6003 443 0
-6013 444 6004 0
-6012 -189 6004 0
-196 -6013 6004 0
-197 -6013 6004 0
-198 -6013 6004 0
-199 -6013 6004 0
-200 -6013 6004 0
-201 -6013 6004 0
-6021 6012 452 0
-6022 453 6013 0
-6021 -225 6013 0
461 6021 -6030 0
-6031 6022 462 0
-261 6022 -6030 0
-262 6021 -6030 0
-263 6021 -6030 0
-264 6021 -6030 0
-265 6021 -6030 0
-266 -6030 6021 0
-267 6021 -6030 0
-268 -6031 6022 0
-269 -6031 6022 0
-270 -6031 6022 0
-271 -6031 6022 0
-272 -6031 6022 0
-273 -6031 6022 0
6030 470 -6039 0
471 -6040 6031 0
6031 -297 -6039 0
-304 -6040 6031 0
-305 -6040 6031 0
-306 -6040 6031 0
-307 -6040 6031 0
-308 -6040 6031 0
-6040 -309 6031 0
6039 -6048 479 0
6040 480 -6049 0
6040 -333 -6048 0
-340 6040 -6049 0
-341 6040 -6049 0
-342 6040 -6049 0
-343 6040 -6049 0
-344 6040 -6049 0
-345 6040 -6049 0
488 6048 -6057 0
6049 -369 -6057 0
6173 0
-6174 0
6273 0
6175 0
-6183 398 6174 0
-6183 -10 6174 0
-6192 407 6183 0
-45 -6192 6183 0
-46 -6192 6183 0
-47 -6192 6183 0
-48 -6192 6183 0
-49 -6192 6183 0
-50 -6192 6183 0
-51 -6192 6183 0
-6201 416 6192 0
-6201 -81 6192 0
-82 -6201 6192 0
-83 -6201 6192 0
-6201 -84 6192 0
-85 -6201 6192 0
-86 -6201 6192 0
-87 -6201 6192 0
-6210 425 6201 0
-117 6201 -6210 0
-118 6201 -6210 0
-119 6201 -6210 0
-120 6201 -6210 0
-121 6201 -6210 0
-122 6201 -6210 0
-123 6201 -6210 0
-6219 434 6210 0
-6219 -153 6210 0
-154 -6219 6210 0
-155 -6219 6210 0
-156 -6219 6210 0
-157 -6219 6210 0
-158 -6219 6210 0
-6219 -159 6210 0
-6228 443 6219 0
6218 -181 -6228 6219 0
-189 -6228 6219 0
-190 6219 -6228 0
-191 6219 -6228 0
-192 6219 -6228 0
-193 6219 -6228 0
-194 6219 -6228 0
-6228 -195 6219 0
-6237 452 6228 0
-6237 -225 6228 0
-226 6228 -6237 0
-227 6228 -6237 0
-6237 -228 6228 0
-229 6228 -6237 0
-6237 -230 6228 0
-6237 -231 6228 0
6237 461 -6246 0
-261 6237 -6246 0
-262 6237 -6246 0
-263 6237 -6246 0
-264 6237 -6246 0
6237 -265 -6246 0
6237 -6246 -266 0
6237 -267 -6246 0
6246 470 -6255 0
-6246 6255 470 0
6246 -6255 -297 0
-298 6246 -6255 0
-299 6246 -6255 0
-300 6246 -6255 0
-301 6246 -6255 0
-302 6246 -6255 0
-303 6246 -6255 0
6255 -6264 479 0
-333 -6264 6255 0
-334 6255 -6264 0
-335 6255 -6264 0
-336 6255 -6264 0
-337 6255 -6264 0
-338 6255 -6264 0
-339 6255 -6264 0
6264 488 -6273 0
6264 -369 -6273 0
6264 -370 -6273 0
6264 -371 -6273 0
6264 -372 -6273 0
6264 -373 -6273 0
6264 -374 -6273 0
-375 6264 -6273 0
9235 -1 5850 0
9235 -2 5851 0
-9 9235 5851 0
9235 -10 5850 0
9235 -11 5850 0
9235 -12 5850 0
9235 -13 5850 0
9235 -14 5850 0
9235 -15 5850 0
9235 -16 5851 0
9235 -17 5851 0
9235 -18 5851 0
9235 -19 5851 0
9235 -20 5851 0
-21 9235 5851 0
-22 -9235 -5852 -5853 0
-23 -9235 -5852 -5854 0
-24 -9235 -5852 -5855 0
-25 -9235 -5852 -5856 0
-26 -9235 -5852 -5857 0
-27 -9235 -5853 -5854 0
-28 -9235 -5853 -5855 0
-29 -9235 -5853 -5856 0
-30 -9235 -5853 -5857 0
-31 -9235 -5854 -5855 0
-32 -9235 -5854 -5856 0
-33 -9235 -5854 -5857 0
-34 -9235 -5855 -5856 0
-35 -9235 -5855 -5857 0
-36 -9235 -5856 -5857 0
-37 9236 5859 0
-38 9236 5860 0
-45 9236 5859 0
-45 9236 5860 0
-46 9236 5859 0
-47 9236 5859 0
-48 9236 5859 0
-49 9236 5859 0
-50 9236 5859 0
-51 9236 5859 0
-52 9236 5860 0
-53 9236 5860 0
-54 9236 5860 0
-55 9236 5860 0
-56 9236 5860 0
-57 9236 5860 0
-73 5867 9237 0
-73 5868 9237 0
-74 5867 9237 0
-74 5869 9237 0
-81 5868 9237 0
-81 5869 9237 0
-82 5868 9237 0
-83 5868 9237 0
-84 5868 9237 0
-85 5868 9237 0
-86 5868 9237 0
-87 5868 9237 0
-88 9237 5869 0
-89 9237 5869 0
-90 9237 5869 0
-91 9237 5869 0
-92 9237 5869 0
-93 9237 5869 0
-109 5877 9238 0
-110 5876 9238 0
-110 9238 5878 0
-117 5877 9238 0
-117 9238 5878 0
-118 5877 9238 0
-119 5877 9238 0
-120 5877 9238 0
-121 5877 9238 0
-122 5877 9238 0
-123 5877 9238 0
-124 9238 5878 0
-125 9238 5878 0
-126 9238 5878 0
-127 9238 5878 0
-128 9238 5878 0
-129 9238 5878 0
-145 5885 9239 0
-145 5886 9239 0
-146 5885 9239 0
-146 5887 9239 0
5886 -153 9239 0
-153 5887 9239 0
-153 -9239 -5886 -5887 0
-154 5886 9239 0
-155 5886 9239 0
-156 5886 9239 0
-157 5886 9239 0
-158 5886 9239 0
-159 5886 9239 0
-160 5887 9239 0
-161 5887 9239 0
-162 5887 9239 0
-163 5887 9239 0
-164 5887 9239 0
-165 5887 9239 0
-181 5894 9240 0
-181 5895 9240 0
-182 5894 9240 0
-182 5896 9240 0
-189 5895 9240 0
-189 5896 9240 0
-190 5895 9240 0
-191 5895 9240 0
-192 5895 9240 0
-193 5895 9240 0
-194 5895 9240 0
-195 5895 9240 0
-196 5896 9240 0
-197 5896 9240 0
-198 5896 9240 0
-199 5896 9240 0
-200 5896 9240 0
-201 5896 9240 0
-217 5903 9241 0
-217 5904 9241 0
-218 5903 9241 0
-218 5905 9241 0
-225 5904 9241 0
-225 5905 9241 0
-226 5904 9241 0
5906 -226 9241 0
-227 5904 9241 0
5907 -227 9241 0
-228 5904 9241 0
5908 -228 9241 0
-229 5904 9241 0
5909 -229 9241 0
-230 5904 9241 0
5910 -230 9241 0
-231 5904 9241 0
5911 -231 9241 0
-232 5905 9241 0
-233 5905 9241 0
-234 5905 9241 0
-235 5905 9241 0
-236 5905 9241 0
-237 5905 9241 0
-253 5912 9242 0
-253 5913 9242 0
-254 5912 9242 0
-254 5914 9242 0
-261 5913 9242 0
-261 5914 9242 0
-262 5913 9242 0
5915 -262 9242 0
-263 5913 9242 0
5916 -263 9242 0
-264 5913 9242 0
5917 -264 9242 0
-265 5913 9242 0
5918 -265 9242 0
5913 9242 -266 0
5919 9242 -266 0
-267 5913 9242 0
5920 -267 9242 0
-268 5914 9242 0
-269 5914 9242 0
-270 5914 9242 0
-271 5914 9242 0
-272 5914 9242 0
-273 5914 9242 0
-289 9243 5921 0
-289 9243 5922 0
-290 9243 5921 0
9243 -290 5923 0
-291 9243 5921 0
-292 9243 5921 0
-293 9243 5921 0
-294 9243 5921 0
-295 9243 5921 0
-296 5921 9243 0
9243 5922 -297 0
9243 -297 5923 0
-298 9243 5922 0
-299 9243 5922 0
-300 9243 5922 0
-301 9243 5922 0
-302 9243 5922 0
-303 9243 5922 0
-304 9243 5923 0
-305 9243 5923 0
-306 9243 5923 0
-307 9243 5923 0
-308 9243 5923 0
9243 -309 5923 0
-325 5930 9244 0
-325 5931 9244 0
-326 5930 9244 0
-326 5932 9244 0
-327 5930 9244 0
-328 5930 9244 0
-329 5930 9244 0
-330 5930 9244 0
-331 5930 9244 0
-332 5930 9244 0
-333 9244 5931 0
-333 5932 9244 0
-334 5931 9244 0
5933 -334 9244 0
-335 5931 9244 0
5934 -335 9244 0
-336 5931 9244 0
5935 -336 9244 0
-337 5931 9244 0
5936 -337 9244 0
-338 5931 9244 0
5937 -338 9244 0
-339 5931 9244 0
5938 -339 9244 0
-340 5932 9244 0
-341 5932 9244 0
-342 5932 9244 0
-343 5932 9244 0
-344 5932 9244 0
-345 5932 9244 0
-361 5940 9245 0
9245 -362 5941 0
5940 -369 9245 0
-369 9245 5941 0
-370 5940 9245 0
5940 9245 -371 0
5940 9245 -372 0
5940 9245 -373 0
5940 9245 -374 0
5940 9245 -375 0
9246 -9235 0
9247 -9246 0
-9236 9248 -9246 0
-9248 9249 0
-9248 -9237 0
-9236 9247 0
9250 -9247 0
-9237 9249 -9247 0
-9249 9251 0
-9238 -9249 0
-9237 9250 0
9252 -9250 0
-9238 9251 -9250 0
-9251 9253 0
-9251 -9239 0
-9238 9252 0
9254 -9252 0
-9239 9253 -9252 0
-9253 9255 0
-9253 -9240 0
-9239 9254 0
9256 -9254 0
-9240 9255 -9254 0
-9255 9257 0
-9255 -9241 0
-9240 9256 0
9258 -9256 0
-9241 9257 -9256 0
-9257 9259 0
-9242 -9257 0
-9241 9258 0
9260 -9258 0
-9242 9259 -9258 0
-9259 9261 0
-9259 -9243 0
9260 -9242 0
9262 -9260 0
9261 -9243 -9260 0
9263 -9261 0
-9244 -9261 0
9262 -9243 0
9263 -9244 -9262 0
-9245 -9263 0
-9264 -1 -5957 -5958 0
-16 9264 5959 0
-17 9264 5959 0
-18 9264 5959 0
-19 9264 5959 0
-20 9264 5959 0
-21 9264 5959 0
-2 -9334 -6173 -6175 0
9334 -10 6174 0
9334 -11 6174 0
9334 -12 6174 0
9334 -13 6174 0
9334 -14 6174 0
-15 9334 6174 0
