p cnf 9408 1397
496 -1 0
-2 -496 0
4 1 2 3 6 7 5 -397 8 0
9 1 -398 14 13 15 10 11 12 0
-399 2 19 21 20 16 17 18 9 0
-400 22 16 3 23 24 25 26 10 0
-401 30 17 22 4 28 29 27 11 0
-402 33 18 23 5 27 32 31 12 0
-403 35 19 6 24 28 31 34 13 0
-404 36 20 25 7 29 32 34 14 0
-405 36 21 26 8 30 33 35 15 0
531 -37 0
-38 -531 0
-38 532 0
533 -532 0
534 -533 0
535 -534 0
536 -535 0
537 -536 0
-537 538 0
-538 539 0
-45 -538 0
-539 540 0
-46 -539 0
-540 541 0
-47 -540 0
-541 542 0
-48 -541 0
-542 543 0
-49 -542 0
-543 544 0
-50 -543 0
-544 -51 0
-406 39 38 37 40 41 42 43 44 0
-407 51 37 50 45 46 47 48 49 0
57 -408 52 45 38 53 54 56 55 0
-73 566 0
-566 567 0
-566 -74 0
567 -74 0
-567 568 0
-568 569 0
-569 570 0
-570 571 0
-571 572 0
-572 573 0
-573 574 0
-81 -573 0
-574 575 0
-82 -574 0
-575 576 0
-83 -575 0
-576 577 0
-84 -576 0
-577 578 0
-85 -577 0
-578 579 0
-86 -578 0
-579 580 0
-87 -579 0
-580 581 0
-88 -580 0
-581 582 0
-89 -581 0
-582 583 0
-90 -582 0
-583 584 0
-91 -583 0
585 -584 0
-584 -92 0
-93 -585 0
75 -415 73 74 76 77 78 79 80 0
-416 87 81 73 82 83 84 85 86 0
-81 417 0
92 88 74 -417 93 81 89 90 91 0
601 -109 0
602 -601 0
-110 -601 0
602 -110 0
603 -602 0
604 -603 0
605 -604 0
606 -605 0
607 -606 0
608 -607 0
609 -608 0
610 -609 0
-118 -609 0
611 -610 0
-119 -610 0
612 -611 0
-120 -611 0
613 -612 0
-121 -612 0
614 -613 0
-122 -613 0
615 -614 0
-123 -614 0
616 -615 0
-124 -615 0
617 -616 0
-125 -616 0
618 -617 0
-126 -617 0
619 -618 0
-127 -618 0
620 -619 0
-128 -619 0
-129 -620 0
-424 111 109 110 112 113 114 115 116 0
-425 122 117 109 123 118 119 120 121 0
-426 128 117 110 125 124 127 126 129 0
636 -145 0
-636 637 0
-146 -636 0
-146 637 0
-637 638 0
-638 639 0
-639 640 0
-640 641 0
-641 642 0
-642 643 0
-643 644 0
-644 645 0
-154 -644 0
-645 646 0
-645 -155 0
-646 647 0
-156 -646 0
-647 648 0
-157 -647 0
649 -648 0
-648 -158 0
650 -649 0
-159 -649 0
651 -650 0
-160 -650 0
652 -651 0
-161 -651 0
653 -652 0
-162 -652 0
654 -653 0
-163 -653 0
655 -654 0
-164 -654 0
-165 -655 0
151 147 146 145 148 -433 150 149 152 0
-434 157 145 158 153 159 156 155 154 0
-153 435 0
-435 164 153 146 161 165 160 162 163 0
671 -181 0
-671 672 0
-182 -671 0
-182 672 0
-672 673 0
-673 674 0
-674 675 0
-675 676 0
-676 677 0
-677 678 0
-678 679 0
680 -679 0
-679 -190 0
681 -680 0
-191 -680 0
682 -681 0
-192 -681 0
683 -682 0
-193 -682 0
684 -683 0
-194 -683 0
685 -684 0
-195 -684 0
686 -685 0
-196 -685 0
687 -686 0
-197 -686 0
688 -687 0
-198 -687 0
689 -688 0
-199 -688 0
690 -689 0
-200 -689 0
-201 -690 0
-442 187 181 182 184 183 185 186 188 0
-443 190 189 181 195 191 192 193 194 0
-444 200 189 182 201 196 197 198 199 0
706 -217 0
-706 707 0
-218 -706 0
-218 707 0
-707 708 0
-708 709 0
-709 710 0
-710 711 0
-711 712 0
-712 713 0
-713 714 0
715 -714 0
-714 -226 0
716 -715 0
-715 -227 0
717 -716 0
-716 -228 0
718 -717 0
-229 -717 0
719 -718 0
-718 -230 0
720 -719 0
-719 -231 0
721 -720 0
-232 -720 0
722 -721 0
-233 -721 0
723 -722 0
-234 -722 0
724 -723 0
-235 -723 0
725 -724 0
-236 -724 0
-237 -725 0
-451 219 217 218 223 221 220 222 224 0
452 -225 0
229 217 225 -452 226 230 227 228 231 0
-453 225 237 218 236 233 232 234 235 0
741 -253 0
-741 742 0
-254 -741 0
-742 743 0
-743 744 0
-744 745 0
-745 746 0
-746 747 0
-747 748 0
-748 749 0
-749 750 0
-750 751 0
-751 752 0
-752 753 0
754 -753 0
755 -754 0
756 -755 0
-268 -755 0
757 -756 0
-269 -756 0
758 -757 0
-270 -757 0
759 -758 0
-271 -758 0
760 -759 0
-272 -759 0
-273 -760 0
257 256 253 254 -460 255 258 259 260 0
265 264 -461 261 253 267 263 266 262 0
-462 254 273 261 269 270 271 268 272 0
-289 776 0
-776 -290 0
-290 777 0
-777 778 0
-291 778 0
-778 779 0
-292 779 0
-779 780 0
-293 780 0
-780 781 0
-294 781 0
-781 782 0
-295 782 0
-782 783 0
-296 783 0
784 -783 0
-783 -297 0
785 -784 0
-298 -784 0
786 -785 0
-299 -785 0
787 -786 0
-300 -786 0
788 -787 0
-301 -787 0
789 -788 0
-302 -788 0
-303 -789 0
-469 289 292 290 291 293 294 295 296 0
-470 297 303 298 289 301 299 300 302 0
309 305 290 297 -471 304 308 306 307 0
811 -325 0
-326 -811 0
-478 331 332 325 326 327 328 329 330 0
-479 334 325 333 338 335 337 336 339 0
-480 343 333 326 341 340 342 344 345 0
-488 370 369 361 371 372 373 374 375 0
362 -489 369 376 377 378 379 380 381 0
2501 0
-2503 0
-2 2512 -2501 0
-2512 -16 2503 0
-2512 -17 2503 0
-2512 -18 2503 0
-2512 -19 2503 0
-2512 -20 2503 0
-2512 -21 2503 0
2935 0
-3034 0
399 2944 -2935 0
2953 408 -2944 0
2962 -2953 417 0
2971 -2962 426 0
2980 435 -2971 0
2989 444 -2980 0
2998 453 -2989 0
3007 462 -2998 0
-3007 471 3016 0
-3016 480 3025 0
-369 -3025 3034 0
4121 0
-4122 0
-4221 0
4123 0
399 4132 -4123 0
-1 4131 -4121 0
-2 4130 -4121 -4123 0
-4131 -10 4122 0
-4131 -11 4122 0
-4131 -12 4122 0
-4131 -13 4122 0
-4131 -14 4122 0
-15 -4131 4122 0
4139 406 -4130 0
4140 -37 -4130 0
-45 4140 -4131 -4132 0
-4140 4149 416 0
-4139 4149 -73 0
-4149 4158 425 0
-4158 4167 434 0
-4167 4176 443 0
-4176 4185 452 0
-4185 4194 461 0
-4194 470 4203 0
-4203 4212 479 0
488 -4212 4221 0
5634 0
-5733 0
398 5643 -5634 0
5652 407 -5643 0
5661 -5652 416 0
5661 -5652 -73 0
5670 425 -5661 0
5670 -109 -5661 0
5679 434 -5670 0
5679 -145 -5670 0
5688 443 -5679 0
-5679 -181 5688 0
5697 452 -5688 0
5697 -217 -5688 0
-5697 5706 461 0
5706 -253 -5697 0
-5706 470 5715 0
-289 -5706 5715 0
-5715 5724 479 0
-5715 -325 5724 0
-5724 488 5733 0
-361 -5724 5733 0
5849 0
-5850 0
-5949 0
-5851 0
5950 0
5852 0
5853 0
5854 0
5855 0
5856 0
5857 0
397 5858 -5849 0
398 -5859 5850 0
-5860 399 5851 0
5861 400 -5852 0
5862 401 -5853 0
5863 402 -5854 0
5864 403 -5855 0
5865 404 -5856 0
5866 405 -5857 0
-5858 -1 5850 0
5859 -1 -5849 0
-2 -5858 5851 0
5860 -2 -5849 0
5858 -3 -5849 -5852 0
-4 5858 -5849 -5853 0
-5 5858 -5849 -5854 0
-6 5858 -5849 -5855 0
-7 5858 -5849 -5856 0
-8 5858 -5849 -5857 0
-9 -5859 5850 0
-5860 -9 5850 5851 0
-10 -5859 5850 0
-11 -5859 5850 0
-12 -5859 5850 0
-13 -5859 5850 0
-14 -5859 5850 0
-15 -5859 5850 0
-5860 -16 5851 0
-5860 -17 5851 0
-5860 -18 5851 0
-5860 -19 5851 0
-5860 -20 5851 0
-21 -5860 5851 0
406 -5867 5858 0
-5868 407 5859 0
407 5868 -5859 0
408 -5869 5860 0
408 5869 -5860 0
-37 -5867 5858 0
-5867 -37 5859 0
-37 5868 -5858 0
-37 5868 -5859 0
-37 -5868 5858 5859 0
-38 -5867 5858 0
-38 -5867 5860 0
-38 5869 -5858 0
-38 5869 -5860 0
-38 -5869 5858 5860 0
-39 -5867 5858 0
-40 -5867 5858 0
-41 -5867 5858 0
-42 -5867 5858 0
-43 -5867 5858 0
-44 -5867 5858 0
-45 -5868 5859 0
-45 -5868 5860 0
-45 5869 -5859 0
-45 5869 -5860 0
-45 -5869 5860 5859 0
-46 -5868 5859 0
-46 5868 -5861 -5859 0
-47 -5868 5859 0
-47 5868 -5862 -5859 0
-48 -5868 5859 0
-48 5868 -5863 -5859 0
-49 -5868 5859 0
-49 5868 -5864 -5859 0
-50 -5868 5859 0
-50 5868 -5865 -5859 0
-51 -5868 5859 0
5868 -51 -5859 -5866 0
-52 -5869 5860 0
-52 5869 -5860 -5861 0
-53 -5869 5860 0
-53 5869 -5860 -5862 0
-54 -5869 5860 0
-54 5869 -5860 -5863 0
-55 -5869 5860 0
-55 5869 -5860 -5864 0
-56 -5869 5860 0
-56 5869 -5860 -5865 0
-57 -5869 5860 0
-57 5869 -5860 -5866 0
415 5867 -5876 0
-5877 416 5868 0
-5868 416 5877 0
-5878 417 5869 0
-73 -5876 5867 0
-73 -5876 5868 0
-73 5868 5867 -5877 0
-74 5867 -5876 0
-74 -5876 5869 0
-74 -5878 5869 5867 0
-75 5867 -5876 0
-76 5867 -5876 0
-77 5867 -5876 0
-78 5867 -5876 0
-79 5867 -5876 0
-80 5867 -5876 0
-81 -5877 5868 0
-81 -5877 5869 0
-81 -5868 5878 0
-81 -5878 5869 5868 0
-82 -5877 5868 0
-83 -5877 5868 0
-84 -5877 5868 0
-85 -5877 5868 0
-86 -5877 5868 0
-87 -5877 5868 0
-88 -5878 5869 0
-89 -5878 5869 0
-90 -5878 5869 0
-91 -5878 5869 0
-5878 -92 5869 0
-93 -5878 5869 0
424 5876 -5885 0
-5886 425 5877 0
-5887 426 5878 0
-5885 -109 5876 0
-5885 -109 5877 0
-109 5886 -5876 0
5876 -109 5877 -5886 0
-110 5876 -5885 0
-110 -5885 5878 0
-110 5887 -5876 0
-110 -5887 5878 5876 0
-111 5876 -5885 0
-112 5876 -5885 0
-113 5876 -5885 0
-114 5876 -5885 0
-115 5876 -5885 0
-116 5876 -5885 0
-117 -5886 5877 0
-117 -5886 5878 0
-117 -5887 5877 5878 0
-118 -5886 5877 0
-119 -5886 5877 0
-120 -5886 5877 0
-121 -5886 5877 0
-122 -5886 5877 0
-123 -5886 5877 0
-124 -5887 5878 0
-125 -5887 5878 0
-126 -5887 5878 0
-127 -5887 5878 0
-128 -5887 5878 0
-129 -5887 5878 0
433 5885 -5894 0
-5895 434 5886 0
-5896 435 5887 0
5885 -145 -5894 0
-145 -5894 5886 0
-145 5895 -5885 0
-145 5885 5886 -5895 0
-146 5885 -5894 0
-146 -5894 5887 0
-146 5896 -5885 0
-146 -5896 5885 5887 0
-147 5885 -5894 0
-148 5885 -5894 0
-149 5885 -5894 0
-150 5885 -5894 0
-151 5885 -5894 0
-152 5885 -5894 0
-153 -5895 5886 0
-153 -5895 5887 0
-153 -5896 5886 5887 0
-154 -5895 5886 0
-5895 -155 5886 0
-156 -5895 5886 0
-157 -5895 5886 0
-5895 -158 5886 0
-159 -5895 5886 0
-160 -5896 5887 0
-161 -5896 5887 0
-162 -5896 5887 0
-163 -5896 5887 0
-164 -5896 5887 0
-165 -5896 5887 0
442 -5903 5894 0
-5904 443 5895 0
-5905 444 5896 0
-181 -5903 5894 0
-181 -5903 5895 0
-181 5894 -5904 5895 0
-182 5894 -5903 0
-182 -5903 5896 0
-182 5894 -5905 5896 0
-183 5894 -5903 0
-184 5894 -5903 0
-185 5894 -5903 0
-186 5894 -5903 0
-187 5894 -5903 0
-188 5894 -5903 0
-189 5895 -5904 0
-189 5896 -5904 0
-189 5905 -5895 0
-189 5895 5896 -5905 0
-190 -5904 5895 0
-191 5895 -5904 0
-192 -5904 5895 0
-193 -5904 5895 0
-194 -5904 5895 0
-195 -5904 5895 0
-196 -5905 5896 0
-197 -5905 5896 0
-198 -5905 5896 0
-199 -5905 5896 0
-200 -5905 5896 0
-201 -5905 5896 0
451 5903 -5912 0
452 5904 -5913 0
452 -5904 5913 0
-5914 453 5905 0
-217 -5912 5903 0
-217 -5912 5904 0
-5903 -217 5913 0
-217 -5904 5913 0
5903 -217 5904 -5913 0
-218 5903 -5912 0
-218 -5912 5905 0
-218 5905 5903 -5914 0
-219 5903 -5912 0
-220 5903 -5912 0
-221 5903 -5912 0
-222 5903 -5912 0
-223 5903 -5912 0
-224 5903 -5912 0
-225 5904 -5913 0
-225 5905 -5913 0
-5905 -225 5913 -5904 0
5914 -225 -5904 0
-5914 -225 5904 5905 0
-226 5904 -5913 0
-5906 -226 -5904 5913 0
-227 5904 -5913 0
-5907 -227 -5904 5913 0
-228 5904 -5913 0
-5908 -228 -5904 5913 0
-229 5904 -5913 0
-5909 -229 -5904 5913 0
-230 5904 -5913 0
-5910 -230 -5904 5913 0
-231 5904 -5913 0
-5911 -231 -5904 5913 0
-232 -5914 5905 0
-233 -5914 5905 0
-234 -5914 5905 0
-235 -5914 5905 0
-236 -5914 5905 0
-237 -5914 5905 0
460 5912 -5921 0
461 5913 -5922 0
461 -5913 5922 0
-5923 462 5914 0
-253 5912 -5921 0
-253 -5921 5913 0
-253 -5912 5922 0
-253 -5913 5922 0
-253 5912 5913 -5922 0
-254 5912 -5921 0
-254 5914 -5921 0
-254 -5923 5914 5912 0
-255 5912 -5921 0
-256 5912 -5921 0
-257 5912 -5921 0
-258 5912 -5921 0
-259 5912 -5921 0
-260 5912 -5921 0
-261 5913 -5922 0
-261 5914 -5922 0
-261 -5914 5922 -5913 0
-261 -5913 5923 0
-5923 -261 5914 5913 0
-262 5913 -5922 0
-5915 -262 -5913 5922 0
-263 5913 -5922 0
-5916 -263 -5913 5922 0
-264 5913 -5922 0
-5917 -264 -5913 5922 0
5913 -5922 -265 0
-5918 -5913 -265 5922 0
-266 5913 -5922 0
-5913 -5919 -266 5922 0
-267 5913 -5922 0
-5920 -267 -5913 5922 0
-268 -5923 5914 0
-269 -5923 5914 0
-270 -5923 5914 0
-271 -5923 5914 0
-272 -5923 5914 0
-273 -5923 5914 0
-5930 469 5921 0
469 5930 -5921 0
-5931 470 5922 0
5931 470 -5922 0
471 -5932 5923 0
-289 -5930 5921 0
-289 -5930 5922 0
-289 -5921 5931 0
-5931 -289 5921 5922 0
-290 -5930 5921 0
-5930 -290 5923 0
5932 -290 -5921 0
5921 -290 5923 -5932 0
-291 -5930 5921 0
-292 -5930 5921 0
-293 -5930 5921 0
-294 -5930 5921 0
-295 -5930 5921 0
-296 -5930 5921 0
-5931 5922 -297 0
-5931 -297 5923 0
-5922 5932 -297 0
5922 -5932 -297 5923 0
-298 -5931 5922 0
-299 -5931 5922 0
-300 -5931 5922 0
-5931 -301 5922 0
-302 -5931 5922 0
-303 -5931 5922 0
-304 -5932 5923 0
-305 -5932 5923 0
-306 -5932 5923 0
-307 -5932 5923 0
-308 -5932 5923 0
-309 -5932 5923 0
478 5930 -5939 0
-5940 479 5931 0
-5931 479 5940 0
480 5932 -5941 0
-325 5930 -5939 0
-325 5931 -5939 0
-325 5930 -5940 5931 0
-326 5930 -5939 0
-326 5932 -5941 5930 0
-327 5930 -5939 0
-328 5930 -5939 0
-329 5930 -5939 0
-330 5930 -5939 0
-331 5930 -5939 0
-332 5930 -5939 0
-333 -5940 5932 0
-333 5931 -5941 5932 0
-334 -5940 5931 0
-335 -5940 5931 0
-336 -5940 5931 0
-337 -5940 5931 0
-338 -5940 5931 0
-339 -5940 5931 0
-340 5932 -5941 0
-341 5932 -5941 0
-342 5932 -5941 0
-343 5932 -5941 0
-344 5932 -5941 0
-345 5932 -5941 0
5941 489 -5950 0
-361 -5939 5949 0
-5940 -361 5949 0
5939 -362 5941 -5950 0
-5940 -5941 -369 5949 0
5940 -369 5941 -5950 0
-376 5941 -5950 0
-377 5941 -5950 0
-378 5941 -5950 0
-379 5941 -5950 0
-380 5941 -5950 0
-381 5941 -5950 0
5957 0
5958 0
6057 0
-5959 0
-5968 399 5959 0
-5977 408 5968 0
-5977 -52 5968 0
-53 -5977 5968 0
-54 -5977 5968 0
-55 -5977 5968 0
-56 -5977 5968 0
-57 -5977 5968 0
-5986 5977 417 0
-5985 -81 5977 0
-88 -5986 5977 0
-89 -5986 5977 0
-90 -5986 5977 0
-91 -5986 5977 0
-5986 5977 -92 0
-93 -5986 5977 0
5985 -5994 425 0
-5995 5986 426 0
-117 -5994 5986 0
5994 -6003 434 0
-6004 435 5995 0
-153 -6003 5995 0
6003 -6012 443 0
-6013 444 6004 0
-6012 -189 6004 0
-196 -6013 6004 0
-197 -6013 6004 0
-198 -6013 6004 0
-199 -6013 6004 0
-200 -6013 6004 0
-201 -6013 6004 0
6012 -6021 452 0
-6022 453 6013 0
-6021 -225 6013 0
-232 -6022 6013 0
-233 -6022 6013 0
-234 -6022 6013 0
-235 -6022 6013 0
-236 -6022 6013 0
-237 -6022 6013 0
461 6021 -6030 0
-6031 462 6022 0
-6030 -261 6022 0
-262 6021 -6030 0
-263 6021 -6030 0
-264 6021 -6030 0
-265 6021 -6030 0
-266 6021 -6030 0
-267 6021 -6030 0
6030 470 -6039 0
471 -6040 6031 0
-6039 -297 6031 0
-304 -6040 6031 0
-305 -6040 6031 0
-306 -6040 6031 0
-307 -6040 6031 0
-308 -6040 6031 0
-6040 -309 6031 0
6039 -6048 479 0
6040 480 -6049 0
-333 6040 -6048 0
-340 6040 -6049 0
-341 6040 -6049 0
-342 6040 -6049 0
-343 6040 -6049 0
-344 6040 -6049 0
-345 6040 -6049 0
488 6048 -6057 0
6049 -369 -6057 0
6173 0
-6174 0
6273 0
6175 0
-6183 398 6174 0
-6182 -1 6174 0
6183 -1 -6173 0
-6183 -9 6174 0
-6183 -10 6174 0
-6183 -11 6174 0
-6183 -12 6174 0
-6183 -13 6174 0
-6183 -14 6174 0
-15 -6183 6174 0
406 -6191 6182 0
-6192 407 6183 0
-6191 -37 6182 0
-6191 -37 6183 0
-38 -6191 6182 0
-39 -6191 6182 0
-40 -6191 6182 0
-41 -6191 6182 0
-42 -6191 6182 0
-43 -6191 6182 0
-44 -6191 6182 0
-45 -6192 6183 0
-46 -6192 6183 0
-47 -6192 6183 0
-48 -6192 6183 0
-49 -6192 6183 0
-50 -6192 6183 0
-51 -6192 6183 0
-6200 415 6191 0
-6201 416 6192 0
-6200 -73 6192 0
-73 -6192 6201 0
-74 -6200 6191 0
6193 -74 -6200 0
-75 -6200 6191 0
-76 -6200 6191 0
-77 -6200 6191 0
-78 -6200 6191 0
-79 -6200 6191 0
-80 -6200 6191 0
-81 -6201 6192 0
-82 -6201 6192 0
-83 -6201 6192 0
-84 -6201 6192 0
-85 -6201 6192 0
-86 -6201 6192 0
-87 -6201 6192 0
6200 -6209 424 0
-6210 425 6201 0
6200 -109 -6210 6201 0
-117 -6210 6201 0
-118 -6210 6201 0
-119 -6210 6201 0
-120 -6210 6201 0
-121 -6210 6201 0
-122 -6210 6201 0
-123 -6210 6201 0
-6218 433 6209 0
-6219 434 6210 0
-6218 -145 6210 0
-153 6210 -6219 0
-154 -6219 6210 0
-155 -6219 6210 0
-156 -6219 6210 0
-157 -6219 6210 0
-158 -6219 6210 0
-159 -6219 6210 0
-6227 6218 442 0
-6228 443 6219 0
-6227 -181 6219 0
-182 -6227 6218 0
6220 -182 -6227 0
-189 -6228 6219 0
-190 -6228 6219 0
-191 -6228 6219 0
-192 -6228 6219 0
-193 -6228 6219 0
-194 -6228 6219 0
-195 -6228 6219 0
-6236 6227 451 0
-6237 452 6228 0
6227 -6236 -217 0
-6236 -217 6228 0
6227 -217 6228 -6237 0
-218 -6236 6227 0
-219 -6236 6227 0
-220 -6236 6227 0
-221 -6236 6227 0
-222 -6236 6227 0
-223 -6236 6227 0
-224 -6236 6227 0
-6237 -225 6228 0
-226 -6237 6228 0
-227 -6237 6228 0
-228 -6237 6228 0
-6237 -229 6228 0
-230 -6237 6228 0
-231 -6237 6228 0
-6245 460 6236 0
461 6237 -6246 0
-253 -6245 6237 0
-6236 -253 6246 0
-253 -6237 6246 0
-254 6236 -6245 0
6238 -254 -6245 0
-255 -6245 6236 0
-256 -6245 6236 0
-6245 6236 -257 0
-258 -6245 6236 0
-259 -6245 6236 0
-260 -6245 6236 0
-261 6237 -6246 0
-262 6237 -6246 0
-6239 -6237 -262 6246 0
-263 6237 -6246 0
-264 6237 -6246 0
6237 -6246 -265 0
6237 -266 -6246 0
6237 -267 -6246 0
6245 469 -6254 0
6246 470 -6255 0
6245 -289 -6254 0
6245 -289 -6255 6246 0
6245 -290 -6254 0
-291 6245 -6254 0
-292 6245 -6254 0
-293 6245 -6254 0
-294 6245 -6254 0
-295 6245 -6254 0
-296 6245 -6254 0
6246 -6255 -297 0
-298 -6255 6246 0
-299 -6255 6246 0
-300 -6255 6246 0
-301 -6255 6246 0
-302 -6255 6246 0
-303 -6255 6246 0
6254 -6263 478 0
6255 -6264 479 0
6254 -325 6255 -6264 0
-326 6254 -6263 0
6256 -326 -6263 0
-333 6255 -6264 0
-334 6255 -6264 0
-335 6255 -6264 0
-336 6255 -6264 0
-337 6255 -6264 0
-338 6255 -6264 0
-339 6255 -6264 0
488 6264 -6273 0
-361 6263 6264 -6273 0
6264 -369 -6273 0
6264 -370 -6273 0
-371 6264 -6273 0
-372 6264 -6273 0
-373 6264 -6273 0
-374 6264 -6273 0
-375 6264 -6273 0
9235 -1 5850 0
9235 -2 5851 0
-3 -9235 -5849 -5852 0
-4 -9235 -5849 -5853 0
-5 -9235 -5849 -5854 0
-6 -9235 -5849 -5855 0
-7 -9235 -5849 -5856 0
-8 -9235 -5849 -5857 0
-9 9235 5851 0
-10 9235 5850 0
9235 -11 5850 0
-12 9235 5850 0
-13 9235 5850 0
-14 9235 5850 0
-15 9235 5850 0
-16 9235 5851 0
-17 9235 5851 0
-18 9235 5851 0
-19 9235 5851 0
-20 9235 5851 0
-21 9235 5851 0
-22 -9235 -5852 -5853 0
-23 -9235 -5852 -5854 0
-24 -9235 -5852 -5855 0
-25 -9235 -5852 -5856 0
-26 -9235 -5852 -5857 0
-27 -9235 -5853 -5854 0
-28 -9235 -5853 -5855 0
-29 -9235 -5853 -5856 0
-30 -9235 -5853 -5857 0
-31 -9235 -5854 -5855 0
-32 -9235 -5854 -5856 0
-33 -9235 -5854 -5857 0
-34 -9235 -5855 -5856 0
-35 -9235 -5855 -5857 0
-36 -9235 -5856 -5857 0
-37 9236 5858 0
-37 9236 5859 0
-38 9236 5858 0
-38 9236 5860 0
-39 9236 5858 0
-40 9236 5858 0
-41 9236 5858 0
-42 9236 5858 0
-43 9236 5858 0
-44 9236 5858 0
-45 9236 5859 0
-45 9236 5860 0
-46 9236 5859 0
-47 9236 5859 0
-48 9236 5859 0
-49 9236 5859 0
-50 9236 5859 0
-51 9236 5859 0
-52 9236 5860 0
-53 9236 5860 0
-54 9236 5860 0
-55 9236 5860 0
-56 9236 5860 0
-57 9236 5860 0
-73 5867 9237 0
-73 5868 9237 0
-74 5867 9237 0
-74 5869 9237 0
-81 5868 9237 0
-81 5869 9237 0
-82 5868 9237 0
-83 5868 9237 0
-84 5868 9237 0
-85 5868 9237 0
-86 5868 9237 0
-87 5868 9237 0
-88 5869 9237 0
-89 5869 9237 0
-90 5869 9237 0
-91 5869 9237 0
-92 5869 9237 0
-93 5869 9237 0
-109 5876 9238 0
-109 5877 9238 0
-110 5876 9238 0
-110 9238 5878 0
-111 5876 9238 0
-112 5876 9238 0
-113 5876 9238 0
-114 5876 9238 0
-115 5876 9238 0
-116 5876 9238 0
-117 5877 9238 0
-117 9238 5878 0
-118 5877 9238 0
-119 5877 9238 0
-120 5877 9238 0
-121 5877 9238 0
-122 5877 9238 0
-123 5877 9238 0
-124 9238 5878 0
-125 9238 5878 0
-126 9238 5878 0
-127 9238 5878 0
-128 9238 5878 0
-129 9238 5878 0
-145 5885 9239 0
-145 5886 9239 0
-146 5887 9239 0
-153 5886 9239 0
-153 5887 9239 0
-154 5886 9239 0
-155 5886 9239 0
-156 5886 9239 0
-157 5886 9239 0
-158 5886 9239 0
-159 5886 9239 0
-160 5887 9239 0
-161 5887 9239 0
-162 5887 9239 0
-163 5887 9239 0
-164 5887 9239 0
-165 5887 9239 0
-181 5894 9240 0
-181 5895 9240 0
-182 5894 9240 0
-182 5896 9240 0
-189 5895 9240 0
-189 5896 9240 0
-190 5895 9240 0
-191 5895 9240 0
-192 5895 9240 0
-193 5895 9240 0
-194 5895 9240 0
-195 5895 9240 0
-196 5896 9240 0
-197 5896 9240 0
-198 5896 9240 0
-199 5896 9240 0
-200 5896 9240 0
-201 5896 9240 0
-217 5903 9241 0
-217 5904 9241 0
-218 5903 9241 0
-218 5905 9241 0
5904 -225 9241 0
-225 5905 9241 0
-226 5904 9241 0
5906 -226 9241 0
-227 5904 9241 0
5907 -227 9241 0
-228 5904 9241 0
5908 -228 9241 0
-229 5904 9241 0
5909 -229 9241 0
-230 5904 9241 0
5910 -230 9241 0
-231 5904 9241 0
5911 -231 9241 0
-232 5905 9241 0
-233 5905 9241 0
-234 5905 9241 0
-235 5905 9241 0
-236 5905 9241 0
-237 5905 9241 0
-253 5912 9242 0
-253 5913 9242 0
-254 5912 9242 0
-254 5914 9242 0
-261 5913 9242 0
-261 5914 9242 0
-262 5913 9242 0
5915 -262 9242 0
-263 5913 9242 0
5916 -263 9242 0
-264 5913 9242 0
5917 -264 9242 0
5913 9242 -265 0
5918 9242 -265 0
5913 -266 9242 0
5919 -266 9242 0
-267 5913 9242 0
5920 -267 9242 0
-268 5914 9242 0
-269 5914 9242 0
-270 5914 9242 0
-271 5914 9242 0
-272 5914 9242 0
-273 5914 9242 0
-289 9243 5921 0
-289 9243 5922 0
-290 9243 5921 0
9243 -290 5923 0
-291 9243 5921 0
-292 9243 5921 0
-293 9243 5921 0
-294 9243 5921 0
-295 9243 5921 0
-296 9243 5921 0
-297 9243 5922 0
9243 -297 5923 0
-298 9243 5922 0
-299 9243 5922 0
-300 9243 5922 0
-301 9243 5922 0
-302 9243 5922 0
-303 9243 5922 0
-304 9243 5923 0
-305 9243 5923 0
-306 9243 5923 0
-307 9243 5923 0
-308 9243 5923 0
9243 -309 5923 0
-325 5930 9244 0
-325 5931 9244 0
-326 5930 9244 0
-326 5932 9244 0
-327 5930 9244 0
-328 5930 9244 0
-329 5930 9244 0
-330 5930 9244 0
-331 5930 9244 0
-332 5930 9244 0
-333 5931 9244 0
-333 5932 9244 0
-334 5931 9244 0
-335 5931 9244 0
-336 5931 9244 0
-337 5931 9244 0
-338 5931 9244 0
-339 5931 9244 0
-340 5932 9244 0
-341 5932 9244 0
-342 5932 9244 0
-343 5932 9244 0
-344 5932 9244 0
-345 5932 9244 0
-361 5939 9245 0
-361 5940 9245 0
9245 -362 5941 0
5940 9245 -369 0
9245 -369 5941 0
5940 9245 -370 0
5940 9245 -371 0
5940 9245 -372 0
5940 9245 -373 0
5940 9245 -374 0
5940 9245 -375 0
9246 -9235 0
9247 -9246 0
-9236 9248 -9246 0
-9248 9249 0
-9248 -9237 0
-9236 9247 0
9250 -9247 0
-9237 9249 -9247 0
-9249 9251 0
-9249 -9238 0
-9237 9250 0
9252 -9250 0
-9238 9251 -9250 0
-9251 9253 0
-9251 -9239 0
-9238 9252 0
9254 -9252 0
-9239 9253 -9252 0
-9253 9255 0
-9253 -9240 0
-9239 9254 0
9256 -9254 0
-9240 9255 -9254 0
-9255 9257 0
-9255 -9241 0
-9240 9256 0
9258 -9256 0
-9241 9257 -9256 0
-9257 9259 0
-9242 -9257 0
-9241 9258 0
9260 -9258 0
-9242 9259 -9258 0
-9259 9261 0
-9259 -9243 0
9260 -9242 0
9262 -9260 0
9261 -9243 -9260 0
9263 -9261 0
-9244 -9261 0
9262 -9243 0
9263 -9244 -9262 0
-9245 -9263 0
-9264 -1 -5957 -5958 0
-16 9264 5959 0
-17 9264 5959 0
-18 9264 5959 0
-19 9264 5959 0
-20 9264 5959 0
-21 9264 5959 0
9334 -1 6174 0
-9334 -2 -6173 -6175 0
9334 -10 6174 0
9334 -11 6174 0
-12 9334 6174 0
-13 9334 6174 0
9334 -14 6174 0
-15 9334 6174 0
9335 -37 6183 0
9336 -73 6191 0
9336 -73 6192 0
-9336 -6193 -6191 -74 0
9336 -81 6192 0
-82 9336 6192 0
-83 9336 6192 0
-84 9336 6192 0
-85 9336 6192 0
-86 9336 6192 0
-87 9336 6192 0
9338 6209 -145 0
9338 -145 6210 0
-146 9338 6209 0
-147 9338 6209 0
-148 9338 6209 0
-149 9338 6209 0
-150 9338 6209 0
9338 6209 -151 0
-152 9338 6209 0
9339 -181 6218 0
9339 -181 6219 0
-182 9339 6218 0
-6220 -182 -9339 -6218 0
-183 9339 6218 0
-184 9339 6218 0
-185 9339 6218 0
-186 9339 6218 0
-187 9339 6218 0
-188 9339 6218 0
9339 -190 6219 0
-191 9339 6219 0
-192 9339 6219 0
-193 9339 6219 0
-194 9339 6219 0
-195 9339 6219 0
9340 6227 -217 0
9340 -217 6228 0
-218 9340 6227 0
-219 9340 6227 0
-220 9340 6227 0
-221 9340 6227 0
-222 9340 6227 0
-223 9340 6227 0
-224 9340 6227 0
9340 -225 6228 0
9340 -226 6228 0
9340 -227 6228 0
9340 -228 6228 0
9340 -229 6228 0
9340 -230 6228 0
9340 -231 6228 0
9341 -253 6236 0
-254 6236 9341 0
-6238 -254 -6236 -9341 0
-255 9341 6236 0
-256 9341 6236 0
9341 6236 -257 0
-258 9341 6236 0
-259 9341 6236 0
-260 9341 6236 0
9341 -262 6237 0
6239 9341 -262 0
9341 6237 -263 0
9341 6237 -264 0
9341 6237 -265 0
9341 6237 -266 0
9341 6237 -267 0
9342 -289 6246 0
9342 6246 -297 0
-298 9342 6246 0
-299 9342 6246 0
-300 9342 6246 0
9342 -301 6246 0
-302 9342 6246 0
-303 9342 6246 0
9343 -325 6255 0
-326 -6256 -6254 -9343 0
-333 9343 6255 0
9343 -334 6255 0
-335 9343 6255 0
-336 9343 6255 0
-337 9343 6255 0
-338 9343 6255 0
-339 9343 6255 0
9344 -361 6264 0
9345 -9334 0
9346 -9345 0
9346 -9335 0
9349 -9346 0
-9336 9348 -9346 0
-9348 9350 0
9349 -9336 0
9351 -9349 0
-9350 9352 0
9353 -9351 0
-9338 9352 -9351 0
-9352 9354 0
9353 -9338 0
9355 -9353 0
-9339 9354 -9353 0
-9354 9356 0
9355 -9339 0
9357 -9355 0
-9340 9356 -9355 0
-9356 9358 0
-9340 9357 0
9359 -9357 0
9358 -9341 -9357 0
-9358 9360 0
-9358 -9342 0
9359 -9341 0
9361 -9359 0
-9342 9360 -9359 0
-9360 9362 0
-9360 -9343 0
9362 -9343 -9361 0
-9362 -9344 0
