p cnf 7782 1185
451 -1 0
-2 -451 0
3 1 -361 2 5 6 7 4 8 0
10 1 -362 9 14 12 13 11 15 0
-363 20 2 21 9 16 17 18 19 0
486 -37 0
-38 -486 0
-38 487 0
-487 488 0
-488 489 0
-489 490 0
-490 491 0
-491 492 0
-492 493 0
-44 493 0
-493 494 0
-493 -45 0
-494 495 0
-46 -494 0
-495 496 0
-47 -495 0
-496 497 0
-48 -496 0
498 -497 0
-497 -49 0
499 -498 0
-50 -498 0
-51 -499 0
40 -370 37 38 39 41 42 43 44 0
49 -371 37 46 45 51 47 48 50 0
53 57 -372 38 45 52 56 54 55 0
-73 521 0
-521 522 0
-74 -521 0
-74 522 0
-522 523 0
-75 523 0
-523 524 0
-76 524 0
-524 525 0
-77 525 0
-525 526 0
-78 526 0
-526 527 0
-79 527 0
-527 528 0
-80 528 0
-528 529 0
-528 -81 0
-529 530 0
-529 -82 0
-530 531 0
-83 -530 0
-531 532 0
-84 -531 0
-532 533 0
-85 -532 0
-533 534 0
-86 -533 0
-534 535 0
-87 -534 0
-535 536 0
-88 -535 0
-536 537 0
-89 -536 0
538 -537 0
-537 -90 0
539 -538 0
-91 -538 0
540 -539 0
-92 -539 0
-93 -540 0
-379 74 73 76 75 77 78 79 80 0
82 84 73 81 87 -380 86 83 85 0
90 92 74 81 -381 93 88 91 89 0
556 -109 0
-556 557 0
-110 -556 0
-110 557 0
-557 558 0
-558 559 0
-559 560 0
-560 561 0
-561 562 0
-562 563 0
-563 564 0
-117 -563 0
-564 565 0
-118 -564 0
-565 566 0
-119 -565 0
-566 567 0
-120 -566 0
-567 568 0
-121 -567 0
-568 569 0
-122 -568 0
570 -569 0
-569 -123 0
571 -570 0
-124 -570 0
-125 -571 0
111 115 109 112 -388 113 110 114 116 0
123 119 109 -389 122 118 117 120 121 0
127 -390 110 117 124 125 128 126 129 0
591 -145 0
-146 -591 0
-146 592 0
-592 593 0
-147 593 0
-593 594 0
-148 594 0
-594 595 0
-149 595 0
-595 596 0
-150 596 0
-596 597 0
-151 597 0
-597 598 0
-152 598 0
-598 599 0
-598 -153 0
-599 600 0
-599 -154 0
-600 601 0
-155 -600 0
-601 602 0
-156 -601 0
-602 603 0
-157 -602 0
604 -603 0
-603 -158 0
-159 -604 0
-397 147 145 152 148 149 146 150 151 0
158 157 145 -398 155 153 159 154 156 0
162 -399 153 146 164 160 161 163 165 0
-181 626 0
-626 627 0
-182 -626 0
-182 627 0
-627 628 0
-183 628 0
-628 629 0
-184 629 0
-629 630 0
-185 630 0
-630 631 0
-186 631 0
-631 632 0
-187 632 0
-632 633 0
-188 633 0
-633 634 0
-189 -633 0
-634 635 0
-634 -190 0
-635 636 0
-191 -635 0
-636 637 0
-192 -636 0
-637 638 0
-193 -637 0
-638 639 0
-194 -638 0
-639 640 0
-195 -639 0
-640 641 0
-196 -640 0
642 -641 0
-641 -197 0
643 -642 0
-198 -642 0
644 -643 0
-199 -643 0
645 -644 0
-200 -644 0
-201 -645 0
-406 183 181 182 184 185 186 187 188 0
190 191 181 -407 195 189 194 192 193 0
197 199 182 189 196 -408 200 201 198 0
-217 661 0
-661 662 0
-218 -661 0
-218 662 0
-662 663 0
-663 664 0
-664 665 0
-665 666 0
-666 667 0
-667 668 0
-668 669 0
-669 670 0
-226 -669 0
-670 671 0
-227 -670 0
-671 672 0
-228 -671 0
-672 673 0
-229 -672 0
-673 674 0
-230 -673 0
-674 675 0
-231 -674 0
676 -675 0
-232 -675 0
677 -676 0
-233 -676 0
678 -677 0
-234 -677 0
679 -678 0
-235 -678 0
-236 -679 0
223 221 217 218 -415 219 222 220 224 0
-416 226 217 225 231 228 227 230 229 0
236 235 218 225 -417 232 233 234 237 0
696 -253 0
697 -696 0
-254 -696 0
698 -697 0
-255 698 0
699 -698 0
-256 699 0
700 -699 0
-257 700 0
701 -700 0
-258 701 0
702 -701 0
-259 702 0
703 -702 0
-260 703 0
704 -703 0
-703 -261 0
705 -704 0
706 -705 0
707 -706 0
708 -707 0
709 -708 0
710 -709 0
711 -710 0
-268 -710 0
712 -711 0
-269 -711 0
713 -712 0
-270 -712 0
714 -713 0
-271 -713 0
715 -714 0
-272 -714 0
-273 -715 0
-424 254 253 256 255 257 258 259 260 0
-425 253 261 264 267 262 265 266 263 0
-426 269 261 254 273 268 270 271 272 0
731 -289 0
732 -731 0
-290 -731 0
733 -732 0
733 -291 0
734 -733 0
-292 734 0
735 -734 0
-293 735 0
736 -735 0
-294 736 0
737 -736 0
-295 737 0
738 -737 0
-296 738 0
739 -738 0
-297 -738 0
740 -739 0
741 -740 0
742 -741 0
743 -742 0
744 -743 0
745 -744 0
746 -745 0
-304 -745 0
747 -746 0
-305 -746 0
748 -747 0
-306 -747 0
749 -748 0
-307 -748 0
750 -749 0
-308 -749 0
-309 -750 0
291 294 289 -433 290 292 293 295 296 0
-434 300 289 302 297 298 299 301 303 0
-435 309 290 297 304 305 306 307 308 0
-327 768 0
-768 769 0
-328 769 0
-769 770 0
-329 770 0
-770 771 0
-330 771 0
-771 772 0
-331 772 0
-772 773 0
-332 773 0
-773 -333 0
328 326 325 -442 327 329 330 331 332 0
-443 338 333 325 334 335 336 337 339 0
326 -444 333 340 341 342 343 344 345 0
2288 0
363 2297 -2288 0
2306 372 -2297 0
2315 -2306 381 0
2324 -2315 390 0
2333 -2324 399 0
2342 -2333 408 0
-4761 0
4762 0
-4852 0
4763 0
4765 0
4766 0
4767 0
4768 0
4769 0
4771 362 -4762 0
363 4772 -4763 0
-1 -4770 4761 0
4771 -1 -4762 0
-9 4771 -4762 -4763 0
-11 4771 -4762 -4765 0
-12 4771 -4762 -4766 0
-13 4771 -4762 -4767 0
-14 4771 -4762 -4768 0
-15 4771 -4762 -4769 0
371 4780 -4771 0
4781 372 -4772 0
-37 4780 -4771 0
-45 4780 -4771 -4772 0
-4780 4789 380 0
4790 -4781 381 0
4789 -4780 -73 0
4798 389 -4789 0
4799 -4790 390 0
4798 -109 -4789 0
4807 398 -4798 0
4808 -4799 399 0
4807 -145 -4798 0
4807 -153 -4799 -4798 0
407 -4807 4816 0
4817 -4808 408 0
-4807 -181 4816 0
4825 -4816 416 0
4825 -4816 -217 0
4834 -4825 425 0
-4825 4834 -253 0
-4834 434 4843 0
-4834 -289 4843 0
443 -4843 4852 0
-325 -4843 4852 0
4959 0
-4960 0
-5050 0
-4961 0
5051 0
-4969 362 4960 0
-4970 363 4961 0
-4968 -1 4960 0
4969 -1 -4959 0
-2 -4968 4961 0
-4969 -9 4960 0
-4970 -9 4960 4961 0
-10 -4969 4960 0
-4969 -11 4960 0
-4969 -12 4960 0
-4969 -13 4960 0
-4969 -14 4960 0
-15 -4969 4960 0
-4970 -16 4961 0
-4970 -17 4961 0
-4970 -18 4961 0
-4970 -19 4961 0
-4970 -20 4961 0
-21 -4970 4961 0
370 -4977 4968 0
371 -4978 4969 0
372 -4979 4970 0
-4977 -37 4969 0
-37 4978 -4969 0
-37 4969 4968 -4978 0
-38 -4977 4968 0
-38 -4977 4970 0
-4968 -38 4979 0
-4979 -38 4968 4970 0
-39 -4977 4968 0
-40 -4977 4968 0
-41 -4977 4968 0
-42 -4977 4968 0
-43 -4977 4968 0
-44 -4977 4968 0
-4978 -45 4969 0
-45 -4978 4970 0
-45 4979 -4969 0
-45 -4979 4969 4970 0
-46 -4978 4969 0
-47 -4978 4969 0
-48 -4978 4969 0
-4978 -49 4969 0
-50 -4978 4969 0
-51 -4978 4969 0
-52 -4979 4970 0
-53 -4979 4970 0
-54 -4979 4970 0
-55 -4979 4970 0
-56 -4979 4970 0
-57 -4979 4970 0
4977 -4986 379 0
-4987 380 4978 0
381 -4988 4979 0
4977 -4986 -73 0
-4986 -73 4978 0
-4977 -73 4987 0
-73 -4978 4987 0
4977 -73 4978 -4987 0
-74 4977 -4986 0
-74 4979 -4986 0
-74 -4977 4988 0
-74 -4988 4977 4979 0
-75 4977 -4986 0
-76 4977 -4986 0
-77 4977 -4986 0
-78 4977 -4986 0
-79 4977 -4986 0
-80 4977 -4986 0
-81 -4987 4978 0
-81 4979 -4987 0
-81 -4988 4978 4979 0
-4987 4978 -82 0
-83 -4987 4978 0
-84 -4987 4978 0
-85 -4987 4978 0
-86 -4987 4978 0
-87 -4987 4978 0
-88 -4988 4979 0
-89 -4988 4979 0
-90 -4988 4979 0
-91 -4988 4979 0
-92 -4988 4979 0
-93 -4988 4979 0
388 4986 -4995 0
-4996 389 4987 0
390 -4997 4988 0
4986 -109 -4995 0
-109 -4995 4987 0
-109 4986 4987 -4996 0
-110 4986 -4995 0
-110 4988 -4995 0
-110 -4986 4997 0
-110 -4997 4986 4988 0
-111 4986 -4995 0
-112 4986 -4995 0
-113 4986 -4995 0
-114 4986 -4995 0
-115 4986 -4995 0
-116 4986 -4995 0
-117 -4996 4987 0
-117 -4996 4988 0
-117 4988 4987 -4997 0
-118 -4996 4987 0
-119 -4996 4987 0
-120 -4996 4987 0
-121 -4996 4987 0
-122 -4996 4987 0
-4996 4987 -123 0
-124 4988 -4997 0
-125 4988 -4997 0
-126 4988 -4997 0
-127 4988 -4997 0
-128 4988 -4997 0
-129 4988 -4997 0
4995 -5004 397 0
-5005 398 4996 0
399 -5006 4997 0
-145 4995 -5004 0
-145 -5004 4996 0
-145 5005 -4995 0
-145 5005 -4996 0
-145 4995 4996 -5005 0
-146 4995 -5004 0
-146 -5004 4997 0
-146 4997 -5006 4995 0
-147 4995 -5004 0
-148 4995 -5004 0
-149 4995 -5004 0
-150 4995 -5004 0
-151 4995 -5004 0
-152 4995 -5004 0
-153 -5005 4996 0
-153 -5005 4997 0
-153 -4996 5006 0
-153 4997 -5006 4996 0
-154 -5005 4996 0
-155 -5005 4996 0
-156 -5005 4996 0
-157 -5005 4996 0
-5005 4996 -158 0
-159 -5005 4996 0
-160 -5006 4997 0
-161 -5006 4997 0
-162 -5006 4997 0
-163 -5006 4997 0
-164 -5006 4997 0
-165 -5006 4997 0
5004 -5013 406 0
-5014 407 5005 0
408 -5015 5006 0
5004 -181 -5013 0
5005 -181 -5013 0
-181 -5004 5014 0
-181 5005 5004 -5014 0
-182 5004 -5013 0
-182 -5013 5006 0
-182 -5004 5015 0
5004 -182 5006 -5015 0
-183 5004 -5013 0
-184 5004 -5013 0
-185 5004 -5013 0
-186 5004 -5013 0
-187 5004 -5013 0
-188 5004 -5013 0
-189 -5014 5005 0
-189 5006 -5014 0
-189 -5005 -5006 5014 0
-189 -5015 5005 5006 0
-5014 5005 -190 0
-191 -5014 5005 0
-192 5005 -5014 0
-193 5005 -5014 0
-194 -5014 5005 0
-195 -5014 5005 0
-196 -5015 5006 0
-197 -5015 5006 0
-198 -5015 5006 0
-199 -5015 5006 0
-200 -5015 5006 0
-201 -5015 5006 0
415 5013 -5022 0
-5023 5014 416 0
-5024 417 5015 0
5013 -217 -5022 0
-217 -5022 5014 0
-5023 -217 5013 5014 0
-218 5013 -5022 0
-218 -5022 5015 0
-218 -5013 5024 0
-218 -5024 5013 5015 0
-219 5013 -5022 0
-220 5013 -5022 0
-221 5013 -5022 0
-222 5013 -5022 0
-223 5013 -5022 0
-224 5013 -5022 0
-225 -5023 5014 0
-5023 -225 5015 0
-5014 -225 5024 0
-225 -5015 5024 0
-225 -5024 5014 5015 0
-226 -5023 5014 0
-227 -5023 5014 0
-228 -5023 5014 0
-229 -5023 5014 0
-230 -5023 5014 0
-231 -5023 5014 0
-232 -5024 5015 0
-233 -5024 5015 0
-234 -5024 5015 0
-235 -5024 5015 0
-5024 5015 -236 0
-237 -5024 5015 0
-5031 424 5022 0
-5032 5023 425 0
5024 -5033 426 0
-5031 -253 5023 0
-5032 5022 -253 5023 0
-5031 5022 -254 0
-5031 -254 5024 0
-254 -5022 5033 0
5022 -254 5024 -5033 0
-255 -5031 5022 0
-256 -5031 5022 0
-257 -5031 5022 0
-258 -5031 5022 0
-259 -5031 5022 0
-260 -5031 5022 0
-5032 -261 5023 0
-5032 -261 5024 0
-261 -5023 5033 0
-261 -5033 5023 5024 0
-262 -5032 5023 0
-263 -5032 5023 0
-264 -5032 5023 0
-265 -5032 5023 0
-266 -5032 5023 0
-267 -5032 5023 0
-268 -5033 5024 0
-269 -5033 5024 0
-270 -5033 5024 0
-271 -5033 5024 0
-272 -5033 5024 0
-273 -5033 5024 0
433 5031 -5040 0
5032 -5041 434 0
435 5033 -5042 0
-289 5032 -5040 0
-5032 -289 5041 0
-289 5031 -5041 5032 0
-290 5031 -5040 0
-290 5031 -5042 5033 0
-291 5031 -5040 0
-292 5031 -5040 0
-293 5031 -5040 0
-294 5031 -5040 0
-295 5031 -5040 0
-296 5031 -5040 0
-5041 -297 5032 0
-5041 -297 5033 0
-297 5032 5033 -5042 0
-298 5032 -5041 0
-299 5032 -5041 0
-300 5032 -5041 0
-302 5032 -5041 0
-303 5032 -5041 0
-304 5033 -5042 0
-305 5033 -5042 0
-306 5033 -5042 0
-307 5033 -5042 0
-308 5033 -5042 0
-309 5033 -5042 0
5042 444 -5051 0
-325 -5040 5050 0
-5041 -325 5050 0
-326 5040 5042 -5051 0
-333 5041 5042 -5051 0
5042 -340 -5051 0
5042 -341 -5051 0
5042 -342 -5051 0
5042 -343 -5051 0
5042 -344 -5051 0
5042 -345 -5051 0
5058 0
-5148 0
5059 0
5149 0
-5060 0
5061 0
5062 0
5063 0
5064 0
5065 0
5066 0
5067 361 -5058 0
362 5068 -5059 0
-5069 363 5060 0
5067 -1 -5058 -5059 0
-3 5067 -5058 -5061 0
-4 5067 -5058 -5062 0
-5 5067 -5058 -5063 0
-6 5067 -5058 -5064 0
-7 5067 -5058 -5065 0
-8 5067 -5058 -5066 0
370 5076 -5067 0
5077 371 -5068 0
-5078 372 5069 0
5076 -37 -5068 -5067 0
-52 -5078 5069 0
-5078 -53 5069 0
-54 -5078 5069 0
-55 -5078 5069 0
-56 -5078 5069 0
-57 -5078 5069 0
-5076 5085 379 0
5086 -5077 380 0
-5087 5078 381 0
-5085 5094 388 0
5095 -5086 389 0
-5096 5087 390 0
-5095 -117 5087 0
-124 -5096 5087 0
-125 -5096 5087 0
-126 -5096 5087 0
-127 -5096 5087 0
-128 -5096 5087 0
-129 -5096 5087 0
-5094 5103 397 0
5095 -5104 398 0
5104 -5095 398 0
-5105 5096 399 0
-5104 -153 5096 0
-160 5096 -5105 0
-161 5096 -5105 0
5096 -5105 -162 0
-163 5096 -5105 0
-164 5096 -5105 0
-165 5096 -5105 0
-5103 5112 406 0
5104 -5113 407 0
5113 -5104 407 0
-5114 5105 408 0
5105 -5113 -189 0
-5112 415 5121 0
5113 -5122 416 0
-5123 5114 417 0
5122 -5113 -217 0
-5122 -225 5114 0
-232 -5123 5114 0
-233 -5123 5114 0
-5123 5114 -234 0
-235 -5123 5114 0
-5123 5114 -236 0
-237 -5123 5114 0
-5121 5130 424 0
5122 -5131 425 0
5123 -5132 426 0
-5131 -261 5123 0
-268 -5132 5123 0
-269 -5132 5123 0
-270 -5132 5123 0
-271 -5132 5123 0
-272 -5132 5123 0
-273 -5132 5123 0
-5130 433 5139 0
5131 434 -5140 0
5132 -5141 435 0
-297 5132 -5140 0
442 -5139 5148 0
443 5140 -5149 0
-333 5141 -5149 0
-5257 0
5347 0
5258 0
-5266 362 5257 0
5267 363 -5258 0
-5265 -1 5257 0
-5266 -9 5257 0
-5266 -10 5257 0
-5266 -11 5257 0
-5266 -12 5257 0
-5266 -13 5257 0
-5266 -14 5257 0
-15 -5266 5257 0
370 -5274 5265 0
371 -5275 5266 0
5276 372 -5267 0
-45 -5275 5266 0
-46 -5275 5266 0
-47 -5275 5266 0
-48 -5275 5266 0
-49 -5275 5266 0
-50 -5275 5266 0
-51 -5275 5266 0
380 -5284 5275 0
5285 -5276 381 0
-5283 -74 5274 0
-81 -5284 5275 0
-82 -5284 5275 0
-83 -5284 5275 0
-84 -5284 5275 0
-85 -5284 5275 0
-86 -5284 5275 0
-87 -5284 5275 0
-5292 388 5283 0
389 5284 -5293 0
5294 -5285 390 0
-110 -5292 5283 0
-117 5284 -5293 0
-118 5284 -5293 0
-119 5284 -5293 0
-120 5284 -5293 0
-121 5284 -5293 0
-122 5284 -5293 0
-123 5284 -5293 0
5292 -5301 397 0
398 5293 -5302 0
5292 -146 -5301 0
-153 5293 -5302 0
-154 5293 -5302 0
-155 5293 -5302 0
-156 5293 -5302 0
-157 5293 -5302 0
-158 5293 -5302 0
-159 5293 -5302 0
5301 -5310 406 0
407 5302 -5311 0
5301 -181 5302 -5311 0
-189 5302 -5311 0
-190 5302 -5311 0
-191 5302 -5311 0
-192 5302 -5311 0
-193 5302 -5311 0
-194 5302 -5311 0
-195 5302 -5311 0
5310 415 -5319 0
416 5311 -5320 0
5310 -217 -5320 5311 0
-225 -5320 5311 0
-226 -5320 5311 0
-227 -5320 5311 0
-228 -5320 5311 0
-229 -5320 5311 0
-230 -5320 5311 0
-231 -5320 5311 0
5319 424 -5328 0
-5329 425 5320 0
5319 -253 -5329 5320 0
5319 -5328 -254 0
5321 -5328 -254 0
-261 -5329 5320 0
-262 -5329 5320 0
-263 -5329 5320 0
-264 5320 -5329 0
-265 5320 -5329 0
-266 5320 -5329 0
-267 -5329 5320 0
5328 433 -5337 0
434 5329 -5338 0
5328 -289 5329 -5338 0
-290 5328 -5337 0
5330 -290 -5337 0
-297 -5338 5329 0
-298 -5338 5329 0
-299 -5338 5329 0
-300 -5338 5329 0
-301 -5338 5329 0
-302 -5338 5329 0
-303 -5338 5329 0
5338 443 -5347 0
-325 5337 5338 -5347 0
5338 -333 -5347 0
5338 -334 -5347 0
5338 -335 -5347 0
5338 -336 -5347 0
5338 -337 -5347 0
5338 -338 -5347 0
5338 -339 -5347 0
-5355 0
5356 0
5357 0
5358 0
5359 0
5360 0
5361 0
5362 0
5363 0
-39 7534 4770 0
-40 7534 4770 0
-41 7534 4770 0
-42 7534 4770 0
-43 7534 4770 0
-7534 -45 -4771 -4772 0
7628 -1 4960 0
7628 -2 4961 0
7628 -9 4961 0
7628 -10 4960 0
7628 -11 4960 0
7628 -12 4960 0
7628 -13 4960 0
7628 -14 4960 0
7628 -15 4960 0
7628 -16 4961 0
7628 -17 4961 0
7628 -18 4961 0
7628 -19 4961 0
7628 -20 4961 0
7628 -21 4961 0
7629 -37 4968 0
7629 -37 4969 0
7629 -38 4970 0
-39 7629 4968 0
-40 7629 4968 0
-41 7629 4968 0
-42 7629 4968 0
-43 7629 4968 0
-44 7629 4968 0
7629 -45 4969 0
7629 -45 4970 0
7629 -46 4969 0
-47 7629 4969 0
-48 7629 4969 0
7629 -49 4969 0
-50 7629 4969 0
-51 7629 4969 0
-52 7629 4970 0
7629 -53 4970 0
-54 7629 4970 0
-55 7629 4970 0
-56 7629 4970 0
-57 7629 4970 0
4977 -73 7630 0
7630 -73 4978 0
-74 4977 7630 0
-74 4979 7630 0
-75 4977 7630 0
-76 4977 7630 0
-77 4977 7630 0
-78 4977 7630 0
-79 4977 7630 0
-80 4977 7630 0
-81 7630 4978 0
7630 -81 4979 0
7630 4978 -82 0
-83 7630 4978 0
-84 7630 4978 0
-85 7630 4978 0
-86 7630 4978 0
-87 7630 4978 0
-88 7630 4979 0
-89 7630 4979 0
7630 -90 4979 0
-91 7630 4979 0
-92 7630 4979 0
-93 7630 4979 0
7631 -109 4986 0
-109 7631 4987 0
-110 4986 7631 0
-110 4988 7631 0
-111 4986 7631 0
-112 4986 7631 0
-113 4986 7631 0
-114 4986 7631 0
-115 4986 7631 0
-116 4986 7631 0
-117 7631 4987 0
-117 4988 7631 0
-118 7631 4987 0
-119 7631 4987 0
-120 7631 4987 0
-121 7631 4987 0
-122 7631 4987 0
7631 4987 -123 0
-124 4988 7631 0
-125 4988 7631 0
-126 4988 7631 0
-127 4988 7631 0
-128 4988 7631 0
-129 4988 7631 0
-145 4995 7632 0
-145 7632 4996 0
-146 4995 7632 0
-146 4997 7632 0
-147 4995 7632 0
-148 4995 7632 0
-149 4995 7632 0
-150 4995 7632 0
-151 4995 7632 0
-152 4995 7632 0
-153 4996 7632 0
-153 4997 7632 0
-154 4996 7632 0
-155 4996 7632 0
-156 4996 7632 0
-157 4996 7632 0
4996 7632 -158 0
-159 4996 7632 0
-160 7632 4997 0
-161 7632 4997 0
7632 -162 4997 0
-163 7632 4997 0
-164 7632 4997 0
-165 7632 4997 0
5004 -181 7633 0
5005 -181 7633 0
-182 5004 7633 0
-182 5006 7633 0
-183 5004 7633 0
-184 5004 7633 0
-185 5004 7633 0
-186 5004 7633 0
-187 5004 7633 0
-188 5004 7633 0
-189 5005 7633 0
-189 5006 7633 0
5005 7633 -190 0
-191 5005 7633 0
-192 5005 7633 0
-193 5005 7633 0
-194 5005 7633 0
-195 5005 7633 0
-196 7633 5006 0
7633 -197 5006 0
-198 7633 5006 0
-199 7633 5006 0
-200 7633 5006 0
-201 7633 5006 0
5013 -217 7634 0
-217 5014 7634 0
-218 7634 5013 0
-218 7634 5015 0
-219 5013 7634 0
-220 5013 7634 0
-221 5013 7634 0
-222 5013 7634 0
-223 5013 7634 0
-224 5013 7634 0
-225 7634 5014 0
7634 -225 5015 0
-226 5014 7634 0
-227 5014 7634 0
-228 5014 7634 0
-229 5014 7634 0
-230 5014 7634 0
-231 5014 7634 0
-232 7634 5015 0
-233 7634 5015 0
-234 7634 5015 0
-235 7634 5015 0
7634 5015 -236 0
-237 7634 5015 0
5022 -253 7635 0
-253 5023 7635 0
5022 -254 7635 0
-254 5024 7635 0
-255 5022 7635 0
-256 5022 7635 0
-257 5022 7635 0
-258 5022 7635 0
-259 5022 7635 0
-260 5022 7635 0
-261 7635 5023 0
-261 7635 5024 0
-262 5023 7635 0
-263 5023 7635 0
-264 5023 7635 0
-265 5023 7635 0
-266 5023 7635 0
-267 5023 7635 0
-268 7635 5024 0
-269 7635 5024 0
-270 7635 5024 0
-271 7635 5024 0
-272 7635 5024 0
-273 7635 5024 0
5031 -289 7636 0
-289 5032 7636 0
-290 5031 7636 0
-290 5033 7636 0
-291 5031 7636 0
-292 5031 7636 0
-293 5031 7636 0
-294 5031 7636 0
-295 5031 7636 0
-296 5031 7636 0
-297 5032 7636 0
-297 7636 5033 0
-298 5032 7636 0
-299 5032 7636 0
-300 5032 7636 0
-301 5032 7636 0
-302 5032 7636 0
-303 5032 7636 0
-304 7636 5033 0
-305 7636 5033 0
-306 5033 7636 0
-307 7636 5033 0
-308 7636 5033 0
-309 7636 5033 0
-325 7637 5040 0
-326 5040 7637 0
-326 5042 7637 0
-327 5040 7637 0
-328 5040 7637 0
-329 5040 7637 0
-330 5040 7637 0
-331 5040 7637 0
-332 5040 7637 0
-333 5041 7637 0
7637 5042 -333 0
5041 7637 -334 0
5041 7637 -335 0
5041 7637 -336 0
5041 7637 -337 0
5041 7637 -338 0
5041 7637 -339 0
7638 -7628 0
7639 -7638 0
-7629 7640 -7638 0
-7640 7641 0
-7640 -7630 0
7639 -7629 0
7642 -7639 0
-7630 7641 -7639 0
-7641 7643 0
-7641 -7631 0
7642 -7630 0
7644 -7642 0
-7631 7643 -7642 0
-7643 7645 0
-7643 -7632 0
7644 -7631 0
7646 -7644 0
-7632 7645 -7644 0
-7645 7647 0
-7645 -7633 0
7646 -7632 0
7648 -7646 0
7647 -7633 -7646 0
-7647 7649 0
-7647 -7634 0
7648 -7633 0
7650 -7648 0
-7634 7649 -7648 0
-7649 7651 0
-7635 -7649 0
7650 -7634 0
7652 -7650 0
-7635 7651 -7650 0
-7651 7653 0
-7651 -7636 0
7652 -7635 0
-7636 7653 -7652 0
-7653 -7637 0
-7654 -1 -5058 -5059 0
-16 7654 5060 0
-17 7654 5060 0
-18 7654 5060 0
-19 7654 5060 0
-20 7654 5060 0
-21 7654 5060 0
-5274 -74 -7718 -5276 0
-75 7718 5274 0
-7718 -81 -5276 -5275 0
-86 7718 5275 0
-87 7718 5275 0
-5283 -110 -7719 -5285 0
-118 7719 5284 0
-119 7719 5284 0
-120 7719 5284 0
-121 7719 5284 0
-122 7719 5284 0
7719 -123 5284 0
-146 -5294 -7720 -5292 0
7720 -154 5293 0
-155 7720 5293 0
-156 7720 5293 0
-157 7720 5293 0
7720 -158 5293 0
-159 7720 5293 0
-189 7721 5302 0
-225 7722 5311 0
-253 5320 7723 0
-5321 -254 -7723 -5319 0
-261 5320 7723 0
-262 5320 7723 0
-263 5320 7723 0
-264 5320 7723 0
-265 5320 7723 0
-266 5320 7723 0
-267 5320 7723 0
-289 5329 7724 0
-5328 -290 -7724 -5330 0
-298 7724 5329 0
-299 7724 5329 0
-300 7724 5329 0
-301 7724 5329 0
-302 7724 5329 0
-303 7724 5329 0
-325 5338 7725 0
-7729 7731 0
-7731 7733 0
-7733 7735 0
7734 -7720 0
-7721 7735 -7734 0
7737 -7735 0
-7722 -7735 0
7739 -7737 0
-7723 -7737 0
7738 -7722 0
7740 -7738 0
7739 -7723 -7738 0
7741 -7739 0
-7724 -7739 0
-7724 7741 -7740 0
-7725 -7741 0
-2 7742 5355 0
-7742 -9 -5356 -5357 0
-7742 -10 -5356 -5358 0
-7742 -11 -5356 -5359 0
-7742 -12 -5356 -5360 0
-7742 -13 -5356 -5361 0
-7742 -14 -5356 -5362 0
-7742 -15 -5356 -5363 0
