43
0 1
0 2
0 3
0 5
0 7
0 9
0 11
0 14
0 17
0 20
0 22
0 23
0 26
0 27
0 28
0 29
0 31
0 36
0 38
0 40
0 42
1 2
1 3
1 4
1 8
1 9
1 10
1 12
1 15
1 18
1 21
1 23
1 24
1 27
1 28
1 29
1 32
1 36
1 37
1 41
1 42
2 4
2 5
2 6
2 10
2 11
2 13
2 16
2 19
2 21
2 22
2 25
2 27
2 28
2 29
2 30
2 37
2 38
2 39
2 42
3 4
3 5
3 6
3 8
3 9
3 11
3 15
3 17
3 19
3 20
3 22
3 24
3 25
3 28
3 30
3 32
3 34
3 38
3 40
3 41
4 5
4 6
4 7
4 9
4 10
4 15
4 16
4 18
4 20
4 23
4 25
4 26
4 29
4 30
4 31
4 35
4 36
4 39
4 41
5 7
5 8
5 10
5 11
5 16
5 17
5 18
5 19
5 21
5 24
5 26
5 27
5 31
5 32
5 33
5 37
5 39
5 40
6 7
6 8
6 11
6 13
6 14
6 18
6 21
6 23
6 25
6 26
6 28
6 31
6 33
6 34
6 35
6 38
6 40
6 41
7 8
7 9
7 12
7 14
7 19
7 21
7 22
7 24
7 26
7 29
7 32
7 33
7 34
7 35
7 36
7 39
7 41
8 10
8 12
8 13
8 20
8 22
8 23
8 24
8 25
8 27
8 30
8 33
8 34
8 35
8 37
8 39
8 40
9 10
9 11
9 12
9 15
9 18
9 19
9 24
9 25
9 26
9 27
9 28
9 31
9 34
9 35
9 42
10 11
10 13
10 16
10 19
10 20
10 24
10 25
10 26
10 28
10 29
10 32
10 33
10 35
10 42
11 14
11 17
11 18
11 20
11 24
11 25
11 26
11 27
11 29
11 30
11 33
11 34
11 42
12 13
12 14
12 15
12 17
12 18
12 19
12 21
12 22
12 23
12 25
12 26
12 28
12 29
12 30
12 33
12 37
12 39
13 14
13 15
13 16
13 19
13 20
13 21
13 22
13 23
13 24
13 26
13 27
13 29
13 31
13 34
13 38
13 40
14 16
14 17
14 18
14 20
14 21
14 22
14 23
14 24
14 25
14 27
14 28
14 32
14 35
14 36
14 41
15 16
15 17
15 19
15 20
15 21
15 23
15 27
15 29
15 31
15 32
15 34
15 38
15 39
15 42
16 17
16 18
16 20
16 21
16 22
16 27
16 28
16 30
16 32
16 35
16 36
16 40
16 42
17 18
17 19
17 22
17 23
17 28
17 29
17 30
17 31
17 33
17 37
17 41
17 42
18 19
18 20
18 21
18 24
18 26
18 30
18 35
18 37
18 39
18 40
18 41
18 42
19 20
19 22
19 24
19 25
19 31
19 33
19 38
19 39
19 40
19 41
19 42
20 23
20 25
20 26
20 32
20 34
20 36
20 39
20 40
20 41
20 42
21 24
21 28
21 30
21 32
21 33
21 34
21 36
21 38
21 39
21 42
22 25
22 29
22 30
22 31
22 34
22 35
22 36
22 37
22 40
22 42
23 26
23 27
23 31
23 32
23 33
23 35
23 37
23 38
23 41
23 42
24 27
24 31
24 32
24 34
24 35
24 37
24 38
24 41
25 28
25 30
25 32
25 33
25 35
25 36
25 38
25 39
26 29
26 30
26 31
26 33
26 34
26 36
26 37
26 40
27 30
27 31
27 35
27 36
27 38
27 39
27 40
27 41
28 31
28 32
28 33
28 36
28 37
28 39
28 40
28 41
29 30
29 32
29 34
29 37
29 38
29 39
29 40
29 41
30 33
30 34
30 36
30 38
30 40
30 41
31 34
31 35
31 36
31 37
31 39
31 41
32 33
32 35
32 37
32 38
32 39
32 40
33 36
33 38
33 40
33 41
33 42
34 36
34 37
34 39
34 41
34 42
35 37
35 38
35 39
35 40
35 42
36 39
36 40
36 41
36 42
37 39
37 40
37 41
37 42
38 39
38 40
38 41
38 42
