p cnf 123 1184
3 -8 -36 -1 0
-39 -4 -1 6 0
-16 -4 -1 24 0
-16 -31 -1 -4 0
22 -4 -1 -31 0
5 9 1 10 0
5 9 1 -35 0
5 -29 1 10 0
37 -7 1 -15 0
-28 -30 1 -7 0
-36 -25 -1 -8 0
-8 -36 26 -1 0
9 -12 40 1 0
32 9 1 -15 0
32 9 1 40 0
-13 -29 1 10 0
38 11 -1 24 0
38 11 -1 26 0
-28 -12 1 40 0
-13 -14 -15 1 0
37 -13 1 -15 0
-29 -13 40 1 0
32 -13 40 1 0
-30 33 -14 1 0
32 1 -15 -35 0
37 32 1 -15 0
17 -16 -1 24 0
24 -23 -1 -16 0
-18 19 -1 26 0
-18 -31 -1 22 0
-18 34 -1 22 0
-18 -25 -1 26 0
-18 -31 -1 26 0
-18 38 -1 26 0
19 34 -1 22 0
38 19 -1 26 0
-20 22 -1 -31 0
21 -27 1 -35 0
-25 -31 -1 26 0
-36 -25 -1 26 0
-25 -39 -1 -36 0
32 1 40 -29 0
37 -30 33 1 0
-5 38 3 -2 0
-21 3 -2 -36 0
3 38 -40 -2 0
2 4 20 -17 0
2 4 -26 -17 0
-19 2 4 25 0
2 25 20 4 0
-28 2 4 25 0
-30 4 -26 2 0
-5 -16 6 -2 0
-5 -2 6 -31 0
-2 7 -16 -5 0
-5 -8 -32 -2 0
-2 -5 -31 -16 0
-16 -5 -40 -2 0
-5 38 -40 -2 0
12 -16 6 -2 0
-2 -16 6 -31 0
-2 -16 34 6 0
35 -2 6 -31 0
-2 35 6 -37 0
-2 7 34 -9 0
-16 7 -40 -2 0
35 7 -40 -2 0
-2 -16 34 -9 0
27 -2 -9 -37 0
20 -13 10 2 0
-29 -13 10 2 0
-24 2 10 18 0
2 -29 10 18 0
-24 2 -29 10 0
-2 11 -21 -32 0
-2 11 -32 22 0
2 -13 20 -17 0
2 -24 -14 -15 0
-30 2 33 -14 0
-19 -24 -15 2 0
39 -24 -15 2 0
23 2 -17 -26 0
-24 2 18 -29 0
2 25 -19 -28 0
-2 35 22 -40 0
35 -37 -40 -2 0
35 -2 -40 38 0
-2 38 -40 -37 0
3 6 -4 -39 0
3 14 -39 -4 0
-5 -8 6 3 0
-5 3 6 30 0
-5 3 -39 6 0
-5 14 -39 3 0
-5 3 -39 30 0
3 -5 -40 30 0
31 -7 -3 10 0
-11 -12 -7 -3 0
-11 18 -3 -7 0
37 -11 -3 -7 0
-28 -12 -7 -3 0
-28 31 -3 -7 0
-8 3 -23 -36 0
9 18 -12 -3 0
-28 9 -3 -26 0
9 32 -3 -26 0
-24 18 -3 10 0
-24 31 -3 10 0
31 33 -3 10 0
-11 25 -12 -3 0
25 20 -13 -3 0
15 3 22 -40 0
27 3 -36 15 0
-28 16 -3 -19 0
25 20 16 -3 0
-28 16 -3 25 0
-23 3 -40 22 0
-24 -34 -3 -26 0
33 32 -3 -26 0
37 32 -26 -3 0
-11 4 -34 5 0
5 25 -19 4 0
-10 -4 -39 6 0
35 6 -4 -39 0
-7 4 -15 -11 0
-7 4 -15 -17 0
-30 4 -7 -38 0
9 -38 4 -15 0
9 -26 40 4 0
-10 14 -39 -4 0
37 -34 -11 4 0
27 12 -4 24 0
12 24 -4 -32 0
27 12 -32 -4 0
-18 27 -4 14 0
27 14 -4 -32 0
29 14 -39 -4 0
14 -32 -39 -4 0
36 -19 4 -17 0
36 4 20 -17 0
-18 22 -4 -31 0
-34 4 -26 20 0
20 -26 40 4 0
20 -34 40 4 0
36 4 40 20 0
35 -31 -4 22 0
-28 25 -38 4 0
-28 4 40 -26 0
37 -34 4 -26 0
4 -26 40 -34 0
35 -33 -4 29 0
-30 4 -34 -38 0
-5 30 6 13 0
-5 30 6 -31 0
-5 30 -39 6 0
-5 7 -32 -8 0
-5 7 26 13 0
-5 7 26 14 0
-5 7 -39 14 0
5 -24 10 9 0
5 -22 -12 9 0
5 -24 -22 10 0
-24 5 -29 10 0
-24 5 10 -34 0
-11 25 -12 5 0
-18 -5 26 13 0
-18 -5 28 13 0
-18 -5 -31 13 0
-18 -33 13 -5 0
-5 26 13 -31 0
-5 -16 26 14 0
-18 -5 26 14 0
-5 14 -39 -32 0
-5 14 -39 38 0
-5 -16 26 15 0
5 -22 -27 -17 0
5 -19 -27 -29 0
5 36 -19 -29 0
-20 -5 28 -32 0
-20 -5 -32 30 0
-20 -5 -39 30 0
-20 -5 -32 -39 0
-20 -5 -39 38 0
5 -27 -35 21 0
5 -24 -29 -34 0
-5 30 -39 -32 0
-6 -7 -38 -15 0
-6 9 -15 18 0
-6 -24 9 18 0
-6 25 -22 9 0
9 25 -38 -6 0
-6 -26 32 9 0
-6 9 40 32 0
12 -10 6 19 0
30 -10 6 19 0
-37 -10 6 19 0
-10 30 -39 6 0
35 -10 6 -39 0
12 34 19 6 0
-6 20 -14 25 0
-6 20 -14 36 0
-6 20 -14 40 0
-6 21 -14 25 0
-6 25 -14 -22 0
-6 32 -38 -15 0
-6 -24 18 -29 0
-6 20 -27 -26 0
-6 -26 40 20 0
-6 21 23 25 0
-6 21 -38 25 0
-6 -24 -26 -22 0
-6 25 33 -22 0
-6 -22 -27 -26 0
-6 -26 33 -22 0
23 32 -26 -6 0
-6 32 -38 23 0
-6 -26 40 -27 0
-6 -26 32 33 0
-6 -26 32 40 0
-6 32 40 -29 0
-37 35 6 -31 0
7 -8 26 -25 0
-27 -17 -7 10 0
-17 -38 -7 10 0
31 -38 -7 10 0
-11 -12 -7 18 0
-16 7 -40 24 0
-23 7 -40 22 0
7 34 -32 22 0
7 -25 -32 24 0
7 29 26 -25 0
7 29 -39 -25 0
7 34 -32 -25 0
7 -25 -39 -32 0
-30 -28 -7 -38 0
-28 31 -7 -38 0
8 9 10 -38 0
8 9 -15 18 0
8 31 33 10 0
-34 31 8 10 0
31 8 10 -38 0
-19 -27 -11 8 0
8 -19 -15 -35 0
17 -8 -37 29 0
-8 26 -21 -36 0
-20 -9 -31 11 0
9 18 -12 -35 0
-9 30 -21 13 0
-9 -36 13 -21 0
27 -9 -36 13 0
-37 14 -9 17 0
27 -9 -37 14 0
-37 14 -9 29 0
9 32 -38 -15 0
17 -33 -16 -9 0
17 -9 -37 29 0
-20 -9 30 19 0
-20 -37 -9 19 0
29 -20 -31 -9 0
-20 -9 -31 30 0
-37 -20 -31 -9 0
-33 -36 -21 -9 0
-9 27 -37 -23 0
-28 9 40 -26 0
-26 32 -35 9 0
9 -26 40 32 0
-10 14 11 26 0
-10 -21 11 26 0
-21 -10 11 30 0
-10 12 26 15 0
-21 -10 12 -32 0
20 -13 -34 10 0
-22 -13 10 -38 0
-29 -13 10 -34 0
-13 -38 10 -29 0
-34 -13 10 -38 0
15 -10 26 -16 0
-10 -23 -36 15 0
-10 15 -25 -36 0
-10 15 -40 -25 0
15 -10 26 -36 0
15 -10 -36 28 0
-10 15 -40 30 0
-22 -27 10 -17 0
-24 -29 18 10 0
-21 -10 -40 19 0
-10 19 -40 -23 0
19 -10 -39 30 0
-21 -10 -36 26 0
-21 -10 -32 30 0
-21 -10 -40 30 0
-10 -25 -39 30 0
-32 -10 -39 -25 0
35 -10 -40 -25 0
-10 -25 -39 -36 0
-37 -10 -40 -25 0
-11 25 -12 23 0
-11 39 40 -12 0
-11 -13 40 -29 0
14 -16 11 26 0
14 38 11 26 0
17 11 24 -16 0
-16 26 -31 11 0
-11 23 -29 18 0
-11 25 -19 33 0
-19 -27 -11 -29 0
-20 11 -32 24 0
-20 28 11 -32 0
22 11 -32 -21 0
28 35 11 22 0
-11 23 25 33 0
31 -12 40 -14 0
36 -12 -14 40 0
15 -16 26 12 0
15 -16 34 12 0
15 -20 -33 12 0
15 12 26 29 0
-33 12 -16 24 0
12 26 19 38 0
38 12 19 -37 0
31 -28 40 -12 0
31 36 40 -12 0
31 39 40 -12 0
20 -13 40 -14 0
-17 -13 -15 32 0
37 -13 -15 32 0
32 -13 -15 -38 0
25 -13 16 -38 0
-18 26 13 -21 0
26 19 13 -21 0
20 -13 -34 40 0
27 -23 -36 13 0
35 13 -36 28 0
32 -13 40 -29 0
-13 -34 40 -29 0
-19 -14 -15 -35 0
21 -14 -15 -35 0
-18 17 14 -37 0
-18 27 -37 14 0
25 -19 -14 33 0
21 20 -35 -14 0
20 -14 40 -34 0
36 20 40 -14 0
-19 32 -15 -17 0
-19 -17 -15 -35 0
-19 32 -35 -15 0
15 -23 22 -20 0
15 -23 28 -20 0
15 -23 22 -40 0
15 -25 26 29 0
15 -25 -31 26 0
15 -25 26 -36 0
15 29 -31 26 0
17 -33 24 -16 0
-16 17 24 -40 0
25 -19 16 -28 0
-19 -27 16 -28 0
-27 -19 16 -29 0
-28 -29 16 -19 0
36 -19 16 -29 0
21 -38 16 25 0
21 -27 -35 16 0
21 -28 16 -38 0
-22 -30 -38 16 0
-28 25 -38 16 0
-28 -30 -29 16 0
-28 -29 16 -38 0
-30 16 -38 -28 0
-18 17 34 -25 0
-18 17 -25 -40 0
17 -33 -21 29 0
-27 -17 -26 -22 0
39 -27 -17 -22 0
17 24 -40 -25 0
17 -33 -40 24 0
17 29 -25 -37 0
39 -27 -26 -17 0
32 -17 -35 -26 0
31 36 -17 32 0
-18 -37 -40 19 0
-18 22 -32 -21 0
-18 -21 -40 22 0
-18 -33 -21 -40 0
-18 28 34 22 0
-24 36 -29 18 0
-18 26 -25 -31 0
-18 34 -32 -25 0
-18 -37 -40 -25 0
-18 34 -32 27 0
-20 -37 -23 19 0
22 19 -40 -23 0
38 -37 -40 19 0
-20 -23 22 28 0
-20 -23 28 -37 0
-27 -26 40 20 0
20 -34 40 -26 0
21 31 -28 -24 0
37 -24 -22 -26 0
-27 33 -26 -22 0
39 -22 -27 -26 0
-30 -22 33 -26 0
37 -22 33 -26 0
28 34 -32 22 0
-30 23 -26 33 0
-30 23 -34 -26 0
23 33 -26 32 0
-26 32 -35 23 0
23 -34 -35 -26 0
31 23 32 -38 0
27 24 -32 -25 0
37 -34 -26 -24 0
27 24 -32 30 0
29 26 -25 -31 0
-25 34 -32 27 0
27 -36 34 -25 0
34 -25 -39 -32 0
35 -36 -39 -25 0
35 -37 -40 -25 0
-28 -27 40 -26 0
39 -26 40 -27 0
37 33 -26 32 0
31 36 40 32 0
35 -33 38 -40 0
25 -5 1 -2 -17 0
8 -22 -1 -2 16 0
-2 -17 1 12 18 0
-22 16 -1 -2 36 0
35 -2 -40 1 -26 0
-38 -9 -3 1 13 0
3 -12 -1 10 22 0
3 -30 1 -31 19 0
25 -11 -32 -1 4 0
14 12 -1 4 -26 0
14 -17 -1 4 -26 0
14 -38 4 -1 -17 0
38 33 -4 1 -14 0
20 -32 -1 4 25 0
5 38 -8 -12 1 0
5 38 -16 1 -8 0
37 5 -8 1 -18 0
5 38 -8 -31 1 0
37 38 1 5 -8 0
5 11 -1 33 22 0
-11 -5 -40 1 -33 0
-11 -5 -40 1 36 0
-5 -19 -22 14 1 0
5 22 -1 34 -14 0
25 14 1 36 -5 0
-33 -19 1 -5 15 0
5 -28 19 -1 32 0
37 5 38 -31 1 0
-6 14 -9 1 27 0
-13 26 6 1 10 0
-6 27 1 14 -19 0
-29 -14 -1 34 6 0
17 -16 6 -1 32 0
21 34 6 -29 -1 0
-6 -21 1 -32 31 0
-6 -24 35 -22 -1 0
-6 35 -1 -22 25 0
-24 -6 -1 35 36 0
25 -10 -1 7 16 0
-12 26 -7 1 24 0
25 7 16 -1 -22 0
-7 21 -28 1 22 0
-10 16 -1 -9 36 0
15 16 -1 20 -9 0
15 -32 -1 -9 20 0
20 -34 -1 -9 15 0
15 20 -9 -1 36 0
35 15 -1 31 -9 0
9 17 1 19 40 0
17 9 -23 1 40 0
21 9 24 38 -1 0
-10 -17 1 12 18 0
17 -12 10 -1 32 0
-18 -12 10 -1 22 0
-12 10 -1 -31 22 0
37 22 -1 10 -12 0
-10 12 1 -32 31 0
-12 10 -1 -31 32 0
34 10 -1 22 -14 0
38 -30 10 -1 -15 0
25 -10 -1 -19 16 0
-10 16 -1 -33 36 0
-20 24 -1 10 38 0
21 38 -1 24 10 0
-30 34 10 22 -1 0
37 34 -1 22 10 0
-37 -10 1 35 -40 0
-33 1 -40 -11 15 0
-31 11 -1 26 33 0
-12 -13 -14 1 40 0
15 -17 1 12 18 0
25 -17 1 18 12 0
32 -23 -12 -36 -1 0
23 -17 -1 14 -26 0
14 -17 -38 -1 23 0
39 -17 -1 23 14 0
17 -23 1 -14 40 0
14 39 -17 -26 -1 0
14 30 -1 -17 39 0
-18 -23 1 -14 40 0
-33 14 -1 39 18 0
38 -23 1 -14 40 0
21 26 -15 1 22 0
35 15 -1 -22 -21 0
32 22 -15 1 -25 0
25 -22 -32 15 -1 0
35 15 -1 -22 25 0
-22 -32 -1 15 35 0
35 15 -1 36 -22 0
39 16 -1 -33 18 0
-22 16 -38 -1 25 0
25 16 -1 -40 -22 0
27 28 -1 23 18 0
-24 -33 -1 18 39 0
39 -32 -1 -33 18 0
21 38 -1 24 -20 0
-28 21 1 -36 -27 0
-22 -32 -1 -24 35 0
-24 35 -1 39 -22 0
-32 35 25 -1 -22 0
-22 -32 -1 25 -40 0
35 -22 -38 -1 25 0
-24 36 -1 31 35 0
38 32 -36 26 -1 0
-2 3 6 25 -26 0
3 7 11 -37 2 0
-30 2 -14 -9 3 0
-2 3 -19 -26 10 0
-10 -22 26 2 -3 0
3 -2 -26 25 10 0
38 3 -28 10 -2 0
2 26 -3 -22 13 0
-2 3 -19 27 -26 0
-2 3 20 -28 33 0
21 2 -3 -25 -22 0
21 -22 40 2 -3 0
2 26 -3 -25 -22 0
2 26 -3 40 -22 0
-30 3 -31 -32 2 0
-5 -2 4 10 23 0
37 2 -4 9 24 0
2 36 -4 -34 9 0
2 -18 36 14 -4 0
25 2 4 -32 35 0
5 8 2 -10 19 0
-9 -5 -13 39 2 0
-5 -2 -31 10 23 0
38 -2 10 23 -5 0
20 -5 11 -14 2 0
5 -22 -12 -2 15 0
-5 -13 -14 2 -15 0
-5 -13 -15 39 2 0
-18 -2 -27 15 5 0
-2 18 6 -14 -26 0
-2 -29 6 -14 -26 0
-2 34 6 -14 -26 0
35 -2 6 -14 -26 0
-29 -2 6 20 -15 0
35 20 -15 -2 6 0
-6 15 26 -25 2 0
-2 25 -15 6 -26 0
-2 -37 6 -26 -15 0
18 -16 6 25 -2 0
-6 -34 -20 2 16 0
-2 35 6 -37 -26 0
-7 -10 9 2 15 0
2 7 -26 -31 12 0
2 16 -7 -20 40 0
-20 -7 40 28 2 0
21 -2 26 -7 31 0
-22 2 40 -35 -7 0
-8 2 -16 -17 -26 0
-24 -16 -26 2 -8 0
8 16 -35 24 -2 0
-8 2 -16 -26 38 0
-20 -2 26 31 8 0
-24 2 -8 -26 38 0
2 -10 -25 15 9 0
15 -10 26 2 9 0
-10 15 28 2 9 0
21 9 -11 15 2 0
-2 -9 11 -15 25 0
21 9 -25 2 15 0
21 15 28 9 2 0
-2 22 -26 -14 10 0
-10 -25 26 2 -22 0
25 22 10 -2 -26 0
29 15 -11 32 2 0
12 -36 33 2 -26 0
16 2 13 19 30 0
-22 26 40 13 2 0
-20 -2 -25 14 37 0
-2 22 -26 -14 -40 0
-18 -22 -27 -2 15 0
18 -24 -15 2 -40 0
21 15 -23 2 32 0
15 32 26 29 2 0
-33 15 32 2 29 0
23 33 -26 2 -16 0
36 -27 -38 2 17 0
-28 -17 -31 -2 33 0
2 -29 -21 -19 -37 0
-2 19 40 -25 -34 0
20 25 -31 -32 2 0
-20 -38 26 31 -2 0
-28 -2 33 20 27 0
21 -2 26 30 31 0
-2 22 -32 34 -26 0
25 23 27 -40 2 0
26 -33 30 -2 -23 0
2 25 -36 -32 -31 0
31 -2 -25 32 36 0
25 -31 -32 -40 2 0
-36 -32 -40 25 2 0
-33 -2 40 -25 -34 0
-36 -32 -40 -31 2 0
-26 25 6 3 -4 0
3 -26 -39 -4 6 0
-8 -12 -13 -4 -3 0
-24 30 -4 -3 -8 0
-8 32 30 -3 -4 0
3 -11 -4 -26 27 0
3 -28 -11 27 -4 0
3 -19 -26 27 -4 0
3 -30 24 4 -31 0
3 -30 4 -31 -32 0
-5 -23 -7 20 -3 0
-28 -5 -7 -3 -23 0
29 -5 -3 -7 -23 0
3 -5 -40 38 9 0
37 3 -5 -12 -19 0
5 34 -3 -14 -25 0
21 -33 26 5 3 0
5 3 -27 -32 -22 0
5 3 -31 -32 -22 0
37 25 -5 3 -35 0
5 -33 -32 3 26 0
5 3 26 36 -33 0
-5 -36 33 -3 -26 0
-7 3 25 6 -26 0
31 15 6 10 -3 0
-28 -12 6 -3 15 0
38 -12 -3 -35 6 0
16 15 6 -3 -28 0
31 15 6 -3 -28 0
3 18 6 25 32 0
38 -19 -35 -3 6 0
38 29 6 -3 -35 0
-18 3 -14 -10 7 0
-20 -10 7 3 -18 0
-18 3 -22 -14 7 0
-18 3 7 40 -14 0
-18 -20 7 3 -22 0
3 -8 -11 16 29 0
20 -13 -3 -8 30 0
-8 22 20 -3 30 0
25 20 -8 -3 30 0
38 20 -8 30 -3 0
-22 8 -27 -32 3 0
3 -22 -27 8 39 0
23 8 -3 -33 34 0
-24 38 -3 -8 -26 0
3 -10 -30 -9 -14 0
21 -9 26 -14 3 0
3 -9 26 36 -14 0
-30 3 -14 -9 -32 0
29 -36 -3 -26 9 0
3 -35 10 -11 27 0
-12 16 -26 10 3 0
37 3 22 -12 10 0
30 20 -3 10 -23 0
11 -3 40 -15 -32 0
-20 11 40 -32 -3 0
11 -33 3 21 -38 0
-11 3 -23 -40 32 0
3 31 -11 -26 -40 0
-24 -12 -39 3 16 0
37 3 -12 -36 -19 0
3 -12 22 -40 -26 0
-23 -13 -3 20 30 0
3 -26 -40 22 -13 0
17 15 16 -3 -28 0
38 15 20 -3 -26 0
21 -33 26 -15 3 0
3 -22 34 -27 -17 0
25 -26 -23 3 18 0
19 3 -30 -31 -22 0
-30 -22 -32 19 3 0
19 3 -32 39 -22 0
19 3 40 -25 39 0
-20 3 34 -22 39 0
30 29 -23 20 -3 0
38 20 -23 30 -3 0
-20 3 34 35 39 0
-22 3 -27 39 -32 0
-30 3 -31 -32 -22 0
3 -23 -35 27 33 0
-34 -24 -3 27 31 0
27 29 -3 -40 25 0
36 -33 40 3 -25 0
-5 38 10 4 23 0
-5 11 -4 -14 31 0
5 25 -32 4 -11 0
-24 23 -27 -5 4 0
24 4 6 29 8 0
-11 -38 6 -4 -26 0
25 13 6 -4 -15 0
25 6 40 -4 13 0
-6 -36 16 -25 4 0
-6 38 4 -36 16 0
37 -18 -23 4 6 0
35 -26 -39 -4 6 0
-6 -27 34 -4 30 0
15 -4 16 7 17 0
-23 4 -7 -15 29 0
8 -11 4 24 40 0
-8 28 16 4 -36 0
-26 25 36 -4 8 0
32 -9 -12 -36 4 0
27 9 -15 4 29 0
-19 24 -32 -4 9 0
34 4 -35 19 -9 0
15 -4 11 -22 10 0
-37 15 11 10 -4 0
-24 -22 -4 10 11 0
-33 -10 -15 22 4 0
-27 -29 -4 10 -25 0
17 -27 11 4 23 0
25 -11 -32 35 4 0
-12 28 16 4 -36 0
25 -21 13 -15 -4 0
-34 25 13 -15 -4 0
25 -4 40 13 -15 0
-18 20 -15 14 -4 0
-30 14 -18 -15 -4 0
32 15 -14 18 4 0
-18 14 -15 -4 -32 0
-18 14 -15 36 -4 0
-34 14 -15 25 -4 0
15 32 -14 -36 4 0
15 32 -40 4 -14 0
-18 36 -32 14 -4 0
-30 -19 -4 40 14 0
-30 14 -4 25 -23 0
-26 25 36 -4 -15 0
37 27 29 -15 4 0
-24 28 16 4 -36 0
16 31 4 28 -36 0
17 -22 -25 4 30 0
36 22 -32 -4 -18 0
-24 34 19 -35 4 0
27 -19 -32 -4 -26 0
-19 -4 40 -32 27 0
34 -29 -35 19 4 0
-19 -31 -4 -38 40 0
-26 25 -23 22 -4 0
22 -23 -26 -38 -4 0
-26 25 36 22 -4 0
36 22 -32 -26 -4 0
-38 22 -4 -32 -26 0
-33 -34 40 4 22 0
-36 30 -37 -27 -4 0
25 -29 6 13 -5 0
-6 19 20 -5 -26 0
5 38 -35 6 -19 0
-5 -12 10 13 7 0
-5 7 26 -17 37 0
5 -33 -8 -17 14 0
-5 17 33 -14 8 0
5 -24 36 -8 38 0
5 11 -15 40 -9 0
5 17 -15 -37 -9 0
37 9 26 15 -5 0
21 -5 9 38 -17 0
5 -9 -26 -37 17 0
5 17 -37 32 -9 0
5 -9 -26 -37 -23 0
-11 -18 -5 10 13 0
-33 -5 13 10 -11 0
-18 -5 -12 10 13 0
-5 -12 10 -31 13 0
37 -12 10 -5 13 0
5 -10 12 18 31 0
-18 -5 -31 13 10 0
-5 25 13 10 -33 0
37 -33 10 -5 13 0
5 15 10 -32 -22 0
-18 -33 -5 10 23 0
37 -33 23 10 -5 0
-33 38 10 23 -5 0
37 25 -5 10 -33 0
-20 -11 -29 -19 5 0
25 -11 -32 5 26 0
5 38 -32 -27 -11 0
5 25 -22 15 -12 0
5 36 -22 15 -12 0
-24 -5 -12 28 -18 0
5 31 12 24 18 0
-18 -24 -12 -31 -5 0
-18 -5 -29 13 28 0
25 -29 28 13 -5 0
-18 -5 -35 -32 14 0
5 -36 -14 -25 34 0
5 16 -15 19 31 0
25 15 -32 5 -22 0
-5 32 22 -15 -25 0
15 -22 -27 -32 5 0
17 -30 16 -28 -5 0
-18 -16 -39 5 -34 0
5 17 -37 32 29 0
5 17 39 32 -37 0
19 39 40 -25 -5 0
-5 36 -35 -32 -20 0
5 25 21 -32 26 0
5 21 26 25 -40 0
21 26 -32 5 -40 0
-5 -36 22 24 -37 0
-22 25 -31 -32 5 0
5 -22 -32 25 -40 0
5 -22 -31 -32 -27 0
5 -22 -32 -40 -31 0
5 26 -32 25 -40 0
-5 -26 40 -25 32 0
-5 -26 40 -25 39 0
5 25 -32 -40 -31 0
38 7 -35 6 -19 0
-6 8 -9 27 14 0
21 -10 -8 25 -6 0
31 26 6 10 8 0
-6 -18 8 14 27 0
-6 38 8 27 14 0
-8 -16 19 -26 -6 0
16 -30 6 24 8 0
16 8 6 -35 24 0
-20 31 6 8 26 0
19 -6 9 -26 -16 0
-19 16 6 -40 -9 0
-18 31 -9 6 -19 0
-9 37 6 -25 -34 0
-9 26 6 -40 -32 0
35 -27 28 9 6 0
-6 21 -14 -10 25 0
-6 17 -10 25 21 0
-10 -27 -39 6 19 0
-29 -10 6 19 33 0
-6 37 10 -33 -19 0
-6 21 -10 25 23 0
-24 -27 -39 6 -10 0
-6 37 10 24 -33 0
-6 37 -12 22 11 0
-6 -32 11 24 -19 0
-11 34 6 -26 -38 0
-6 -12 22 -40 -23 0
25 6 40 13 -15 0
25 -29 6 13 19 0
25 28 6 13 -29 0
25 6 40 28 13 0
-38 6 40 -31 13 0
6 39 -25 -17 14 0
-6 20 -39 -37 -14 0
-6 -17 26 -36 15 0
18 -16 6 -22 32 0
23 -16 -26 19 -6 0
-6 19 -16 -26 40 0
31 -20 6 26 -19 0
-6 20 -31 -26 19 0
38 22 -35 6 -19 0
-6 24 -32 -19 -25 0
-6 27 -32 -19 24 0
-6 24 -32 37 -19 0
25 -6 30 20 21 0
35 28 6 -37 -26 0
-6 -33 -40 31 38 0
-24 8 -7 -10 15 0
-20 7 -36 8 39 0
-9 26 -7 -32 -11 0
-33 9 7 11 -37 0
-7 21 26 -9 -32 0
-7 21 26 -9 -40 0
-9 26 -7 -40 -32 0
-7 26 -32 10 35 0
-7 26 -32 -40 10 0
-38 26 -7 -40 10 0
18 26 -32 -7 -11 0
-20 11 40 25 -7 0
-34 39 -7 25 11 0
-11 35 -32 -7 26 0
-7 25 12 -20 40 0
-12 22 -23 -38 7 0
37 -38 22 -12 7 0
-7 15 -14 -31 32 0
18 14 19 -25 -7 0
17 15 16 25 7 0
17 15 16 -29 7 0
-7 21 -15 22 26 0
16 28 -26 -7 -20 0
-18 -20 -19 32 7 0
-18 -24 -7 -21 -35 0
-7 21 -40 -32 26 0
-27 7 22 -40 35 0
-10 38 -8 -9 36 0
9 -19 -32 24 -8 0
-24 -9 34 8 -39 0
-26 25 -9 8 -33 0
8 30 19 -29 -10 0
-29 -10 -40 8 20 0
23 -10 -26 -8 32 0
8 26 -37 10 31 0
-10 -8 34 32 36 0
23 15 -8 -12 25 0
17 8 -32 -14 26 0
38 8 19 -29 -17 0
-18 23 20 8 34 0
-18 -33 8 23 34 0
-19 -20 26 8 31 0
37 23 20 34 8 0
31 -20 8 -38 26 0
37 23 8 -33 34 0
-33 8 -39 23 34 0
-19 38 -10 -9 -11 0
-22 11 10 -24 9 0
-22 11 10 -38 9 0
-11 23 -10 24 -9 0
-11 38 -10 -9 37 0
9 11 -37 -39 10 0
-38 9 11 -39 10 0
25 13 -15 -9 10 0
25 13 10 -9 32 0
-32 -10 -13 9 33 0
-10 -19 -14 -9 36 0
-10 -30 -14 -9 36 0
17 -9 10 29 32 0
9 33 -32 -17 -10 0
-19 38 -10 -9 36 0
-26 25 10 -33 -9 0
-34 -10 26 9 33 0
37 38 -10 -9 36 0
29 11 13 9 -26 0
25 11 -15 14 -9 0
14 11 40 -9 25 0
-19 -11 -9 22 -29 0
-20 11 40 25 -9 0
-22 29 11 -26 9 0
29 11 -26 9 -35 0
9 -12 19 18 -33 0
27 9 -12 18 -33 0
-33 9 -12 18 -37 0
-12 -9 -26 -23 -38 0
19 25 13 -15 -9 0
25 -21 13 -15 -9 0
-18 21 -9 31 -14 0
-23 14 -35 -9 25 0
17 -9 -37 -26 -15 0
-24 -33 -15 9 18 0
-33 27 9 -15 18 0
-33 9 -15 -31 18 0
9 18 -15 -35 -33 0
27 -20 -24 -15 9 0
15 38 -9 -27 20 0
15 38 20 -9 36 0
16 -9 24 -27 20 0
-9 21 26 16 -40 0
25 32 -9 -16 -33 0
29 9 -36 -16 -26 0
-20 25 -9 18 -26 0
-18 9 -32 22 36 0
-18 9 -40 22 36 0
-22 9 29 19 -26 0
25 -23 -9 32 19 0
9 -19 -32 24 -25 0
9 37 -32 24 -19 0
29 -36 19 9 -26 0
21 -9 26 31 22 0
27 -23 -9 -37 -26 0
-23 12 11 10 -25 0
-38 12 11 -39 10 0
38 -10 -12 40 -11 0
-22 11 10 19 15 0
15 -37 11 -39 10 0
-22 11 10 -38 -17 0
-22 11 10 19 -38 0
11 20 -39 10 -37 0
-24 -22 -23 10 11 0
-22 11 10 -40 -24 0
-38 11 10 -39 -37 0
37 39 -11 38 -10 0
-38 11 10 -39 -40 0
14 -29 -27 12 10 0
-10 29 34 24 -12 0
20 -13 10 30 -17 0
20 -13 10 30 -23 0
-13 -23 26 30 10 0
39 25 13 10 32 0
37 25 40 13 10 0
-29 15 -27 14 10 0
14 18 -25 10 19 0
-29 14 18 10 -25 0
23 -33 34 -14 10 0
-33 24 -14 -26 10 0
19 15 -32 10 -22 0
-10 32 22 -19 -15 0
-19 22 -15 -35 -10 0
37 27 -15 -10 -20 0
21 -33 -10 22 -15 0
-10 -15 22 27 32 0
-10 -35 22 32 -15 0
-33 -10 -15 22 -35 0
-28 -10 16 -30 17 0
17 -33 34 10 23 0
-17 -29 -32 -10 33 0
-18 -33 34 23 10 0
-24 18 -32 10 -40 0
-28 -18 -26 40 -10 0
-29 26 -37 18 10 0
-20 25 40 -35 10 0
-23 -10 -34 -40 -37 0
-24 -29 10 -25 -34 0
21 -38 16 12 11 0
-22 -28 12 -11 27 0
11 14 -15 -34 25 0
25 11 -15 40 14 0
11 -15 40 -32 14 0
-29 -11 -31 18 14 0
14 11 40 28 25 0
22 -11 26 18 -15 0
19 15 11 -26 20 0
22 -11 26 -15 -19 0
21 15 -23 -11 32 0
-23 15 -40 32 -11 0
11 -15 40 -32 33 0
32 -26 11 -25 -17 0
-17 11 -35 -25 -26 0
-33 -17 -35 -25 11 0
-20 11 40 18 25 0
32 -38 11 31 -18 0
-19 -20 -29 -21 -11 0
-20 -11 -29 26 -19 0
37 11 -32 24 -19 0
-20 11 40 25 28 0
-28 -22 -11 -25 27 0
-28 -11 -35 27 -22 0
37 -29 11 30 24 0
11 26 -34 -31 33 0
39 -31 11 33 26 0
-31 26 40 33 11 0
14 -25 12 13 -26 0
14 12 -31 -27 -26 0
-19 32 -15 22 12 0
19 15 -32 -12 -22 0
32 12 22 -25 -15 0
25 15 -12 -37 24 0
15 -37 40 -12 31 0
-24 -12 16 -36 28 0
37 12 16 -31 -40 0
-37 31 40 -12 -16 0
22 -23 -26 -12 -38 0
-12 22 -23 -40 -26 0
28 22 -23 -38 -12 0
-12 22 -23 33 -38 0
-34 -24 12 -26 -25 0
-24 12 -29 -34 -25 0
27 -13 -14 -15 28 0
-37 14 -13 29 17 0
-18 -22 -14 -13 -23 0
-29 -22 -15 13 20 0
-13 26 -15 30 -23 0
27 -13 -15 26 28 0
37 27 -13 28 -15 0
28 -13 30 20 -17 0
-33 20 -13 30 -17 0
-18 27 20 -29 13 0
37 -18 -22 -13 -23 0
-24 38 13 18 -25 0
22 -19 13 -37 31 0
20 -13 40 -23 30 0
-33 -23 -13 26 30 0
-24 31 13 -25 36 0
-22 -39 40 -15 14 0
36 25 -15 -34 14 0
-34 14 -15 25 38 0
27 28 -15 -14 29 0
-33 -14 -40 32 15 0
14 -39 40 -15 -32 0
25 14 -16 -35 36 0
14 16 -40 -31 34 0
17 21 -14 26 25 0
14 39 -25 -17 -26 0
39 -27 -25 -17 14 0
19 14 -25 39 18 0
-21 14 -25 -29 18 0
-18 -22 -23 -14 29 0
18 14 22 -25 -29 0
-33 14 -25 18 -29 0
14 -19 -22 27 20 0
19 39 -25 -26 14 0
37 39 -25 19 14 0
-20 24 -14 30 -26 0
-33 -20 -14 24 -26 0
14 -20 -25 32 37 0
-33 -14 -40 -21 -27 0
-33 -14 -40 24 -26 0
37 14 -26 -25 32 0
-37 26 -32 -14 25 0
-33 35 -14 -27 32 0
-33 -27 -40 32 -14 0
-33 -14 -40 -27 35 0
15 17 -28 25 16 0
15 17 -28 -29 16 0
15 17 -30 16 -28 0
39 -38 -31 -16 15 0
15 -17 26 -36 -24 0
32 28 -15 -17 -25 0
37 -17 26 15 -36 0
22 -33 -15 -25 18 0
-33 26 -15 22 18 0
-33 39 -25 -15 18 0
27 26 -15 -40 18 0
18 34 -15 -40 26 0
-34 15 19 20 -26 0
19 15 40 20 -26 0
-34 15 40 20 19 0
-30 15 -32 -22 19 0
19 35 -32 15 -22 0
37 -24 27 -15 -20 0
38 20 -26 -27 15 0
15 38 40 -26 20 0
37 -20 27 32 -15 0
37 -20 27 -40 -15 0
21 -33 26 22 -15 0
22 32 -15 -35 -25 0
28 32 -15 -35 -25 0
37 28 -25 -15 32 0
27 -15 -40 29 28 0
37 32 28 -15 27 0
37 28 -40 -15 27 0
-28 -29 -37 40 15 0
-17 -39 40 -36 16 0
21 -22 18 -16 -19 0
-23 -19 16 34 -27 0
-16 -25 40 19 -34 0
21 25 26 16 -40 0
-24 -16 -25 -26 -34 0
-38 25 26 16 -40 0
25 16 -40 -31 34 0
-37 -19 -17 30 31 0
-37 23 -38 -17 24 0
21 -22 18 24 -19 0
20 22 -35 -33 18 0
-18 37 -22 29 -23 0
-33 22 -35 -25 18 0
38 18 -35 -25 22 0
22 -33 -35 -37 18 0
-24 -33 -29 18 -25 0
-24 -33 36 18 -25 0
-24 38 36 18 -25 0
-24 38 -25 18 39 0
-34 25 18 32 -27 0
-33 26 -29 18 -37 0
18 -30 -32 -31 -40 0
-19 -37 26 22 30 0
-34 19 40 -25 -26 0
-33 19 40 -25 -34 0
-20 25 -26 28 -23 0
-27 30 -23 40 20 0
-33 30 40 20 -23 0
-20 -24 31 27 35 0
21 -33 26 30 22 0
-34 21 -35 -33 22 0
21 26 -32 25 -40 0
21 -38 26 25 -40 0
-28 27 30 -22 24 0
-33 -29 -25 -34 22 0
22 -33 26 30 -37 0
-38 22 -32 34 -26 0
-33 -29 40 22 -34 0
-24 37 -25 38 -26 0
-24 39 -25 -26 38 0
-37 25 -38 -36 24 0
38 -26 40 -27 -25 0
-36 -32 -40 25 -31 0
37 36 28 27 32 0
