25 132
0 1
0 2
0 3
0 6
0 7
0 9
0 10
0 15
0 17
0 19
0 22
1 2
1 4
1 7
1 8
1 10
1 11
1 15
1 17
1 19
1 22
2 5
2 6
2 8
2 9
2 11
2 15
2 17
2 19
2 22
3 4
3 5
3 6
3 7
3 9
3 10
3 16
3 17
3 20
3 23
4 5
4 7
4 8
4 10
4 11
4 16
4 17
4 20
4 23
5 6
5 8
5 9
5 11
5 16
5 17
5 20
5 23
6 7
6 8
6 9
6 18
6 19
6 20
6 24
7 8
7 10
7 18
7 19
7 20
7 24
8 11
8 18
8 19
8 20
8 24
9 10
9 11
9 21
9 22
9 23
9 24
10 11
10 21
10 22
10 23
10 24
11 21
11 22
11 23
11 24
12 13
12 15
12 16
12 19
12 20
12 22
12 23
12 24
13 15
13 17
13 18
13 20
13 21
13 23
13 24
14 16
14 17
14 18
14 19
14 20
14 21
14 22
15 16
15 18
15 20
15 21
15 23
15 24
16 18
16 19
16 21
16 22
16 24
17 18
17 21
17 24
18 21
18 22
18 23
19 21
19 23
20 21
