p cnf 34194 13374
34 9 3 4 5 6 7 8 2 1 14 12 11 13 15 17 24 18 32 10 21 22 23 28 20 26 27 19 25 30 31 16 33 29 35 36 0
-577 1 2 3 4 5 6 7 8 0
-721 0
-578 11 9 13 12 10 14 15 0
578 -10 0
578 -14 0
-722 1 0
-579 17 16 18 19 20 21 0
-723 9 2 0
-580 24 23 22 25 26 0
580 -22 0
580 -24 0
580 -25 0
-724 16 3 10 0
724 -10 0
724 -16 0
-581 28 27 29 30 0
-725 11 4 22 17 0
725 -17 0
-582 32 31 33 0
-726 12 5 18 23 27 0
-583 34 35 0
-727 19 6 28 13 24 31 0
727 -24 0
-584 36 0
-728 34 7 32 20 14 25 29 0
728 -14 0
728 -20 0
-585 0
-729 15 8 21 26 30 33 35 36 0
46 50 39 40 41 42 43 44 38 63 72 59 53 47 51 56 48 65 55 70 49 52 57 58 37 62 45 54 68 66 60 61 69 64 71 67 0
-45 908 0
-908 909 0
-47 910 0
-909 910 0
-48 911 0
-910 911 0
-48 -910 0
-911 912 0
-50 913 0
-912 913 0
-913 914 0
-52 915 0
-914 915 0
-52 -914 0
916 -53 0
-915 916 0
-915 -53 0
-916 917 0
-917 918 0
-55 -917 0
919 -56 0
-918 919 0
-919 920 0
-57 -919 0
-58 921 0
-920 921 0
-58 -920 0
-921 922 0
-59 -921 0
-60 923 0
-922 923 0
-60 -922 0
-61 924 0
-923 924 0
-61 -923 0
-924 925 0
-62 -924 0
-925 926 0
-64 927 0
-926 927 0
-64 -926 0
-927 928 0
-65 -927 0
-928 929 0
-929 930 0
-67 -929 0
-930 931 0
-931 932 0
-69 -931 0
-70 -932 0
-586 37 38 39 40 41 42 43 44 0
-730 0
-587 46 49 45 47 50 48 51 0
-47 587 0
-731 37 0
-588 55 54 53 52 57 56 0
-732 45 38 0
-45 732 0
-589 60 62 59 58 61 0
-733 46 39 52 0
733 -46 0
733 -52 0
-590 65 66 63 64 0
-64 590 0
590 -65 0
-734 53 40 58 47 0
-591 68 67 69 0
-735 63 41 59 48 54 0
-592 70 71 0
592 -70 0
-736 60 42 49 55 64 67 0
-49 736 0
736 -55 0
-60 736 0
-64 736 0
-593 72 0
-737 50 43 56 61 68 65 70 0
-61 737 0
737 -65 0
737 -70 0
-594 0
-738 71 44 57 69 62 66 72 51 0
738 -72 0
106 104 75 76 77 78 79 80 74 73 108 82 91 94 85 81 97 96 100 88 93 103 95 87 101 89 90 86 92 98 99 102 105 83 107 84 0
-81 943 0
-82 944 0
-943 944 0
-82 -943 0
-83 945 0
-944 945 0
-83 -944 0
-84 946 0
-945 946 0
-85 947 0
-946 947 0
-85 -946 0
-86 948 0
-947 948 0
-87 949 0
-948 949 0
-88 950 0
-949 950 0
-88 -949 0
-89 951 0
-950 951 0
-89 -950 0
-951 952 0
-91 953 0
-952 953 0
-91 -952 0
-92 954 0
-953 954 0
-92 -953 0
-954 955 0
-94 956 0
-955 956 0
-94 -955 0
-956 957 0
-95 -956 0
958 -96 0
958 -957 0
-957 -96 0
959 -97 0
959 -958 0
-97 -958 0
960 -959 0
-98 -959 0
961 -960 0
-99 -960 0
-100 962 0
962 -961 0
-100 -961 0
963 -101 0
963 -962 0
-101 -962 0
964 -963 0
-102 -963 0
-103 965 0
965 -964 0
-103 -964 0
966 -104 0
966 -965 0
-104 -965 0
967 -966 0
-105 -966 0
968 -967 0
-106 -967 0
-107 -968 0
-595 73 74 75 76 77 78 79 80 0
-739 0
86 84 82 -596 81 83 85 87 0
-81 596 0
-740 73 0
-597 92 90 89 91 88 93 0
-741 81 74 0
-81 741 0
96 -598 95 97 98 94 0
-96 598 0
-97 598 0
-742 88 75 82 0
-82 742 0
-88 742 0
-599 101 99 102 100 0
-743 94 76 83 89 0
-83 743 0
-89 743 0
-94 743 0
-600 104 103 105 0
600 -104 0
-744 90 77 84 99 95 0
-601 106 107 0
-106 601 0
-107 601 0
91 103 78 96 100 -745 85 0
-85 745 0
-91 745 0
-96 745 0
-100 745 0
-602 108 0
-746 104 79 86 92 101 106 97 0
-86 746 0
-92 746 0
-97 746 0
-101 746 0
-104 746 0
-106 746 0
-603 0
-747 93 80 98 108 107 105 102 87 0
-87 747 0
-98 747 0
-102 747 0
-107 747 0
-108 747 0
119 117 111 112 113 114 115 116 110 144 122 137 128 140 123 132 142 121 139 133 129 130 131 109 136 134 135 127 126 138 120 118 141 125 143 124 0
-117 978 0
-118 979 0
-978 979 0
-119 980 0
-979 980 0
-980 981 0
982 -121 0
-981 982 0
-981 -121 0
983 -122 0
983 -982 0
984 -983 0
-124 985 0
985 -984 0
-125 986 0
986 -985 0
987 -986 0
-127 988 0
988 -987 0
-127 -987 0
989 -128 0
989 -988 0
990 -989 0
-130 991 0
991 -990 0
-130 -990 0
992 -991 0
993 -992 0
-132 -992 0
-133 994 0
994 -993 0
-133 -993 0
995 -994 0
996 -995 0
-136 997 0
997 -996 0
-136 -996 0
-137 998 0
998 -997 0
-137 -997 0
999 -998 0
1000 -999 0
-139 -999 0
1001 -140 0
1001 -1000 0
-140 -1000 0
1002 -1001 0
-1002 -142 0
-604 109 110 111 112 113 114 115 116 0
-748 0
-605 121 122 118 117 120 119 123 0
-117 605 0
-121 605 0
-749 109 0
-606 124 126 129 125 127 128 0
-127 606 0
-750 117 110 0
130 -607 134 131 133 132 0
-751 124 111 118 0
-608 137 135 136 138 0
-135 608 0
-752 125 112 130 119 0
-130 752 0
-609 140 139 141 0
609 -140 0
-753 131 113 126 120 135 0
-120 753 0
-126 753 0
-131 753 0
-135 753 0
-610 142 143 0
-754 136 114 121 132 139 127 0
-132 754 0
-136 754 0
-611 144 0
-144 611 0
-755 133 115 128 140 142 122 137 0
-122 755 0
-128 755 0
-133 755 0
-137 755 0
-140 755 0
-142 755 0
-612 0
-756 138 116 129 144 141 143 134 123 0
-129 756 0
-143 756 0
-144 756 0
166 158 147 148 149 150 151 152 146 145 169 180 175 178 159 176 173 156 168 164 165 162 167 161 163 170 171 172 160 174 154 157 177 153 179 155 0
1005 -145 0
-1005 1006 0
-1006 1007 0
-1007 1008 0
-1008 1009 0
-1009 1010 0
-1010 1011 0
-1011 1012 0
1013 -153 0
-1012 1013 0
-153 -1012 0
-154 1014 0
-1013 1014 0
-154 -1013 0
-155 1015 0
-1014 1015 0
-1015 1016 0
1017 -157 0
-1016 1017 0
1018 -158 0
-1017 1018 0
-1018 1019 0
-160 1020 0
-1019 1020 0
-160 -1019 0
-161 1021 0
-1020 1021 0
-1021 1022 0
-163 1023 0
-1022 1023 0
-164 1024 0
-1023 1024 0
-1024 1025 0
1026 -166 0
1026 -1025 0
-1025 -166 0
1027 -1026 0
1028 -168 0
1028 -1027 0
-168 -1027 0
1029 -169 0
1029 -1028 0
-169 -1028 0
-1029 1030 0
1031 -1030 0
-172 1032 0
1032 -1031 0
-172 -1031 0
1033 -173 0
1033 -1032 0
-173 -1032 0
1034 -1033 0
1035 -1034 0
1036 -176 0
1036 -1035 0
-176 -1035 0
1037 -1036 0
-178 1038 0
-178 -1037 0
-1038 1039 0
-1039 -180 0
-613 145 146 147 148 149 150 151 152 0
-757 0
-614 153 158 156 157 154 155 159 0
-153 614 0
-154 614 0
-758 145 0
758 -145 0
-615 160 163 162 165 164 161 0
-160 615 0
-759 153 146 0
-616 166 169 167 168 170 0
616 -168 0
-760 154 147 160 0
-154 760 0
-160 760 0
173 171 -617 172 174 0
-172 617 0
-761 166 148 161 155 0
-618 176 175 177 0
618 -176 0
167 162 149 -762 156 171 0
-156 762 0
-619 178 179 0
-178 619 0
-763 157 150 175 168 172 163 0
-172 763 0
-175 763 0
-620 180 0
-180 620 0
-764 176 151 164 173 169 158 178 0
-164 764 0
-169 764 0
764 -173 0
764 -176 0
-178 764 0
-621 0
-765 170 152 159 165 177 180 179 174 0
-165 765 0
-174 765 0
-180 765 0
198 195 183 184 185 186 187 188 182 193 199 205 216 196 191 208 209 211 202 200 201 181 203 194 197 206 207 190 214 210 192 189 213 204 215 212 0
-189 1048 0
-190 1049 0
-1048 1049 0
-191 1050 0
-1049 1050 0
-1050 1051 0
1052 -193 0
-1051 1052 0
-194 1053 0
-1052 1053 0
-1053 1054 0
-196 1055 0
-1054 1055 0
-197 1056 0
-1055 1056 0
-1056 1057 0
-199 1058 0
-1057 1058 0
-200 1059 0
-1058 1059 0
-1059 1060 0
-202 1061 0
-1060 1061 0
-202 -1060 0
-1061 1062 0
-203 -1061 0
1063 -204 0
-1062 1063 0
-1062 -204 0
-205 1064 0
-1063 1064 0
-205 -1063 0
-1064 1065 0
-1065 1066 0
-1066 1067 0
-208 -1066 0
-209 1068 0
-1067 1068 0
-209 -1067 0
-210 1069 0
-1068 1069 0
1070 -211 0
-1069 1070 0
-212 1071 0
-1070 1071 0
-1070 -212 0
-1071 1072 0
1073 -214 0
1073 -1072 0
-1072 -214 0
1074 -1073 0
-216 -1074 0
-622 181 182 183 184 185 186 187 188 0
-766 0
-623 192 193 191 190 194 189 195 0
-189 623 0
-767 181 0
-624 201 199 196 197 198 200 0
-768 189 182 0
-625 203 204 205 202 206 0
-769 190 183 196 0
-626 207 208 210 209 0
-770 191 184 202 197 0
-627 213 211 212 0
-211 627 0
-212 627 0
-771 198 185 203 207 192 0
214 -628 215 0
-214 628 0
-772 193 186 211 204 208 199 0
-193 772 0
-199 772 0
-204 772 0
-208 772 0
-211 772 0
-629 216 0
-216 629 0
-773 214 187 212 200 209 205 194 0
-194 773 0
-200 773 0
-205 773 0
-209 773 0
-212 773 0
773 -214 0
-630 0
-774 213 188 206 210 215 195 216 201 0
-201 774 0
-210 774 0
238 236 219 220 221 222 223 224 218 217 228 245 248 247 231 250 241 240 244 252 237 230 239 235 234 242 243 225 232 246 229 227 249 226 251 233 0
1075 -217 0
1076 -1075 0
1077 -1076 0
1078 -1077 0
1079 -1078 0
1080 -1079 0
1081 -1080 0
1082 -1081 0
1083 -225 0
1083 -1082 0
-225 -1082 0
-226 1084 0
1084 -1083 0
-227 1085 0
1085 -1084 0
1086 -1085 0
1087 -229 0
1087 -1086 0
-230 1088 0
1088 -1087 0
1089 -1088 0
-232 1090 0
1090 -1089 0
-233 1091 0
1091 -1090 0
1092 -1091 0
-235 1093 0
1093 -1092 0
-236 1094 0
1094 -1093 0
1095 -1094 0
-238 1096 0
1096 -1095 0
-238 -1095 0
1097 -1096 0
-240 1098 0
1098 -1097 0
-240 -1097 0
-241 1099 0
1099 -1098 0
-241 -1098 0
1100 -1099 0
1101 -1100 0
-244 1102 0
1102 -1101 0
-244 -1101 0
1103 -245 0
1103 -1102 0
-245 -1102 0
1104 -1103 0
1105 -247 0
1105 -1104 0
-247 -1104 0
-248 1106 0
1106 -1105 0
-248 -1105 0
1107 -1106 0
1108 -1107 0
-250 -1107 0
-1108 1109 0
-1109 -252 0
-631 217 218 219 220 221 222 223 224 0
-775 0
-632 227 225 228 230 229 226 231 0
-225 632 0
-776 217 0
-633 232 236 234 235 233 237 0
-777 225 218 0
-634 238 242 239 240 241 0
634 -238 0
-241 634 0
-778 232 219 226 0
-635 245 243 244 246 0
-779 238 220 233 227 0
-227 779 0
-238 779 0
-636 248 247 249 0
-248 636 0
-780 243 221 228 234 239 0
-239 780 0
-243 780 0
-637 250 251 0
-250 637 0
-251 637 0
-781 235 222 240 244 247 229 0
-235 781 0
781 -240 0
-244 781 0
781 -247 0
-638 252 0
638 -252 0
-782 248 223 230 241 245 236 250 0
-230 782 0
-236 782 0
-241 782 0
-245 782 0
-248 782 0
-250 782 0
-639 0
231 246 224 -783 242 237 249 251 252 0
261 266 255 256 257 258 259 260 254 253 270 288 262 277 267 284 286 283 276 281 273 271 275 272 265 278 279 280 274 282 269 268 285 263 287 264 0
-253 1110 0
-1110 1111 0
-1111 1112 0
-1112 1113 0
-1113 1114 0
-1114 1115 0
-1115 1116 0
-1116 1117 0
1118 -1117 0
-1117 -261 0
1119 -1118 0
-263 1120 0
1120 -1119 0
1121 -1120 0
-265 1122 0
1122 -1121 0
1123 -1122 0
1124 -1123 0
1125 -1124 0
-269 1126 0
1126 -1125 0
1127 -1126 0
-271 1128 0
1128 -1127 0
1129 -1128 0
1130 -1129 0
1131 -274 0
1131 -1130 0
1132 -1131 0
-276 1133 0
1133 -1132 0
-276 -1132 0
1134 -277 0
1134 -1133 0
-277 -1133 0
1135 -1134 0
1136 -1135 0
1137 -1136 0
1138 -281 0
1138 -1137 0
-281 -1137 0
1139 -1138 0
-283 1140 0
1140 -1139 0
-284 1141 0
1141 -1140 0
1142 -1141 0
1143 -286 0
-286 -1142 0
1144 -1143 0
-1144 -288 0
-640 253 254 255 256 257 258 259 260 0
-784 0
261 -641 263 264 266 265 262 267 0
641 -261 0
-785 253 0
785 -253 0
-642 268 272 271 270 269 273 0
-786 261 254 0
-643 274 277 275 278 276 0
-787 268 255 262 0
-644 281 279 280 282 0
-280 644 0
-788 274 256 263 269 0
-645 284 283 285 0
-284 645 0
-285 645 0
-789 279 257 275 270 264 0
789 -275 0
-279 789 0
-646 286 287 0
646 -286 0
-790 265 258 280 283 276 271 0
790 -280 0
-283 790 0
-647 288 0
-791 286 259 284 277 281 266 272 0
791 -266 0
791 -272 0
-277 791 0
-281 791 0
-284 791 0
791 -286 0
-648 0
-792 282 260 288 278 273 287 285 267 0
-267 792 0
-278 792 0
-288 792 0
297 324 291 292 293 294 295 296 290 305 310 313 322 317 289 304 303 306 307 308 309 300 311 312 319 314 315 316 301 318 299 302 321 298 323 320 0
-289 1145 0
-1145 1146 0
-1146 1147 0
-1147 1148 0
-1148 1149 0
-1149 1150 0
-1150 1151 0
-1151 1152 0
-1152 1153 0
-1152 -297 0
-298 1154 0
-1153 1154 0
-1154 1155 0
-1155 1156 0
-301 1157 0
-1156 1157 0
-302 1158 0
-1157 1158 0
-1158 1159 0
-304 1160 0
-1159 1160 0
-1160 1161 0
-1161 1162 0
-307 1163 0
-1162 1163 0
-1163 1164 0
-1164 1165 0
-310 1166 0
-1165 1166 0
-1166 1167 0
-312 1168 0
-1167 1168 0
-313 1169 0
-1168 1169 0
-313 -1168 0
-1169 1170 0
1171 -1170 0
-316 1172 0
1172 -1171 0
-316 -1171 0
1173 -317 0
1173 -1172 0
-317 -1172 0
1174 -1173 0
-319 1175 0
1175 -1174 0
-319 -1174 0
1176 -320 0
1176 -1175 0
-320 -1175 0
1177 -1176 0
1178 -1177 0
-322 -1177 0
-323 1179 0
1179 -1178 0
-324 -1179 0
-649 289 290 291 292 293 294 295 296 0
-289 649 0
-793 0
-650 297 303 299 300 301 302 298 0
-794 289 0
-651 308 305 304 307 306 309 0
297 -795 290 0
-652 311 313 312 310 314 0
-311 652 0
-796 298 291 304 0
315 318 316 -653 317 0
-317 653 0
-797 299 292 310 305 0
-654 321 319 320 0
-319 654 0
-320 654 0
300 315 293 -798 311 306 0
-311 798 0
-655 323 322 0
-799 301 294 307 312 316 319 0
-319 799 0
-656 324 0
-324 656 0
-800 308 295 322 317 313 320 302 0
-302 800 0
800 -313 0
-317 800 0
800 -320 0
-322 800 0
-657 0
-801 309 296 303 324 323 314 318 321 0
-318 801 0
-321 801 0
-323 801 0
-324 801 0
355 346 327 328 329 330 331 332 326 360 341 338 353 336 339 356 340 358 337 344 345 343 347 348 349 350 351 352 335 354 325 342 357 334 359 333 0
-325 1180 0
-1180 1181 0
-1181 1182 0
-1182 1183 0
-1183 1184 0
-1184 1185 0
-1185 1186 0
-1186 1187 0
-333 1188 0
-1187 1188 0
-334 1189 0
-1188 1189 0
-335 1190 0
-1189 1190 0
-1190 1191 0
-337 1192 0
-1191 1192 0
-338 1193 0
-1192 1193 0
-339 1194 0
-1193 1194 0
-340 1195 0
-1194 1195 0
-341 1196 0
-1195 1196 0
-342 1197 0
-1196 1197 0
-343 1198 0
-1197 1198 0
-344 1199 0
-1198 1199 0
-345 1200 0
-1199 1200 0
-346 1201 0
-1200 1201 0
-347 1202 0
-1201 1202 0
-348 1203 0
-1202 1203 0
-349 1204 0
-1203 1204 0
-349 -1203 0
-350 1205 0
-1204 1205 0
-351 1206 0
-1205 1206 0
-352 1207 0
-1206 1207 0
-352 -1206 0
1208 -353 0
-1207 1208 0
-1207 -353 0
-1208 1209 0
1210 -355 0
1210 -1209 0
-1209 -355 0
1211 -356 0
1211 -1210 0
-356 -1210 0
1212 -1211 0
1213 -1212 0
-358 -1212 0
1214 -1213 0
-1214 -360 0
-658 325 326 327 328 329 330 331 332 0
-802 0
-659 336 333 334 337 335 338 339 0
-333 659 0
-803 325 0
-660 340 345 341 343 344 342 0
-804 333 326 0
347 346 350 -661 349 348 0
-805 334 327 340 0
-662 352 353 354 351 0
-806 335 328 346 341 0
-663 355 356 357 0
663 -355 0
-356 663 0
-807 351 329 342 336 347 0
-351 807 0
-664 358 359 0
-358 664 0
-808 355 330 348 337 352 343 0
808 -355 0
-665 360 0
665 -360 0
-809 358 331 353 344 356 338 349 0
-349 809 0
809 -353 0
-356 809 0
-358 809 0
-666 0
-810 359 332 357 350 354 339 360 345 0
-350 810 0
-360 810 0
394 392 363 364 365 366 367 368 362 396 376 371 385 380 375 389 372 378 391 361 381 379 383 384 369 386 387 388 373 390 377 374 393 382 395 370 0
-361 1215 0
-1215 1216 0
-1216 1217 0
-1217 1218 0
-1218 1219 0
-1219 1220 0
-1220 1221 0
-1221 1222 0
-369 1223 0
-1222 1223 0
-369 -1222 0
-370 1224 0
-1223 1224 0
-371 1225 0
-1224 1225 0
-1225 1226 0
-373 1227 0
-1226 1227 0
-1227 1228 0
-1228 1229 0
-376 1230 0
-1229 1230 0
-377 1231 0
-1230 1231 0
-1231 1232 0
-379 1233 0
-1232 1233 0
1234 -380 0
-1233 1234 0
-1234 1235 0
-382 1236 0
-1235 1236 0
-382 -1235 0
-1236 1237 0
-384 1238 0
-1237 1238 0
-384 -1237 0
-385 1239 0
-1238 1239 0
-385 -1238 0
-1239 1240 0
-387 1241 0
-1240 1241 0
-388 1242 0
-1241 1242 0
-388 -1241 0
-389 1243 0
-1242 1243 0
-389 -1242 0
-1243 1244 0
-391 1245 0
-1244 1245 0
-391 -1244 0
1246 -392 0
-1245 1246 0
-1246 1247 0
1248 -394 0
-1247 1248 0
-1247 -394 0
1249 -1248 0
-1249 -396 0
-667 361 362 363 364 365 366 367 368 0
-361 667 0
-811 0
-668 369 375 372 371 373 374 370 0
-369 668 0
-812 361 0
812 -361 0
-669 377 381 380 376 378 379 0
-813 369 362 0
-670 382 383 385 384 386 0
-814 370 363 376 0
-671 388 390 387 389 0
-815 382 364 377 371 0
-672 392 391 393 0
-392 672 0
-816 372 365 387 378 383 0
-673 394 395 0
673 -394 0
-817 388 366 373 379 384 391 0
-379 817 0
-384 817 0
-391 817 0
-674 396 0
674 -396 0
-818 394 367 374 380 389 385 392 0
-374 818 0
-385 818 0
-389 818 0
-392 818 0
818 -394 0
-675 0
-819 395 368 396 375 390 393 381 386 0
-386 819 0
-390 819 0
-396 819 0
430 432 399 400 401 402 403 404 398 397 425 428 409 410 411 427 413 414 415 416 417 418 419 420 421 422 423 424 412 426 408 407 429 406 431 405 0
1250 -397 0
1251 -1250 0
1252 -1251 0
1253 -1252 0
1254 -1253 0
1255 -1254 0
1256 -1255 0
1257 -1256 0
-405 1258 0
1258 -1257 0
-406 1259 0
1259 -1258 0
-407 1260 0
1260 -1259 0
-408 1261 0
1261 -1260 0
-409 1262 0
1262 -1261 0
1263 -1262 0
1264 -1263 0
-412 1265 0
1265 -1264 0
-413 1266 0
1266 -1265 0
-414 1267 0
1267 -1266 0
-415 1268 0
1268 -1267 0
-416 1269 0
1269 -1268 0
1270 -1269 0
-418 1271 0
1271 -1270 0
-419 1272 0
1272 -1271 0
-420 1273 0
1273 -1272 0
-421 1274 0
1274 -1273 0
1275 -1274 0
-423 1276 0
1276 -1275 0
-424 1277 0
1277 -1276 0
1278 -425 0
1278 -1277 0
1279 -1278 0
-427 1280 0
1280 -1279 0
-427 -1279 0
-428 1281 0
1281 -1280 0
-428 -1280 0
1282 -1281 0
1283 -1282 0
-430 -1282 0
1284 -1283 0
-1284 -432 0
-676 397 398 399 400 401 402 403 404 0
-820 0
-677 405 410 409 408 407 406 411 0
-405 677 0
-821 397 0
-678 415 417 412 416 414 413 0
-822 405 398 0
-679 420 421 418 419 422 0
-823 406 399 412 0
-680 424 426 423 425 0
-424 680 0
-425 680 0
-824 418 400 407 413 0
-681 428 427 429 0
-428 681 0
-825 408 401 423 419 414 0
-682 430 431 0
682 -430 0
-826 409 402 427 424 420 415 0
-424 826 0
826 -427 0
-683 432 0
683 -432 0
-827 430 403 421 425 428 410 416 0
-428 827 0
827 -430 0
-684 0
-828 422 404 411 432 417 426 429 431 0
441 446 435 436 437 438 439 440 434 468 467 463 449 464 447 452 466 450 451 445 453 454 455 456 457 458 459 460 461 462 443 444 465 442 448 433 0
-443 1295 0
-444 1296 0
-1295 1296 0
-1296 1297 0
-1297 1298 0
-1298 1299 0
-1299 1300 0
-449 1301 0
-1300 1301 0
-450 1302 0
-1301 1302 0
-451 1303 0
-1302 1303 0
-1303 1304 0
-1304 1305 0
-454 1306 0
-1305 1306 0
-455 1307 0
-1306 1307 0
-456 1308 0
-1307 1308 0
-456 -1307 0
-1308 1309 0
-1309 1310 0
-459 1311 0
-1310 1311 0
-460 1312 0
-1311 1312 0
-460 -1311 0
-1312 1313 0
-1313 1314 0
1315 -463 0
-1314 1315 0
-1314 -463 0
1316 -464 0
1316 -1315 0
-1315 -464 0
1317 -1316 0
-466 -1317 0
-685 433 434 435 436 437 438 439 440 0
-433 685 0
-829 0
-686 441 446 442 444 445 443 447 0
-830 433 0
830 -433 0
-687 452 450 449 448 451 453 0
-831 441 434 0
-688 454 457 456 455 458 0
-832 442 435 448 0
-689 460 461 459 462 0
-833 443 436 449 454 0
-454 833 0
-690 464 465 463 0
690 -463 0
690 -464 0
-834 450 437 455 444 459 0
-455 834 0
-691 466 467 0
-466 691 0
-467 691 0
-835 445 438 463 460 456 451 0
-456 835 0
835 -463 0
-692 468 0
692 -468 0
-836 466 439 446 452 464 457 461 0
836 -446 0
-452 836 0
-457 836 0
-461 836 0
-693 0
-837 458 440 465 468 453 462 447 467 0
500 502 471 472 473 474 475 476 470 481 469 482 480 504 483 484 485 486 487 488 489 477 491 490 493 494 495 496 497 498 499 478 492 479 503 501 0
1320 -469 0
-1320 1321 0
-1321 1322 0
-1322 1323 0
-1323 1324 0
-1324 1325 0
-1325 1326 0
-1326 1327 0
-477 1328 0
-1327 1328 0
-477 -1327 0
-478 1329 0
-1328 1329 0
-479 1330 0
-1329 1330 0
-480 1331 0
-1330 1331 0
-481 1332 0
-1331 1332 0
-1332 1333 0
-1333 1334 0
-484 1335 0
-1334 1335 0
-485 1336 0
-1335 1336 0
-486 1337 0
-1336 1337 0
-487 1338 0
-1337 1338 0
-1338 1339 0
-488 -1338 0
-1339 1340 0
-490 1341 0
-1340 1341 0
-491 1342 0
-1341 1342 0
-492 1343 0
-1342 1343 0
-1343 1344 0
-1343 -493 0
-1344 1345 0
-495 1346 0
-1345 1346 0
-496 1347 0
-1346 1347 0
-1347 1348 0
-1348 1349 0
-499 1350 0
-1349 1350 0
1351 -500 0
1351 -1350 0
-1350 -500 0
1352 -1351 0
-502 -1352 0
-694 469 470 471 472 473 474 475 476 0
-838 0
-695 479 482 478 480 481 477 483 0
-839 469 0
-696 485 489 487 484 488 486 0
-840 477 470 0
-697 493 491 490 492 494 0
-490 697 0
-491 697 0
-841 478 471 484 0
-698 496 495 497 498 0
-842 479 472 490 485 0
-699 500 501 499 0
699 -500 0
-843 495 473 480 491 486 0
-480 843 0
-486 843 0
-495 843 0
-700 502 503 0
-502 700 0
-844 481 474 496 499 492 487 0
-499 844 0
-701 504 0
701 -504 0
-845 500 475 497 493 482 502 488 0
845 -500 0
-502 845 0
-702 0
-846 494 476 503 489 504 498 483 501 0
505 517 507 508 509 510 511 512 506 540 513 538 536 514 519 520 521 522 523 524 525 526 527 528 529 530 531 532 533 534 518 516 537 515 539 535 0
1363 -513 0
-514 1364 0
1364 -1363 0
-515 1365 0
1365 -1364 0
-516 1366 0
1366 -1365 0
-517 1367 0
1367 -1366 0
1368 -1367 0
1369 -1368 0
-520 1370 0
1370 -1369 0
-521 1371 0
1371 -1370 0
-522 1372 0
1372 -1371 0
-523 1373 0
1373 -1372 0
1374 -1373 0
1375 -1374 0
-526 1376 0
1376 -1375 0
-527 1377 0
1377 -1376 0
-528 1378 0
1378 -1377 0
1379 -1378 0
1380 -1379 0
-531 1381 0
1381 -1380 0
-532 1382 0
1382 -1381 0
-532 -1381 0
1383 -1382 0
1384 -1383 0
-535 1385 0
1385 -1384 0
-535 -1384 0
1386 -536 0
1386 -1385 0
-1385 -536 0
1387 -1386 0
-538 -1387 0
-703 505 506 507 508 509 510 511 512 0
-847 0
-704 517 518 519 513 516 515 514 0
-848 505 0
-705 521 525 524 523 522 520 0
-849 513 506 0
-706 527 529 526 528 530 0
-850 514 507 520 0
-707 531 533 532 534 0
-851 515 508 526 521 0
-708 535 537 536 0
-535 708 0
708 -536 0
-852 527 509 522 516 531 0
-516 852 0
-522 852 0
-527 852 0
-709 538 539 0
709 -538 0
-853 517 510 532 535 528 523 0
-517 853 0
-535 853 0
-710 540 0
710 -540 0
-854 536 511 533 518 538 529 524 0
854 -536 0
854 -538 0
-711 0
-855 539 512 540 530 534 537 525 519 0
855 -540 0
541 549 543 544 545 546 547 548 542 572 575 576 574 571 563 558 559 555 560 562 561 564 556 565 568 566 554 567 557 570 552 553 573 569 550 551 0
1398 -549 0
1399 -550 0
1399 -1398 0
1400 -551 0
1400 -1399 0
1401 -552 0
1401 -1400 0
1402 -553 0
1402 -1401 0
1403 -1402 0
1404 -1403 0
1405 -556 0
1405 -1404 0
1406 -557 0
1406 -1405 0
1407 -1406 0
1408 -559 0
1408 -1407 0
1409 -1408 0
1410 -1409 0
1411 -562 0
1411 -1410 0
1412 -1411 0
-1411 -563 0
1413 -564 0
1413 -1412 0
1414 -1413 0
1415 -1414 0
1416 -1415 0
1417 -568 0
1417 -1416 0
1418 -1417 0
1419 -1418 0
1420 -571 0
1420 -1419 0
-1419 -571 0
1421 -572 0
-1420 -572 0
1422 -1421 0
-1422 -574 0
-712 541 542 543 544 545 546 547 548 0
-856 0
-713 549 551 553 554 552 550 555 0
-857 541 0
-541 857 0
-714 556 559 560 558 557 561 0
714 -558 0
-858 549 542 0
858 -549 0
-715 562 565 563 564 566 0
715 -563 0
-859 550 543 556 0
-716 568 569 570 567 0
716 -567 0
716 -568 0
-860 551 544 562 557 0
-717 572 573 571 0
717 -572 0
-861 552 545 558 567 563 0
861 -558 0
861 -567 0
-718 574 575 0
718 -574 0
-862 553 546 559 571 568 564 0
862 -553 0
862 -559 0
862 -564 0
862 -568 0
862 -571 0
-719 576 0
-863 554 547 572 560 565 569 574 0
-720 0
-864 576 548 570 575 561 573 555 566 0
577 -1425 721 0
-1426 578 722 0
-1426 -578 0
-1428 724 580 0
-1429 725 581 0
-1429 -581 0
-1430 582 726 0
-1431 583 727 0
-1432 728 584 0
-1433 729 585 0
-1427 -9 0
-1432 -14 0
-1429 -22 0
-1428 -24 0
-1432 -29 0
-1430 -32 0
-1435 1426 731 587 0
-1436 1427 588 732 0
-1437 733 589 1428 0
-1438 590 1429 734 0
-1438 -590 1429 0
-1439 591 1430 735 0
-1440 736 1431 592 0
-1441 737 1432 593 0
738 -1442 594 1433 0
-1438 -58 1428 1429 0
-1437 -60 1431 0
-1440 -70 1432 0
-1444 596 740 1435 0
-1448 600 1439 744 0
-1449 745 1440 601 0
747 -1451 1442 603 0
-1449 -91 1440 1436 0
-1450 -106 1440 1441 0
-1457 609 753 1448 0
756 -1460 1451 612 0
-1459 -140 1448 1450 0
-1466 1457 762 618 0
-1459 764 1468 620 0
-1468 1459 620 764 0
765 -1469 1460 621 0
-1475 1466 627 771 0
1477 -1468 629 773 0
-1477 773 1468 629 0
774 -1478 1469 630 0
-1477 -212 1466 1468 0
783 -1487 1478 639 0
792 -1496 1487 648 0
801 -1505 1496 657 0
810 -1514 1505 666 0
819 -1523 1514 675 0
828 -1532 1523 684 0
837 -1541 1532 693 0
-1557 -538 1549 0
-1552 857 713 0
-1553 714 858 0
-1553 -858 0
-1554 715 859 0
-1556 861 717 0
-1556 -861 0
-1557 -862 0
-1558 863 719 0
-1553 -556 0
-1553 -557 0
-1554 -562 0
-1554 -563 0
-1555 -567 0
-1555 -568 0
-1556 -571 0
-1556 -572 0
-1560 577 721 0
-1561 578 722 0
-1561 -578 0
-1562 579 723 0
-1562 -579 0
1563 724 580 0
1563 -724 0
-1564 725 581 0
-1564 -581 0
-1565 582 726 0
-1566 727 583 0
-1567 728 584 0
-1568 729 585 0
-1562 -9 0
-1564 -11 0
-1566 -13 0
-1567 -14 0
-1564 -17 0
-1566 -19 0
-1567 -20 0
-1563 -22 0
1564 -22 0
-1563 -24 0
1566 -24 0
-1563 -25 0
1567 -25 0
-1564 -28 0
-1566 -28 0
-1564 -29 0
-1567 -29 0
-1565 -32 0
-1567 -32 0
-1566 -34 0
-1567 -34 0
586 -1569 1560 730 0
-1570 1561 731 587 0
-587 -1570 1561 0
-1571 588 1562 732 0
-1571 -588 1562 0
589 1572 -1563 733 0
1563 733 -1572 589 0
-589 1563 -1572 0
-733 1572 -1563 0
1573 -1564 590 734 0
-1573 590 1564 734 0
-1573 -590 1564 0
1573 -1564 -734 0
-1574 591 1565 735 0
1575 -1566 592 736 0
-1575 736 1566 592 0
-1575 -592 1566 0
1575 -1566 -736 0
-1567 1576 737 593 0
-1576 737 593 1567 0
-1567 1576 -737 0
738 -1577 594 1568 0
-1571 -45 1561 1562 0
-46 -1572 1561 1563 0
-1573 -47 1561 1564 0
-1575 -49 1561 1566 0
-50 -1576 1561 1567 0
1563 -52 1562 -1572 0
-1573 -53 1562 1564 0
-1575 -55 1566 1562 0
-1576 -56 1562 1567 0
-58 -1572 1564 0
-58 1573 -1563 0
-58 -1573 1563 1564 0
-60 -1572 1566 0
-60 1575 -1563 0
-60 -1575 1566 1563 0
-61 -1572 1567 0
-61 1576 -1563 0
-61 -1576 1567 1563 0
-64 -1564 1575 0
-64 -1575 1564 1566 0
-1573 -65 1567 0
-1564 -65 1576 0
-1576 -65 1567 1564 0
-68 -1576 1567 1565 0
-1575 -70 1567 0
-70 -1566 1576 0
-70 -1576 1566 1567 0
-1576 -72 1568 0
-1577 -72 1567 1568 0
595 -1578 1569 739 0
-1578 -595 1569 0
-1579 1570 596 740 0
-1579 1570 -596 0
-1580 1571 741 597 0
-1580 -597 1571 0
598 1581 -1572 742 0
1572 598 -1581 742 0
1572 -598 -1581 0
-742 1581 -1572 0
1582 -1573 599 743 0
-1582 599 1573 743 0
-599 -1582 1573 0
1582 -1573 -743 0
-1583 600 1574 744 0
1584 -1575 601 745 0
-1584 745 1575 601 0
-1584 -601 1575 0
1584 -1575 -745 0
1585 -1576 746 602 0
746 -1585 602 1576 0
1585 -746 -1576 0
747 -1586 1577 603 0
-1579 1570 1569 -73 0
-1580 -81 1571 1570 0
-82 1570 -1581 1572 0
-1582 -83 1570 1573 0
-85 -1584 1570 1575 0
-86 -1585 1570 1576 0
-88 1571 -1581 1572 0
-89 -1582 1571 1573 0
-91 -1584 1571 1575 0
-92 -1585 1571 1576 0
-94 1573 -1581 0
-94 1582 -1572 0
-94 -1582 1572 1573 0
-95 1574 -1581 0
-96 1575 -1581 0
1584 -96 -1572 0
-1584 1572 -96 1575 0
-97 1576 -1581 0
-97 1585 -1572 0
-97 1572 1576 -1585 0
-98 -1581 1577 0
-100 -1582 1575 0
-100 -1573 1584 0
-100 -1584 1575 1573 0
-1582 -101 1576 0
-1573 1585 -101 0
-101 -1585 1573 1576 0
-102 -1582 1577 0
-103 -1584 1574 1575 0
-1583 -104 1576 0
-104 -1585 1576 1574 0
-106 -1584 1576 0
-106 -1575 -1576 1584 0
-106 -1575 1585 0
-106 -1585 1575 1576 0
-107 -1584 1577 0
604 -1587 1578 748 0
-1587 -604 1578 0
1579 -1588 749 605 0
-605 -1588 1579 0
-1589 750 1580 606 0
-606 -1589 1580 0
607 1590 -1581 751 0
-1590 751 1581 607 0
-607 -1590 1581 0
-751 1590 -1581 0
-1582 1591 608 752 0
608 1582 -1591 752 0
-608 1582 -1591 0
-752 -1582 1591 0
-1592 609 753 1583 0
-1592 -609 1583 0
1593 -1584 610 754 0
-1593 754 1584 610 0
-610 -1593 1584 0
-754 1593 -1584 0
-1585 1594 611 755 0
755 -1594 611 1585 0
-755 1594 -1585 0
756 -1595 1586 612 0
-109 1579 1578 -1588 0
-1589 -117 1579 1580 0
-118 -1590 1579 1581 0
-119 1579 -1591 1582 0
-1593 -121 1579 1584 0
-122 -1594 1579 1585 0
-124 -1590 1580 1581 0
-125 1580 -1591 1582 0
-127 -1593 1580 1584 0
-128 -1594 1580 1585 0
-130 -1590 1582 0
-130 1591 -1581 0
-130 -1591 1581 1582 0
-132 -1590 1584 0
-132 1593 -1581 0
-132 -1593 1584 1581 0
-133 -1590 1585 0
-133 -1581 1594 0
-133 1585 1581 -1594 0
-135 1583 -1591 0
-136 1584 -1591 0
-136 -1582 1593 0
-136 -1593 1582 1584 0
-137 1585 -1591 0
-137 1591 -1585 -1582 0
-137 -1582 1594 0
-137 -1594 1582 1585 0
-140 -1594 1583 1585 0
-1593 -142 1585 0
-1584 -142 -1585 1593 0
-1584 -142 1594 0
-142 -1594 1584 1585 0
1585 -144 -1595 1586 0
613 -1596 1587 757 0
-1596 -613 1587 0
-1597 1588 614 758 0
-1597 1588 -614 0
-1598 1589 615 759 0
-615 -1598 1589 0
1599 -1590 616 760 0
-1599 616 1590 760 0
-616 -1599 1590 0
-760 -1590 1599 0
761 1600 617 -1591 0
1591 -1600 617 761 0
-1600 1591 -617 0
-761 1600 -1591 0
-1601 1592 762 618 0
-618 -1601 1592 0
-1593 1602 619 763 0
1593 763 -1602 619 0
-619 1593 -1602 0
-1593 -763 1602 0
-1594 1603 620 764 0
1594 764 -1603 620 0
-1594 -764 1603 0
765 -1604 1595 621 0
-1597 1588 1587 -145 0
-153 -1598 1588 1589 0
-154 -1599 1588 1590 0
-155 -1600 1588 1591 0
1588 -157 -1602 1593 0
1588 -158 -1603 1594 0
-160 -1599 1589 1590 0
-161 -1600 1589 1591 0
-163 1589 -1602 1593 0
-164 1589 -1603 1594 0
1591 -1599 -166 0
-1590 -166 -1591 1599 0
-1590 1600 -166 0
-1600 -166 1590 1591 0
-167 -1590 1601 0
1593 -168 -1599 0
-168 -1590 1602 0
-168 -1602 1590 1593 0
-169 -1599 1594 0
-1590 -169 1603 0
-169 1594 -1603 1590 0
1601 -1591 -171 0
-172 1593 -1600 0
-172 1602 -1591 0
-172 1591 -1602 1593 0
-173 -1600 1594 0
-173 -1594 1600 -1591 0
-173 -1591 1603 0
-173 1594 -1603 1591 0
-176 -1601 1594 0
-176 1592 -1603 1594 0
-178 1594 -1602 0
-178 -1593 -1594 1602 0
-178 -1593 1603 0
-178 1594 -1603 1593 0
-180 1595 -1603 0
-1595 -180 1603 -1594 0
-1604 -180 1594 1595 0
622 -1605 1596 766 0
-1605 -622 1596 0
-1606 1597 767 623 0
-623 -1606 1597 0
1598 -1607 624 768 0
-624 -1607 1598 0
1608 -1599 625 769 0
-1608 1599 769 625 0
-625 -1608 1599 0
-769 -1599 1608 0
1609 -1600 626 770 0
-1609 1600 770 626 0
-626 -1609 1600 0
-770 1609 -1600 0
1610 -1601 627 771 0
-1610 1601 627 771 0
-1610 -627 1601 0
1610 -1601 -771 0
628 772 -1602 1611 0
1602 -1611 772 628 0
-1611 -628 1602 0
-772 1611 -1602 0
-1603 629 1612 773 0
-1612 1603 773 629 0
-773 -1603 1612 0
774 -1613 1604 630 0
-181 1596 1597 -1606 0
-189 -1607 1597 1598 0
-1608 -190 1599 1597 0
-191 -1609 1597 1600 0
-1611 1597 -193 1602 0
-194 -1612 1603 1597 0
-1608 1599 -196 1598 0
-197 -1609 1598 1600 0
-199 -1611 1598 1602 0
-200 -1612 1603 1598 0
-202 -1608 1600 0
-202 1609 -1599 0
-202 -1609 1600 1599 0
-1608 1602 -204 0
-1599 -204 -1602 1608 0
-1599 -204 1611 0
-1611 1599 -204 1602 0
-205 -1608 1603 0
-205 -1599 1612 0
-205 1599 1603 -1612 0
-1600 -207 1610 0
-208 1602 -1609 0
-208 -1600 -1602 1609 0
-208 -1600 1611 0
-208 -1611 1600 1602 0
-209 -1609 1603 0
-209 -1600 -1603 1609 0
-209 -1600 1612 0
-209 -1612 1600 1603 0
-210 1613 -1600 0
-1601 -211 1611 0
-1611 1602 1601 -211 0
-1601 -212 -1603 1610 0
-212 1601 1603 -1612 0
1603 -1611 -214 0
-1603 -214 -1602 1611 0
-214 -1602 1612 0
-214 1602 -1612 1603 0
-1613 1604 1603 -216 0
631 -1614 1605 775 0
-1614 -631 1605 0
-1615 1606 776 632 0
-632 -1615 1606 0
777 1607 -1616 633 0
-633 -1616 1607 0
-1608 1617 634 778 0
-1617 1608 634 778 0
-1617 -634 1608 0
-778 -1608 1617 0
-1609 1618 635 779 0
1609 779 -1618 635 0
-635 1609 -1618 0
-1609 -779 1618 0
-1610 1619 780 636 0
-1619 1610 780 636 0
-1619 -636 1610 0
-1610 1619 -780 0
-1611 1620 637 781 0
-1620 781 1611 637 0
-637 -1620 1611 0
-781 1620 -1611 0
-1612 1621 638 782 0
782 1612 -1621 638 0
-638 1612 -1621 0
-782 -1612 1621 0
783 -1622 1613 639 0
-217 -1615 1606 1605 0
-225 -1616 1606 1607 0
-226 -1617 1606 1608 0
-227 -1618 1606 1609 0
-1620 -229 1606 1611 0
-230 1606 -1621 1612 0
-232 -1617 1607 1608 0
-233 1607 -1618 1609 0
-235 -1620 1607 1611 0
-236 1607 -1621 1612 0
-1617 1609 -238 0
-1608 -238 1618 0
-238 1609 -1618 1608 0
-240 -1617 1611 0
-240 -1608 1620 0
-1620 -240 1608 1611 0
-241 -1617 1612 0
-241 -1608 -1612 1617 0
-241 -1608 1621 0
-241 1608 -1621 1612 0
-243 1619 -1609 0
-244 -1618 1611 0
-244 -1609 1620 0
-244 1609 1611 -1620 0
-245 -1618 1612 0
-245 -1612 1618 -1609 0
-1609 -245 1621 0
1609 -245 -1621 1612 0
-1619 -247 1611 0
-1610 -247 1620 0
-248 -1610 1621 0
-248 1610 1612 -1621 0
-250 -1620 1612 0
-250 -1612 1620 -1611 0
-250 1621 -1611 0
-250 1611 -1621 1612 0
1613 -252 -1621 0
1613 -252 1612 -1622 0
-1624 1615 641 785 0
-1624 1615 -641 0
-1625 1616 642 786 0
-1625 1616 -642 0
-1617 1626 643 787 0
-1626 1617 643 787 0
-1626 -643 1617 0
-787 -1617 1626 0
788 -1618 644 1627 0
1618 788 -1627 644 0
-644 1618 -1627 0
-788 1627 -1618 0
-1619 1628 789 645 0
1619 -1628 789 645 0
-645 1619 -1628 0
-1619 1628 -789 0
1629 -1620 790 646 0
-1629 790 1620 646 0
1629 -1620 -790 0
791 1630 647 -1621 0
1621 647 -1630 791 0
1621 -647 -1630 0
-791 1630 -1621 0
792 -1631 1622 648 0
-1624 1615 -253 1614 0
-1625 1615 -261 1616 0
-262 -1626 1615 1617 0
-263 1615 -1627 1618 0
-265 -1629 1615 1620 0
1621 -266 1615 -1630 0
-268 -1626 1616 1617 0
-269 1616 -1627 1618 0
-271 -1629 1616 1620 0
-272 1621 1616 -1630 0
-1626 -274 1618 0
-274 -1617 1627 0
-274 1618 -1627 1617 0
1628 -275 -1617 0
-276 -1626 1620 0
-276 1629 -1617 0
-276 -1629 1620 1617 0
-1626 -277 1621 0
-1617 -277 1630 0
-277 1617 -1630 1621 0
-279 1628 -1618 0
-280 1620 -1627 0
-1620 -280 -1618 1627 0
-280 1629 -1618 0
-1629 1618 1620 -280 0
-281 1621 -1627 0
-281 -1618 -1621 1627 0
-281 1630 -1618 0
-281 1621 1618 -1630 0
-1619 -283 1629 0
-1619 -284 1630 0
-284 1621 -1630 1619 0
-1629 1621 -286 0
-1620 -286 -1621 1629 0
-1620 -286 1630 0
1621 -286 -1630 1620 0
1621 -1631 1622 -288 0
-1626 1635 652 796 0
1626 796 -1635 652 0
1626 -652 -1635 0
-796 1635 -1626 0
653 -1627 797 1636 0
-1636 1627 797 653 0
-1636 1627 -653 0
-797 1636 -1627 0
-1628 1637 654 798 0
1628 654 -1637 798 0
1628 -654 -1637 0
-1628 1637 -798 0
-1629 1638 799 655 0
1629 -1638 799 655 0
-1629 1638 -799 0
800 656 1639 -1630 0
656 1630 -1639 800 0
-800 -1630 1639 0
801 -1640 1631 657 0
-299 -1636 1624 1627 0
-301 -1638 1624 1629 0
-302 1624 -1639 1630 0
-305 -1636 1625 1627 0
-307 1625 -1638 1629 0
1625 -308 1630 -1639 0
-310 1627 -1635 0
-310 -1626 1636 0
-311 -1626 1637 0
-1629 -312 -1626 1635 0
-1626 -312 1638 0
-1626 -313 1639 0
1626 -313 1630 -1639 0
1637 -315 -1627 0
-316 -1636 1629 0
-316 1638 -1627 0
-1636 -317 1630 0
-317 -1627 -1630 1636 0
-317 1639 -1627 0
-317 1627 1630 -1639 0
1638 -319 -1628 0
-1628 -320 1639 0
1628 -320 1630 -1639 0
-322 -1638 1630 0
-322 1638 -1630 -1629 0
-1629 -322 1639 0
1629 1630 -1639 -322 0
-1631 -324 -1630 1639 0
1630 -324 1631 -1640 0
1644 -1635 661 805 0
-805 -1635 1644 0
-1636 1645 662 806 0
-806 -1636 1645 0
1646 807 -1637 663 0
1637 -1646 807 663 0
1646 -807 -1637 0
1647 -1638 808 664 0
1647 -1638 -808 0
809 1648 665 -1639 0
809 1639 -1648 665 0
-665 1639 -1648 0
-809 -1639 1648 0
810 -1649 1640 666 0
-1636 -346 1644 -1635 0
1645 -346 -1635 0
1646 -347 -1635 0
-348 -1644 1638 0
-348 1647 -1635 0
-349 -1644 1639 0
-349 1648 -1635 0
-351 -1636 1646 0
-352 1638 -1645 0
-352 -1636 1647 0
-1645 -353 1639 0
-1636 -353 -1639 1645 0
-1636 1648 -353 0
-353 1636 -1648 1639 0
1647 -355 -1637 0
-356 -1637 -1639 1646 0
-356 1648 -1637 0
1637 -356 1639 -1648 0
-1647 -358 1639 0
-358 -1638 -1639 1647 0
-358 -1638 1648 0
1638 1639 -1648 -358 0
1639 -360 1640 -1649 0
1653 -1644 814 670 0
-814 -1644 1653 0
1654 -1645 671 815 0
-815 -1645 1654 0
1655 -1646 816 672 0
1646 -1655 672 816 0
1646 -1655 -672 0
-816 -1646 1655 0
-1647 1656 817 673 0
-1647 -817 1656 0
1657 818 674 -1648 0
1648 -1657 818 674 0
-1648 1657 -818 0
819 1658 -1649 675 0
-1658 819 1649 675 0
-819 1658 -1649 0
-382 -1644 1654 0
-1644 1655 -383 0
-384 -1644 1656 0
-385 -1644 -1648 1653 0
-385 -1644 1657 0
-387 -1645 1655 0
-388 -1645 1656 0
-389 -1645 -1648 1654 0
-389 1645 1648 -1657 0
-391 1656 -1646 0
-392 -1646 1657 0
1646 1648 -1657 -392 0
-1647 -1648 -394 1656 0
-1647 1657 -394 0
1647 -1657 -394 1648 0
-1657 -396 1649 0
1648 -396 1649 -1658 0
1662 -1653 679 823 0
-823 -1653 1662 0
-1654 1663 680 824 0
-824 -1654 1663 0
-1655 1664 825 681 0
-681 -1664 1655 0
-1655 -825 1664 0
-1656 1665 826 682 0
-1656 -826 1665 0
-1657 1666 683 827 0
-1666 1657 827 683 0
-1666 1657 -683 0
-827 -1657 1666 0
828 -1658 1667 684 0
828 -1667 1658 684 0
-418 1663 -1653 0
-419 -1653 1664 0
-420 1665 -1653 0
-423 -1654 1664 0
-424 -1654 1665 0
-1655 -427 1665 0
-428 -1655 1666 0
-428 1655 -1666 1657 0
-1656 -1657 -430 1665 0
-1656 -430 1666 0
1656 1657 -1666 -430 0
-1657 -432 -1658 1666 0
1657 -432 1658 -1667 0
1671 -1662 832 688 0
-832 -1662 1671 0
-1663 1672 833 689 0
-833 -1663 1672 0
1673 690 834 -1664 0
-834 1673 -1664 0
-1665 1674 835 691 0
-1665 1674 -835 0
-1666 1675 692 836 0
1666 -1675 836 692 0
1675 -836 -1666 0
837 1676 -1667 693 0
-1676 837 1667 693 0
-454 1672 -1662 0
-455 1673 -1662 0
-456 1674 -1662 0
-459 -1663 1673 0
-460 -1663 1674 0
1674 -1664 -463 0
-464 1675 -1664 0
1664 1666 -464 -1675 0
-466 1675 -1665 0
-1666 -468 -1667 1675 0
1666 -468 1667 -1676 0
841 -1671 1680 697 0
-841 -1671 1680 0
-1672 698 1681 842 0
-842 -1672 1681 0
1682 -1673 843 699 0
-843 -1673 1682 0
-1674 1683 844 700 0
-844 -1674 1683 0
845 -1675 701 1684 0
1675 845 -1684 701 0
-1675 1684 -845 0
846 -1676 1685 702 0
846 -1685 1676 702 0
-490 1681 -1671 0
-491 1682 -1671 0
-492 1683 -1671 0
-495 -1672 1682 0
-496 -1672 1683 0
-499 -1673 1683 0
-1673 1684 -500 0
-502 -1674 1684 0
1675 -504 1676 -1685 0
-1680 706 1689 850 0
-1680 -850 1689 0
-1681 707 851 1690 0
-851 -1681 1690 0
-1682 708 1691 852 0
-852 -1682 1691 0
-1683 709 1692 853 0
-853 -1683 1692 0
-1684 710 1693 854 0
-854 -1684 1693 0
-1694 855 1685 711 0
-526 -1680 1690 0
-527 -1680 1691 0
-528 -1680 1692 0
-529 -1680 1693 0
-531 -1681 1691 0
-532 -1681 1692 0
-535 -1682 1692 0
-536 -1682 1693 0
-538 -1683 1693 0
-1684 -540 -1685 1693 0
1684 -540 -1694 1685 0
-1689 859 715 0
-1689 -859 0
-1690 860 716 0
-1690 -860 0
-1691 861 717 0
-1691 -861 0
-1692 862 718 0
-1692 -862 0
-1693 863 719 0
-1693 -863 0
864 1694 720 0
-1689 -562 0
-1689 -563 0
-1689 -564 0
-1690 -567 0
-1690 -568 0
-1690 -569 0
-1691 -571 0
-1691 -572 0
-1692 -574 0
-1695 577 721 0
-1696 578 722 0
-1696 -578 0
-1697 579 723 0
-579 -1697 0
-1698 724 580 0
-580 -1698 0
1699 725 581 0
1699 -725 0
-1700 582 726 0
-1701 727 583 0
-583 -1701 0
-1702 728 584 0
-1703 729 585 0
-1697 -9 0
-10 -1698 0
-1701 -13 0
-1702 -14 0
-16 -1698 0
-1701 -19 0
-1702 -20 0
-1701 -24 0
-1702 -25 0
-1699 -28 0
1701 -28 0
-1699 -29 0
1702 -29 0
-1701 -34 0
-1702 -34 0
-1704 586 1695 730 0
-1705 1696 731 587 0
-1705 -587 1696 0
-1706 588 1697 732 0
-1706 -588 1697 0
-1707 589 1698 733 0
-1707 -589 1698 0
1708 590 -1699 734 0
-1708 1699 734 590 0
-1708 -590 1699 0
1708 -734 -1699 0
-1709 591 1700 735 0
1710 -1701 592 736 0
-1710 736 1701 592 0
-1710 -592 1701 0
1710 -736 -1701 0
-1702 1711 593 737 0
-1711 737 1702 593 0
-1702 -737 1711 0
738 -1712 594 1703 0
-1706 -45 1696 1697 0
-1707 -46 1696 1698 0
-1708 1699 1696 -47 0
-1710 -49 1696 1701 0
-50 -1711 1696 1702 0
-1707 -52 1697 1698 0
-1708 -53 1697 1699 0
-1710 -55 1701 1697 0
-1711 -56 1697 1702 0
-58 -1708 1698 1699 0
-1710 -60 1698 1701 0
-61 -1711 1698 1702 0
-64 -1708 1701 0
-64 1710 -1699 0
-64 -1710 1699 1701 0
-1708 -65 1702 0
1711 -65 -1699 0
-68 -1711 1702 1700 0
-1710 -70 1702 0
-70 -1701 1711 0
-70 -1711 1701 1702 0
595 -1713 1704 739 0
-1713 -595 1704 0
-1714 1705 596 740 0
-1714 1705 -596 0
-1715 1706 741 597 0
-1715 -597 1706 0
-1716 1707 598 742 0
-1716 -598 1707 0
1717 599 -1708 743 0
-1717 1708 599 743 0
-599 -1717 1708 0
1717 -743 -1708 0
-1718 600 1709 744 0
1719 -1710 601 745 0
-1719 745 1710 601 0
-1719 -601 1710 0
1719 -1710 -745 0
1720 -1711 746 602 0
-1720 746 602 1711 0
1720 -746 -1711 0
747 -1721 1712 603 0
-1714 1705 1704 -73 0
-1715 -81 1706 1705 0
-1716 -82 1705 1707 0
-83 -1717 1708 1705 0
-1719 -85 1710 1705 0
-86 -1720 1711 1705 0
-88 -1716 1706 1707 0
-89 -1717 1706 1708 0
-91 -1719 1706 1710 0
-92 -1720 1706 1711 0
-94 -1717 1707 1708 0
-1719 -96 1707 1710 0
-97 -1720 1707 1711 0
-99 -1717 1709 0
-100 -1717 1710 0
1719 -100 -1708 0
-1719 -100 1708 1710 0
-1717 -101 1711 0
1720 -101 -1708 0
-101 -1720 1708 1711 0
-102 -1717 1712 0
-1720 -104 1709 1711 0
-1719 -106 1711 0
-106 1720 -1710 0
-106 -1720 1710 1711 0
-107 -1719 1712 0
-1721 -108 1711 1712 0
604 -1722 1713 748 0
-1722 -604 1713 0
-1723 1714 749 605 0
-1723 -605 1714 0
-1724 606 1715 750 0
-1724 -606 1715 0
-1725 607 1716 751 0
-1725 -607 1716 0
1726 608 -1717 752 0
-1726 1717 608 752 0
-1726 -608 1717 0
1726 -752 -1717 0
-1727 609 753 1718 0
-1727 -609 1718 0
-1719 1728 610 754 0
-1728 754 1719 610 0
-1728 -610 1719 0
-1719 -754 1728 0
1729 -1720 611 755 0
-1729 1720 755 611 0
1729 -755 -1720 0
756 -1730 1721 612 0
-1723 -109 1714 1713 0
-1724 -117 1715 1714 0
-118 -1725 1714 1716 0
-119 -1726 1714 1717 0
-1728 -121 1714 1719 0
-122 -1729 1714 1720 0
-124 -1725 1715 1716 0
-125 -1726 1715 1717 0
-127 -1728 1715 1719 0
-1729 -128 1715 1720 0
-1726 -130 1716 1717 0
-1728 -132 1719 1716 0
-133 -1729 1716 1720 0
-1726 -136 1719 0
-136 1728 -1717 0
-1728 -136 1717 1719 0
-1726 -137 1720 0
-137 1729 -1717 0
-137 1717 -1729 1720 0
-140 -1729 1720 1718 0
-1728 -142 1720 0
-1719 -142 -1720 1728 0
-1719 1729 -142 0
-142 -1729 1719 1720 0
1720 -144 1721 -1730 0
613 -1731 1722 757 0
-1731 -613 1722 0
-1732 1723 614 758 0
-1732 1723 -614 0
-1733 1724 615 759 0
-1733 1724 -615 0
-1734 1725 616 760 0
-1734 1725 -616 0
1735 -1726 617 761 0
-1735 1726 617 761 0
-1735 1726 -617 0
1735 -1726 -761 0
-1736 1727 762 618 0
-1736 -618 1727 0
-1728 1737 763 619 0
-1737 1728 763 619 0
-1737 -619 1728 0
-1728 1737 -763 0
-1729 1738 620 764 0
-1738 1729 764 620 0
-1729 1738 -764 0
765 -1739 1730 621 0
-1732 1723 -145 1722 0
-1733 1723 -153 1724 0
-154 -1734 1723 1725 0
-155 -1735 1723 1726 0
-1736 -156 1723 1727 0
-1737 1723 -157 1728 0
1729 1723 -158 -1738 0
-1734 -160 1724 1725 0
-1735 -161 1726 1724 0
-1736 -162 1724 1727 0
-163 -1737 1724 1728 0
-164 -1738 1724 1729 0
-1735 1726 -166 1725 0
-1736 -167 1725 1727 0
-1737 1728 -168 1725 0
-1738 -169 1725 1729 0
-1726 -172 1737 0
-1737 -172 1726 1728 0
-1726 -173 1738 0
1726 -1738 -173 1729 0
-1737 -175 1727 1728 0
-1738 -176 1727 1729 0
-1737 -178 1729 0
-1728 -178 1738 0
-1738 -178 1729 1728 0
-1738 -180 1730 0
1729 -180 1730 -1739 0
622 -1740 1731 766 0
-1740 -622 1731 0
-1741 1732 623 767 0
-1741 1732 -623 0
-1742 1733 624 768 0
-1742 1733 -624 0
-1743 1734 625 769 0
-1743 -625 1734 0
1744 -1735 626 770 0
-1744 1735 770 626 0
-1744 -626 1735 0
1744 -1735 -770 0
-1745 1736 627 771 0
-1745 -627 1736 0
-1737 1746 628 772 0
-1746 1737 772 628 0
-1746 1737 -628 0
-1737 1746 -772 0
1747 -1738 629 773 0
-1747 1738 773 629 0
-1747 1738 -629 0
1747 -1738 -773 0
774 -1748 1739 630 0
-1741 1732 -181 1731 0
-1742 -189 1733 1732 0
-1743 1734 -190 1732 0
-191 -1744 1732 1735 0
-1746 1732 -193 1737 0
-1747 -194 1732 1738 0
-1743 1733 -196 1734 0
-1744 -197 1733 1735 0
-199 -1746 1733 1737 0
-200 1733 -1747 1738 0
-1744 -202 1734 1735 0
-1746 1737 -204 1734 0
-205 1734 -1747 1738 0
-1735 -208 1746 0
-1746 -208 1735 1737 0
-1744 -209 1738 0
-1735 -209 1747 0
1735 -209 -1747 1738 0
-1747 -212 1738 1736 0
-1746 1738 -214 0
1737 -1747 -214 1738 0
1738 -216 -1748 1739 0
-1750 1741 632 776 0
-1750 -632 1741 0
-1751 1742 633 777 0
-633 -1751 1742 0
-1752 1743 778 634 0
-1752 1743 -634 0
-1744 1753 635 779 0
-1753 1744 635 779 0
1753 -1744 -779 0
-1754 636 1745 780 0
-1746 1755 637 781 0
-1755 1746 781 637 0
-1755 1746 -637 0
-1746 1755 -781 0
1756 -1747 638 782 0
1747 -1756 782 638 0
1756 -1747 -782 0
783 -1757 1748 639 0
-1750 1741 -217 1740 0
-1751 1742 -225 1741 0
-226 -1752 1741 1743 0
-1755 -229 1741 1746 0
-230 -1756 1741 1747 0
-232 -1752 1742 1743 0
1742 -235 -1755 1746 0
1742 -236 -1756 1747 0
-1753 1743 -238 1744 0
1743 -1755 -240 1746 0
-241 1743 -1756 1747 0
-1744 -244 1755 0
1744 -1755 -244 1746 0
-1753 1747 -245 0
-1744 1756 -245 0
1744 -245 -1756 1747 0
-1755 1746 1745 -247 0
-1756 -248 1747 1745 0
1747 -250 -1756 1746 0
-1747 1757 -252 0
1747 1748 -252 -1757 0
-1759 1750 785 641 0
-1759 1750 -641 0
-1760 1751 786 642 0
-1760 1751 -642 0
-1761 1752 787 643 0
-1761 1752 -643 0
-1753 1762 644 788 0
-1762 1753 788 644 0
1762 -1753 -788 0
-1763 1754 645 789 0
-1755 1764 646 790 0
-1764 1755 646 790 0
1765 -1756 647 791 0
1756 -1765 791 647 0
1765 -1756 -791 0
792 -1766 1757 648 0
-1759 -253 1749 1750 0
-1760 1751 -261 1750 0
-262 -1761 1750 1752 0
-265 -1764 1750 1755 0
-1765 1750 -266 1756 0
-268 -1761 1751 1752 0
-271 1751 -1764 1755 0
1751 1756 -272 -1765 0
-276 1752 1755 -1764 0
1752 -277 -1765 1756 0
1753 -1764 -280 1755 0
-1753 -281 1765 0
1753 -281 -1765 1756 0
-1765 -284 1756 1754 0
-1755 1765 -286 0
1756 -1765 -286 1755 0
-1765 -288 1757 0
1756 -288 1757 -1766 0
-1770 1761 652 796 0
-1762 1771 653 797 0
-1771 1762 797 653 0
1771 -1762 -797 0
-1772 1763 654 798 0
-1773 1764 655 799 0
1774 -1765 656 800 0
-1774 1765 800 656 0
1774 -1765 -800 0
801 -1775 1766 657 0
-301 -1773 1759 1764 0
-302 -1774 1759 1765 0
-1770 -304 1760 1761 0
-307 1760 -1773 1764 0
-1773 -312 1764 1761 0
1761 -1774 -313 1765 0
1762 -1773 -316 1764 0
1762 -317 -1774 1765 0
1763 1765 -320 -1774 0
-322 -1774 1765 1764 0
1765 -324 1766 -1775 0
-1779 1770 661 805 0
-1771 1780 806 662 0
-1780 1771 806 662 0
-1771 1780 -806 0
-1781 1772 663 807 0
-1782 1773 664 808 0
-1782 1773 -664 0
1783 -1774 665 809 0
1774 -1783 809 665 0
1783 -1774 -809 0
810 -1784 1775 666 0
1770 -349 -1783 1774 0
1771 1774 -353 -1783 0
1774 -356 -1783 1772 0
-1773 -358 1783 0
1774 -358 -1783 1773 0
-1783 -360 1775 0
1774 -360 1775 -1784 0
-1780 1789 815 671 0
-1790 1781 672 816 0
-1790 1781 -672 0
-1791 1782 673 817 0
-1783 1792 674 818 0
-1792 1783 818 674 0
-1783 1792 -818 0
819 -1793 1784 675 0
1779 -385 -1792 1783 0
1780 -389 1783 -1792 0
-1792 1783 -392 1781 0
-1792 1783 -394 1782 0
-1792 1784 -396 0
1783 -396 1784 -1793 0
-1789 1798 824 680 0
-1792 1801 683 827 0
-1801 1792 827 683 0
-1792 1801 -827 0
828 -1802 1793 684 0
-428 -1801 1792 1790 0
1792 -432 1793 -1802 0
-1798 1807 833 689 0
-1801 1810 836 692 0
1801 -1810 692 836 0
-1801 1810 -836 0
837 -1811 1802 693 0
1801 1802 -468 -1811 0
-1807 1816 698 842 0
-842 -1807 1816 0
-1810 1819 701 845 0
1810 -1819 701 845 0
-1810 1819 -845 0
846 -1820 1811 702 0
-1808 1819 -500 0
1810 -504 1811 -1820 0
-1816 707 1825 851 0
-851 -1816 1825 0
-1819 854 1828 710 0
-1819 -854 1828 0
-1829 1820 855 711 0
-1816 -531 1826 0
-532 -1816 1827 0
1819 -540 -1829 1820 0
-1825 860 716 0
-1825 -860 0
-1826 861 717 0
-1826 -861 0
-1827 718 862 0
-1827 -862 0
-1828 863 719 0
864 1829 720 0
-1825 -567 0
-1825 -568 0
-1826 -571 0
-1826 -572 0
-1833 724 580 0
-1834 725 581 0
1835 582 726 0
-1836 583 727 0
-1837 728 584 0
-1838 729 585 0
-1837 -14 0
-1837 -20 0
-1836 -24 0
-1837 -25 0
-1836 -28 0
-1837 -29 0
1837 -32 0
-1837 -34 0
-1842 733 1833 589 0
-1843 590 1834 734 0
1844 591 -1835 735 0
-1845 736 1836 592 0
1846 -1837 593 737 0
-1846 737 1837 593 0
738 -1847 594 1838 0
-1845 -60 1836 1833 0
-1846 -61 1837 1833 0
-1845 -64 1834 1836 0
-1846 -65 1834 1837 0
1846 -68 -1835 0
-1851 1842 598 742 0
-1852 599 1843 743 0
1853 600 -1844 744 0
-1854 745 1845 601 0
1855 -1846 602 746 0
-1855 746 1846 602 0
747 -1856 1847 603 0
-97 -1855 1842 1846 0
-1854 -100 1843 1845 0
1855 -104 -1844 0
-106 -1855 1845 1846 0
-1860 607 1851 751 0
-1861 608 1852 752 0
1862 609 753 -1853 0
-1863 754 1854 610 0
1864 -1855 611 755 0
-1864 1855 755 611 0
1864 -755 -1855 0
756 -1865 1856 612 0
-140 1864 -1853 0
-142 -1864 1854 1855 0
1871 -1862 762 618 0
-1872 1863 763 619 0
-1864 1873 620 764 0
1864 -1873 764 620 0
-1864 1873 -764 0
765 -1874 1865 621 0
-1870 1861 -166 1860 0
-176 -1862 1873 0
-1873 -180 1865 0
1864 -180 1865 -1874 0
-1879 1870 770 626 0
1880 -1871 771 627 0
-771 -1871 1880 0
-1881 1872 772 628 0
-1873 1882 629 773 0
-1882 1873 773 629 0
-1873 1882 -773 0
774 -1883 1874 630 0
-212 1882 -1871 0
-1882 -216 1874 0
1873 -216 -1883 1874 0
-1880 1889 780 636 0
-780 1889 -1880 0
-1882 1891 638 782 0
-1891 1882 782 638 0
-782 -1882 1891 0
783 -1892 1883 639 0
-248 -1882 1889 -1880 0
-248 1891 -1880 0
1882 1883 -252 -1892 0
1898 -1889 645 789 0
-789 1898 -1889 0
-1891 1900 647 791 0
-1900 1891 791 647 0
1900 -1891 -791 0
792 -1901 1892 648 0
1898 -284 -1891 -1889 0
1891 -288 1892 -1901 0
-1898 1907 798 654 0
-1898 1907 -798 0
1909 -1900 656 800 0
1909 -1900 -800 0
801 -1910 1901 657 0
1900 -324 -1910 1901 0
-1907 1916 663 807 0
-1907 1916 -807 0
1918 -1909 665 809 0
1918 -1909 -809 0
810 -1919 1910 666 0
-1907 1917 -355 0
-1908 -358 1918 0
1909 -360 1910 -1919 0
-1916 1925 672 816 0
-1916 1925 -816 0
-1917 1926 817 673 0
-1918 1927 674 818 0
819 -1928 1919 675 0
-392 -1916 1927 0
1918 -396 1919 -1928 0
1934 -1925 825 681 0
-825 -1925 1934 0
-1926 1935 682 826 0
-1927 1936 683 827 0
828 -1937 1928 684 0
-428 -1925 1936 0
1927 1928 -432 -1937 0
-1934 1943 834 690 0
-1934 1943 -834 0
-1935 1944 835 691 0
-1936 1945 836 692 0
-1936 1945 -836 0
837 -1946 1937 693 0
-1934 1944 -463 0
1936 1937 -468 -1946 0
-1943 699 1952 843 0
-1943 -843 1952 0
-1944 1953 700 844 0
-1944 -844 1953 0
-1945 1954 845 701 0
-1945 1954 -845 0
846 -1955 1946 702 0
-1943 1954 -500 0
1945 -504 1946 -1955 0
-1952 852 1961 708 0
-1952 -852 1961 0
-1953 709 1962 853 0
-1953 -853 1962 0
-1954 854 1963 710 0
-1954 -854 1963 0
1955 -1964 855 711 0
-1952 -535 1962 0
-1952 -536 1963 0
-1953 -538 1963 0
1954 -540 -1964 1955 0
-1961 861 717 0
-1961 -861 0
-1962 862 718 0
-1962 -862 0
-1963 863 719 0
-1963 -863 0
1964 864 720 0
-1961 -571 0
-1961 -572 0
-1962 -574 0
-1965 577 721 0
-1966 578 722 0
-1966 -578 0
-1967 579 723 0
-1967 -579 0
1968 724 580 0
1968 -724 0
-1969 725 581 0
-1969 -581 0
1970 582 726 0
-1971 583 727 0
-1971 -583 0
-1972 728 584 0
-1973 729 585 0
-1967 -9 0
-1969 -11 0
-1971 -13 0
-1972 -14 0
-1969 -17 0
-1971 -19 0
-1972 -20 0
-1968 -22 0
1969 -22 0
-1968 -24 0
1971 -24 0
-1968 -25 0
1972 -25 0
-1969 -28 0
-1971 -28 0
-1972 -29 0
-1972 -34 0
-1974 586 1965 730 0
-1975 1966 731 587 0
-1975 -587 1966 0
-1976 588 1967 732 0
-1976 -588 1967 0
1977 733 -1968 589 0
-1977 1968 733 589 0
-1977 -589 1968 0
1977 -733 -1968 0
-1969 1978 734 590 0
-1978 590 1969 734 0
-1978 -590 1969 0
-1969 1978 -734 0
1979 591 -1970 735 0
1980 -1971 736 592 0
-1980 736 1971 592 0
-1980 -592 1971 0
1980 -1971 -736 0
-1972 1981 593 737 0
-1981 737 1972 593 0
-1972 -737 1981 0
738 -1982 594 1973 0
-1976 -45 1966 1967 0
-1977 -46 1966 1968 0
-1978 -47 1969 1966 0
-1980 -49 1966 1971 0
-1981 -50 1972 1966 0
-1977 1968 -52 1967 0
-1978 -53 1967 1969 0
-1980 -55 1971 1967 0
-1981 -56 1972 1967 0
-58 -1977 1969 0
-58 1978 -1968 0
-58 -1978 1968 1969 0
-60 -1977 1971 0
-60 1980 -1968 0
-60 -1980 1971 1968 0
-61 -1977 1972 0
1981 -61 -1968 0
-1981 -61 1968 1972 0
-1978 -64 1971 0
-64 -1980 1971 1969 0
-1978 -65 1972 0
-1969 1981 -65 0
-1981 -65 1972 1969 0
-68 1981 -1970 0
-1980 -70 1972 0
1981 -1971 -70 0
-70 -1981 1971 1972 0
595 -1983 1974 739 0
-1984 1975 596 740 0
-1985 1976 741 597 0
-1985 -597 1976 0
1986 -1977 598 742 0
-1986 1977 598 742 0
1986 -742 -1977 0
-1978 1987 599 743 0
-1987 599 1978 743 0
-1987 -599 1978 0
-1978 1987 -743 0
1988 600 -1979 744 0
-1980 1989 745 601 0
-1989 745 1980 601 0
-1989 -601 1980 0
-1980 1989 -745 0
1990 -1981 602 746 0
-1990 746 1981 602 0
1990 -746 -1981 0
747 -1991 1982 603 0
-1984 -81 1976 0
-1985 -81 1976 1975 0
-1984 1977 -82 0
-1986 1977 -82 1975 0
-1987 -83 1978 1975 0
-85 -1989 1975 1980 0
-1990 -86 1981 1975 0
-88 -1986 1976 1977 0
-89 -1987 1976 1978 0
-91 -1989 1976 1980 0
-92 -1990 1981 1976 0
-94 1987 -1977 0
1989 -96 -1977 0
-1989 -96 1980 1977 0
-1986 -97 1981 0
-97 1990 -1977 0
-97 -1990 1981 1977 0
-100 -1978 1989 0
-1989 -100 1978 1980 0
-1987 -101 1981 0
-1978 1990 -101 0
-101 -1990 1981 1978 0
1988 -104 -1981 -1979 0
1990 -104 -1979 0
-105 -1988 1982 0
-106 -1989 1981 0
-1980 -106 1990 0
-1990 -106 1980 1981 0
-1993 1984 749 605 0
-1993 -605 1984 0
-1994 606 1985 750 0
-606 -1994 1985 0
1995 607 -1986 751 0
-1995 1986 607 751 0
-1995 1986 -607 0
-751 1995 -1986 0
-1987 1996 608 752 0
-1996 608 1987 752 0
-1996 -608 1987 0
-752 -1987 1996 0
1997 609 753 -1988 0
-753 1997 -1988 0
-1989 1998 754 610 0
-1998 754 1989 610 0
-610 -1998 1989 0
-1989 -754 1998 0
1999 -1990 611 755 0
-1999 1990 755 611 0
1999 -755 -1990 0
756 -2000 1991 612 0
-1993 -109 1984 1983 0
-1994 -117 1985 1984 0
-118 -1995 1986 1984 0
-119 -1996 1987 1984 0
-1998 -121 1984 1989 0
-122 -1999 1984 1990 0
-124 -1995 1986 1985 0
-125 -1996 1987 1985 0
-127 -1998 1985 1989 0
-1999 -128 1985 1990 0
-1995 -130 1987 0
-130 1996 -1986 0
-130 -1996 1987 1986 0
-132 1998 -1986 0
-132 -1998 1986 1989 0
-133 1999 -1986 0
-136 -1998 1989 1987 0
-1987 -137 1999 0
-137 -1999 1987 1990 0
-139 -1997 1989 0
-139 -1989 1997 -1988 0
-139 1998 -1988 0
-1997 -140 1990 0
1997 -140 -1990 -1988 0
1999 -140 -1988 0
-1998 -142 1990 0
-1989 1999 -142 0
-142 -1999 1989 1990 0
-1999 -144 1991 0
-2002 1993 614 758 0
-2003 1994 615 759 0
2004 -1995 760 616 0
-2004 1995 616 760 0
-2004 1995 -616 0
-760 2004 -1995 0
-1996 2005 761 617 0
-2005 1996 617 761 0
2005 -1996 -761 0
2006 -1997 762 618 0
1997 -2006 762 618 0
2006 -1997 -762 0
-1998 2007 619 763 0
-2007 1998 763 619 0
-619 -2007 1998 0
-1998 2007 -763 0
-1999 2008 620 764 0
-2008 1999 764 620 0
-1999 2008 -764 0
765 -2009 2000 621 0
-154 -2004 1995 1993 0
-2007 1993 -157 1998 0
-160 -2004 1995 1994 0
-163 1994 -2007 1998 0
-1995 2005 -166 0
-1995 2007 -168 0
1995 -2007 -168 1998 0
-1995 -169 2008 0
-172 -1996 2007 0
-172 1996 -2007 1998 0
-2005 -173 1999 0
-1996 -173 2008 0
1998 -175 -2006 0
-1998 -175 2006 -1997 0
2007 -175 -1997 0
-176 1999 -2006 0
-176 -1999 2006 -1997 0
2008 -176 -1997 0
-178 -2007 1999 0
-1998 -178 -1999 2007 0
-1998 -178 2008 0
-2008 -178 1998 1999 0
-2008 -180 2000 0
-2004 2013 625 769 0
2013 -2004 -769 0
2014 -2005 770 626 0
-2014 2005 770 626 0
-626 -2014 2005 0
2014 -2005 -770 0
2015 -2006 627 771 0
-2015 2006 771 627 0
2015 -771 -2006 0
2016 -2007 628 772 0
2007 -2016 772 628 0
-2007 2016 -772 0
-2008 2017 629 773 0
-2017 2008 773 629 0
-2008 2017 -773 0
774 -2018 2009 630 0
2002 -2016 -193 2007 0
-199 2003 -2016 2007 0
-202 -2004 2014 0
-2004 2016 -204 0
2004 -2016 -204 2007 0
-205 -2004 2017 0
-208 -2005 2016 0
-208 2005 -2016 2007 0
-209 -2014 2008 0
-209 -2005 2017 0
2007 -2015 -211 0
-2007 2015 -211 -2006 0
2016 -211 -2006 0
-212 -2015 2008 0
-2008 -212 2015 -2006 0
2017 -212 -2006 0
2008 -2016 -214 0
-2008 2016 -214 -2007 0
-2007 2017 -214 0
2007 -2017 -214 2008 0
-2017 -216 2009 0
2008 -216 -2018 2009 0
-2013 2022 634 778 0
-778 2022 -2013 0
-2014 2023 635 779 0
-2014 2023 -779 0
2024 -2015 636 780 0
2015 -2024 780 636 0
-636 2015 -2024 0
-780 2024 -2015 0
2025 637 -2016 781 0
2016 -2025 781 637 0
-637 -2025 2016 0
2025 -781 -2016 0
2026 -2017 638 782 0
-2026 2017 782 638 0
-2026 2017 -638 0
2026 -2017 -782 0
-2027 783 2018 639 0
-2013 2023 -238 0
-2013 2025 -240 0
-241 -2013 2026 0
-2023 -244 2016 0
-244 -2014 -2016 2023 0
-244 -2014 2025 0
-2023 -245 2017 0
-2014 -245 2026 0
-2026 -245 2017 2014 0
2016 -247 -2024 0
-247 2024 -2016 -2015 0
2025 -247 -2015 0
-248 2017 -2024 0
-248 -2017 2024 -2015 0
2026 -248 -2015 0
-248 2017 2015 -2026 0
-250 -2025 2017 0
-250 -2017 2025 -2016 0
-250 2026 -2016 0
-250 2016 -2026 2017 0
-2026 -252 2018 0
-2022 2031 787 643 0
-787 2031 -2022 0
2032 -2023 788 644 0
-2032 2023 788 644 0
2032 -2023 -788 0
2033 -2024 789 645 0
-2033 2024 789 645 0
-789 -2024 2033 0
-2025 2034 646 790 0
2025 -2034 790 646 0
-2025 2034 -790 0
2035 -2026 647 791 0
-2035 2026 791 647 0
-2035 2026 -647 0
2035 -2026 -791 0
792 -2027 2036 648 0
-2036 792 2027 648 0
2032 -2022 -274 0
-276 -2022 2034 0
-2022 -277 2035 0
2032 -2025 -280 -2023 0
-2023 2034 -280 0
-2032 -281 2026 0
-2023 -281 2035 0
-2035 -281 2026 2023 0
-283 2025 -2033 0
-283 -2025 2033 -2024 0
-283 2034 -2024 0
-284 2026 -2033 0
-284 -2026 2033 -2024 0
2035 -284 -2024 0
2026 -2034 -286 0
2034 -2026 -286 -2025 0
-2025 2035 -286 0
2025 -2035 2026 -286 0
-2035 -288 2027 0
2040 -2031 652 796 0
-796 2040 -2031 0
2041 -2032 653 797 0
2041 -2032 -797 0
-2033 2042 654 798 0
2033 -2042 798 654 0
2033 -654 -2042 0
2042 -2033 -798 0
2043 -2034 799 655 0
2034 -2043 799 655 0
-655 2034 -2043 0
-799 -2034 2043 0
2044 -2035 656 800 0
-2044 2035 800 656 0
-2035 2044 -800 0
801 -2036 2045 657 0
-2045 801 2036 657 0
-310 -2031 2041 0
-2031 -312 2043 0
-2031 2044 -313 0
-2032 -316 -2034 2041 0
-2032 -316 2043 0
-2032 -317 2044 0
2032 -317 -2044 2035 0
-319 2034 -2042 0
-319 -2034 -2033 2042 0
-319 2043 -2033 0
2035 -320 -2042 0
-2035 -320 2042 -2033 0
2044 -320 -2033 0
2033 2035 -320 -2044 0
-322 2035 -2043 0
-322 -2035 2043 -2034 0
-322 2044 -2034 0
-322 2034 -2044 2035 0
-2044 -324 2036 0
-2035 -324 -2036 2044 0
2035 -324 -2045 2036 0
2049 -2040 805 661 0
-805 2049 -2040 0
-2041 2050 806 662 0
-2041 -806 2050 0
2051 -2042 663 807 0
-2051 2042 807 663 0
-807 -2042 2051 0
2052 -2043 664 808 0
-2052 2043 808 664 0
2052 -2043 -808 0
-2044 2053 665 809 0
-2053 2044 809 665 0
-2053 2044 -665 0
-2044 2053 -809 0
810 -2045 2054 666 0
810 -2054 2045 666 0
-2040 2050 -346 0
-2040 -348 2052 0
-349 -2040 2053 0
-2041 -352 2052 0
-2050 2044 -353 0
-2041 2053 -353 0
2041 -2053 -353 2044 0
-2051 2043 -355 0
2051 -2043 -355 -2042 0
-2042 2052 -355 0
-2051 -356 2044 0
-356 -2044 2051 -2042 0
-356 2053 -2042 0
-356 2044 2042 -2053 0
-358 -2052 2044 0
-358 -2044 -2043 2052 0
-358 2053 -2043 0
-358 -2053 2043 2044 0
-2053 -360 2045 0
2044 -360 -2054 2045 0
-2050 2059 671 815 0
-815 2059 -2050 0
-2051 2060 816 672 0
2051 -2060 816 672 0
-2051 2060 -816 0
-2052 2061 673 817 0
-2061 2052 817 673 0
-2052 2061 -817 0
-2053 2062 674 818 0
-2062 2053 818 674 0
-2053 2062 -818 0
-2063 2054 819 675 0
-2049 -385 2062 0
-2050 -388 2061 0
-2050 -389 2062 0
-391 2052 -2060 0
-2052 -2051 -391 2060 0
2061 -2051 -391 0
2053 -392 -2060 0
2060 -2053 -392 -2051 0
-2051 2062 -392 0
2053 -392 2051 -2062 0
-2061 2053 -394 0
2061 -2053 -394 -2052 0
-2052 2062 -394 0
-2062 2052 -394 2053 0
-2062 -396 2054 0
-2053 -396 2063 0
-2058 2067 823 679 0
-2059 2068 824 680 0
-2060 2069 825 681 0
2060 -2069 825 681 0
2060 -681 -2069 0
-825 -2060 2069 0
-2061 2070 682 826 0
2061 -2070 826 682 0
-2061 -826 2070 0
-2062 2071 683 827 0
-2071 2062 827 683 0
828 -2063 2072 684 0
828 -2072 2063 684 0
2061 -427 -2069 0
-2061 -427 2069 -2060 0
-427 2070 -2060 0
-428 2062 -2069 0
-428 -2060 -2062 2069 0
-2070 2062 -430 0
-2062 2070 -430 -2061 0
2061 2062 -430 -2071 0
-2071 -432 2063 0
-2067 2076 832 688 0
-2068 2077 833 689 0
-2069 2078 690 834 0
-2078 2069 834 690 0
-834 -2069 2078 0
-2070 2079 691 835 0
2070 -2079 835 691 0
-2070 2079 -835 0
2080 -2071 692 836 0
2071 -2080 836 692 0
837 -2081 2072 693 0
-2065 -445 2079 0
2070 -2078 -463 0
-2070 -2069 -463 2078 0
-2069 2079 -463 0
-2071 2078 -464 -2069 0
2069 -2080 -464 2071 0
2071 -2079 -466 0
2071 2070 -466 -2080 0
-2080 -468 2072 0
-2076 2085 841 697 0
-2076 -841 2085 0
-2077 2086 842 698 0
-2078 2087 843 699 0
-2087 2078 843 699 0
-843 -2078 2087 0
-2079 2088 844 700 0
-844 -2079 2088 0
2080 -2089 845 701 0
846 -2090 2081 702 0
-2076 -490 2086 0
-499 2079 -2087 0
-2079 -499 -2078 2087 0
-499 2088 -2078 0
2080 -2087 -500 0
-2080 -2078 -500 2087 0
2080 2078 -500 -2089 0
2080 -502 2079 -2089 0
-2089 -504 2081 0
2080 -504 2081 -2090 0
-2085 706 2094 850 0
-2086 707 2095 851 0
-851 -2086 2095 0
-2087 852 2096 708 0
2087 -2096 852 708 0
-2087 -852 2096 0
-2088 709 2097 853 0
-853 -2088 2097 0
2089 854 -2098 710 0
2090 -2099 855 711 0
-535 2088 -2096 0
-2088 -535 -2087 2096 0
-535 -2087 2097 0
2089 2087 -536 -2098 0
-2088 -2089 -538 2097 0
2089 2088 -538 -2098 0
-540 -2098 2090 0
-2094 859 715 0
-2094 -859 0
-2095 860 716 0
-2095 -860 0
-2096 717 861 0
-2096 -861 0
-2097 718 862 0
-2097 -862 0
2098 863 719 0
2099 864 720 0
-2094 -562 0
-2094 -563 0
-2094 -564 0
-2095 -567 0
-2095 -568 0
-2096 -571 0
-2096 -2098 -572 0
2098 -572 2096 0
-576 2099 0
-2101 578 722 0
-2102 579 723 0
-2103 724 580 0
2104 725 581 0
2104 -725 0
2105 582 726 0
-2106 583 727 0
-2106 -583 0
-2108 729 585 0
-2107 -25 0
2106 -28 0
2107 -29 0
-2112 733 2103 589 0
2113 590 -2104 734 0
2113 -734 -2104 0
2114 591 -2105 735 0
2115 -2106 592 736 0
-2107 2116 593 737 0
-2116 593 2107 737 0
-2107 -737 2116 0
738 -2117 594 2108 0
-2115 -49 2101 2106 0
-64 2115 -2104 0
2116 -65 -2104 0
2122 599 -2113 743 0
2122 -743 -2113 0
2123 600 -2114 744 0
2124 -2115 601 745 0
2125 -2116 602 746 0
2125 -746 -2116 0
747 -2126 2117 603 0
2125 -101 -2113 0
2123 -104 -2116 -2114 0
-106 -2125 2115 2116 0
2131 752 -2122 608 0
2131 -752 -2122 0
2132 609 753 -2123 0
2133 -2124 610 754 0
2134 -2125 611 755 0
-2134 2125 755 611 0
2134 -755 -2125 0
756 -2135 2126 612 0
-137 2134 -2122 0
-2134 -144 2126 0
2140 -2131 761 617 0
2140 -2131 -761 0
2141 -2132 762 618 0
-2133 2142 619 763 0
-2134 2143 620 764 0
-2143 2134 764 620 0
-2134 2143 -764 0
765 -2144 2135 621 0
-2131 -173 2143 0
-2141 -176 2134 0
-2143 -180 2135 0
2149 -2140 770 626 0
2149 -2140 -770 0
2150 -2141 627 771 0
-2150 2141 771 627 0
-2142 2151 628 772 0
-2143 2152 629 773 0
-2152 2143 773 629 0
-2143 2152 -773 0
774 -2153 2144 630 0
-2140 -209 2152 0
-2152 -216 2144 0
-2149 2158 635 779 0
-779 -2149 2158 0
2159 -2150 636 780 0
2150 -2159 780 636 0
2160 -2151 637 781 0
-2152 2161 638 782 0
-2161 2152 782 638 0
-2149 -245 2161 0
-2161 2153 -252 0
2167 -2158 788 644 0
2167 -2158 -788 0
2168 -2159 645 789 0
-2160 2169 646 790 0
-2160 2169 -790 0
2170 -2161 647 791 0
-2170 2161 791 647 0
-2158 2170 -281 0
2159 -284 2161 -2170 0
2176 -2167 797 653 0
2176 -2167 -797 0
2177 -2168 654 798 0
-2169 2178 655 799 0
2179 -2170 656 800 0
2170 -2179 800 656 0
2179 -2170 -800 0
-2167 -316 2178 0
-2167 2179 -317 0
-2176 2185 -806 0
-2177 2186 807 663 0
2188 -2179 809 665 0
2179 -2188 809 665 0
2188 -2179 -809 0
-2176 -352 2187 0
-2176 2188 -353 0
-2178 2188 -358 0
-2185 2194 815 671 0
2196 -2187 673 817 0
2188 -2197 818 674 0
2195 -2188 -392 -2186 0
-2194 2203 824 680 0
-2196 2205 682 826 0
2197 -2206 827 683 0
-2203 2212 833 689 0
-2205 2214 691 835 0
2206 -2215 836 692 0
-2212 2221 842 698 0
-2214 2223 844 700 0
2215 -2224 845 701 0
-2221 707 2230 851 0
-2223 -853 2232 0
2224 854 -2233 710 0
-2230 860 716 0
-2230 -860 0
-2232 718 862 0
-2232 -862 0
2233 863 719 0
-2230 -567 0
-2230 -568 0
-2235 577 721 0
-2236 578 722 0
-2236 -578 0
-2237 579 723 0
-579 -2237 0
2238 724 580 0
2238 -724 0
2239 725 581 0
2240 582 726 0
-2241 583 727 0
-2242 728 584 0
-2243 729 585 0
-2237 -9 0
2238 -22 0
2239 -22 0
-2238 -24 0
2241 -24 0
-2238 -25 0
2242 -25 0
2241 -28 0
2242 -29 0
-2245 2236 731 587 0
-587 -2245 2236 0
-2246 732 2237 588 0
-588 -2246 2237 0
2247 733 -2238 589 0
-2247 2238 733 589 0
2248 590 -2239 734 0
2248 -734 -2239 0
2249 591 -2240 735 0
2250 -2241 592 736 0
-2250 736 2241 592 0
-2242 2251 593 737 0
-2251 737 2242 593 0
738 -2252 594 2243 0
-37 -2245 2235 2236 0
-45 -2246 2236 2237 0
-2251 -50 2236 2242 0
-2251 -56 2237 2242 0
-60 2250 -2238 0
2251 -61 -2238 0
-61 2238 2242 -2251 0
-64 2250 -2239 0
2251 -65 -2239 0
-70 -2241 2251 0
-2254 596 740 2245 0
-2255 2246 741 597 0
-597 -2255 2246 0
2256 -2247 598 742 0
-2256 2247 742 598 0
2257 599 -2248 743 0
2258 600 -2249 744 0
2259 -2250 601 745 0
-2259 745 2250 601 0
2260 -2251 602 746 0
2260 -746 -2251 0
747 -2261 2252 603 0
-81 -2255 2245 2246 0
-97 2260 -2247 0
-100 2259 -2248 0
2258 -104 -2251 -2249 0
2260 -104 -2249 0
2259 -2251 -2250 -106 0
-106 2260 -2250 0
-2263 605 2254 749 0
-2264 606 750 2255 0
2265 607 -2256 751 0
-2265 2256 751 607 0
2267 609 753 -2258 0
-2259 2268 610 754 0
-2268 754 2259 610 0
2269 -2260 611 755 0
2269 -755 -2260 0
756 -2270 2261 612 0
-137 2269 -2257 0
-139 2268 -2258 0
2267 -140 -2260 -2258 0
2269 -140 -2258 0
-2259 2269 -142 0
-2269 -144 2261 0
2274 -2265 616 760 0
2276 -2267 762 618 0
2276 -2267 -762 0
-2268 2277 619 763 0
-2277 2268 619 763 0
-2269 2278 620 764 0
-2278 2269 764 620 0
-2269 2278 -764 0
765 -2279 2270 621 0
2278 -176 -2267 0
-178 2268 -2278 2269 0
-2278 -180 2270 0
2283 -2274 625 769 0
2285 -2276 627 771 0
-2277 2286 628 772 0
2277 -2286 772 628 0
-2277 2286 -772 0
2287 -2278 773 629 0
-2287 2278 773 629 0
774 -2288 2279 630 0
2287 -212 -2276 0
-2286 2278 -214 0
-2287 -216 2279 0
2294 -2285 636 780 0
2286 -2295 781 637 0
2296 -2287 782 638 0
2287 -2296 782 638 0
783 -2297 2288 639 0
-241 -2283 2296 0
-248 2296 -2285 0
-2295 -250 2287 0
-2296 2288 -252 0
2303 -2294 645 789 0
-2304 2295 790 646 0
2305 -2296 647 791 0
-2305 2296 647 791 0
792 -2306 2297 648 0
-2294 -284 2305 0
-2304 2296 -286 0
-2305 -288 2297 0
2296 -288 2297 -2306 0
2312 -2303 654 798 0
-2313 2304 799 655 0
2314 -2305 656 800 0
-2314 2305 800 656 0
801 -2315 2306 657 0
-2303 2314 -320 0
-2313 -322 2305 0
-2314 -324 2306 0
2305 -324 2306 -2315 0
2321 -2312 663 807 0
-2322 2313 808 664 0
2323 -2314 665 809 0
-2323 2314 809 665 0
2323 -2314 -809 0
810 -2324 2315 666 0
-2322 -358 2314 0
-2323 -360 2315 0
2314 -360 2315 -2324 0
-2331 2322 817 673 0
-2323 2332 674 818 0
-2332 2323 818 674 0
2323 -2332 -674 0
819 -2333 2324 675 0
2330 -2323 -392 -2321 0
-2331 2323 -394 0
-2332 2324 -396 0
2339 -2330 681 825 0
2331 -2340 682 826 0
-2332 2341 827 683 0
-2341 2332 827 683 0
828 -2342 2333 684 0
-2340 2332 -430 0
-2341 2333 -432 0
2332 2333 -432 -2342 0
2340 -2349 835 691 0
-2350 2341 836 692 0
837 -2351 2342 693 0
-2339 2350 -464 0
-2349 2341 -466 0
-2350 -468 2342 0
2349 -2358 844 700 0
-2349 2358 -844 0
2350 845 -2359 701 0
846 -2360 2351 702 0
-502 2350 -2358 0
2349 -502 2350 -2359 0
-504 -2359 2351 0
2358 709 -2367 853 0
2359 854 -2368 710 0
2360 -2369 855 711 0
2359 -538 -2367 0
2358 2359 -538 -2368 0
-540 -2368 2360 0
2367 862 718 0
2368 863 719 0
2369 864 720 0
2368 -574 0
-2370 577 721 0
-2371 578 722 0
-2371 -578 0
-2372 579 723 0
-579 -2372 0
-2373 724 580 0
-2373 -580 0
-2374 725 581 0
-2374 -581 0
-2375 582 726 0
-2376 583 727 0
2377 728 584 0
2377 -728 0
-2378 729 585 0
-2371 -9 0
-2372 -9 0
-2374 -22 0
-2373 -24 0
-2376 -24 0
-2374 -28 0
-2376 -28 0
-2379 586 2370 730 0
-2380 2371 731 587 0
-2380 -587 2371 0
-2381 588 2372 732 0
-2381 -588 2372 0
-2382 589 2373 733 0
-2382 -589 2373 0
-2383 590 2374 734 0
-2384 591 2375 735 0
-2385 736 2376 592 0
-2385 -592 2376 0
2386 737 593 -2377 0
2386 -737 -2377 0
738 -2387 594 2378 0
-2382 -46 2371 2373 0
-2383 -47 2374 2371 0
-2382 -52 2372 2373 0
-2383 -53 2372 2374 0
-2385 -60 2376 2373 0
595 -2388 2379 739 0
-2389 2380 596 740 0
-2389 2380 -596 0
-2391 2382 598 742 0
-2392 599 2383 743 0
-2393 600 2384 744 0
745 -2394 2385 601 0
-2394 -601 2385 0
2395 746 602 -2386 0
2395 -746 -2386 0
747 -2396 2387 603 0
-85 -2394 2380 2385 0
-2390 -91 2385 0
-91 -2394 2381 2385 0
-96 -2394 2385 2382 0
-2398 2389 749 605 0
-2399 606 2390 750 0
-2402 609 753 2393 0
-2402 -609 2393 0
-2403 754 2394 610 0
2404 -2395 611 755 0
2404 -755 -2395 0
756 -2405 2396 612 0
-2400 -130 2392 0
-2401 -130 2391 2392 0
-2411 2402 762 618 0
-2404 2413 620 764 0
-2404 2413 -764 0
765 -2414 2405 621 0
-2420 2411 627 771 0
2422 -2413 773 629 0
2422 -2413 -773 0
774 -2423 2414 630 0
-2429 2420 636 780 0
-2422 2431 782 638 0
-2422 2431 -782 0
783 -2432 2423 639 0
-2431 2423 -252 0
-2438 2429 645 789 0
-2431 2440 647 791 0
2431 -2440 791 647 0
-2431 2440 -791 0
792 -2441 2432 648 0
-2440 -288 2432 0
-2447 2438 654 798 0
2449 -2440 800 656 0
2449 -2440 -800 0
801 -2450 2441 657 0
-2456 2447 663 807 0
2458 -2449 809 665 0
-2449 2458 -809 0
810 -2459 2450 666 0
-2448 -358 2458 0
-2458 -360 2450 0
2458 -360 -2450 -2449 0
-2465 2456 672 816 0
2467 -2458 674 818 0
-2458 2467 -818 0
-2468 2459 819 675 0
-2474 2465 -681 0
-2467 2476 683 827 0
-2467 2476 -827 0
-2483 2474 834 690 0
-2476 2485 836 692 0
-2476 2485 -836 0
-2485 2494 701 845 0
-2485 2494 -845 0
-2492 2485 -500 0
-2483 2494 -500 0
-2493 -853 2502 0
-2494 710 2503 854 0
-2494 -854 2503 0
-2502 862 718 0
-2503 863 719 0
-2503 -863 0
-2506 578 722 0
-2507 579 723 0
-2508 724 580 0
-2509 725 581 0
-2509 -581 0
-2510 582 726 0
-2511 583 727 0
-2512 728 584 0
2513 729 585 0
-2512 -14 0
-2512 -20 0
-2508 -24 0
-2511 -24 0
-2512 -25 0
-2512 -29 0
-2512 -32 0
-2512 -34 0
-2515 2506 731 587 0
-2516 588 2507 732 0
-2517 589 2508 733 0
-2518 590 2509 734 0
-2518 -590 2509 0
-2519 591 2510 735 0
-2520 736 2511 592 0
-2521 737 593 2512 0
738 2522 594 -2513 0
2522 -738 -2513 0
-2517 -60 2511 0
-2520 -60 2511 2508 0
-2521 -65 2509 2512 0
-2521 -68 2510 2512 0
-2526 2517 598 742 0
-2527 599 2518 743 0
-2528 600 2519 744 0
-2529 745 2520 601 0
-2530 746 602 2521 0
747 -2522 2531 603 0
2531 -747 -2522 0
-2530 -97 2517 2521 0
-2535 607 2526 751 0
-2536 608 2527 752 0
-2537 609 753 2528 0
-2538 610 2529 754 0
-2530 2539 611 755 0
-2539 2530 611 755 0
756 -2531 2540 612 0
2540 -756 -2531 0
-2544 2535 616 760 0
-2545 2536 617 761 0
-2546 2537 762 618 0
-2547 2538 763 619 0
-2539 2548 620 764 0
-2548 2539 764 620 0
765 -2540 2549 621 0
2549 -765 -2540 0
-2553 -625 2544 0
-2555 2546 627 771 0
-2556 2547 628 772 0
-2557 2548 629 773 0
-2548 2557 -773 0
774 -2549 2558 630 0
2558 -774 -2549 0
-2554 -202 2544 2545 0
-2562 2553 634 778 0
-2563 2554 -635 0
-2564 2555 636 780 0
-2557 2566 638 782 0
-2566 2557 638 782 0
783 -2558 2567 639 0
-2558 -783 2567 0
-2571 2562 787 643 0
-2572 2563 788 644 0
-2573 2564 -645 0
-2566 2575 -791 0
792 -2567 2576 648 0
-2576 2567 792 648 0
-792 -2567 2576 0
-2572 -281 2566 0
-2574 2566 -286 0
2566 -288 2567 -2576 0
-2581 2572 653 797 0
-2583 2574 655 799 0
-2575 2584 -800 0
801 -2576 2585 657 0
801 -2585 2576 657 0
-801 -2576 2585 0
-2581 -317 2575 0
-2582 -320 2575 0
2575 -324 -2585 2576 0
-2590 2581 806 662 0
-2584 2593 -809 0
810 -2585 2594 666 0
-2594 810 2585 666 0
-810 2594 -2585 0
-2591 -356 2584 0
-2583 -358 2593 0
2584 -360 -2594 2585 0
-2593 2602 818 674 0
-2594 2603 819 675 0
-2603 2594 819 675 0
2593 -396 -2603 2594 0
-2602 2611 827 683 0
828 -2603 2612 684 0
-2612 828 2603 684 0
2602 -432 2603 -2612 0
-2611 2620 836 692 0
837 -2612 2621 693 0
837 -2621 2612 693 0
-468 2611 2612 -2621 0
-2620 845 701 2629 0
846 -2630 2621 702 0
-504 2620 -2630 2621 0
-2629 854 2638 710 0
2630 -2639 855 711 0
2629 -540 -2639 2630 0
-2638 863 719 0
2639 864 720 0
2639 -576 2638 0
-2640 577 721 0
2641 578 722 0
-2642 579 723 0
-579 -2642 0
-2643 724 580 0
-580 -2643 0
-2644 725 581 0
-581 -2644 0
-2645 582 726 0
-2646 583 727 0
-2646 -583 0
-2647 728 584 0
2648 729 585 0
-2641 -9 0
2642 -9 0
2644 -11 0
2646 -13 0
-2643 -16 0
-2646 -19 0
-2644 -22 0
-2643 -24 0
-2646 -24 0
-2647 -25 0
-2646 -28 0
-2644 -29 0
-2647 -29 0
-2647 -34 0
-2649 586 2640 730 0
587 -2650 731 2641 0
-587 2641 -2650 0
-2642 2651 588 732 0
-2651 588 2642 732 0
-732 -2642 2651 0
-2652 589 2643 733 0
-2653 590 2644 734 0
-2653 -590 2644 0
-2654 591 2645 735 0
-2655 736 2646 592 0
-2655 -592 2646 0
-2656 737 593 2647 0
738 2657 594 -2648 0
-37 -2650 2640 2641 0
2656 -50 -2641 0
-2652 -52 2643 2642 0
-2655 -55 2642 2646 0
-2653 -58 2644 2643 0
-2652 -60 2646 0
-2655 -60 2646 2643 0
-2652 -61 2647 0
-2656 -61 2643 2647 0
-2653 -64 2646 0
-2655 -64 2646 2644 0
-2656 -65 2644 2647 0
-2656 -70 2647 2646 0
596 -2659 740 2650 0
-2659 2650 -596 0
2660 -2651 597 741 0
2651 -2660 741 597 0
-597 -2660 2651 0
-2661 2652 598 742 0
-2662 599 2653 743 0
-2663 600 2654 744 0
-2663 -600 2654 0
2664 -2655 601 745 0
-2664 745 2655 601 0
2665 -2656 746 602 0
-2665 746 602 2656 0
2665 -2656 -746 0
747 -2657 2666 603 0
-73 -2659 2649 2650 0
-2662 -83 2650 2653 0
-88 2652 -2660 0
-91 2655 -2660 0
-91 2664 -2651 0
-2661 -94 2653 0
-2662 -94 2653 2652 0
-2664 -96 2655 2652 0
-2665 -97 2652 2656 0
-100 -2664 2653 2655 0
-2665 -101 2656 2653 0
-2663 -104 2656 0
-2665 -104 2656 2654 0
-2665 -106 2656 2655 0
2669 606 -2660 750 0
-2669 606 2660 750 0
-2670 607 2661 751 0
-2671 608 2662 752 0
-2672 609 753 2663 0
-2672 -609 2663 0
2673 754 -2664 610 0
-2673 2664 610 754 0
2674 -2665 611 755 0
-2674 2665 755 611 0
-2674 -611 2665 0
2674 -2665 -755 0
756 -2666 2675 612 0
-2671 -130 2662 2661 0
-2673 -132 2664 2661 0
-2674 -133 2665 2661 0
-2673 -136 2662 2664 0
-137 -2674 2665 2662 0
-2673 -139 2664 2663 0
-2674 -140 2665 2663 0
2674 -142 -2664 0
-2674 2664 -142 2665 0
-2669 2678 759 615 0
-2678 2669 615 759 0
-2679 2670 616 760 0
-2680 2671 617 761 0
-2681 2672 762 618 0
-2681 -618 2672 0
-2682 2673 763 619 0
-2674 2683 764 620 0
-2683 2674 764 620 0
-2683 2674 -620 0
-2674 2683 -764 0
765 -2675 2684 621 0
-2680 2671 -166 2670 0
-2682 -168 2670 2673 0
-2683 -169 2670 2674 0
-172 2671 2673 -2682 0
-2683 2671 -173 2674 0
-2682 -175 2672 2673 0
-2683 2674 -176 2672 0
-2673 -178 2683 0
-178 -2683 2674 2673 0
2687 -2678 768 624 0
-2688 2679 625 769 0
-2689 2680 770 626 0
-2690 2681 627 771 0
-2690 -627 2681 0
-2691 2682 772 628 0
-2692 2683 629 773 0
-2692 2683 -629 0
-2683 2692 -773 0
774 -2684 2693 630 0
-198 -2690 2678 2681 0
-2689 -202 2680 2679 0
-203 -2690 2679 2681 0
2679 -2691 -204 2682 0
2679 -205 2683 -2692 0
-2690 2680 -207 2681 0
-208 2680 -2691 2682 0
2680 -209 -2692 2683 0
-2692 2683 -212 2681 0
-2692 2682 -214 2683 0
2696 -2687 777 633 0
-2697 2688 634 778 0
-2698 2689 635 779 0
-2699 2690 780 636 0
-2699 -636 2690 0
-2700 2691 637 781 0
-2692 2701 782 638 0
-2701 2692 782 638 0
-2701 2692 -638 0
-2692 2701 -782 0
783 -2693 2702 639 0
-2698 2689 -238 2688 0
-2700 2691 -240 2688 0
-241 2688 2692 -2701 0
2689 -244 -2700 2691 0
2689 -2701 -245 2692 0
-248 -2701 2690 2692 0
2701 -250 -2691 0
2691 -2701 -250 2692 0
-2692 2701 -252 -2693 0
2705 -2696 642 786 0
-2706 2697 787 643 0
-2707 2698 788 644 0
-2708 2699 645 789 0
-2708 -645 2699 0
-2709 2700 646 790 0
-2709 2700 -646 0
-2701 2710 647 791 0
2701 -2710 791 647 0
-2710 2701 -647 0
-2701 2710 -791 0
792 -2702 2711 648 0
-2707 2698 -274 2697 0
-276 2700 -2709 2697 0
2697 -2710 -277 2701 0
2698 -2709 -280 2700 0
2698 -2710 -281 2701 0
2701 -284 -2710 2699 0
2701 2700 -286 -2710 0
2714 -2705 651 795 0
-2716 2707 653 797 0
-2717 2708 798 654 0
-2717 2708 -654 0
2709 -2718 799 655 0
-2710 2719 656 800 0
2710 -2719 800 656 0
2710 -2719 -656 0
-2710 2719 -800 0
801 -2711 2720 657 0
-2716 2706 -310 2707 0
-312 2709 -2718 2706 0
2706 -2719 -313 2710 0
2707 -316 -2718 2709 0
2707 2710 -317 -2719 0
-2717 2710 -320 0
2710 2708 -320 -2719 0
2709 -322 -2719 2710 0
-2710 2719 -2711 -324 0
-2714 2723 660 804 0
-2725 2716 662 806 0
-2726 2717 663 807 0
-2726 2717 -663 0
2718 -2727 808 664 0
-2719 2728 809 665 0
2719 -2728 809 665 0
2719 -2728 -665 0
-2719 2728 -809 0
810 -2720 2729 666 0
2716 2719 -353 -2728 0
2719 2717 -356 -2728 0
2718 -358 -2728 2719 0
-2723 2732 813 669 0
-2735 2726 816 672 0
-2735 2726 -672 0
2737 -2728 818 674 0
2728 -2737 818 674 0
2728 -2737 -674 0
-2729 2738 819 675 0
2725 -389 -2737 2728 0
2726 2728 -392 -2737 0
2727 -2737 -394 2728 0
-2732 2741 822 678 0
-2744 2735 681 825 0
-2744 2735 -681 0
-2737 2746 683 827 0
2737 -2746 827 683 0
2737 -2746 -683 0
828 -2738 2747 684 0
-428 -2746 2735 2737 0
-2737 2746 -432 -2738 0
-2741 2750 687 831 0
-2741 -831 2750 0
-2753 2744 690 834 0
2755 -2746 692 836 0
2746 -2755 836 692 0
2746 -2755 -692 0
2746 -2755 -464 2744 0
2755 -2746 -2747 -468 0
-2750 2759 840 696 0
-2762 2753 843 699 0
2755 -2764 845 701 0
2753 2755 -500 -2764 0
-2759 705 2768 849 0
2764 854 -2773 710 0
-523 -2759 2772 0
2764 2762 -536 -2773 0
-2768 714 858 0
-2768 -858 0
-2772 718 862 0
-2772 -862 0
2773 863 719 0
-2768 -556 0
-2768 -557 0
-2768 -558 0
-2768 -559 0
2778 724 580 0
-2780 582 726 0
2783 729 585 0
2779 -22 0
2781 -24 0
2782 -25 0
2787 733 -2778 589 0
2788 -2779 590 734 0
-2789 591 2780 735 0
2790 -2781 592 736 0
2791 -2782 593 737 0
2791 -2782 -737 0
738 2792 594 -2783 0
-58 2788 -2778 0
2790 -60 -2778 0
2791 -61 -2778 0
-2779 2791 -65 0
2796 -2787 598 742 0
-2798 600 2789 744 0
2799 -2790 601 745 0
2800 -2791 746 602 0
2800 -2791 -746 0
747 -2792 2801 603 0
2800 -97 -2787 0
-2788 2800 -101 0
-2790 -106 2800 0
-2807 609 753 2798 0
2808 -2799 610 754 0
2809 -2800 611 755 0
2809 -2800 -755 0
756 -2801 2810 612 0
2809 -133 -2796 0
2809 -2800 -144 -2801 0
-2816 2807 762 618 0
2818 -2809 620 764 0
2818 -2809 -764 0
765 -2810 2819 621 0
-2808 2818 -178 0
2818 -2809 -180 -2810 0
-2825 -627 2816 0
2827 -2818 629 773 0
2827 -2818 -773 0
774 -2819 2828 630 0
2818 -2827 -212 2816 0
2827 -2818 -216 -2819 0
-2834 636 2825 780 0
2836 -2827 782 638 0
2827 -2836 -638 0
783 -2828 2837 639 0
2836 -2827 -252 -2828 0
-2843 2834 645 789 0
2845 -2836 791 647 0
2836 -2845 791 647 0
792 -2837 2846 648 0
2845 -2836 -288 -2837 0
-2852 2843 654 798 0
2854 -2845 800 656 0
2845 -2854 800 656 0
801 -2846 2855 657 0
2854 -2845 -324 -2846 0
-2861 2852 663 807 0
2863 -2854 809 665 0
2854 -2863 809 665 0
-2855 2864 810 666 0
2863 -2854 -360 -2855 0
-2870 2861 672 816 0
2872 -2863 818 674 0
2863 -2872 818 674 0
2872 -2863 -396 -2864 0
-2879 2870 681 825 0
-2871 2880 682 826 0
2881 -2872 827 683 0
2872 -2881 827 683 0
-2888 2879 690 834 0
-2880 2889 691 835 0
2881 -2890 692 836 0
-2889 2898 844 700 0
2890 2888 -500 -2899 0
-2898 -853 2907 0
2899 854 -2908 710 0
-2907 862 718 0
2908 863 719 0
-2914 725 581 0
-2915 582 726 0
-2917 728 584 0
-2916 -28 0
-2917 -29 0
-2924 591 2915 735 0
-2925 736 2916 592 0
-2926 737 593 2917 0
-2926 -65 2914 2917 0
-2933 600 2924 744 0
-2934 745 2925 601 0
-2935 746 602 2926 0
-2942 609 753 2933 0
-2943 2934 610 754 0
-2944 2935 755 611 0
-2951 2942 762 618 0
-2952 2943 763 619 0
-2953 2944 764 620 0
-2960 2951 627 771 0
-2961 2952 772 628 0
-2962 2953 629 773 0
-2969 2960 636 780 0
-2970 2961 781 637 0
2962 -2971 782 638 0
-2978 2969 645 789 0
-2979 2970 646 790 0
2971 -2980 647 791 0
-2987 2978 654 798 0
-2988 2979 799 655 0
2980 -2989 800 656 0
-2996 2987 663 807 0
-2997 2988 808 664 0
2989 -2998 809 665 0
-3005 2996 672 816 0
2997 -3006 -673 0
-3006 2998 -394 0
-3014 3005 -681 0
3006 -3015 682 826 0
-3023 3014 690 834 0
3015 -3024 691 835 0
-3032 3023 -699 0
3024 -3033 844 700 0
3033 3032 -535 -3042 0
3042 862 718 0
-3048 724 580 0
3049 -725 0
-3052 728 584 0
3053 729 585 0
-3057 733 3048 589 0
738 3062 594 -3053 0
3061 -65 -3049 0
3070 -3061 -746 0
747 -3062 3071 603 0
3079 -3070 611 755 0
756 -3071 3080 612 0
3088 -3079 764 620 0
765 -3080 3089 621 0
3088 -3079 -180 -3080 0
3097 -3088 629 773 0
3097 -3088 -216 -3089 0
3106 -3097 782 638 0
3115 -3106 791 647 0
3124 -3115 800 656 0
3133 -3124 809 665 0
3142 -3133 -818 0
-3318 724 580 0
3320 582 726 0
-3322 728 584 0
3323 729 585 0
-3327 733 3318 589 0
3329 591 -3320 735 0
-3331 737 593 3322 0
738 3332 594 -3323 0
3338 600 -3329 744 0
747 -3332 3341 603 0
-97 -3340 3327 3331 0
3340 -104 -3329 0
3347 609 753 -3338 0
3349 -3340 611 755 0
756 -3341 3350 612 0
3349 -140 -3338 0
3349 -144 -3340 -3341 0
3356 -3347 762 618 0
3358 -3349 764 620 0
3358 -3349 -764 0
-3350 3359 765 621 0
3358 -176 -3347 0
3358 -3349 -180 -3350 0
3365 -3356 627 771 0
3367 -3358 773 629 0
774 -3359 3368 630 0
3367 -212 -3356 0
3367 -3358 -216 -3359 0
3374 -3365 636 780 0
3376 -3367 782 638 0
783 -3368 3377 639 0
3376 -248 -3365 0
3376 -3367 -252 -3368 0
3383 -3374 645 789 0
3385 -3376 647 791 0
3385 -3376 -791 0
792 -3377 3386 648 0
-792 3386 -3377 0
3385 -3374 -284 0
3385 -288 -3377 -3376 0
3392 -3383 654 798 0
3394 -3385 800 656 0
801 -3386 3395 657 0
3394 -3383 -320 0
3394 -3385 -324 -3386 0
-3392 3401 807 663 0
3403 -3394 809 665 0
-3395 3404 810 666 0
3403 -3392 -356 0
3403 -3394 -360 -3395 0
-3401 3410 672 816 0
3410 -3401 -816 0
3412 -3403 674 818 0
-3404 3413 819 675 0
3412 -392 -3401 0
3412 -3403 -396 -3404 0
3421 -3412 827 683 0
-3413 3422 828 684 0
3421 -428 -3410 0
3421 -3412 -432 -3413 0
3430 -3421 836 692 0
3430 -3421 -468 -3422 0
-3430 3439 -845 0
3439 710 -3448 854 0
3448 863 719 0
-3589 725 581 0
-3589 -581 0
3588 -16 0
3589 -17 0
3591 -19 0
-3588 -22 0
-3588 -24 0
-3588 -25 0
-3589 -28 0
-3589 -29 0
-3591 -34 0
-3723 724 580 0
-3727 728 584 0
-3726 -28 0
-3735 736 3726 592 0
-3736 -61 3727 3723 0
-106 -3745 3735 3736 0
-3752 -140 3745 0
-3761 3752 618 762 0
-3770 3761 771 627 0
-3779 3770 780 636 0
-3788 3779 789 645 0
-3797 3788 654 798 0
-3806 3797 807 663 0
-3815 3806 672 816 0
-3824 3815 825 681 0
3824 -3833 834 690 0
3833 -3842 843 699 0
3842 -708 -3851 0
3851 -717 0
-3856 578 722 0
-3857 579 723 0
3858 724 580 0
3858 -724 0
-3859 725 581 0
-3859 -581 0
3860 582 726 0
-3861 727 583 0
-3862 728 584 0
3863 729 585 0
-3861 -13 0
-3862 -14 0
-3861 -19 0
-3862 -20 0
-3858 -22 0
3859 -22 0
-3858 -24 0
3861 -24 0
3862 -25 0
-3861 -28 0
-3862 -29 0
-3861 -34 0
-3862 -34 0
3867 733 -3858 589 0
3867 -733 -3858 0
3868 -3859 590 734 0
-3868 590 3859 734 0
3868 -3859 -734 0
3869 591 -3860 735 0
3870 -3861 592 736 0
-3870 736 3861 592 0
3870 -3861 -736 0
3871 -3862 593 737 0
-3871 737 3862 593 0
3871 -737 -3862 0
738 3872 594 -3863 0
-3871 -50 3856 3862 0
-3871 -56 3862 3857 0
-58 -3867 3859 0
3868 -58 -3858 0
-60 -3867 3861 0
3870 -60 -3858 0
3871 -61 -3858 0
3858 -61 -3871 3862 0
-3870 -64 3859 3861 0
-3859 3871 -65 0
-3871 -65 3862 3859 0
3871 -68 -3860 0
3871 -3861 -70 0
-70 -3871 3861 3862 0
3876 -3867 598 742 0
3876 -742 -3867 0
3877 -3868 743 599 0
-3877 599 3868 743 0
3877 -3868 -743 0
3878 600 -3869 744 0
-3870 3879 601 745 0
-3879 745 3870 601 0
-3879 -601 3870 0
-3870 3879 -745 0
3880 746 602 -3871 0
-3880 3871 746 602 0
3880 -746 -3871 0
747 -3872 3881 603 0
-94 3877 -3867 0
3879 -96 -3867 0
3880 -97 -3867 0
3879 -100 -3868 0
-3868 3880 -101 0
-101 -3880 3868 3871 0
-3878 -104 3871 0
3878 -104 -3871 -3869 0
3880 -104 -3869 0
-3879 -106 3871 0
-3870 -106 3880 0
-3880 -106 3870 3871 0
3885 607 -3876 751 0
3885 -751 -3876 0
3886 -3877 608 752 0
-3886 608 3877 752 0
3886 -3877 -752 0
3887 609 753 -3878 0
3878 -3887 753 609 0
3887 -753 -3878 0
-3879 3888 610 754 0
-3888 754 3879 610 0
-3879 3888 -754 0
3889 -3880 611 755 0
-3889 3880 755 611 0
3889 -755 -3880 0
756 -3881 3890 612 0
-130 3886 -3876 0
-132 3888 -3876 0
-133 3889 -3876 0
-3877 -137 3889 0
-137 -3889 3877 3880 0
-139 3888 -3878 0
-3887 -140 3880 0
3887 -140 -3880 -3878 0
3889 -140 -3878 0
-3888 -142 3880 0
-3879 3889 -142 0
-3889 -142 3879 3880 0
3889 -144 -3880 -3881 0
3894 -3885 616 760 0
3894 -3885 -760 0
3895 -3886 617 761 0
-3895 3886 617 761 0
3895 -3886 -761 0
3896 -3887 762 618 0
3887 -3896 762 618 0
3896 -3887 -762 0
3897 -3888 619 763 0
-3897 3888 763 619 0
3897 -3888 -763 0
3898 -3889 764 620 0
3889 -3898 764 620 0
3898 -3889 -764 0
-3890 3899 765 621 0
3899 -765 -3890 0
-3885 3895 -166 0
3897 -3885 -168 0
-3885 -169 3898 0
-3886 3898 -173 0
3886 -3898 -173 3889 0
3888 -175 -3896 0
3897 -175 -3887 0
3889 -176 -3896 0
3896 -3889 -3887 -176 0
3898 -176 -3887 0
-3888 -178 3898 0
3898 -3889 -180 -3890 0
-3889 -180 3899 0
3903 -3894 625 769 0
3903 -3894 -769 0
3904 -3895 770 626 0
-3904 3895 626 770 0
3905 -3896 627 771 0
-3905 3896 771 627 0
3905 -771 -3896 0
3906 -3897 628 772 0
3897 -3906 772 628 0
3906 -3897 -772 0
3907 -3898 773 629 0
-3907 3898 629 773 0
3898 -3907 -629 0
3907 -3898 -773 0
774 -3899 3908 630 0
3908 -774 -3899 0
3904 -3894 -202 0
-3894 3906 -204 0
-205 -3894 3907 0
3894 -205 3898 -3907 0
-3895 3907 -209 0
3895 -209 -3907 3898 0
3897 -3905 -211 0
3906 -211 -3896 0
3898 -3905 -212 0
3905 -3898 -212 -3896 0
3907 -212 -3896 0
3907 -3897 -214 0
-3907 -216 3899 0
3907 -3898 -216 -3899 0
3912 -3903 634 778 0
3913 -3904 635 779 0
3914 -3905 636 780 0
3914 -3905 -780 0
3915 637 -3906 781 0
3906 -3915 781 637 0
3915 -781 -3906 0
3916 -3907 638 782 0
3907 -3916 782 638 0
3916 -3907 -782 0
783 -3908 3917 639 0
-3908 -783 3917 0
3913 -3903 -238 0
-3903 3915 -240 0
-241 3916 -3903 0
-3904 3916 -245 0
3904 -245 -3916 3907 0
3915 -247 -3905 0
3907 -248 -3914 0
3914 -248 -3907 -3905 0
3916 -248 -3905 0
3915 -250 -3906 -3907 0
3916 -250 -3906 0
3907 -250 3906 -3916 0
3916 -252 -3908 -3907 0
3921 -3912 787 643 0
3922 -3913 788 644 0
3923 -3914 645 789 0
3923 -3914 -789 0
3924 -3915 646 790 0
3915 -3924 -646 0
3924 -3915 -790 0
3925 -3916 647 791 0
3916 -3925 647 791 0
3916 -3925 -647 0
3925 -3916 -791 0
792 -3917 3926 648 0
792 -3926 3917 648 0
-792 -3917 3926 0
3922 -3912 -274 0
-276 -3912 3924 0
-3912 3925 -277 0
-3913 3925 -281 0
3923 -283 -3915 -3914 0
3924 -283 -3914 0
3916 -284 -3923 0
3923 -284 -3916 -3914 0
3925 -284 -3914 0
3924 -3915 -3916 -286 0
3925 -3915 -286 0
3915 3916 -286 -3925 0
3925 -288 -3917 -3916 0
3930 -796 -3921 0
3931 -3922 653 797 0
3932 -3923 654 798 0
3923 -3932 654 798 0
-3923 3932 -798 0
3933 -3924 799 655 0
3924 -655 -3933 0
3933 -3924 -799 0
3934 -3925 656 800 0
3925 -3934 656 800 0
3925 -3934 -656 0
3934 -3925 -800 0
801 -3926 3935 657 0
-3935 3926 801 657 0
-801 3935 -3926 0
3931 -3921 -310 0
-3921 3933 -312 0
-3921 3934 -313 0
-3922 3934 -317 0
3922 3925 -317 -3934 0
3932 -3923 -3924 -319 0
3933 -3923 -319 0
3924 3923 -3933 -319 0
3925 -3932 -320 0
3932 -3925 -320 -3923 0
3934 -3923 -320 0
3933 -3924 -322 -3925 0
3934 -3924 -322 0
-3934 -324 3926 0
3934 -324 -3926 -3925 0
3941 -3932 663 807 0
-3941 3932 807 663 0
3941 -3932 -807 0
-3933 3942 664 808 0
3933 -3942 808 664 0
3933 -3942 -664 0
-3933 3942 -808 0
3943 -3934 809 665 0
3934 -3943 665 809 0
3943 -3934 -809 0
-3935 3944 810 666 0
-3944 3935 810 666 0
-3930 -349 3943 0
-3931 3943 -353 0
-3932 3942 -355 0
-3941 3934 -356 0
-3932 -356 -3934 3941 0
3943 -3932 -356 0
-358 -3934 3942 -3933 0
3943 -358 -3933 0
3943 -3934 -360 -3935 0
3950 -3941 672 816 0
3950 -3941 -816 0
3951 -3942 673 817 0
-3951 3942 817 673 0
-3951 3942 -673 0
3951 -3942 -817 0
3952 -3943 674 818 0
3943 -3952 818 674 0
3952 -3943 -818 0
-3944 3953 819 675 0
-3953 3944 819 675 0
3951 -3941 -391 0
3941 -391 3942 -3951 0
3950 -3943 -392 -3941 0
3952 -3941 -392 0
3951 -3942 -394 -3943 0
3952 -3943 -396 -3944 0
3959 -3950 681 825 0
3959 -3950 -825 0
-3951 3960 826 682 0
3951 -3960 826 682 0
3960 -3951 -826 0
3961 -3952 827 683 0
3952 -3961 827 683 0
3961 -3952 -827 0
-3953 3962 828 684 0
-3962 3953 828 684 0
-3950 3960 -427 0
3950 3951 -427 -3960 0
3952 -428 -3959 0
-428 3959 -3952 -3950 0
3961 -428 -3950 0
3952 -3960 -430 0
-3952 -3951 -430 3960 0
3951 3952 -430 -3961 0
3961 -3952 -432 -3953 0
3968 -3959 690 834 0
3968 -3959 -834 0
3969 -3960 835 691 0
3969 -3960 -835 0
3970 -3961 692 836 0
3961 -3970 836 692 0
837 -3962 3971 693 0
837 -3971 3962 693 0
-3959 3969 -463 0
3968 -3961 -464 -3959 0
3969 -3960 -466 -3961 0
3970 -3961 -468 -3962 0
-3968 699 3977 843 0
-3968 -843 3977 0
3978 -3969 700 844 0
3978 -3969 -844 0
3979 -3970 845 701 0
3970 -3979 845 701 0
846 -3980 3971 702 0
3978 -3968 -499 0
-3970 3977 -500 -3968 0
3978 -3969 -502 -3970 0
3979 -3970 -504 -3971 0
-3977 852 3986 708 0
-3977 -852 3986 0
3987 -3978 709 853 0
3987 -853 -3978 0
3979 854 -3988 710 0
3980 -3989 855 711 0
-3977 -535 -3978 3986 0
3987 -3978 -538 -3979 0
-3986 717 861 0
-3986 -861 0
3988 863 719 0
3989 864 720 0
-571 -3987 -3986 0
3987 -571 3986 0
4399 725 581 0
4399 -725 0
4400 582 726 0
4403 729 585 0
4409 591 -4400 735 0
738 4412 594 -4403 0
4411 -65 -4399 0
747 -4412 4421 603 0
4418 -104 -4411 -4409 0
4420 -104 -4409 0
4427 609 753 -4418 0
4429 -4420 611 755 0
756 -4421 4430 612 0
4429 -144 -4420 -4421 0
4436 -4427 762 618 0
4438 -4429 764 620 0
-4430 4439 765 621 0
4438 -4429 -180 -4430 0
4445 -4436 627 771 0
4447 -4438 773 629 0
4447 -4438 -216 -4439 0
4456 -4447 638 782 0
4465 -4456 647 791 0
4474 -4465 656 800 0
4483 -4474 809 665 0
4492 -4483 674 818 0
4501 -4492 683 827 0
4510 -4501 836 692 0
4519 -4510 701 845 0
4530 577 721 0
-4531 578 722 0
-4531 -578 0
-4532 579 723 0
-4532 -579 0
4534 725 581 0
4539 586 -4530 730 0
-4540 4531 731 587 0
-4540 -587 4531 0
4543 590 -4534 734 0
-4541 -45 4531 4532 0
595 -4539 4548 739 0
4552 599 -4543 743 0
-4550 -81 4541 4540 0
604 -4548 4557 748 0
-4559 606 4550 750 0
-606 -4559 4550 0
4561 752 -4552 608 0
613 -4557 4566 757 0
4570 -4561 617 761 0
622 -4566 4575 766 0
4579 -4570 770 626 0
631 -4575 4584 775 0
4588 -4579 779 635 0
640 -4584 4593 784 0
4597 -4588 788 644 0
649 -4593 4602 793 0
4606 -4597 797 653 0
658 -4602 4611 802 0
-4606 4615 806 662 0
667 -4611 4620 811 0
-4615 4624 815 671 0
-4624 4633 824 680 0
4630 -397 -4620 0
-4633 4642 833 689 0
-441 4640 -4630 0
-4639 4648 695 839 0
-4640 4649 840 696 0
-840 -4640 4649 0
-4642 4651 842 698 0
-842 -4642 4651 0
4643 -4652 843 699 0
-4639 -477 4649 0
-478 -4639 4650 0
-479 -4639 4651 0
-480 -4639 -4643 4648 0
-4648 704 4657 848 0
-4648 -848 4657 0
-4649 705 4658 849 0
-4649 -849 4658 0
-4650 706 4659 850 0
-4650 -850 4659 0
-4651 707 4660 851 0
-851 -4651 4660 0
4652 708 -4661 852 0
4652 -708 -4661 0
-4648 -513 4658 0
-4648 -514 4659 0
-515 -4648 4660 0
-4648 -516 -4652 4657 0
-520 -4649 4659 0
-521 -4649 4660 0
-522 -4649 -4652 4658 0
-526 -4650 4660 0
-527 -4650 -4652 4659 0
-4657 857 713 0
-4658 714 858 0
-4658 -858 0
-4659 859 715 0
-4659 -859 0
-4660 860 716 0
-4660 -860 0
4661 -717 0
-4657 -549 0
-4657 -550 0
-4657 -551 0
-4657 -552 -4661 0
-4658 -556 0
-4658 -557 0
-4658 -558 -4661 0
-4659 -562 0
-4659 -563 -4661 0
-4660 -567 -4661 0
-5881 578 722 0
-5881 -578 0
-5882 579 723 0
-5882 -579 0
-5883 724 580 0
-5883 -580 0
-5884 725 581 0
-5884 -581 0
-5885 582 726 0
727 583 5886 0
-727 5886 0
728 -5887 584 0
5888 729 585 0
-5882 -9 0
-5883 -10 0
-5884 -11 0
-5887 -14 0
-5883 -16 0
-5884 -17 0
-5887 -20 0
-5884 -22 0
-5887 -25 0
-5887 -29 0
-32 -5887 0
-5886 -34 0
5887 -34 0
-5890 5881 731 587 0
-5891 588 5882 732 0
-5892 589 5883 733 0
-5892 -589 5883 0
-5893 590 5884 734 0
-5893 -590 5884 0
-5894 591 5885 735 0
5895 736 -5886 592 0
-5895 736 5886 592 0
5895 -736 -5886 0
5896 737 -5887 593 0
-5896 737 593 5887 0
5896 -737 -5887 0
738 5897 594 -5888 0
-5892 -46 5881 5883 0
-5893 -47 5884 5881 0
-5895 -49 5886 5881 0
-50 -5896 5887 5881 0
-5892 -52 5882 5883 0
-5893 -53 5882 5884 0
-5895 -55 5886 5882 0
-5896 -56 5887 5882 0
-5893 -58 5883 5884 0
-60 -5895 5886 5883 0
-5896 -61 5887 5883 0
-64 -5895 5886 5884 0
-5896 -65 5887 5884 0
-5895 -70 5887 0
-70 5896 -5886 0
-5901 5892 598 742 0
-5902 599 5893 743 0
-5903 600 5894 744 0
5904 601 -5895 745 0
5904 -745 -5895 0
5905 -5896 602 746 0
-5905 746 602 5896 0
5905 -5896 -746 0
747 -5897 5906 603 0
-5902 -94 5892 5893 0
-97 -5905 5896 5892 0
-5905 -101 5896 5893 0
-5905 -104 5896 5894 0
-5904 -106 5896 0
-106 5905 -5895 0
-5910 607 5901 751 0
-5911 608 5902 752 0
-5912 609 753 5903 0
-5912 -609 5903 0
754 5913 -5904 610 0
754 -5913 5904 610 0
-610 -5913 5904 0
-754 5913 -5904 0
-5905 5914 611 755 0
-5914 5905 611 755 0
-611 5905 -5914 0
-755 -5905 5914 0
756 -5906 5915 612 0
-5911 -130 5902 5901 0
-132 -5913 5904 5901 0
-133 -5914 5901 5905 0
-140 -5914 5905 5903 0
-142 -5913 5905 0
5913 -142 -5905 -5904 0
-142 5914 -5904 0
-144 5914 -5906 -5905 0
-5919 5910 616 760 0
-5920 5911 617 761 0
-5921 5912 762 618 0
-5921 -618 5912 0
5922 -5913 763 619 0
5913 -5922 763 619 0
-763 5922 -5913 0
5923 -5914 764 620 0
5914 -5923 764 620 0
5914 -620 -5923 0
5923 -5914 -764 0
-5915 5924 765 621 0
5924 -765 -5915 0
-5920 5911 -166 5910 0
-176 5914 -5923 5912 0
-178 5922 -5914 -5913 0
-178 -5913 5923 0
-180 -5914 -5915 5923 0
-180 -5914 5924 0
-5928 5919 625 769 0
-5920 5929 626 770 0
-5929 5920 770 626 0
-5930 5921 627 771 0
-5930 -627 5921 0
-5922 5931 628 772 0
5931 -5922 -772 0
-5923 5932 629 773 0
5923 -5932 773 629 0
-5932 -629 5923 0
-5923 5932 -773 0
774 -5924 5933 630 0
5933 -774 -5924 0
5920 -209 -5932 5923 0
-212 5923 -5932 5921 0
-5931 5923 -214 0
5931 -5923 -214 -5922 0
-5922 5932 -214 0
-216 5932 -5924 -5923 0
5938 -5929 635 779 0
-5938 5929 635 779 0
-5939 5930 780 636 0
-5939 -636 5930 0
5940 -5931 637 781 0
-5940 5931 781 637 0
-781 5940 -5931 0
-5932 5941 638 782 0
5932 -5941 782 638 0
5932 -5941 -638 0
-782 -5932 5941 0
783 -5933 5942 639 0
-5933 -783 5942 0
-5929 -245 5941 0
5929 -245 -5941 5932 0
-248 5932 -5941 5930 0
-250 -5940 5932 0
-250 5940 -5932 -5931 0
-250 -5931 5941 0
-250 5932 -5941 5931 0
5941 -5932 -252 -5933 0
-5947 5938 644 788 0
-5948 5939 645 789 0
-5940 5949 646 790 0
-790 -5940 5949 0
5950 -5941 647 791 0
5941 -5950 647 791 0
5941 -647 -5950 0
5950 -5941 -791 0
792 -5942 5951 648 0
-792 -5942 5951 0
-5938 -281 5950 0
-284 5941 -5950 5939 0
-5940 -5941 -286 5949 0
-5940 5950 -286 0
5941 5940 -5950 -286 0
-288 -5942 -5941 5950 0
-5956 5947 797 653 0
-5957 5948 654 798 0
-5957 5948 -654 0
-5949 5958 655 799 0
-799 -5949 5958 0
5959 -5950 656 800 0
-5959 5950 800 656 0
-5959 5950 -656 0
-5950 5959 -800 0
801 -5951 5960 657 0
-5960 5951 801 657 0
-801 -5951 5960 0
-320 -5959 5950 5948 0
-5958 -322 5950 0
-322 5958 -5950 -5949 0
-322 -5949 5959 0
5959 -324 -5951 -5950 0
-5950 -324 5960 0
-5966 5957 663 807 0
-5958 5967 664 808 0
-5958 5967 -808 0
-5959 5968 809 665 0
-5968 5959 809 665 0
-5968 5959 -665 0
-5959 5968 -809 0
-5960 5969 810 666 0
-5969 5960 810 666 0
-810 -5960 5969 0
5957 -356 5959 -5968 0
-358 5967 -5959 -5958 0
-358 -5958 5968 0
5968 -360 -5960 -5959 0
-5975 5966 672 816 0
5976 -5967 673 817 0
5976 -5967 -817 0
-5968 5977 818 674 0
-5977 5968 818 674 0
-5977 5968 -674 0
-5968 5977 -818 0
-5969 5978 819 675 0
-5978 5969 819 675 0
-5977 -392 5968 5966 0
-5968 5976 -394 -5967 0
-5967 5977 -394 0
-5977 5967 5968 -394 0
-5968 5977 -396 -5969 0
-5984 5975 -681 0
5985 -5976 826 682 0
5985 -5976 -826 0
-5977 5986 827 683 0
5977 -5986 827 683 0
-5986 5977 -683 0
-5977 5986 -827 0
-5978 5987 828 684 0
-5987 5978 828 684 0
-428 -5986 5975 5977 0
-5976 -5977 -430 5985 0
-5977 5986 -432 -5978 0
-5993 5984 690 834 0
-5985 5994 691 835 0
-5985 5994 -835 0
5995 -5986 692 836 0
-5995 5986 692 836 0
-5995 5986 -692 0
5995 -5986 -836 0
837 -5987 5996 693 0
-5996 5987 837 693 0
-5985 -5986 -466 5994 0
5995 -5986 -468 -5987 0
-5994 6003 700 844 0
-5994 -844 6003 0
6004 -5995 701 845 0
5995 -6004 845 701 0
6004 -5995 -845 0
846 -5996 6005 702 0
846 -6005 5996 702 0
5993 5995 -500 -6004 0
-5994 -5995 -502 6003 0
6004 -5995 -504 -5996 0
-6003 709 6012 853 0
-853 -6003 6012 0
6013 -6004 710 854 0
6004 854 -6013 710 0
6005 -6014 855 711 0
-6003 -6004 -538 6012 0
6013 -6004 -540 -6005 0
-6012 718 862 0
-6012 -862 0
6013 863 719 0
6014 864 720 0
-6018 724 580 0
-6020 582 726 0
-6022 728 584 0
-6022 -25 0
-6021 -34 0
-6027 733 6018 589 0
-6029 591 6020 735 0
-6031 737 593 6022 0
-6030 -60 6021 6018 0
-6031 -61 6022 6018 0
-6036 6027 598 742 0
-6038 600 6029 744 0
-6039 6030 745 601 0
-6040 746 602 6031 0
-6040 -97 6031 6027 0
-6045 607 6036 751 0
-6047 609 753 6038 0
-6048 6039 610 754 0
-6049 6040 755 611 0
-6049 -133 6036 6040 0
-6054 6045 616 760 0
-6056 6047 762 618 0
-6057 6048 619 763 0
-6058 6049 764 620 0
-6058 -169 6045 6049 0
-6063 6054 625 769 0
-6065 6056 627 771 0
-6066 6057 772 628 0
-6067 6058 629 773 0
-6074 6065 636 780 0
-6075 6066 637 781 0
6067 -6076 782 638 0
-6076 -241 6063 6067 0
-6083 6074 645 789 0
-6084 6075 646 790 0
6076 -6085 647 791 0
-6092 6083 654 798 0
-6093 6084 655 799 0
6085 -6094 800 656 0
-6101 6092 663 807 0
-6102 6093 808 664 0
6094 -6103 809 665 0
-6102 6094 -358 0
-6110 6101 672 816 0
-6110 6101 -672 0
6102 -6111 817 673 0
6102 -6111 -673 0
6103 -6111 -394 0
-6119 6110 681 825 0
-6119 6110 -681 0
6111 -6120 682 826 0
-6128 6119 690 834 0
-6128 6119 -690 0
6120 -6129 691 835 0
-6137 6128 -699 0
6129 -6138 844 700 0
6129 6128 -6138 -499 0
6138 709 -6147 853 0
6138 6137 -535 -6147 0
6147 862 718 0
6155 582 726 0
6156 583 727 0
6158 729 585 0
6164 591 -6155 735 0
6165 736 -6156 592 0
738 6167 594 -6158 0
6173 600 -6164 744 0
6174 745 -6165 601 0
747 -6167 6176 603 0
6182 609 753 -6173 0
6183 -754 -6174 0
756 -6176 6185 612 0
6191 -6182 762 618 0
6192 -6183 763 619 0
-6185 6194 765 621 0
6193 -178 -6183 0
6200 -6191 627 771 0
6201 -6192 628 772 0
6202 -6193 629 773 0
774 -6194 6203 630 0
6209 -6200 780 636 0
6210 -6201 637 781 0
6211 -6202 638 782 0
783 -6203 6212 639 0
6211 -6201 -250 0
6218 -6209 645 789 0
6220 -6211 647 791 0
792 -6212 6221 648 0
6220 -6210 -286 0
6227 -6218 654 798 0
6229 -6220 656 800 0
801 -6221 6230 657 0
6236 -6227 663 807 0
6238 -6229 809 665 0
-6230 6239 810 666 0
-6236 6245 672 816 0
6247 -6238 674 818 0
-6239 6248 819 675 0
-6248 6257 828 684 0
6254 -428 -6247 -6245 0
6256 -428 -6245 0
6263 -6254 690 834 0
-6254 6263 -834 0
6265 -6256 692 836 0
837 -6257 6266 693 0
-6263 6272 843 699 0
6274 -6265 -504 -6266 0
-6272 -6274 -536 6281 0
6290 582 726 0
6291 583 727 0
6293 729 585 0
6287 -9 0
6296 -6287 588 732 0
6299 591 -6290 735 0
6300 -736 -6291 0
738 6302 594 -6293 0
6308 600 -6299 744 0
6309 745 -6300 601 0
747 -6302 6311 603 0
6306 -88 -6296 0
6317 609 753 -6308 0
6318 610 -6309 754 0
756 -6311 6320 612 0
6326 -6317 762 618 0
6327 -6318 763 619 0
-6320 6329 765 621 0
6335 -6326 627 771 0
6336 -6327 628 772 0
774 -6329 6338 630 0
6344 -6335 636 780 0
6345 -6336 637 781 0
783 -6338 6347 639 0
6353 -6344 645 789 0
6354 -6345 646 790 0
792 -6347 6356 648 0
6362 -6353 654 798 0
6363 -6354 655 799 0
801 -6356 6365 657 0
6371 -6362 663 807 0
-6365 6374 810 666 0
6373 -6363 -358 0
-6374 6383 819 675 0
6380 -6373 -392 -6371 0
6382 -6371 -392 0
6389 -6380 681 825 0
6391 -6382 827 683 0
-6383 6392 828 684 0
6391 -6382 -432 -6383 0
6398 -6389 690 834 0
6400 -6391 692 836 0
6398 -6391 -464 -6389 0
6400 -6391 -468 -6392 0
-6398 6407 843 699 0
6407 -6398 -500 -6400 0
6409 -536 -6416 0
6416 -717 0
6690 577 721 0
6691 578 722 0
6692 579 723 0
6696 583 727 0
6696 -727 0
6691 -9 0
6692 -9 0
6691 -13 0
-6692 -16 0
6692 -19 0
6699 586 -6690 730 0
6700 -6691 731 587 0
6701 588 -6692 732 0
6701 -732 -6692 0
-45 6700 -6691 -6692 0
-55 6701 -6696 -6692 0
595 -6699 6708 739 0
6709 -6700 740 596 0
6710 -741 -6701 0
-6700 -73 6708 -6699 0
-81 6709 -6701 -6700 0
604 -6708 6717 748 0
605 6718 749 -6709 0
-109 -6709 -6708 6717 0
-117 6718 -6709 -6710 0
613 -6717 6726 757 0
6727 -6718 614 758 0
-6718 -145 -6717 6726 0
622 -6726 6735 766 0
6736 -6727 623 767 0
-6727 -181 6735 -6726 0
631 -6735 6744 775 0
6745 632 -6736 776 0
-217 -6736 6744 -6735 0
640 -6744 6753 784 0
6754 -6745 785 641 0
-6745 -253 -6744 6753 0
649 -6753 6762 793 0
6763 650 -6754 794 0
-6754 -289 6762 -6753 0
658 -6762 6771 802 0
-6763 6772 659 803 0
-6763 -325 6771 -6762 0
6772 -325 -6762 0
-6771 6780 667 811 0
-6772 668 6781 812 0
-6772 -812 6781 0
-6772 -361 -6771 6780 0
6781 -361 -6771 0
676 -6780 6789 820 0
6790 -6781 677 821 0
-6781 -397 -6780 6789 0
685 -6789 6798 829 0
6799 -6790 686 830 0
-6790 -433 -6789 6798 0
6799 -433 -6789 0
-441 6800 -6790 0
694 -6798 6807 838 0
-6799 6808 695 839 0
-6800 6809 840 696 0
-6799 -469 -6798 6807 0
703 -6807 6816 847 0
-6808 704 6817 848 0
-6809 705 6818 849 0
-6807 -505 6817 0
-6808 -513 6818 0
712 -6816 856 0
-6817 857 713 0
-857 -6817 0
-6818 858 714 0
-541 -6816 0
-6817 -549 0
7365 577 721 0
7366 578 722 0
7367 579 723 0
7368 724 580 0
7371 583 727 0
7366 -9 0
7367 -9 0
7366 -10 0
7366 -13 0
-7368 -22 0
-7368 -25 0
7374 586 -7365 730 0
7375 -7366 731 587 0
7376 588 -7367 732 0
7376 -732 -7367 0
7377 733 -7368 589 0
7375 -45 -7367 -7366 0
-52 7376 -7368 -7367 0
7377 -60 -7371 -7368 0
595 -7374 7383 739 0
7384 -7375 596 740 0
7385 -741 -7376 0
7386 -7377 598 742 0
-81 7384 -7376 -7375 0
-82 7384 -7377 -7375 0
604 -7383 7392 748 0
605 7393 749 -7384 0
7395 607 -7386 751 0
-7384 -109 7392 -7383 0
-117 7393 -7384 -7385 0
613 -7392 7401 757 0
-7393 7402 614 758 0
-7393 -145 -7392 7401 0
-154 -7395 7402 -7393 0
622 -7401 7410 766 0
7411 -7402 623 767 0
-7402 -181 -7401 7410 0
631 -7410 7419 775 0
7420 632 -7411 776 0
-7411 -217 -7410 7419 0
640 -7419 7428 784 0
-7420 7429 785 641 0
-7420 -253 -7419 7428 0
649 -7428 7437 793 0
7438 650 794 -7429 0
-7429 -289 -7428 7437 0
658 -7437 7446 802 0
-7438 7447 659 803 0
-7438 -325 7446 -7437 0
-7446 7455 667 811 0
-7447 668 7456 812 0
-7447 -361 -7446 7455 0
676 -7455 7464 820 0
-7456 7465 821 677 0
-7456 -397 -7455 7464 0
685 -7464 7473 829 0
7474 -7465 830 686 0
-7465 -433 -7464 7473 0
694 -7473 7482 838 0
-7474 -469 -7473 7482 0
703 -7482 7491 847 0
712 -7491 856 0
8040 577 721 0
8041 578 722 0
8042 579 723 0
8041 -11 0
8041 -13 0
8044 -28 0
8049 586 -8040 730 0
8050 -8041 731 587 0
8051 588 -8042 732 0
-732 8051 -8042 0
-45 8050 -8041 -8042 0
-8044 -53 8051 -8042 0
595 -8049 8058 739 0
8060 -741 -8051 0
-8050 -73 8058 -8049 0
8059 -81 -8051 -8050 0
604 -8058 8067 748 0
605 8068 -8059 749 0
-8059 -109 8067 -8058 0
-117 8068 -8059 -8060 0
613 -8067 8076 757 0
-8068 8077 614 758 0
-8068 -145 -8067 8076 0
622 -8076 8085 766 0
8086 -8077 623 767 0
-8077 -181 -8076 8085 0
631 -8085 8094 775 0
8095 632 776 -8086 0
-8086 -217 -8085 8094 0
640 -8094 8103 784 0
-8095 8104 785 641 0
-8095 -253 8103 -8094 0
649 -8103 8112 793 0
8113 650 794 -8104 0
-8104 -289 -8103 8112 0
658 -8112 8121 802 0
-8113 8122 659 803 0
-8113 -325 -8112 8121 0
-8121 8130 667 811 0
-8122 668 8131 812 0
-8122 -361 -8121 8130 0
676 -8130 8139 820 0
-8131 8140 821 677 0
-8131 -397 -8130 8139 0
685 -8139 8148 829 0
8149 -8140 830 686 0
-8140 -433 -8139 8148 0
694 -8148 8157 838 0
-8149 -469 8157 -8148 0
703 -8157 8166 847 0
712 -8166 856 0
8715 577 721 0
8716 578 722 0
8717 579 723 0
8717 -723 0
8718 724 580 0
8718 -724 0
8719 725 581 0
8719 -725 0
583 727 8721 0
8721 -727 0
-8722 728 584 0
8723 729 585 0
8716 -9 0
8716 -10 0
8716 -11 0
8716 -13 0
-8716 -14 0
8722 -14 0
8717 -16 0
8717 -17 0
8717 -19 0
-8717 -20 0
8718 -22 0
8718 -24 0
8721 -24 0
8719 -28 0
8722 -32 0
-8721 -34 0
8724 586 -8715 730 0
8725 -8716 731 587 0
-8725 8716 731 587 0
-587 -8725 8716 0
8726 588 -8717 732 0
8726 -732 -8717 0
8727 589 -8718 733 0
8727 -733 -8718 0
8728 590 -8719 734 0
8728 -734 -8719 0
8730 736 -8721 592 0
8730 -736 -8721 0
-8731 737 593 8722 0
-37 -8716 8724 -8715 0
-45 8725 -8717 -8716 0
8725 -46 -8716 -8718 0
-47 8725 -8716 -8719 0
-49 8725 -8721 -8716 0
-49 8730 -8716 0
8731 -50 -8716 0
-51 8725 -8716 -8723 0
-52 8726 -8717 -8718 0
-53 8726 -8717 -8719 0
-55 8726 -8717 -8721 0
-56 -8726 8722 0
8731 -56 -8717 0
-57 8726 -8717 -8723 0
8727 -58 -8719 -8718 0
8727 -60 -8721 -8718 0
-60 8730 -8718 0
8728 -64 -8721 -8719 0
-70 -8730 8722 0
595 -8724 8733 739 0
8734 596 -8725 740 0
8725 -8734 -596 0
8735 -741 -8726 0
8736 -8727 598 742 0
8737 599 -8728 743 0
8737 -743 -8728 0
8739 601 -8730 745 0
8739 -745 -8730 0
-8740 8731 602 746 0
-8725 -73 8733 -8724 0
8734 -73 -8724 0
-81 8734 -8726 -8725 0
-82 8734 -8727 -8725 0
-83 8734 -8725 -8728 0
-85 8734 -8725 -8730 0
-91 8730 -8735 0
-91 8739 -8726 0
8736 -94 -8728 -8727 0
8736 -96 -8727 -8730 0
8739 -96 -8727 0
8737 -100 -8728 -8730 0
-106 -8739 8731 0
8740 -106 -8730 0
604 -8733 8742 748 0
605 8743 -8734 749 0
-8744 8735 606 750 0
-8744 8735 -606 0
8745 607 -8736 751 0
8746 752 -8737 608 0
8748 754 -8739 610 0
8748 -754 -8739 0
-8749 8740 755 611 0
-109 -8734 8742 -8733 0
-117 8743 -8734 -8735 0
613 -8742 8751 757 0
8752 -8743 758 614 0
-8753 8744 615 759 0
-8753 8744 -615 0
-760 8754 -8745 0
8757 -8748 763 619 0
8757 -8748 -763 0
-8758 8749 764 620 0
-8743 -145 -8742 8751 0
8754 -8746 -166 -8745 0
-168 8754 -8745 -8748 0
622 -8751 8760 766 0
8761 -8752 623 767 0
-8762 8753 624 768 0
-8762 8753 -624 0
8766 -8757 628 772 0
-8767 8758 773 629 0
-8752 -181 8760 -8751 0
-189 8753 -8761 0
-189 8762 -8752 0
-8754 -190 8761 -8752 0
-8757 8761 -193 -8752 0
631 -8760 8769 775 0
8770 632 776 -8761 0
-8770 8761 776 632 0
8761 -632 -8770 0
-8771 8762 777 633 0
-633 -8771 8762 0
8775 -8766 637 781 0
8767 -8776 782 638 0
-217 -8761 8769 -8760 0
-225 -8770 8762 0
640 -8769 8778 784 0
8779 -8770 641 785 0
-8779 8770 785 641 0
-8779 8770 -641 0
8771 -8780 786 642 0
8771 -8780 -642 0
8784 -8775 646 790 0
8776 -8785 791 647 0
-8770 -253 8778 -8769 0
-8779 8771 -261 0
-8782 8776 -281 0
649 -8778 8787 793 0
8788 650 -8779 794 0
-8788 8779 794 650 0
8779 -8788 -650 0
-8789 8780 795 651 0
8780 -8789 -651 0
8782 -8791 797 653 0
8793 -8784 -799 0
8785 -8794 800 656 0
-8779 -289 -8778 8787 0
-8788 8780 -297 0
-299 8782 -8788 0
-302 8785 -8788 0
-305 8782 -8789 0
-8789 8785 -308 0
8782 -310 -8790 0
-8790 8785 -313 0
-8791 8785 -317 0
8785 -8793 -322 0
658 -8787 8796 802 0
-8788 8797 659 803 0
8788 -8797 659 803 0
-659 8788 -8797 0
8789 -8798 804 660 0
-660 8789 -8798 0
8790 -8799 661 805 0
8790 -8799 -661 0
8791 -8800 806 662 0
8791 -8800 -662 0
8793 -8802 808 664 0
8793 -8802 -664 0
8794 -8803 809 665 0
-8788 -325 -8787 8796 0
8797 -325 -8787 0
8789 -333 -8797 0
-333 -8788 8798 0
8790 -334 -8797 0
-335 8791 -8797 0
-337 8793 -8797 0
8794 -338 -8797 0
-340 8790 -8798 0
-341 8791 -8798 0
-343 8793 -8798 0
-344 8794 -8798 0
8791 -8799 -346 0
-348 8793 -8799 0
-349 8794 -8799 0
8793 -8800 -352 0
8794 -8800 -353 0
8794 -8802 -358 0
-8796 8805 667 811 0
-8797 668 8806 812 0
-8806 8797 812 668 0
-668 -8806 8797 0
-8797 -812 8806 0
8798 -8807 813 669 0
8798 -8807 -669 0
-8808 8799 670 814 0
-670 8799 -8808 0
8800 -8809 671 815 0
8800 -8809 -671 0
8802 -8811 673 817 0
8802 -8811 -673 0
8803 -8812 818 674 0
-8797 -361 -8796 8805 0
-369 -8806 8798 0
-369 -8807 8797 8798 0
-370 8799 -8806 0
8800 -8806 -371 0
8802 -373 -8806 0
-376 8799 -8807 0
-377 8800 -8807 0
-379 8802 -8807 0
-382 8800 -8808 0
8802 -384 -8808 0
8803 -385 -8808 0
-8809 8802 -388 0
8803 -389 -8809 0
8803 -8811 -394 0
676 -8805 8814 820 0
-8806 8815 677 821 0
-8815 8806 821 677 0
-677 -8815 8806 0
-8816 8807 678 822 0
-678 8807 -8816 0
-8817 8808 679 823 0
-679 -8817 8808 0
8809 -8818 824 680 0
8809 -8818 -680 0
8811 -8820 682 826 0
-8806 -397 -8805 8814 0
-405 8807 -8815 0
-406 8808 -8815 0
-407 8809 -8815 0
-409 8811 -8815 0
8808 -8816 -412 0
-413 8809 -8816 0
8811 -415 -8816 0
-418 8809 -8817 0
8811 -420 -8817 0
-424 8811 -8818 0
8812 -8819 -428 0
685 -8814 8823 829 0
8824 -8815 686 830 0
8815 -8824 830 686 0
-686 8815 -8824 0
8816 -8825 687 831 0
-687 8816 -8825 0
8817 -8826 688 832 0
8817 -688 -8826 0
-8827 8818 689 833 0
8818 -8827 -689 0
-8828 8819 834 690 0
8820 -8829 691 835 0
-8815 -433 -8814 8823 0
8824 -433 -8814 0
-441 8816 -8824 0
-442 8817 -8824 0
-443 8818 -8824 0
-444 8819 -8824 0
-445 8820 -8824 0
-448 8817 -8825 0
-449 8818 -8825 0
-450 8819 -8825 0
-451 8820 -8825 0
-454 8818 -8826 0
8819 -8826 -455 0
8820 -456 -8826 0
-459 8819 -8827 0
8820 -8827 -460 0
8820 -8828 -463 0
694 -8823 8832 838 0
-8824 695 8833 839 0
-8833 8824 839 695 0
-695 -8833 8824 0
8825 -8834 696 840 0
-696 8825 -8834 0
8826 -8835 841 697 0
8826 -697 -8835 0
8827 -8836 698 842 0
-698 8827 -8836 0
8828 -8837 843 699 0
8829 -8838 844 700 0
-8824 -469 -8823 8832 0
-477 8825 -8833 0
-478 8826 -8833 0
-479 8827 -8833 0
-481 8829 -8833 0
-484 8826 -8834 0
-485 8827 -8834 0
-487 8829 -8834 0
8827 -490 -8835 0
8829 -492 -8835 0
-496 8829 -8836 0
703 -8832 8841 847 0
848 8833 704 -8842 0
-704 8833 -8842 0
8834 705 -8843 849 0
8834 -705 -8843 0
8835 706 -8844 850 0
-706 8835 -8844 0
8836 707 -8845 851 0
8836 -707 -8845 0
8837 708 -8846 852 0
8837 -708 -8846 0
8838 709 -8847 853 0
8838 -709 -8847 0
-8833 -505 8841 -8832 0
8834 -513 -8842 0
-514 8835 -8842 0
-515 8836 -8842 0
-517 8838 -8842 0
-520 8835 -8843 0
-521 8836 -8843 0
-523 8838 -8843 0
-526 8836 -8844 0
-528 8838 -8844 0
8838 -535 -8846 0
712 -8841 856 0
8842 857 713 0
8842 -713 0
8843 714 858 0
8843 -714 0
8844 715 859 0
8844 -715 0
8845 716 860 0
8845 -716 0
8846 -717 0
8843 -549 0
8844 -550 0
8845 -551 0
8846 -552 0
8844 -556 0
8845 -557 0
8846 -558 0
8845 -562 0
8846 -563 0
8846 -567 0
8847 -571 0
8857 728 584 0
8857 -728 0
8858 729 585 0
8866 737 593 -8857 0
8866 -737 -8857 0
738 8867 594 -8858 0
8875 746 602 -8866 0
8875 -746 -8866 0
747 -8867 8876 603 0
8884 -8875 611 755 0
8884 -755 -8875 0
756 -8876 8885 612 0
8884 -144 -8875 -8876 0
8893 -8884 764 620 0
8893 -8884 -764 0
-8885 8894 765 621 0
8893 -8884 -180 -8885 0
8902 -8893 629 773 0
8902 -8893 -773 0
774 -8894 8903 630 0
8902 -8893 -216 -8894 0
8911 -8902 782 638 0
8911 -8902 -782 0
783 -8903 8912 639 0
8911 -8902 -252 -8903 0
8920 -8911 791 647 0
8920 -8911 -791 0
792 -8912 8921 648 0
8920 -8911 -288 -8912 0
8929 -8920 800 656 0
8929 -8920 -800 0
801 -8921 8930 657 0
8929 -8920 -324 -8921 0
8938 -8929 809 665 0
-8930 8939 810 666 0
8938 -8929 -360 -8930 0
8947 -8938 818 674 0
8947 -8938 -396 -8939 0
8956 -8947 827 683 0
-8988 724 580 0
-8990 582 726 0
-8991 583 727 0
-8991 -24 0
-8997 733 8988 589 0
-8999 591 8990 735 0
-9000 736 8991 592 0
-9000 -60 8991 8988 0
-9008 600 8999 744 0
-9009 745 9000 601 0
-9009 -96 9000 8997 0
-9017 609 753 9008 0
-9018 9009 754 610 0
-9026 9017 762 618 0
-9027 9018 763 619 0
-9035 9026 627 771 0
-9036 9027 772 628 0
-9044 9035 636 780 0
-9045 9036 637 781 0
-9053 9044 645 789 0
-9054 9045 646 790 0
-9062 9053 654 798 0
-9063 9054 799 655 0
-9071 9062 663 807 0
-9072 9063 664 808 0
-9080 9071 672 816 0
9072 -9081 -673 0
-9089 9080 -681 0
9081 -9090 682 826 0
-9098 9089 690 834 0
9090 -9099 691 835 0
-9107 9098 -699 0
9099 -9108 844 700 0
9108 9107 -9117 -535 0
9117 862 718 0
-9260 582 726 0
-9269 591 9260 735 0
-9278 600 9269 744 0
-9287 609 753 9278 0
-9287 -609 9278 0
-9296 9287 762 618 0
-9296 -618 9287 0
-9305 9296 627 771 0
-9305 -627 9296 0
-9314 9305 780 636 0
-636 -9314 9305 0
9314 -9323 645 789 0
-9323 9314 -645 0
-9323 9332 654 798 0
9323 -9332 798 654 0
-9332 9323 -654 0
-9332 9341 807 663 0
9332 -9341 663 807 0
-9341 9332 -663 0
9341 -9350 672 816 0
-9350 9341 -672 0
-9359 9350 681 825 0
-9359 9350 -681 0
-9359 9368 834 690 0
-9368 9359 690 834 0
-9368 9359 -690 0
9368 -9377 843 699 0
9368 -9377 -699 0
9377 852 -9386 708 0
9377 -708 -9386 0
9386 861 717 0
9386 -717 0
-9382 -549 0
9386 -552 9382 0
-9395 582 726 0
-9396 583 727 0
-9404 591 9395 735 0
-9405 736 9396 592 0
-9413 600 9404 744 0
-9414 745 9405 601 0
-9422 609 753 9413 0
-9431 9422 762 618 0
-9440 9431 627 771 0
-9449 9440 636 780 0
-9458 9449 645 789 0
-9467 9458 654 798 0
-9476 9467 663 807 0
-9485 9476 672 816 0
9477 -9486 -673 0
-9494 9485 -681 0
9486 -9495 682 826 0
-9503 9494 690 834 0
9495 -9504 691 835 0
-9512 9503 -699 0
9504 -9513 844 700 0
9513 9512 -9522 -535 0
9522 862 718 0
-9530 582 726 0
-9539 591 9530 735 0
-9548 600 9539 744 0
-9548 -600 9539 0
-9557 609 753 9548 0
-9566 9557 762 618 0
-9575 9566 627 771 0
-9575 -627 9566 0
-9584 9575 780 636 0
-9584 -636 9575 0
9584 -9593 645 789 0
-9593 9584 -645 0
9593 -9602 798 654 0
-9602 9593 -654 0
9602 -9611 663 807 0
9611 -9620 672 816 0
-9620 9611 -672 0
9620 -9629 681 825 0
-9629 9620 -681 0
9629 -9638 690 834 0
9629 -9638 -690 0
9638 -9647 843 699 0
9638 -9647 -699 0
9647 852 -9656 708 0
9647 -708 -9656 0
9656 861 717 0
9656 -717 0
-9665 582 726 0
-9674 591 9665 735 0
-9683 600 9674 744 0
-9692 609 753 9683 0
-9692 -609 9683 0
-9701 9692 762 618 0
-9701 -618 9692 0
-9710 9701 627 771 0
-9710 -627 9701 0
-9719 636 9710 780 0
-9728 9719 645 789 0
-9737 9728 654 798 0
-9746 9737 663 807 0
-9746 9737 -663 0
-9755 9746 672 816 0
-9755 9746 -672 0
-9764 9755 681 825 0
-9764 9755 -681 0
-9773 9764 690 834 0
-9773 9764 -690 0
-459 -9772 9764 0
9772 -9781 842 698 0
9773 -9782 843 699 0
9773 -9782 -699 0
9781 707 -9790 851 0
9782 708 -9791 852 0
9782 -708 -9791 0
9782 -531 -9790 0
9790 860 716 0
9791 -567 0
-9796 578 722 0
-9797 579 723 0
-9798 724 580 0
-9798 -580 0
-9799 725 581 0
-9799 -581 0
9800 582 726 0
-9801 583 727 0
9802 728 584 0
9802 -728 0
9803 729 585 0
-9798 -22 0
-9799 -22 0
-9798 -24 0
-9801 -24 0
-9799 -28 0
-9801 -28 0
-9805 9796 731 587 0
-9806 588 9797 732 0
-9807 589 9798 733 0
-9807 -589 9798 0
-9808 590 9799 734 0
-9808 -590 9799 0
9809 591 -9800 735 0
-9810 736 9801 592 0
-9801 9810 -736 0
9811 737 593 -9802 0
9811 -737 -9802 0
738 9812 594 -9803 0
9812 -738 -9803 0
-9807 -58 9799 0
-9808 -58 9799 9798 0
-9810 -60 9801 9798 0
-9808 -64 9801 0
-9801 9810 -9802 -70 0
-9814 9805 596 740 0
-9815 9806 741 597 0
-9816 9807 598 742 0
-9817 599 9808 743 0
-9817 -599 9808 0
9818 600 -9809 744 0
-9810 9819 745 601 0
-9819 745 9810 601 0
-9819 -601 9810 0
-9810 9819 -745 0
9820 746 602 -9811 0
9820 -746 -9811 0
747 -9812 9821 603 0
9821 -747 -9812 0
9818 -104 -9811 -9809 0
-9810 -106 -9811 9819 0
9820 -108 -9811 -9812 0
-9823 9814 749 605 0
-9824 606 9815 750 0
-9825 607 9816 751 0
-9826 608 9817 752 0
9827 609 753 -9818 0
-753 9827 -9818 0
-9819 9828 754 610 0
-9828 754 9819 610 0
-610 -9828 9819 0
-9819 -754 9828 0
9829 -9820 611 755 0
9829 -755 -9820 0
756 -9821 9830 612 0
9830 -756 -9821 0
-9828 -121 9814 9819 0
-127 -9828 9815 9819 0
-9816 -132 9828 0
-132 -9828 9819 9816 0
-9828 -136 9819 9817 0
-139 9819 -9827 0
-139 9828 -9818 0
9827 -140 -9820 -9818 0
-9819 -142 -9820 9828 0
9829 -144 -9821 -9820 0
-144 -9820 9830 0
-9832 9823 614 758 0
-9833 9824 615 759 0
-9834 9825 616 760 0
-9835 9826 617 761 0
9836 -9827 762 618 0
9827 -9836 618 762 0
9827 -618 -9836 0
9836 -9827 -762 0
-9828 9837 763 619 0
9828 -9837 763 619 0
-9828 -763 9837 0
9838 -9829 620 764 0
-9829 9838 -764 0
-9830 9839 765 621 0
9839 -765 -9830 0
-156 9827 9823 -9836 0
-162 9827 9824 -9836 0
-9835 9826 -166 9825 0
-167 9827 9825 -9836 0
-9825 -168 9837 0
9827 9826 -171 -9836 0
-9826 -172 9837 0
9828 -175 -9836 0
-175 9837 -9827 0
-176 -9829 9836 -9827 0
-9828 -178 9837 -9829 0
9838 -9829 -180 -9830 0
-9844 9835 626 770 0
9845 -9836 627 771 0
-9845 9836 771 627 0
-771 9845 -9836 0
9846 -9837 628 772 0
-9837 9846 -772 0
9847 -9838 773 629 0
9847 -9838 -773 0
774 -9839 9848 630 0
9848 -774 -9839 0
-9834 9846 -204 0
9837 -9845 -211 0
-9837 9845 -211 -9836 0
9846 -211 -9836 0
-212 -9838 -9836 9845 0
9846 -9838 -9837 -214 0
9847 -216 -9839 -9838 0
-9845 9854 636 780 0
-780 -9845 9854 0
9855 637 -9846 781 0
9846 -9855 781 637 0
9846 -637 -9855 0
-781 9855 -9846 0
-9847 9856 638 782 0
-782 -9847 9856 0
783 -9848 9857 639 0
-9848 -783 9857 0
-9843 -240 9855 0
-9844 -244 9855 0
-247 9846 -9854 0
-247 9854 -9846 -9845 0
-247 -9845 9855 0
-248 9854 -9845 -9847 0
-9847 9855 -9846 -250 0
9856 -9848 -252 -9847 0
9863 -9854 789 645 0
9854 -9863 789 645 0
-789 -9854 9863 0
-9855 9864 790 646 0
-9864 9855 790 646 0
9855 -9864 -646 0
-790 -9855 9864 0
9865 -9856 647 791 0
9865 -9856 -791 0
792 -9857 9866 648 0
9866 -792 -9857 0
-9852 -276 9864 0
-9853 -280 9864 0
-283 9855 -9863 0
-283 9863 -9855 -9854 0
-283 -9854 9864 0
-9864 -283 9854 9855 0
-9854 -284 9863 -9856 0
-9856 9864 -286 -9855 0
9865 -288 -9857 -9856 0
-9863 9872 654 798 0
9863 -9872 798 654 0
9872 -9863 -798 0
-9864 9873 799 655 0
9864 -9873 799 655 0
-655 9864 -9873 0
-799 -9864 9873 0
9874 -9865 656 800 0
9874 -9865 -800 0
801 -9866 9875 657 0
9875 -801 -9866 0
-9861 -312 9873 0
-319 9864 -9872 0
-319 9872 -9863 -9864 0
-319 9873 -9863 0
9872 -320 -9863 -9865 0
-322 -9864 9873 -9865 0
-323 -9864 9873 -9866 0
-9865 -324 -9866 9874 0
9881 -9872 663 807 0
-9881 9872 -663 0
-807 9881 -9872 0
-9873 9882 808 664 0
-9882 -664 9873 0
-9873 9882 -808 0
9883 -9874 665 809 0
9883 -9874 -809 0
-9875 9884 810 666 0
9884 -810 -9875 0
-9881 9873 -355 0
-9873 9881 -355 -9872 0
-9872 9882 -355 0
-9882 9873 -355 9872 0
9881 -356 -9874 -9872 0
-358 -9874 9882 -9873 0
9883 -360 -9875 -9874 0
-9881 9890 672 816 0
-9881 9890 -816 0
-9882 9891 673 817 0
-9882 -817 9891 0
-9883 9892 674 818 0
9892 -9883 -818 0
-9884 9893 819 675 0
-9884 -819 9893 0
-391 9882 -9890 0
-9882 -391 -9881 9890 0
-391 -9881 9891 0
-391 -9891 9881 9882 0
-9881 -392 9890 -9883 0
-9883 9891 -394 -9882 0
9892 -396 -9884 -9883 0
9899 -9890 681 825 0
-825 -9890 9899 0
-9891 9900 826 682 0
-9891 -826 9900 0
9901 -9892 827 683 0
9901 -9892 -827 0
-9893 9902 828 684 0
-9902 9893 828 684 0
-9893 -828 9902 0
-9899 9891 -427 0
-9891 -427 -9890 9899 0
9900 -427 -9890 0
-428 -9892 -9890 9899 0
-9892 -9891 -430 9900 0
9901 -432 -9893 -9892 0
-9899 9908 690 834 0
-9899 9908 -834 0
-9900 9909 835 691 0
-9909 9900 -691 0
9909 -9900 -835 0
9910 -9901 836 692 0
9910 -9901 -836 0
-9902 9911 837 693 0
-9911 9902 837 693 0
9908 -9900 -463 -9899 0
-9899 9909 -463 0
-9909 9900 -463 9899 0
9908 -9901 -464 -9899 0
-9900 -9901 -466 9909 0
9910 -468 -9902 -9901 0
-9908 699 9917 843 0
9908 -9917 -699 0
-843 -9908 9917 0
-9909 9918 700 844 0
9909 -700 -9918 0
9918 -9909 -844 0
9919 -9910 701 845 0
9919 -9910 -845 0
846 9920 -9911 702 0
846 -9920 9911 702 0
-9909 -499 9917 -9908 0
-9908 9918 -499 0
-9910 9917 -500 -9908 0
-9909 -502 -9910 9918 0
9919 -504 -9911 -9910 0
-9917 852 9926 708 0
-852 -9917 9926 0
9927 -9918 853 709 0
-853 9927 -9918 0
9928 -9919 854 710 0
9928 -9919 -854 0
9920 -9929 855 711 0
-535 9918 -9926 0
-535 -9918 9926 -9917 0
-535 -9917 9927 0
-9919 -9917 -536 9926 0
-9919 9927 -538 -9918 0
9919 9918 -538 -9928 0
9928 -9919 -540 -9920 0
-9926 717 861 0
-9926 -861 0
9927 862 718 0
9928 863 719 0
9929 864 720 0
-9922 -552 0
-9923 -558 0
-9924 -563 0
-9925 -567 0
-9926 -571 -9927 0
-9926 -9928 -572 0
9928 -574 0
11816 -717 0
-11812 -11817 -553 0
11817 -571 0
12086 -717 0
-12082 -12083 -549 0
12087 -571 0
12495 577 721 0
12496 578 722 0
12497 579 723 0
12498 724 580 0
12498 -724 0
12499 725 581 0
12499 -725 0
12500 582 726 0
-12501 583 727 0
12502 728 584 0
12502 -728 0
12503 729 585 0
12496 -9 0
12497 -9 0
12496 -10 0
12496 -11 0
-12496 -13 0
12496 -14 0
12497 -16 0
12497 -17 0
12497 -20 0
12498 -22 0
-12498 -24 0
12498 -25 0
12499 -29 0
12500 -32 0
12504 586 -12495 730 0
12505 -12496 731 587 0
12506 588 -12497 732 0
12506 -732 -12497 0
12507 733 -12498 589 0
12508 590 -12499 734 0
12509 591 -12500 735 0
-12510 736 12501 592 0
-12510 -592 12501 0
738 12512 594 -12503 0
-45 12505 -12496 -12497 0
-45 12506 -12496 0
12505 -46 -12498 -12496 0
-47 12505 -12496 -12499 0
-48 12505 -12500 -12496 0
-50 12505 -12502 -12496 0
-52 12506 -12498 -12497 0
-53 12506 -12499 -12497 0
-56 12506 -12502 -12497 0
595 -12504 12513 739 0
12514 -12505 596 740 0
12515 -741 -12506 0
12516 -12507 598 742 0
12517 599 -12508 743 0
12518 600 -12509 744 0
-12519 745 12510 601 0
747 -12512 12521 603 0
-12505 -73 12513 -12504 0
12514 -81 -12506 -12505 0
-91 -12515 12510 0
12519 -91 -12506 0
604 -12513 12522 748 0
605 12523 -12514 749 0
-12524 12515 606 750 0
-12524 12515 -606 0
12525 607 -12516 751 0
12525 -751 -12516 0
12527 609 753 -12518 0
-12528 12519 610 754 0
-12528 -610 12519 0
756 -12521 12530 612 0
-12514 -109 12522 -12513 0
-117 12523 -12514 -12515 0
12525 -130 -12517 -12516 0
12526 -130 -12516 0
613 -12522 12531 757 0
-12523 12532 614 758 0
-12533 12524 615 759 0
-12533 12524 -615 0
12534 -12525 616 760 0
12536 -12527 762 618 0
-12537 12528 763 619 0
-12530 12539 765 621 0
-12523 -145 12531 -12522 0
-154 -12525 12532 -12523 0
12534 -12526 -166 -12525 0
622 -12531 12540 766 0
12541 -12532 623 767 0
-12542 12533 624 768 0
-12542 12533 -624 0
12545 -12536 627 771 0
-12546 12537 772 628 0
774 -12539 12548 630 0
-12532 -181 -12531 12540 0
-189 12533 -12541 0
-189 -12533 12541 -12532 0
-12534 -190 12541 -12532 0
631 -12540 12549 775 0
12550 632 -12541 776 0
12541 -12550 776 632 0
12542 -12551 633 777 0
-633 12542 -12551 0
12554 -12545 636 780 0
-12555 12546 637 781 0
783 -12548 12557 639 0
-12541 -217 12549 -12540 0
12550 -217 -12540 0
12542 -225 -12550 0
640 -12549 12558 784 0
-12550 12559 641 785 0
12550 641 785 -12559 0
12550 -12559 -641 0
-12550 12559 -785 0
-12560 786 642 12551 0
-642 12551 -12560 0
12563 -12554 645 789 0
12555 -12564 646 790 0
792 -12557 12566 648 0
-12550 -253 12558 -12549 0
12559 -253 -12549 0
12551 -12559 -261 0
12559 -12551 -261 -12550 0
-267 -12557 -12550 12559 0
649 -12558 12567 793 0
12568 650 -12559 794 0
12559 -12568 794 650 0
12559 -12568 -650 0
-12569 12560 795 651 0
12560 -12569 -651 0
12572 -12563 654 798 0
801 -12566 12575 657 0
-12558 -12559 12567 -289 0
12568 -289 -12558 0
-12568 12560 -297 0
12568 -12559 -297 -12560 0
-307 12564 -12569 0
-12571 12564 -316 0
658 -12567 12576 802 0
-12568 12577 659 803 0
12568 -12577 659 803 0
-659 12568 -12577 0
-12568 -803 12577 0
-12578 12569 804 660 0
-660 12569 -12578 0
12571 -12580 806 662 0
12581 -12572 663 807 0
-12575 12584 810 666 0
-12568 -325 -12567 12576 0
12577 -325 -12567 0
-333 12569 -12577 0
-333 12578 -12568 0
-12576 12585 667 811 0
-12577 668 12586 812 0
12577 -12586 812 668 0
-668 12577 -12586 0
-12587 12578 813 669 0
12578 -12587 -669 0
12580 -12589 815 671 0
12580 -12589 -671 0
12590 -12581 672 816 0
-12584 12593 819 675 0
-12577 -361 -12576 12585 0
12586 -361 -12576 0
-369 12578 -12586 0
12580 -12586 -371 0
-377 12580 -12587 0
12592 -12581 -392 0
676 -12585 12594 820 0
12595 -12586 677 821 0
-12595 12586 821 677 0
-677 -12595 12586 0
12587 -12596 822 678 0
-678 12587 -12596 0
12589 -12598 824 680 0
12601 -12592 683 827 0
-12593 12602 828 684 0
-12586 -397 -12585 12594 0
12587 -405 -12595 0
12601 -428 -12590 0
685 -12594 12603 829 0
12604 -12595 686 830 0
12595 -12604 830 686 0
-686 12595 -12604 0
12596 -12605 687 831 0
-687 12596 -12605 0
12598 -12607 833 689 0
12610 -12601 692 836 0
-12602 12611 837 693 0
-12595 -433 -12594 12603 0
12604 -433 -12594 0
694 -12603 12612 838 0
-12613 12604 839 695 0
-695 -12613 12604 0
-12614 12605 696 840 0
-696 12605 -12614 0
12607 -12616 842 698 0
-12604 -469 -12603 12612 0
12619 -12610 -504 -12611 0
703 -12612 12621 847 0
12613 848 704 -12622 0
-704 12613 -12622 0
12614 705 -12623 849 0
-705 12614 -12623 0
12616 707 -12625 851 0
12617 -708 -12626 0
12618 -709 -12627 0
-12613 -505 12621 -12612 0
12614 -513 -12622 0
12618 -535 -12626 0
12619 -536 -12626 0
-12621 712 856 0
12622 857 713 0
12622 -713 0
12623 714 858 0
12623 -714 0
12625 716 860 0
12625 -716 0
12626 861 717 0
12626 -717 0
12623 -549 0
12625 -551 0
12626 -552 0
12625 -557 0
12626 -558 0
12625 -562 0
12626 -563 0
12626 -567 0
12627 -571 0
-12631 578 722 0
-12632 579 723 0
-12633 724 580 0
-12633 -580 0
-12634 725 581 0
-12634 -581 0
-12635 582 726 0
-12640 12631 731 587 0
-12641 588 12632 732 0
-12642 589 12633 733 0
-12642 -589 12633 0
-12643 590 12634 734 0
-12643 -590 12634 0
-12644 591 12635 735 0
-12649 12640 596 740 0
-12650 12641 741 597 0
-12651 12642 598 742 0
-12652 599 12643 743 0
-12653 600 12644 744 0
-12658 12649 749 605 0
-12659 606 12650 750 0
-12660 607 12651 751 0
-12661 608 12652 752 0
-12662 -609 12653 0
13440 577 721 0
13441 578 722 0
13442 579 723 0
13446 727 583 0
13447 728 584 0
13447 -728 0
13441 -9 0
13442 -9 0
13441 -13 0
13441 -14 0
13442 -19 0
13446 -34 0
13449 586 -13440 730 0
13450 -13441 731 587 0
13451 588 -13442 732 0
13451 -732 -13442 0
13456 737 593 -13447 0
13456 -737 -13447 0
-45 13450 -13441 -13442 0
-49 13450 -13441 -13446 0
-50 13450 -13447 -13441 0
13451 -55 -13446 -13442 0
-56 13451 -13447 -13442 0
13455 -70 -13446 -13447 0
595 -13449 13458 739 0
13459 -13450 596 740 0
13460 -741 -13451 0
13464 -745 -13455 0
13465 746 602 -13456 0
-13450 -73 13458 -13449 0
-81 13459 -13451 -13450 0
-85 13459 -13455 -13450 0
13460 -91 -13455 -13451 0
604 -13458 13467 748 0
605 13468 -13459 749 0
13469 750 -13460 606 0
13473 610 -13464 754 0
13474 -13465 611 755 0
-13459 -109 13467 -13458 0
-117 13468 -13459 -13460 0
613 -13467 13476 757 0
-13468 13477 614 758 0
13478 -13469 615 759 0
13482 -13473 763 619 0
13483 -13474 -764 0
-13468 -145 13476 -13467 0
622 -13476 13485 766 0
13486 -13477 623 767 0
13487 -13478 624 768 0
-13477 -181 -13476 13485 0
631 -13485 13494 775 0
13495 632 -13486 776 0
13496 -13487 777 633 0
-13486 -217 13494 -13485 0
640 -13494 13503 784 0
-13495 13504 785 641 0
-13495 -253 13503 -13494 0
-13496 13504 -261 -13495 0
649 -13503 13512 793 0
-13504 13513 794 650 0
-13504 -289 -13503 13512 0
658 -13512 13521 802 0
-13513 13522 803 659 0
-13513 -325 -13512 13521 0
-13521 13530 667 811 0
-13522 668 13531 812 0
-13522 -361 -13521 13530 0
676 -13530 13539 820 0
-13531 13540 677 821 0
-13531 -397 -13530 13539 0
685 -13539 13548 829 0
13549 -13540 830 686 0
-13540 -433 -13539 13548 0
694 -13548 13557 838 0
-13549 -469 -13548 13557 0
703 -13557 13566 847 0
-13566 712 856 0
14115 577 721 0
14116 578 722 0
14117 579 723 0
14118 724 580 0
14120 582 726 0
14121 583 727 0
14121 -727 0
14122 728 584 0
14122 -728 0
14116 -9 0
14117 -9 0
14116 -10 0
-14116 -11 0
14116 -14 0
14117 -20 0
14118 -24 0
14118 -25 0
14124 586 -14115 730 0
14125 -14116 731 587 0
14116 -587 -14125 0
14126 588 -14117 732 0
14126 -732 -14117 0
14127 589 -14118 733 0
14129 591 -14120 735 0
14130 736 -14121 592 0
14130 -736 -14121 0
14131 737 593 -14122 0
14131 -737 -14122 0
-45 14125 -14116 -14117 0
14125 -46 -14116 -14118 0
-49 14125 -14121 -14116 0
-50 14125 -14116 -14122 0
14126 -52 -14117 -14118 0
14126 -55 -14121 -14117 0
14126 -56 -14122 -14117 0
14127 -60 -14121 -14118 0
14130 -60 -14118 0
14127 -61 -14118 -14122 0
14130 -70 -14121 -14122 0
595 -14124 14133 739 0
14134 -14125 596 740 0
-14134 14125 -596 0
14135 -14126 741 597 0
14136 -14127 598 742 0
14136 -742 -14127 0
14138 600 -14129 744 0
14139 745 -14130 601 0
14139 -745 -14130 0
14140 746 602 -14131 0
14140 -746 -14131 0
-14125 -73 14133 -14124 0
14134 -81 -14126 -14125 0
-82 14134 -14127 -14125 0
-85 14134 -14130 -14125 0
14135 -88 -14127 -14126 0
14135 -91 -14130 -14126 0
14136 -96 -14130 -14127 0
14136 -97 -14131 -14127 0
-106 14139 -14131 -14130 0
604 -14133 14142 748 0
605 14143 749 -14134 0
14143 -749 -14134 0
14144 -14135 750 606 0
14145 607 -14136 751 0
14147 609 753 -14138 0
14148 610 -14139 754 0
14148 -754 -14139 0
14149 -14140 611 755 0
14149 -755 -14140 0
-109 -14134 14142 -14133 0
-117 14143 -14134 -14135 0
-118 -14136 14143 -14134 0
-121 -14139 14143 -14134 0
14144 -127 -14139 -14135 0
14146 -130 -14136 0
14148 -142 -14139 -14140 0
613 -14142 14151 757 0
-14143 14152 614 758 0
14152 -14143 -758 0
14153 -14144 615 759 0
14154 -14145 760 616 0
14157 -14148 763 619 0
-14143 -145 14151 -14142 0
-154 -14145 14152 -14143 0
14153 -160 -14145 -14144 0
-161 14153 -14146 -14144 0
14153 -162 -14147 -14144 0
-163 14153 -14148 -14144 0
-167 14154 -14147 -14145 0
14155 -173 -14149 -14146 0
14158 -14146 -173 0
622 -14151 14160 766 0
14161 -14152 623 767 0
14162 -14153 624 768 0
-14152 -181 14160 -14151 0
-189 -14153 14161 -14152 0
-14154 14161 -14152 -190 0
-14155 14162 -197 -14153 0
-199 14162 -14157 -14153 0
-200 14162 -14158 -14153 0
631 -14160 14169 775 0
14170 632 -14161 776 0
14171 -14162 633 777 0
-217 -14161 14169 -14160 0
-14162 -225 -14161 14170 0
640 -14169 14178 784 0
14179 -14170 785 641 0
-14171 14180 786 642 0
-14170 -253 -14169 14178 0
-14171 14179 -261 -14170 0
649 -14178 14187 793 0
14188 -14179 650 794 0
14189 -14180 795 651 0
-14179 -289 -14178 14187 0
-14180 -14179 -297 14188 0
658 -14187 14196 802 0
-14188 14197 803 659 0
14198 -14189 804 660 0
-14188 -325 -14187 14196 0
-14189 -14188 14197 -333 0
-14196 14205 667 811 0
-14197 668 14206 812 0
14207 -14198 669 813 0
-14197 -361 -14196 14205 0
-14198 -14197 14206 -369 0
676 -14205 14214 820 0
14215 -14206 677 821 0
14216 -14207 822 678 0
-14206 -397 -14205 14214 0
-14207 14215 -14206 -405 0
685 -14214 14223 829 0
14224 -14215 830 686 0
-14215 -433 -14214 14223 0
-14216 -441 -14215 14224 0
694 -14223 14232 838 0
-14224 695 839 14233 0
-14224 -469 -14223 14232 0
-14232 703 14241 847 0
-14233 -505 14241 -14232 0
-14241 712 856 0
-14523 724 580 0
14526 583 727 0
14527 728 584 0
14523 -10 0
14925 577 721 0
14926 578 722 0
14927 579 723 0
14927 -723 0
-14928 724 580 0
-14928 -580 0
14929 725 581 0
14930 582 726 0
14931 583 727 0
14932 728 584 0
14926 -9 0
14926 -11 0
14926 -13 0
14926 -14 0
14927 -17 0
14927 -19 0
14927 -20 0
14930 -32 0
14934 586 -14925 730 0
14935 -14926 731 587 0
14936 588 -14927 732 0
-732 14936 -14927 0
-14937 589 14928 733 0
14938 590 -14929 734 0
14939 591 -14930 735 0
14940 736 -14931 592 0
14940 -736 -14931 0
14935 -45 -14927 -14926 0
14935 -50 -14926 -14932 0
-53 14936 -14929 -14927 0
14936 -54 -14927 -14930 0
-55 14936 -14931 -14927 0
14936 -56 -14927 -14932 0
14940 -70 -14931 -14932 0
14941 -70 -14931 0
-14934 595 14943 739 0
14944 -14935 596 740 0
14945 -14936 741 597 0
-14946 14937 598 742 0
14947 599 -14938 743 0
14948 600 -14939 744 0
14949 745 -14940 601 0
14949 -745 -14940 0
14950 746 602 -14941 0
14944 -81 -14936 -14935 0
-85 14944 -14935 -14940 0
14945 -91 -14936 -14940 0
604 -14943 14952 748 0
605 14953 749 -14944 0
14954 750 -14945 606 0
-14955 607 14946 751 0
14956 608 -14947 752 0
14956 -752 -14947 0
14957 609 753 -14948 0
14958 610 -14949 754 0
14959 -14950 611 755 0
14959 -755 -14950 0
-109 -14944 14952 -14943 0
-117 14953 -14944 -14945 0
-118 -14953 14946 0
-119 -14947 14953 -14944 0
-121 -14949 14953 -14944 0
14958 -121 -14944 0
14954 -127 -14949 -14945 0
14958 -127 -14945 0
14956 -136 -14949 -14947 0
613 -14952 14961 757 0
-14953 14962 614 758 0
14963 -14954 615 759 0
-14964 14955 616 760 0
14965 -14956 617 761 0
14965 -14956 -761 0
14966 -14957 762 618 0
-14953 -145 14961 -14952 0
-14958 -157 14962 -14953 0
-161 14963 -14956 -14954 0
14965 -172 -14958 -14956 0
-14956 -14959 -173 14965 0
14968 -14956 -173 0
622 -14961 14970 766 0
14971 -14962 623 767 0
14972 -14963 624 768 0
-14973 14964 625 769 0
14975 -14966 627 771 0
14977 -14968 629 773 0
14977 -14968 -773 0
-14962 -181 -14961 14970 0
14971 -181 -14961 0
-189 -14963 14971 -14962 0
-191 -14965 14971 -14962 0
-14968 -194 -14962 14971 0
14975 -14968 -212 -14966 0
631 -14970 14979 775 0
14980 632 -14971 776 0
-14982 14973 634 778 0
-14970 -14971 14979 -217 0
14980 -225 -14971 -14972 0
640 -14979 14988 784 0
-14980 14989 641 785 0
-14991 14982 643 787 0
-14980 -253 14988 -14979 0
649 -14988 14997 793 0
-14989 14998 650 794 0
-15000 14991 652 796 0
-14989 -289 -14988 14997 0
658 -14997 15006 802 0
-14998 15007 659 803 0
-15009 15000 -661 0
-14998 -325 -14997 15006 0
-15006 15015 667 811 0
-15007 668 15016 812 0
15009 -15018 814 670 0
-15007 -361 -15006 15015 0
676 -15015 15024 820 0
-15016 15025 677 821 0
15018 -15027 823 679 0
-15016 -397 -15015 15024 0
685 -15024 15033 829 0
15034 -15025 830 686 0
15027 -15036 832 688 0
-15025 -433 -15024 15033 0
694 -15033 15042 838 0
-15034 695 15043 839 0
15036 -15045 697 841 0
-15034 -469 -15033 15042 0
-15042 703 15051 847 0
15045 706 -15054 850 0
-15043 -15042 15051 -505 0
-15051 712 856 0
15054 715 859 0
15054 -715 0
15054 -550 0
15054 -556 0
15195 577 721 0
-15196 578 722 0
-15196 -578 0
-15197 579 723 0
-15197 -579 0
15198 724 580 0
15199 725 581 0
15200 582 726 0
15201 583 727 0
15202 728 584 0
15202 -728 0
15203 729 585 0
-15197 -9 0
15198 -24 0
15201 -24 0
15201 -28 0
15199 -29 0
15202 -29 0
15204 586 -15195 730 0
-15205 15196 731 587 0
-15205 -587 15196 0
-15206 588 15197 732 0
-15206 -588 15197 0
15207 589 -15198 733 0
15208 590 -15199 734 0
15209 591 -15200 735 0
15210 736 -15201 592 0
15210 -736 -15201 0
15211 737 593 -15202 0
738 15212 594 -15203 0
-15206 -45 15196 15197 0
15207 -60 -15201 -15198 0
15210 -60 -15198 0
15211 -61 -15198 0
15208 -65 -15199 -15202 0
15211 -65 -15199 0
595 -15204 15213 739 0
15205 596 740 -15214 0
-15214 15205 -596 0
-15215 15206 741 597 0
-15215 -597 15206 0
15216 -15207 598 742 0
15217 599 -15208 743 0
15218 600 -15209 744 0
15219 745 -15210 601 0
15220 746 -15211 602 0
747 -15212 15221 603 0
-15215 -81 15206 15205 0
15220 -97 -15207 0
604 -15213 15222 748 0
-15223 15214 749 605 0
-15223 -605 15214 0
-15224 750 15215 606 0
-606 -15224 15215 0
15225 607 -15216 751 0
15226 608 -15217 752 0
15227 609 753 -15218 0
15229 -15220 611 755 0
756 -15221 15230 612 0
-117 -15224 15214 15215 0
15229 -140 -15218 0
613 -15222 15231 757 0
15223 -15232 758 614 0
15223 -15232 -614 0
15224 -15233 759 615 0
-15233 15224 -615 0
15236 -15227 762 618 0
15238 -15229 764 620 0
15238 -15229 -764 0
-15230 15239 765 621 0
-15233 15224 -153 15223 0
622 -15231 15240 766 0
15232 -15241 767 623 0
15232 -15241 -623 0
15233 -15242 768 624 0
-624 -15242 15233 0
15245 -15236 627 771 0
15247 -15238 629 773 0
15247 -15238 -773 0
774 -15239 15248 630 0
-189 -15242 15233 15232 0
15247 -212 -15236 0
631 -15240 15249 775 0
15241 -15250 776 632 0
-632 -15250 15241 0
15242 -15251 777 633 0
-633 -15251 15242 0
783 -15248 15257 639 0
15250 -217 -15240 0
-225 15242 15241 -15251 0
15256 -248 -15245 0
640 -15249 15258 784 0
15250 -15259 785 641 0
-15259 15250 -641 0
15251 -15260 786 642 0
-15260 15251 -642 0
-15260 15251 -261 15250 0
15259 -15268 794 650 0
-15268 15259 -650 0
-15269 15260 795 651 0
-15269 15260 -651 0
15260 15259 -297 -15269 0
15268 -15277 659 803 0
-15277 15268 -659 0
15269 -15278 660 804 0
-660 -15278 15269 0
-333 15268 15269 -15278 0
-15286 15277 812 668 0
-668 -15286 15277 0
15278 -15287 669 813 0
-15287 15278 -669 0
15278 -15286 -369 0
-369 15277 -15287 15278 0
15286 -15295 677 821 0
-677 -15295 15286 0
15287 -15296 678 822 0
-678 -15296 15287 0
-405 -15296 15286 15287 0
-15304 15295 830 686 0
-15304 15295 -686 0
15296 -15305 687 831 0
-687 -15305 15296 0
-441 15295 -15305 15296 0
-15313 15304 839 695 0
-15313 15304 -695 0
15305 -15314 696 840 0
-696 15305 -15314 0
-477 15304 -15314 15305 0
15314 705 -15323 849 0
15314 -705 -15323 0
15313 -513 -15323 15314 0
-15322 857 713 0
15323 858 714 0
15323 -714 0
15323 15322 -549 0
15465 577 721 0
15466 578 722 0
-15467 579 723 0
-579 -15467 0
15468 724 580 0
15468 -724 0
15469 725 581 0
15469 -725 0
15470 582 726 0
15471 727 583 0
15471 -727 0
15472 728 584 0
15472 -728 0
15473 729 585 0
15465 -1 0
15466 -1 0
-15466 -9 0
15467 -9 0
15466 -10 0
15466 -11 0
15466 -13 0
15466 -14 0
-22 15468 0
-24 15468 0
-25 15468 0
15469 -28 0
-29 15469 0
15470 -32 0
15471 -34 0
15474 586 -15465 730 0
15475 587 -15466 731 0
-15475 15466 731 587 0
-587 -15475 15466 0
15476 -15467 588 732 0
-15476 588 15467 732 0
-588 -15476 15467 0
15477 589 -15468 733 0
15478 590 -15469 734 0
15478 -734 -15469 0
15479 591 -15470 735 0
15480 592 -15471 736 0
15480 -736 -15471 0
15481 737 593 -15472 0
15481 -737 -15472 0
738 15482 594 -15473 0
-37 -15466 -15465 15474 0
-45 -15475 15467 0
15468 -15475 -46 0
15475 -46 -15468 -15466 0
-47 15475 -15469 -15466 0
-48 15475 -15470 -15466 0
-49 15475 -15471 -15466 0
-50 15475 -15472 -15466 0
-51 15475 -15466 -15473 0
15477 -60 -15471 -15468 0
15478 -64 -15469 -15471 0
15478 -65 -15469 -15472 0
15480 -70 -15472 -15471 0
595 15483 -15474 739 0
15475 596 740 -15484 0
15475 -15484 -596 0
-15485 15476 741 597 0
-15485 -597 15476 0
15486 -15477 598 742 0
15488 600 -15479 744 0
747 -15482 15491 603 0
15484 -73 -15474 0
-81 15476 -15484 0
15485 -81 -15475 0
15475 15476 -81 -15485 0
604 -15483 15492 748 0
-15493 605 749 15484 0
-605 -15493 15484 0
606 15485 750 -15494 0
-606 -15494 15485 0
15495 607 -15486 751 0
15497 609 753 -15488 0
-15491 756 15500 612 0
-15483 -15484 15492 -109 0
-109 15493 -15483 0
-117 15485 -15493 0
613 -15492 15501 757 0
15493 -15502 758 614 0
15493 -15502 -614 0
15494 -15503 759 615 0
-615 -15503 15494 0
15506 -15497 762 618 0
-15500 15509 765 621 0
15502 -145 -15492 0
-153 15494 -15502 0
-153 -15493 15502 -15494 0
15505 -15495 -166 0
622 -15501 15510 766 0
15502 -15511 623 767 0
15502 -623 -15511 0
15503 -15512 768 624 0
-624 15503 -15512 0
15514 -15505 770 626 0
15515 -15506 627 771 0
774 -15509 15518 630 0
15511 -181 -15501 0
-189 15503 -15511 0
631 -15510 15519 775 0
632 -15520 776 15511 0
-632 15511 -15520 0
15512 -15521 633 777 0
-633 15512 -15521 0
-15518 783 15527 639 0
-217 -15510 15520 0
-225 15512 -15520 0
15526 -248 -15515 0
640 -15519 15528 784 0
641 -15529 785 15520 0
15520 -15529 -641 0
15521 -15530 786 642 0
15521 -15530 -642 0
-253 15529 -15519 0
15521 -15529 -261 0
-15520 15529 -261 -15521 0
649 -15528 15537 793 0
650 -15538 794 15529 0
-650 -15538 15529 0
-15539 15530 651 795 0
-651 15530 -15539 0
15530 -15538 -297 0
658 -15537 15546 802 0
-15547 15538 803 659 0
-659 15538 -15547 0
15539 -15548 804 660 0
-660 -15548 15539 0
-325 -15537 15547 0
-333 15539 -15547 0
-15546 15555 667 811 0
-15556 15547 668 812 0
-668 15547 -15556 0
15548 -15557 813 669 0
-15557 15548 -669 0
-15547 -361 -15546 15555 0
15556 -361 -15546 0
-369 15548 -15556 0
676 -15555 15564 820 0
-15565 15556 677 821 0
-677 -15565 15556 0
15557 -15566 678 822 0
-678 -15566 15557 0
-405 15557 -15565 0
685 -15564 15573 829 0
-15574 15565 830 686 0
-686 15565 -15574 0
-15575 15566 831 687 0
-687 15566 -15575 0
-433 -15565 -15564 15573 0
-441 15566 -15574 0
694 -15573 15582 838 0
15574 -15583 695 839 0
-695 -15583 15574 0
15575 -15584 696 840 0
-696 15575 -15584 0
-469 -15573 15583 0
-477 15575 -15583 0
-15582 703 15591 847 0
15583 848 704 -15592 0
-704 15583 -15592 0
15584 705 -15593 849 0
-705 15584 -15593 0
15588 -709 -15597 0
15584 -513 -15592 0
15589 -538 -15597 0
-15591 712 856 0
15592 857 713 0
15592 -713 0
15593 714 858 0
15593 -714 0
15594 715 859 0
15594 -715 0
15595 -716 0
15596 861 717 0
15596 -717 0
15597 862 718 0
15597 -718 0
15598 863 719 0
15593 -549 0
15594 -550 0
15595 -551 0
15596 -552 0
15597 -553 0
15594 -556 0
15595 -557 0
15596 -558 0
15597 -559 0
15595 -562 0
15596 -563 0
15597 -564 0
15596 -567 0
15597 -568 0
15597 -571 0
15598 -572 0
15598 -574 0
15731 -717 0
-15727 -15728 -549 0
15732 -571 0
-15736 578 722 0
-15736 -578 0
15737 579 723 0
15737 -723 0
15738 724 580 0
15739 725 581 0
15740 582 726 0
15741 583 727 0
15742 728 584 0
15737 -16 0
-17 15737 0
15737 -19 0
15737 -20 0
15739 -22 0
15741 -24 0
15742 -29 0
15740 -32 0
-15745 15736 731 587 0
-15745 -587 15736 0
15746 588 -15737 732 0
15747 733 -15738 589 0
15749 591 -15740 735 0
15750 736 -15741 592 0
15751 737 593 -15742 0
15747 -60 -15741 -15738 0
15750 -60 -15738 0
15751 -65 -15739 0
15750 -70 -15742 -15741 0
-15754 15745 -596 0
15759 745 -15750 601 0
15758 -104 -15751 -15749 0
-15763 15754 749 605 0
15763 -15772 758 614 0
15763 -15772 -614 0
15772 -15781 623 767 0
-623 15772 -15781 0
-15790 15781 776 632 0
-15799 15790 785 641 0
-15808 15799 794 650 0
-15817 15808 803 659 0
-15826 15817 812 668 0
-15835 15826 821 677 0
-15844 15835 686 830 0
15844 -15853 839 695 0
15871 578 722 0
15872 579 723 0
15873 724 580 0
15874 725 581 0
15875 582 726 0
15876 583 727 0
15877 728 584 0
15878 729 585 0
15873 -22 0
15874 -22 0
15873 -24 0
15876 -24 0
15873 -25 0
15877 -25 0
15874 -28 0
15876 -28 0
15874 -29 0
15877 -29 0
15880 -15871 731 587 0
15881 588 -15872 732 0
15882 589 -15873 733 0
15883 590 -15874 734 0
15884 591 -15875 735 0
15885 736 -15876 592 0
15885 -736 -15876 0
15886 737 593 -15877 0
738 15887 594 -15878 0
15882 -60 -15876 -15873 0
15882 -61 -15877 -15873 0
15886 -61 -15873 0
15883 -64 -15876 -15874 0
15883 -65 -15874 -15877 0
15886 -65 -15874 0
15889 -15880 596 740 0
15890 -15881 741 597 0
15891 -15882 598 742 0
15892 599 -15883 743 0
15893 600 -15884 744 0
15894 745 -15885 601 0
15895 746 602 -15886 0
747 -15887 15896 603 0
15894 -106 -15886 -15885 0
15895 -106 -15885 0
15898 -15889 749 605 0
15899 -15890 750 606 0
15900 607 -15891 751 0
15901 608 -15892 752 0
15902 609 753 -15893 0
15903 610 -15894 754 0
-15896 15905 756 612 0
15900 -132 -15894 -15891 0
15903 -132 -15891 0
15902 -140 -15895 -15893 0
15904 -140 -15893 0
15909 -15900 616 760 0
15911 -15902 762 618 0
15912 -15903 763 619 0
15913 -178 -15903 0
15913 -15904 -180 -15905 0
15918 -15909 625 769 0
15920 -15913 -212 -15911 0
16005 577 721 0
16006 578 722 0
16007 579 723 0
16008 724 580 0
16008 -724 0
16009 725 581 0
16010 582 726 0
16011 727 583 0
16011 -727 0
16012 728 584 0
16012 -728 0
16013 729 585 0
16006 -9 0
16007 -9 0
16006 -14 0
-22 16008 0
16009 -22 0
16008 -24 0
16008 -25 0
16009 -28 0
16009 -29 0
16012 -32 0
16011 -34 0
16014 586 -16005 730 0
16015 -16006 731 587 0
16016 588 -16007 732 0
16017 589 -16008 733 0
16018 590 -16009 734 0
16019 591 -16010 735 0
16020 736 -16011 592 0
16021 737 593 -16012 0
16021 -737 -16012 0
738 16022 594 -16013 0
16015 -46 -16008 -16006 0
16017 -58 -16008 -16009 0
16018 -58 -16008 0
16011 -60 -16017 0
16017 -60 -16008 -16011 0
16020 -60 -16008 0
16017 -61 -16008 -16012 0
16011 -64 -16018 0
16018 -64 -16011 -16009 0
16018 -65 -16009 -16012 0
16020 -70 -16011 -16012 0
16023 -16014 595 739 0
16024 -16015 596 740 0
16025 -16016 741 597 0
16026 -16017 598 742 0
16027 599 -16018 743 0
16028 600 -16019 744 0
16029 745 -16020 601 0
16020 -16029 745 601 0
16030 746 -16021 602 0
16021 -16030 602 746 0
16030 -746 -16021 0
-16022 747 16031 603 0
16024 -81 -16015 -16016 0
16025 -91 -16020 -16016 0
16029 -91 -16016 0
16026 -97 -16017 -16021 0
16029 -106 -16021 -16020 0
604 -16023 16032 748 0
16033 605 749 -16024 0
16034 606 -16025 750 0
16035 607 -16026 751 0
16036 608 -16027 752 0
16037 609 753 -16028 0
16038 754 -16029 610 0
16029 -16038 754 610 0
16039 -16030 611 755 0
16030 755 -16039 611 0
16039 -755 -16030 0
-16031 16040 756 612 0
16034 -127 -16029 -16025 0
16038 -127 -16025 0
16035 -130 -16027 -16026 0
16036 -130 -16026 0
16037 -140 -16028 -16030 0
16039 -144 -16031 -16030 0
16042 -16033 614 758 0
16043 -16034 615 759 0
16044 -16035 616 760 0
16035 -616 -16044 0
16045 -16036 617 761 0
16045 -16036 -761 0
16046 -16037 762 618 0
16047 -16038 763 619 0
16038 763 -16047 619 0
16048 -16039 764 620 0
16039 764 -16048 620 0
16048 -16039 -764 0
-16040 16049 765 621 0
16046 -176 -16037 -16039 0
16048 -176 -16037 0
16047 -178 -16039 -16038 0
16048 -180 -16040 -16039 0
16044 -16053 625 769 0
16044 -625 -16053 0
16054 -16045 626 770 0
16055 -16046 627 771 0
16046 -16055 771 627 0
16056 628 772 -16047 0
16047 -16056 772 628 0
16057 -16048 629 773 0
16048 -16057 773 629 0
16057 -773 -16048 0
774 -16049 16058 630 0
16048 -205 -16053 0
16055 -212 -16046 -16048 0
16057 -212 -16046 0
16057 -216 -16049 -16048 0
16053 -16062 778 634 0
16053 -634 -16062 0
16063 -16054 635 779 0
16064 -16055 780 636 0
16055 -16064 780 636 0
16056 781 -16065 637 0
16066 638 -16057 782 0
16057 782 -16066 638 0
16066 -782 -16057 0
-16058 16067 783 639 0
16063 -245 -16054 -16057 0
16064 -247 -16055 -16056 0
16065 -247 -16055 0
16064 -248 -16055 -16057 0
16065 -250 -16056 -16057 0
16066 -250 -16056 0
16062 -16071 643 787 0
16062 -643 -16071 0
16072 -16063 644 788 0
16073 -16064 789 645 0
16064 -16073 789 645 0
16074 -16065 646 790 0
16075 -16066 647 791 0
16066 -16075 647 791 0
16075 -16066 -791 0
792 -16067 16076 648 0
16072 -281 -16063 -16066 0
16075 -281 -16063 0
16073 -283 -16064 -16065 0
16074 -283 -16064 0
16073 -284 -16064 -16066 0
16074 -16065 -286 -16066 0
16075 -288 -16067 -16066 0
16071 -16080 652 796 0
16071 -16080 -652 0
16081 -16072 653 797 0
16082 -16073 798 654 0
16073 -16082 798 654 0
16083 -16074 799 655 0
16083 -799 -16074 0
16084 -16075 656 800 0
16075 -16084 656 800 0
801 -16076 16085 657 0
16074 -312 -16080 0
16081 -317 -16075 -16072 0
16082 -320 -16073 -16075 0
16083 -322 -16075 -16074 0
16084 -322 -16074 0
16080 -16089 805 661 0
16080 -16089 -661 0
16090 -16081 662 806 0
16091 -16082 663 807 0
16082 -16091 807 663 0
16093 -16084 809 665 0
16084 809 -16093 665 0
-16085 16094 810 666 0
16093 -353 -16081 0
16091 -356 -16082 -16084 0
16092 -358 -16083 -16084 0
16093 -358 -16083 0
16089 -16098 670 814 0
16089 -16098 -670 0
16091 -16100 816 672 0
16101 -16092 817 673 0
16102 818 674 -16093 0
-16094 16103 819 675 0
16100 -392 -16091 -16093 0
-16107 16098 823 679 0
-16107 -679 16098 0
16110 -16101 826 682 0
16111 -16102 683 827 0
16111 -827 -16102 0
16109 -428 -16100 -16102 0
16111 -16103 -432 -16102 0
16107 -16116 688 832 0
16107 -16116 -688 0
16118 690 -16109 834 0
16111 -16120 836 692 0
16120 -16111 -468 -16112 0
16116 -16125 697 841 0
16116 -697 -16125 0
16127 -500 -16120 -16118 0
16125 706 -16134 850 0
-706 16125 -16134 0
16134 715 859 0
16134 -715 0
16134 -550 0
16134 -556 0
-16140 -9 0
16140 -10 0
-16140 -11 0
-16140 -13 0
-16140 -14 0
16140 -16 0
-16140 -17 0
-16140 -19 0
-16140 -20 0
16140 -22 0
16140 -24 0
16140 -25 0
-16140 -28 0
-16140 -29 0
-16140 -32 0
-16140 -34 0
-16141 -45 -16007 -16006 1561 1562 0
16141 -46 -1563 0
-47 16141 -1564 0
-49 -1566 16141 0
-50 16141 -1567 0
16141 -52 -1563 0
16141 -1564 -53 0
16141 -1566 -55 0
16141 -1567 -56 0
-58 16141 -1563 0
-58 16141 -1564 0
-58 -16141 -16008 1563 1564 -16009 0
-59 16141 -1563 0
-60 16141 -1563 0
-60 16141 -1566 0
16141 -61 -1563 0
16141 -61 -1567 0
-64 16141 -1566 0
-64 -16141 -16009 1564 -16011 1566 0
16141 -1564 -65 0
16141 -1567 -65 0
-16141 -65 1564 -16009 1567 -16012 0
-68 -16141 1567 -16010 1565 -16012 0
16141 -70 -1566 0
16141 -1567 -70 0
-16141 -70 1566 1567 -16011 -16012 0
-82 16142 -1572 0
-83 -1573 16142 0
-83 -16142 -16015 -16018 1570 1573 0
-85 -1575 16142 0
-86 -1576 16142 0
-88 16142 -1572 0
-89 -1573 16142 0
-91 -1575 16142 0
-92 -1576 16142 0
-94 16142 -1572 0
-94 -1573 16142 0
16017 -94 16142 0
16018 -94 16142 0
-94 -16142 -16017 1572 -16018 1573 0
-95 16142 -1572 0
-96 16142 -1572 0
-1575 -96 16142 0
-97 16142 -1572 0
-97 -1576 16142 0
-97 1572 1576 -16017 -16142 -16021 0
-100 -1573 16142 0
-100 -1575 16142 0
-100 -16142 1573 -16018 1575 -16020 0
-1573 -101 16142 0
-101 -1576 16142 0
-101 -16142 1576 1573 -16018 -16021 0
-103 -1575 16142 0
-104 -1576 16142 0
-106 -1575 16142 0
-106 -1576 16142 0
-106 -16142 1575 1576 -16021 -16020 0
-108 -16142 1576 -16021 -16022 1577 0
-109 -16024 -16143 -16023 1578 1579 0
-118 -1581 16143 0
-119 -1582 16143 0
-119 -16143 -16024 -16027 1579 1582 0
-1584 -121 16143 0
-122 -1585 16143 0
-124 -1581 16143 0
-125 -1582 16143 0
-125 -16025 -16143 -16027 1580 1582 0
-127 -1584 16143 0
-128 -1585 16143 0
-130 -1581 16143 0
-130 -1582 16143 0
-131 -1581 16143 0
-132 -1581 16143 0
-132 -1584 16143 0
-132 -16143 1581 -16026 1584 -16029 0
-133 -1581 16143 0
-133 -1585 16143 0
-136 -1582 16143 0
-136 -1584 16143 0
-136 -16029 -16143 -16027 1582 1584 0
-137 -1582 16143 0
-137 -1585 16143 0
-140 -1585 16143 0
-1584 -142 16143 0
-142 -1585 16143 0
-142 1584 -16143 -16030 1585 -16029 0
1588 -16144 -16032 -16033 1587 -145 0
-153 1588 -16144 -16033 -16034 1589 0
-154 -1590 16144 0
-155 16144 -1591 0
-155 1588 -16144 1591 -16036 -16033 0
-1593 16144 -157 0
-157 -16144 -16033 1593 1588 -16038 0
-1594 16144 -158 0
-16144 1588 -158 -16033 -16039 1594 0
-160 -1590 16144 0
-160 -16144 1590 -16035 1589 -16034 0
-161 16144 -1591 0
-161 1589 -16144 1591 -16036 -16034 0
-163 -1593 16144 0
-163 -16034 -16144 -16038 1589 1593 0
-164 -1594 16144 0
-164 -16034 -16039 -16144 1589 1594 0
-1590 16144 -166 0
16144 -166 -1591 0
-168 -1590 16144 0
-1593 -168 16144 0
-169 -1590 16144 0
-169 -1594 16144 0
-172 16144 -1591 0
-172 -1593 16144 0
-172 -16038 -16144 1591 -16036 1593 0
-173 16144 -1591 0
-173 -1594 16144 0
-176 -1594 16144 0
-178 -1593 16144 0
-178 -1594 16144 0
-178 1593 -16144 1594 -16039 -16038 0
-1594 -180 16144 0
-190 -1599 16145 0
-191 -1600 16145 0
16145 -193 -1602 0
-194 16145 -1603 0
-194 -16042 -16048 -16145 1597 1603 0
-1599 16145 -196 0
-197 -1600 16145 0
-199 16145 -1602 0
-200 16145 -1603 0
-202 -1599 16145 0
-202 -1600 16145 0
-1599 16145 -204 0
16145 -204 -1602 0
-205 -1599 16145 0
-205 16145 -1603 0
-208 -1600 16145 0
-208 16145 -1602 0
-209 -1600 16145 0
-209 16145 -1603 0
-209 1600 1603 -16048 -16145 -16045 0
-1601 -212 16145 0
-212 16145 -1603 0
16145 -214 -1602 0
16145 -1603 -214 0
-214 1602 -16145 -16047 1603 -16048 0
-216 16145 -1603 0
-226 -1608 16146 0
-227 -1609 16146 0
-229 -1611 16146 0
-230 -1612 16146 0
-232 -1608 16146 0
-233 -1609 16146 0
-235 -1611 16146 0
-236 -1612 16146 0
-1608 -238 16146 0
-1609 -238 16146 0
-240 -1608 16146 0
-240 -1611 16146 0
-241 -1608 16146 0
-241 -1612 16146 0
-241 1608 -16146 -16053 1612 -16057 0
-244 -1609 16146 0
-244 -1611 16146 0
-1609 -245 16146 0
-245 -1612 16146 0
-248 -1612 16146 0
-250 -1611 16146 0
-250 -1612 16146 0
-250 -16146 1612 1611 -16056 -16057 0
-1612 16146 -252 0
-1613 16146 -252 0
-262 -1617 16147 0
-263 16147 -1618 0
-265 -1620 16147 0
-266 16147 -1621 0
-268 -1617 16147 0
-269 16147 -1618 0
-271 -1620 16147 0
-272 16147 -1621 0
-274 -1617 16147 0
-274 16147 -1618 0
-275 -1617 16147 0
-276 -1617 16147 0
-276 -1620 16147 0
-1617 -277 16147 0
-277 16147 -1621 0
-279 16147 -1618 0
-280 16147 -1618 0
-1620 -280 16147 0
-281 16147 -1618 0
-281 16147 -1621 0
-281 1621 -16147 -16063 1618 -16066 0
-1619 -284 16147 0
-284 16147 -1621 0
-284 1621 -16147 -16066 1619 -16064 0
-1620 -286 16147 0
-286 16147 -1621 0
1621 -286 -16147 1620 -16065 -16066 0
-288 16147 -1621 0
-298 -1626 16148 0
-299 -1627 16148 0
-301 -1629 16148 0
-302 16148 -1630 0
-304 -1626 16148 0
-305 -1627 16148 0
-307 -1629 16148 0
-308 16148 -1630 0
-310 -1626 16148 0
-310 -1627 16148 0
-311 -1626 16148 0
-312 -1626 16148 0
-1629 -312 16148 0
-1626 -313 16148 0
-313 16148 -1630 0
-315 -1627 16148 0
-316 -1627 16148 0
-316 -1629 16148 0
-316 -16148 1627 -16072 -16074 1629 0
-317 -1627 16148 0
-317 16148 -1630 0
-320 16148 -1630 0
-1629 -322 16148 0
-322 16148 -1630 0
-324 16148 -1630 0
-334 16149 -1635 0
-335 -1636 16149 0
-337 -1638 16149 0
-338 16149 -1639 0
-340 16149 -1635 0
-341 -1636 16149 0
-343 -1638 16149 0
-344 16149 -1639 0
16149 -346 -1635 0
-1636 16149 -346 0
-348 16149 -1635 0
-348 -1638 16149 0
-349 16149 -1635 0
-349 16149 -1639 0
-351 -1636 16149 0
-352 -1636 16149 0
-352 -1638 16149 0
-1636 -353 16149 0
-353 16149 -1639 0
-356 16149 -1637 0
-356 16149 -1639 0
-358 -1638 16149 0
-358 16149 -1639 0
-358 -16149 1639 -16083 1638 -16084 0
-360 16149 -1639 0
-374 16150 -1648 0
-380 16150 -1648 0
-382 -1644 16150 0
-1644 16150 -383 0
-384 -1644 16150 0
-385 -1644 16150 0
-385 16150 -1648 0
-387 -1645 16150 0
-388 -1645 16150 0
-389 -1645 16150 0
-389 16150 -1648 0
-392 16150 -1646 0
-392 16150 -1648 0
-1647 16150 -394 0
16150 -1648 -394 0
16150 -1648 -396 0
16150 -396 -1649 0
-428 -1655 16151 0
-428 -1657 16151 0
-1656 -430 16151 0
-1657 -430 16151 0
-1657 16151 -432 0
-446 -1666 16152 0
-452 -1666 16152 0
-457 -1666 16152 0
-461 -1666 16152 0
-1664 16152 -464 0
-1666 16152 -464 0
-466 -1666 16152 0
-1666 16152 -468 0
16153 -1675 -500 0
-504 16153 -1675 0
16154 -1684 -540 0
16154 -540 -1685 0
16156 -16140 0
16160 -16141 0
16160 -16156 0
16161 -16141 -16156 0
16164 -16142 0
16164 -16160 0
16165 -16161 0
16165 -16160 -16142 0
-16161 16166 -16142 0
16168 -16143 0
16168 -16164 0
16169 -16165 0
-16166 16170 0
16169 -16143 -16164 0
-16165 16170 -16143 0
-16166 -16143 16171 0
16172 -16144 0
16172 -16168 0
16173 -16169 0
-16170 16174 0
-16171 16175 0
16173 -16144 -16168 0
-16169 16174 -16144 0
-16170 -16144 16175 0
16176 -16145 0
16176 -16172 0
16177 -16173 0
-16174 16178 0
-16175 16179 0
16177 -16172 -16145 0
-16173 16178 -16145 0
-16174 16179 -16145 0
16180 -16146 0
16180 -16176 0
16181 -16177 0
-16178 16182 0
-16179 16183 0
16181 -16146 -16176 0
-16177 16182 -16146 0
-16178 -16146 16183 0
16184 -16147 0
16184 -16180 0
16185 -16181 0
-16182 16186 0
-16183 16187 0
16185 -16147 -16180 0
-16181 16186 -16147 0
-16182 -16147 16187 0
16188 -16148 0
16188 -16184 0
16189 -16185 0
-16186 16190 0
-16187 16191 0
16189 -16148 -16184 0
-16185 16190 -16148 0
-16186 -16148 16191 0
16193 -16189 0
-16190 16194 0
-16191 16195 0
16193 -16149 -16188 0
-16189 16194 -16149 0
-16190 -16149 16195 0
16197 -16193 0
-16194 16198 0
-16195 16199 0
-16193 16198 -16150 0
-16194 -16150 16199 0
-16198 16202 0
-16199 16203 0
-16197 -16151 16202 0
-16198 -16151 16203 0
16206 -16202 0
-16203 16207 0
-16202 -16152 16207 0
-16207 16211 0
-16206 -16153 16211 0
-16211 16215 0
-16171 -16144 0
-16175 -16145 0
-16179 -16146 0
-16183 -16147 0
-16187 -16148 0
-16191 -16149 0
-16195 -16150 0
-16199 -16151 0
-16203 -16152 0
-16207 -16153 0
-16211 -16154 0
-16215 -16155 0
-16216 -9 0
-16216 -10 0
16216 -11 0
-16216 -13 0
-16216 -14 0
-16216 -16 0
16216 -17 0
-16216 -19 0
-16216 -20 0
16216 -22 0
-16216 -24 0
-16216 -25 0
16216 -28 0
16216 -29 0
-16216 -32 0
-16216 -34 0
-16217 -45 -16007 -16006 1696 1697 0
-47 16217 -1699 0
-49 16217 -1701 0
-16217 -49 -16006 -16011 1696 1701 0
-16217 -50 -16006 1702 1696 -16012 0
16217 -53 -1699 0
16217 -55 -1701 0
-58 16217 -1699 0
-60 -1701 16217 0
-60 -16217 -16008 1701 1698 -16011 0
16217 -61 -1702 0
-16217 -61 -16008 1702 1698 -16012 0
-64 16217 -1699 0
-64 -1701 16217 0
16217 -65 -1699 0
16217 -70 -1701 0
-16217 -70 1702 -16011 1701 -16012 0
-83 16218 -1708 0
-85 -1710 16218 0
-89 16218 -1708 0
-91 -1710 16218 0
-94 16218 -1708 0
-1710 -96 16218 0
-16218 -96 1710 -16017 1707 -16020 0
-97 -1711 16218 0
-97 -16218 1711 -16017 1707 -16021 0
-100 16218 -1708 0
-100 -1710 16218 0
-101 16218 -1708 0
-104 -1711 16218 0
-106 -1710 16218 0
-106 -1711 16218 0
-106 -16218 1710 1711 -16020 -16021 0
-16219 -117 1715 -16024 -16025 1714 0
-16219 -118 -16024 -16026 1714 1716 0
-119 -1717 16219 0
-1719 -121 16219 0
-16219 -121 1719 -16029 1714 -16024 0
-122 -1720 16219 0
-124 -16219 -16025 -16026 1715 1716 0
-125 -1717 16219 0
-127 -1719 16219 0
-127 -16219 -16025 -16029 1715 1719 0
-130 -1717 16219 0
-130 -16219 1717 -16026 1716 -16027 0
-132 -1719 16219 0
-132 -16219 1719 -16026 1716 -16029 0
-133 -1720 16219 0
-133 -16219 1716 -16030 1720 -16026 0
-136 -1717 16219 0
-1719 -136 16219 0
-137 -1717 16219 0
-137 -1720 16219 0
-140 -1720 16219 0
-16219 -140 1720 1718 -16028 -16030 0
-1719 -142 16219 0
-142 -1720 16219 0
-16219 -142 1719 1720 -16030 -16029 0
1723 -153 -16220 -16033 -16034 1724 0
-154 -16220 -16033 -16035 1723 1725 0
-155 -1726 16220 0
-1728 16220 -157 0
-160 1724 -16220 -16034 -16035 1725 0
-161 -1726 16220 0
-163 -1728 16220 0
-1726 16220 -166 0
-1728 -168 16220 0
1728 -168 -16220 -16035 1725 -16038 0
1725 -169 -16220 -16039 1729 -16035 0
-1726 -172 16220 0
-1728 -172 16220 0
-1726 -173 16220 0
-173 1729 -16220 -16036 1726 -16039 0
-1729 -176 16220 0
-176 -16220 1727 -16039 1729 -16037 0
-1728 -178 16220 0
-178 -1729 16220 0
-178 1728 -16220 -16039 -16038 1729 0
-1729 -180 16220 0
-191 -1735 16221 0
-1737 16221 -193 0
-197 -1735 16221 0
-199 -1737 16221 0
-1735 -202 16221 0
-1737 16221 -204 0
-16221 1737 -16044 -204 1734 -16047 0
-205 -1738 16221 0
-205 1738 -16044 -16221 1734 -16048 0
-1735 -208 16221 0
-1737 -208 16221 0
-1735 -209 16221 0
-1738 -212 16221 0
-1737 16221 -214 0
-1738 16221 -214 0
1737 -16221 -214 1738 -16047 -16048 0
-1738 -216 16221 0
-227 -1744 16222 0
-1746 -229 16222 0
-233 -1744 16222 0
-1742 -235 16222 0
-235 -1746 16222 0
-1744 -238 16222 0
-1743 -240 16222 0
-1746 -240 16222 0
1743 1746 -16222 -16053 -240 -16056 0
-241 -1747 16222 0
-241 1747 -16053 -16222 -16057 1743 0
-1744 -243 16222 0
-1744 -244 16222 0
-1746 -244 16222 0
-1744 -245 16222 0
-245 -1747 16222 0
-1745 -247 16222 0
-1747 -248 16222 0
-248 1747 -16222 1745 -16057 -16055 0
-1746 -250 16222 0
-250 -1747 16222 0
1746 -250 -16222 1747 -16057 -16056 0
-1747 16222 -252 0
-1749 -253 16223 0
-263 -1753 16223 0
-265 -1755 16223 0
-269 -1753 16223 0
-271 -1755 16223 0
-1753 -274 16223 0
-276 -1755 16223 0
1752 1755 -16223 -16062 -16065 -276 0
1752 -277 -16223 -16062 -16066 1756 0
-1753 -280 16223 0
-1755 -280 16223 0
-1753 -281 16223 0
-281 -1756 16223 0
-1756 -284 16223 0
-1755 -286 16223 0
-1756 -286 16223 0
1755 -16223 -286 -16065 1756 -16066 0
-1756 -288 16223 0
-299 -1762 16224 0
-1759 -301 16224 0
-1759 -302 16224 0
-305 -1762 16224 0
-1762 -316 16224 0
-1762 -317 16224 0
-1765 -320 16224 0
-1764 -322 16224 0
-322 -1765 16224 0
-322 1764 -16224 1765 -16074 -16075 0
-1765 -324 16224 0
-1771 -335 16225 0
-341 -1771 16225 0
-1771 16225 -346 0
-1771 -352 16225 0
-1771 -353 16225 0
-356 -1774 16225 0
-1773 -358 16225 0
-358 -1774 16225 0
-358 1774 -16225 -16084 1773 -16083 0
-1774 -360 16225 0
-360 16225 -1775 0
-1780 16226 -371 0
-377 -1780 16226 0
-382 -1780 16226 0
-1780 -388 16226 0
-1780 -389 16226 0
-1783 -392 16226 0
-1782 16226 -394 0
-1783 16226 -394 0
-1783 16226 -396 0
-407 -1789 16227 0
-413 -1789 16227 0
-418 -1789 16227 0
-424 -1789 16227 0
-1792 -428 16227 0
-1792 16227 -432 0
-1798 -443 16228 0
-449 -1798 16228 0
-454 -1798 16228 0
-459 -1798 16228 0
-1798 -460 16228 0
-1801 16228 -468 0
-495 -1807 16229 0
-496 -1807 16229 0
1808 -16229 -500 -16118 -16120 1810 0
-1810 -504 16229 0
-1816 -531 16230 0
16232 -16216 0
16236 -16217 0
16236 -16232 0
16237 -16217 -16232 0
16240 -16218 0
16240 -16236 0
16241 -16237 0
16241 -16218 -16236 0
-16237 16242 -16218 0
16244 -16219 0
16244 -16240 0
16245 -16241 0
-16242 16246 0
16245 -16219 -16240 0
-16219 -16241 16246 0
-16242 -16219 16247 0
16248 -16220 0
16248 -16244 0
16249 -16245 0
16250 -16246 0
-16247 16251 0
16249 -16220 -16244 0
16250 -16245 -16220 0
16251 -16246 -16220 0
16252 -16221 0
16252 -16248 0
16253 -16249 0
16254 -16250 0
16255 -16251 0
16253 -16221 -16248 0
16254 -16221 -16249 0
-16221 16255 -16250 0
16256 -16252 0
16257 -16253 0
16258 -16254 0
16259 -16255 0
16257 -16222 -16252 0
-16222 16258 -16253 0
-16222 16259 -16254 0
16260 -16223 0
16260 -16256 0
16261 -16257 0
16262 -16258 0
16263 -16259 0
16261 -16223 -16256 0
-16223 -16257 16262 0
-16223 16263 -16258 0
16264 -16224 0
16264 -16260 0
16265 -16261 0
16266 -16262 0
16267 -16263 0
16265 -16224 -16260 0
-16224 -16261 16266 0
-16224 16267 -16262 0
16269 -16265 0
16270 -16266 0
16271 -16267 0
16269 -16225 -16264 0
-16225 16270 -16265 0
-16225 16271 -16266 0
16273 -16269 0
16274 -16270 0
16275 -16271 0
16274 -16269 -16226 0
-16270 16275 -16226 0
16277 -16273 0
16278 -16274 0
16279 -16275 0
16278 -16273 -16227 0
16279 -16274 -16227 0
16281 -16277 0
16282 -16278 0
16283 -16279 0
16282 -16277 -16228 0
-16278 16283 -16228 0
16286 -16282 0
-16283 16287 0
16286 -16281 -16229 0
-16282 -16229 16287 0
16291 -16287 0
-16286 16291 -16230 0
-16247 -16220 0
-16221 -16251 0
-16222 -16255 0
-16223 -16259 0
-16224 -16263 0
-16225 -16267 0
-16271 -16226 0
-16275 -16227 0
-16279 -16228 0
-16283 -16229 0
-16287 -16230 0
-16291 -16231 0
16292 -32 0
-68 16293 -1835 0
-86 -1846 16294 0
-92 -1846 16294 0
-94 -16294 1842 -16018 -16017 1843 0
-16294 -96 1842 1845 -16017 -16020 0
-97 -1846 16294 0
-101 -1846 16294 0
-104 16294 -1844 0
-104 -1846 16294 0
-106 -1846 16294 0
-16294 -106 1845 -16021 -16020 1846 0
-122 -1855 16295 0
-128 -1855 16295 0
-133 -1855 16295 0
-1852 -137 16295 0
-137 -1855 16295 0
-140 -1853 16295 0
-140 -1855 16295 0
-142 -1855 16295 0
-1864 16296 -158 0
-164 -1864 16296 0
-169 -1864 16296 0
-173 -1864 16296 0
-176 -1862 16296 0
-176 -1864 16296 0
-178 -1864 16296 0
-1864 -180 16296 0
-194 -1873 16297 0
-200 -1873 16297 0
16047 16297 -204 0
-205 -1873 16297 0
-209 -1873 16297 0
-212 -1871 16297 0
-212 -1873 16297 0
-1873 16297 -214 0
-1873 -216 16297 0
-230 -1882 16298 0
-236 -1882 16298 0
-241 -1882 16298 0
-245 -1882 16298 0
-248 -1880 16298 0
-248 -1882 16298 0
-250 -1882 16298 0
1881 -250 -16298 -16057 -16056 1882 0
-1882 16298 -252 0
-1891 -266 16299 0
-1891 -272 16299 0
-277 -1891 16299 0
-281 -1891 16299 0
-283 -1889 16299 0
-1889 -284 16299 0
-284 -1891 16299 0
-1891 -286 16299 0
-1891 -288 16299 0
-302 -1900 16300 0
-308 -1900 16300 0
-1900 -313 16300 0
-317 -1900 16300 0
-1898 -320 16300 0
-1900 -320 16300 0
-322 -1900 16300 0
-1900 -324 16300 0
-338 -1909 16301 0
-344 -1909 16301 0
-349 -1909 16301 0
-1909 -353 16301 0
-1907 16301 -355 0
-356 -1907 16301 0
-356 -1909 16301 0
-358 -1909 16301 0
-358 1908 -16084 -16301 -16083 1909 0
-1909 -360 16301 0
-373 -1917 16302 0
-374 -1918 16302 0
-379 -1917 16302 0
-1918 -380 16302 0
-384 -1917 16302 0
-385 -1918 16302 0
-388 -1917 16302 0
-389 -1918 16302 0
-1916 -391 16302 0
-1917 -391 16302 0
-392 -1916 16302 0
-392 -1918 16302 0
-1917 16302 -394 0
-1918 16302 -394 0
-1918 16302 -396 0
-409 -1926 16303 0
-410 -1927 16303 0
-415 -1926 16303 0
-416 -1927 16303 0
-420 -1926 16303 0
-421 -1927 16303 0
-424 -1926 16303 0
-1927 -425 16303 0
-1925 -427 16303 0
-1926 -427 16303 0
-428 -1925 16303 0
-428 -1927 16303 0
-1926 16303 -430 0
-1927 16303 -430 0
-431 -1926 16303 0
-1927 16303 -432 0
-445 -1935 16304 0
-1936 -446 16304 0
-451 -1935 16304 0
-452 -1936 16304 0
-456 -1935 16304 0
-457 -1936 16304 0
-460 -1935 16304 0
-461 -1936 16304 0
-1934 16304 -463 0
-1935 16304 -463 0
-1934 16304 -464 0
-1936 16304 -464 0
-1935 -466 16304 0
-1936 -466 16304 0
-467 -1935 16304 0
-1936 16304 -468 0
-488 -1945 16305 0
-1945 -493 16305 0
-1943 -499 16305 0
-1943 16305 -500 0
-1945 16305 -500 0
-1944 -502 16305 0
-1945 -502 16305 0
-1945 -504 16305 0
16128 -535 16306 0
-1954 16306 -540 0
16308 -16292 0
16310 -16293 0
16310 -16308 0
16312 -16294 0
16312 -16310 0
16313 -16294 -16310 0
16314 -16295 0
16314 -16312 0
16315 -16313 0
-16295 16315 -16312 0
16316 -16296 0
16316 -16314 0
16317 -16296 -16314 0
16318 -16297 0
16318 -16316 0
16319 -16317 0
-16297 16319 -16316 0
16320 -16298 0
16320 -16318 0
16321 -16319 0
-16298 16321 -16318 0
16322 -16299 0
16322 -16320 0
16323 -16321 0
-16299 16323 -16320 0
16324 -16300 0
16324 -16322 0
16325 -16323 0
-16300 16325 -16322 0
-16301 16326 0
16326 -16324 0
16327 -16325 0
-16301 16327 -16324 0
-16302 16328 0
16328 -16326 0
16329 -16327 0
-16302 16329 -16326 0
-16303 16330 0
16330 -16328 0
16331 -16329 0
-16303 16331 -16328 0
16332 -16330 0
16333 -16331 0
-16304 16333 -16330 0
16335 -16333 0
16335 -16305 -16332 0
16337 -16335 0
-16296 -16315 0
-16297 -16317 0
-16298 -16319 0
-16299 -16321 0
-16300 -16323 0
-16301 -16325 0
-16302 -16327 0
-16303 -16329 0
-16304 -16331 0
-16305 -16333 0
-16306 -16335 0
-16307 -16337 0
-16338 -9 0
-16338 -10 0
-16338 -11 0
-16338 -13 0
16338 -14 0
-16338 -16 0
-16338 -17 0
-16338 -19 0
16338 -20 0
-16338 -22 0
-16338 -24 0
16338 -25 0
-16338 -28 0
16338 -29 0
16338 -32 0
16338 -34 0
-16339 -46 2371 -16008 -16006 2373 0
-47 -16339 -16009 2371 -16006 2374 0
-49 -16339 2376 -16011 -16006 2371 0
-50 16339 -2377 0
-16339 -52 -16008 -16007 2372 2373 0
-16339 -53 2372 -16009 -16007 2374 0
-16339 -55 2376 -16011 -16007 2372 0
16339 -56 -2377 0
-58 -16339 -16008 2373 2374 -16009 0
16011 -60 16339 0
-60 -16339 2376 2373 -16008 -16011 0
16339 -61 -2377 0
-64 -16339 2376 2374 -16009 -16011 0
16339 -65 -2377 0
-68 16339 -2377 0
16339 -70 -2377 0
-2380 -81 16340 0
-86 -2386 16340 0
-92 -2386 16340 0
-94 -16340 2383 -16017 2382 -16018 0
-16340 -96 2385 2382 -16020 -16017 0
-97 -2386 16340 0
-101 -2386 16340 0
-106 -2386 16340 0
-108 -2386 16340 0
-16341 -109 2389 -16023 2388 -16024 0
-122 -2395 16341 0
-128 -2395 16341 0
-130 -16341 2391 -16026 -16027 2392 0
-132 -16341 2394 2391 -16029 -16026 0
-133 -2395 16341 0
-137 -2395 16341 0
-140 -2395 16341 0
-142 -2395 16341 0
-155 -16342 -16033 -16036 2398 2401 0
-2404 16342 -158 0
-161 -16342 -16034 -16036 2399 2401 0
-164 -2404 16342 0
2401 -16342 -166 2400 -16036 -16035 0
-169 -2404 16342 0
-172 2401 -16342 -16038 -16036 2403 0
-173 -2404 16342 0
-176 -2404 16342 0
-178 -2404 16342 0
-2404 -180 16342 0
-194 -2413 16343 0
-200 -2413 16343 0
-205 -2413 16343 0
-209 -2413 16343 0
-2413 -212 16343 0
-2413 16343 -214 0
-2413 -216 16343 0
-230 -2422 16344 0
-236 -2422 16344 0
-241 -2422 16344 0
-245 -2422 16344 0
-248 -2422 16344 0
-250 -2422 16344 0
-2422 16344 -252 0
-2431 -266 16345 0
-2431 -272 16345 0
-277 -2431 16345 0
-281 -2431 16345 0
-284 -2431 16345 0
-2431 -286 16345 0
-2431 -288 16345 0
-302 -2440 16346 0
-308 -2440 16346 0
-2440 -313 16346 0
-317 -2440 16346 0
-320 -2440 16346 0
-322 -2440 16346 0
-2440 -324 16346 0
-338 -2449 16347 0
-344 -2449 16347 0
-349 -2449 16347 0
-2449 -353 16347 0
-356 -2449 16347 0
-358 -2449 16347 0
-358 -16347 2449 2448 -16084 -16083 0
-2449 -360 16347 0
-374 -2458 16348 0
-2458 -380 16348 0
-385 -2458 16348 0
-389 -2458 16348 0
-392 -2458 16348 0
-2458 16348 -394 0
-2458 16348 -396 0
-428 -2467 16349 0
-2467 16349 -432 0
-2476 16350 -468 0
-16351 2485 -500 2483 -16118 -16120 0
-2485 -504 16351 0
2492 -535 -16352 2493 -16127 -16128 0
-2494 16352 -540 0
16354 -16338 0
16358 -16339 0
16358 -16354 0
16359 -16339 -16354 0
16362 -16340 0
16362 -16358 0
16363 -16359 0
16363 -16340 -16358 0
16364 -16340 -16359 0
16366 -16341 0
16366 -16362 0
16367 -16363 0
-16364 16368 0
16367 -16341 -16362 0
16368 -16341 -16363 0
-16364 -16341 16369 0
16370 -16342 0
16370 -16366 0
16371 -16367 0
-16368 16372 0
-16369 16373 0
16371 -16342 -16366 0
16372 -16342 -16367 0
-16368 -16342 16373 0
16374 -16343 0
16374 -16370 0
16375 -16371 0
-16372 16376 0
-16373 16377 0
16375 -16343 -16370 0
16376 -16343 -16371 0
-16372 -16343 16377 0
16378 -16344 0
16378 -16374 0
16379 -16375 0
-16376 16380 0
-16377 16381 0
16379 -16344 -16374 0
16380 -16344 -16375 0
-16376 -16344 16381 0
16382 -16345 0
16382 -16378 0
16383 -16379 0
-16380 16384 0
-16381 16385 0
16383 -16345 -16378 0
16384 -16345 -16379 0
-16380 -16345 16385 0
16386 -16346 0
16386 -16382 0
16387 -16383 0
-16384 16388 0
-16385 16389 0
16387 -16346 -16382 0
16388 -16346 -16383 0
-16384 -16346 16389 0
16391 -16387 0
-16388 16392 0
-16389 16393 0
16391 -16347 -16386 0
16392 -16347 -16387 0
-16388 -16347 16393 0
16395 -16391 0
-16392 16396 0
-16393 16397 0
16396 -16348 -16391 0
-16392 -16348 16397 0
-16397 16401 0
16400 -16349 -16395 0
-16396 -16349 16401 0
-16401 16405 0
-16400 -16350 16405 0
-16405 16409 0
-16409 16413 0
-16369 -16342 0
-16373 -16343 0
-16377 -16344 0
-16381 -16345 0
-16385 -16346 0
-16389 -16347 0
-16393 -16348 0
-16397 -16349 0
-16401 -16350 0
-16405 -16351 0
-16409 -16352 0
-16413 -16353 0
-51 16415 -2513 0
-57 16415 -2513 0
-2511 -60 16415 0
-62 16415 -2513 0
-66 16415 -2513 0
-69 16415 -2513 0
-70 16011 16415 0
-72 16415 -2513 0
-87 16416 -2522 0
-98 16416 -2522 0
-102 16416 -2522 0
-105 16416 -2522 0
16021 -106 16416 0
-107 16416 -2522 0
-108 16416 -2522 0
-123 -2531 16417 0
-129 -2531 16417 0
16026 -132 16417 0
16029 -132 16417 0
-134 -2531 16417 0
-141 -2531 16417 0
-143 -2531 16417 0
-144 -2531 16417 0
-165 -2540 16418 0
-174 -2540 16418 0
-177 -2540 16418 0
-179 -2540 16418 0
-180 -2540 16418 0
-195 16419 -2549 0
-201 -2549 16419 0
-206 16419 -2549 0
-210 -2549 16419 0
-215 -2549 16419 0
-216 -2549 16419 0
-237 -2558 16420 0
16053 -240 16420 0
16053 -241 16420 0
16057 -241 16420 0
-242 -2558 16420 0
-246 -2558 16420 0
-2557 -248 16420 0
-249 -2558 16420 0
-251 -2558 16420 0
-2558 -252 16420 0
-267 16421 -2567 0
-273 16421 -2567 0
16062 -276 16421 0
-278 16421 -2567 0
-2566 -284 16421 0
-285 16421 -2567 0
-287 16421 -2567 0
-288 16421 -2567 0
-303 -2576 16422 0
-314 -2576 16422 0
16074 -316 16422 0
-318 -2576 16422 0
-2575 -320 16422 0
-321 -2576 16422 0
-323 -2576 16422 0
-2575 -324 16422 0
-324 16422 -2576 0
-339 16423 -2585 0
-345 16423 -2585 0
-350 16423 -2585 0
-354 16423 -2585 0
-2584 -356 16423 0
-357 16423 -2585 0
-16423 -358 2583 -16084 -16083 2584 0
-359 16423 -2585 0
-2584 -360 16423 0
-360 16423 -2585 0
-375 16424 -2594 0
-381 16424 -2594 0
-386 16424 -2594 0
-390 16424 -2594 0
-395 16424 -2594 0
-2593 16424 -396 0
-2594 16424 -396 0
-411 16425 -2603 0
-417 -2603 16425 0
-426 -2603 16425 0
-429 -2603 16425 0
-431 -2603 16425 0
-2602 16425 -432 0
-2603 16425 -432 0
-447 16426 -2612 0
-453 16426 -2612 0
-462 16426 -2612 0
-465 16426 -2612 0
-467 16426 -2612 0
-2611 16426 -468 0
16426 -468 -2612 0
-489 16427 -2621 0
-498 16427 -2621 0
-501 16427 -2621 0
-2620 -504 16427 0
-504 16427 -2621 0
16128 -535 16428 0
-2629 16428 -540 0
-2630 16428 -540 0
-2638 16429 -576 0
-576 16429 -2639 0
-16415 16431 0
-16416 16432 0
-16431 16432 0
-16417 16433 0
-16432 16433 0
-16418 16434 0
-16433 16434 0
-16419 16435 0
-16434 16435 0
-16420 16436 0
-16435 16436 0
-16421 16437 0
-16436 16437 0
-16422 16438 0
-16437 16438 0
-16423 16439 0
-16438 16439 0
-16424 16440 0
-16439 16440 0
-16425 16441 0
-16440 16441 0
-16426 16442 0
-16441 16442 0
-16427 16443 0
-16442 16443 0
-16443 16444 0
-16417 -16432 0
-16418 -16433 0
-16419 -16434 0
-16420 -16435 0
-16421 -16436 0
-16422 -16437 0
-16423 -16438 0
-16424 -16439 0
-16425 -16440 0
-16426 -16441 0
-16427 -16442 0
-16428 -16443 0
-16444 -16429 0
16446 -49 8721 0
16446 -50 8722 0
16446 -55 8721 0
16446 -56 8722 0
-58 -16446 -8719 1429 1428 -8718 0
-64 -16446 -8721 1429 -8719 1431 0
16446 -70 8722 0
16447 -91 8730 0
8735 -127 16448 0
16452 8771 -261 0
16453 8779 -297 0
16453 -298 8779 0
-299 16453 8779 0
16453 -300 8779 0
-301 16453 8779 0
-302 16453 8779 0
16454 -325 8788 0
-8793 -8794 -16454 -358 1503 1504 0
16455 8797 -361 0
16459 8833 -505 0
16466 -16446 0
16472 -16466 -16447 0
16478 -16448 -16472 0
16483 -16478 0
16488 -16483 0
16493 -16488 0
16499 -16452 -16493 0
-16499 -16453 16505 0
-16505 16510 0
-16510 16515 0
-16515 16520 0
-16520 16525 0
-16525 16530 0
-16510 -16455 0
-16530 -16459 0
16537 -70 12501 0
16538 -91 12510 0
-124 16539 12515 0
-125 16539 12515 0
12515 -127 16539 0
12524 16540 -160 0
-161 12524 16540 0
-189 12533 16541 0
16541 12533 -196 0
12533 -197 16541 0
-199 16541 12533 0
-200 16541 12533 0
16542 -217 12541 0
-225 12541 16542 0
-225 16542 12542 0
-226 12541 16542 0
-227 12541 16542 0
-229 12541 16542 0
-230 12541 16542 0
-232 12542 16542 0
-233 12542 16542 0
-234 16542 12542 0
-235 12542 16542 0
12542 -236 16542 0
16543 12550 -253 0
16543 12550 -261 0
16543 12551 -261 0
-268 16543 12551 0
-269 16543 12551 0
16543 -270 12551 0
-271 16543 12551 0
16543 -272 12551 0
16544 -289 12559 0
16544 12559 -297 0
16544 12560 -297 0
-304 16544 12560 0
-305 16544 12560 0
-306 16544 12560 0
-307 16544 12560 0
16544 -308 12560 0
16545 -325 12568 0
-333 16545 12568 0
-333 16545 12569 0
-340 16545 12569 0
-341 16545 12569 0
-342 16545 12569 0
-343 16545 12569 0
-344 16545 12569 0
-345 16545 12569 0
16546 12577 -361 0
16546 -369 12577 0
16546 -369 12578 0
-370 16546 12577 0
16546 12577 -371 0
-372 16546 12577 0
16546 -373 12577 0
-374 16546 12577 0
-375 16546 12577 0
-376 16546 12578 0
-377 16546 12578 0
-378 16546 12578 0
16546 -379 12578 0
16546 12578 -380 0
-381 16546 12578 0
16547 12586 -397 0
16547 -405 12586 0
12587 16547 -405 0
-406 16547 12586 0
-407 16547 12586 0
16547 -408 12586 0
-409 16547 12586 0
-410 16547 12586 0
12587 16547 -412 0
-413 12587 16547 0
-414 12587 16547 0
12587 -415 16547 0
12587 -416 16547 0
-417 12587 16547 0
16548 12595 -433 0
-441 16548 12595 0
-441 12596 16548 0
16549 12604 -469 0
16556 -16537 0
16561 -16556 -16538 0
16565 -16561 0
16566 -16561 -16539 0
16569 -16565 0
16570 -16566 0
16570 -16540 -16565 0
-16566 -16540 16571 0
16573 -16569 0
16574 -16570 0
-16571 16575 0
16574 -16569 -16541 0
-16570 -16541 16575 0
16577 -16573 0
16578 -16574 0
-16575 16579 0
16578 -16573 -16542 0
-16574 -16542 16579 0
16581 -16577 0
16582 -16578 0
-16579 16583 0
16582 -16577 -16543 0
-16578 -16543 16583 0
16585 -16581 0
16586 -16582 0
-16583 16587 0
16586 -16581 -16544 0
-16582 -16544 16587 0
16589 -16585 0
16590 -16586 0
-16587 16591 0
16590 -16585 -16545 0
-16586 -16545 16591 0
16593 -16589 0
16594 -16590 0
-16591 16595 0
16594 -16589 -16546 0
-16590 -16546 16595 0
16598 -16594 0
-16595 16599 0
16598 -16593 -16547 0
-16594 16599 -16547 0
-16599 16603 0
-16598 -16548 16603 0
-16571 -16541 0
-16575 -16542 0
-16579 -16543 0
-16583 -16544 0
-16587 -16545 0
-16591 -16546 0
-16595 -16547 0
-16599 -16548 0
-16603 -16549 0
16794 -9 0
16794 -16 0
16794 -17 0
16794 -19 0
16794 -20 0
-37 -16795 -15466 -15465 1425 1426 0
-45 16795 15466 0
-45 16795 15467 0
16795 15466 -46 0
-16795 -46 -15466 -15468 1426 1428 0
-47 16795 15466 0
-47 -16795 1426 -15466 1429 -15469 0
15470 -48 16795 0
-48 -16795 -15466 1426 -15470 1430 0
-49 16795 15466 0
-49 -16795 -15466 -15471 1426 1431 0
-50 16795 15466 0
-50 -16795 -15466 1432 1426 -15472 0
-52 16795 15467 0
16795 -53 15467 0
-54 16795 15467 0
16795 -55 15467 0
16795 -56 15467 0
-57 16795 15467 0
-58 -16795 -15469 -15468 1428 1429 0
-59 -16795 1428 -15470 -15468 1430 0
-60 -16795 -15471 -15468 1431 1428 0
-63 -16795 -15470 1429 -15469 1430 0
-64 -16795 -15469 -15471 1431 1429 0
-65 -16795 -15469 -15472 1429 1432 0
-67 -16795 1431 -15470 1430 -15471 0
16796 15475 -81 0
16796 -81 15476 0
-82 16796 15475 0
16796 -83 15475 0
-85 16796 15475 0
-86 16796 15475 0
-106 -16796 -15481 1440 -15480 1441 0
-109 16797 15484 0
-117 16797 15484 0
-118 16797 15484 0
-119 16797 15484 0
-120 16797 15484 0
-121 16797 15484 0
-122 16797 15484 0
16798 15493 -145 0
-153 16798 15493 0
-153 15494 16798 0
-154 16798 15493 0
-155 16798 15493 0
-156 16798 15493 0
-157 16798 15493 0
16798 15493 -158 0
16799 15502 -181 0
-189 16799 15502 0
-190 16799 15502 0
-191 16799 15502 0
-192 16799 15502 0
16799 15502 -193 0
-194 16799 15502 0
-195 16799 15502 0
-217 16800 15511 0
-225 16800 15511 0
-226 16800 15511 0
-227 16800 15511 0
-228 16800 15511 0
-229 16800 15511 0
-230 16800 15511 0
-253 15520 16801 0
15520 16801 -261 0
15521 16801 -261 0
-262 15520 16801 0
-263 15520 16801 0
-264 15520 16801 0
-265 15520 16801 0
-266 15520 16801 0
-267 15520 16801 0
-289 16802 15529 0
16802 15529 -297 0
-298 16802 15529 0
-299 16802 15529 0
-300 16802 15529 0
-301 16802 15529 0
-302 16802 15529 0
-303 16802 15529 0
-325 16803 15538 0
-333 16803 15538 0
-334 16803 15538 0
-335 16803 15538 0
-336 16803 15538 0
-337 16803 15538 0
-338 16803 15538 0
-339 16803 15538 0
16804 15547 -361 0
-369 15547 16804 0
-370 16804 15547 0
16804 15547 -371 0
-372 15547 16804 0
-373 16804 15547 0
-374 15547 16804 0
-375 16804 15547 0
16805 15556 -397 0
-405 16805 15556 0
-406 16805 15556 0
-407 16805 15556 0
-408 16805 15556 0
-409 16805 15556 0
-410 16805 15556 0
-433 16806 15565 0
-441 16806 15565 0
-442 16806 15565 0
-443 16806 15565 0
-444 16806 15565 0
-445 16806 15565 0
16806 -446 15565 0
-469 16807 15574 0
-477 16807 15574 0
-478 16807 15574 0
-479 16807 15574 0
-480 16807 15574 0
-481 16807 15574 0
-482 16807 15574 0
-483 16807 15574 0
15583 16808 -505 0
-1549 -538 16808 0
-16808 -15588 -15589 -538 1548 1549 0
-16809 -15592 -549 -15593 1553 1552 0
-16809 -550 -15592 1554 1552 -15594 0
-16809 1555 -15592 -15595 1552 -551 0
-16809 -552 1556 -15596 1552 -15592 0
-16809 -553 -15592 1552 -15597 1557 0
-16809 -556 -15593 1554 1553 -15594 0
-16809 -557 1555 -15595 1553 -15593 0
-16809 -558 -15596 -15593 1553 1556 0
-16809 -559 -15593 -15597 1553 1557 0
-16809 -562 -15595 -15594 1555 1554 0
-16809 -563 1556 -15594 -15596 1554 0
-16809 -564 -15594 1557 -15597 1554 0
-16809 -567 -15595 -15596 1555 1556 0
-16809 -568 -15597 1557 1555 -15595 0
-1557 -571 16809 0
-16809 -571 -15596 1557 1556 -15597 0
-16809 -572 -15596 1558 1556 -15598 0
-16809 -574 -15598 -15597 1557 1558 0
16810 -16794 0
16813 -16795 0
16813 -16810 0
16814 -16795 -16810 0
16816 -16796 0
16816 -16813 0
16817 -16814 0
16817 -16796 -16813 0
-16814 -16796 16818 0
16819 -16816 0
16820 -16817 0
-16818 16821 0
16820 -16797 -16816 0
-16797 -16817 16821 0
16822 -16819 0
16823 -16820 0
-16821 16824 0
16823 -16798 -16819 0
-16798 -16820 16824 0
16825 -16822 0
16826 -16823 0
-16824 16827 0
16826 -16799 -16822 0
-16799 -16823 16827 0
16828 -16825 0
16829 -16826 0
-16827 16830 0
16829 -16800 -16825 0
-16800 -16826 16830 0
16831 -16828 0
16832 -16829 0
-16830 16833 0
16832 -16801 -16828 0
-16801 -16829 16833 0
16834 -16831 0
16835 -16832 0
-16833 16836 0
16835 -16802 -16831 0
-16802 -16832 16836 0
16837 -16834 0
16838 -16835 0
-16836 16839 0
16838 -16803 -16834 0
-16803 -16835 16839 0
16840 -16837 0
16841 -16838 0
-16839 16842 0
16841 -16837 -16804 0
-16838 -16804 16842 0
16844 -16841 0
16845 -16842 0
16844 -16840 -16805 0
16845 -16841 -16805 0
16847 -16844 0
16848 -16845 0
-16806 16848 -16844 0
16851 -16848 0
-16807 16851 -16847 0
-16818 -16797 0
-16821 -16798 0
-16824 -16799 0
-16800 -16827 0
-16801 -16830 0
-16802 -16833 0
-16803 -16836 0
-16839 -16804 0
-16842 -16805 0
-16806 -16845 0
-16807 -16848 0
-16808 -16851 0
16855 -9 0
16855 -10 0
16855 -11 0
16855 -13 0
16855 -14 0
-16855 -16 0
-16855 -17 0
-16855 -19 0
-16855 -20 0
-16855 -22 0
-16855 -24 0
-16855 -25 0
-16855 -28 0
-16855 -29 0
-16855 -32 0
-16855 -34 0
-45 16856 15736 0
16857 -81 15745 0
-154 16859 15763 0
-155 16859 15763 0
-156 16859 15763 0
16859 15763 -157 0
16859 15763 -158 0
-189 16860 15772 0
-190 16860 15772 0
-191 16860 15772 0
-192 16860 15772 0
16860 15772 -193 0
-194 16860 15772 0
16861 15781 -217 0
-225 16861 15781 0
-226 16861 15781 0
-227 16861 15781 0
-228 16861 15781 0
-229 16861 15781 0
-230 16861 15781 0
15790 16862 -253 0
15790 16862 -261 0
-262 15790 16862 0
-263 15790 16862 0
-264 15790 16862 0
-265 15790 16862 0
-266 15790 16862 0
-267 15790 16862 0
15799 16863 -289 0
15799 16863 -297 0
-298 15799 16863 0
-299 15799 16863 0
-300 15799 16863 0
-301 15799 16863 0
-302 15799 16863 0
-303 15799 16863 0
15808 16864 -325 0
-333 15808 16864 0
15808 16864 -334 0
-335 15808 16864 0
-336 15808 16864 0
-337 15808 16864 0
-338 15808 16864 0
-339 15808 16864 0
15817 16865 -361 0
-369 15817 16865 0
-370 15817 16865 0
15817 16865 -371 0
-372 15817 16865 0
-373 15817 16865 0
-374 15817 16865 0
-375 15817 16865 0
15826 16866 -397 0
-405 15826 16866 0
-406 15826 16866 0
-407 15826 16866 0
-408 15826 16866 0
-409 15826 16866 0
-410 15826 16866 0
15835 16867 -433 0
-441 15835 16867 0
-442 15835 16867 0
-443 15835 16867 0
-444 15835 16867 0
-445 15835 16867 0
15835 16867 -446 0
15844 16868 -469 0
-477 15844 16868 0
-478 15844 16868 0
-479 15844 16868 0
-480 15844 16868 0
-481 15844 16868 0
15853 16869 -505 0
16871 -16855 0
16876 -16856 -16871 0
16881 -16876 -16857 0
16885 -16881 0
16889 -16885 0
-16859 16890 -16885 0
-16890 16894 0
-16860 16894 -16889 0
16898 -16894 0
16902 -16898 0
16906 -16902 0
16910 -16906 0
16914 -16910 0
16918 -16914 0
16922 -16918 0
16926 -16922 0
-16861 -16894 0
-16862 -16898 0
-16863 -16902 0
-16864 -16906 0
-16865 -16910 0
-16866 -16914 0
-16867 -16918 0
-16868 -16922 0
-16869 -16926 0
17390 8739 -121 0
-17390 -137 -8740 1855 1852 -8737 0
-18674 -45 -15871 -15872 9796 9797 0
-18674 -46 9796 9798 -15873 -15871 0
-49 -18674 -15876 -15871 9796 9801 0
-18674 -52 9797 9798 -15873 -15872 0
-18674 -55 -15872 9801 -15876 9797 0
18674 -65 -9802 0
18674 -70 -9802 0
-45 -18795 1561 -12497 -12496 1562 0
-18795 -50 -12502 -12496 1561 1567 0
-18795 -56 -12502 -12497 1562 1567 0
-60 18795 -1563 0
-70 18795 12501 0
18808 12613 -505 0
-535 -12617 -18808 -12618 1682 1683 0
-12619 -536 1684 -18808 1682 -12617 0
-12619 -538 1683 -12618 -18808 1684 0
-45 -20625 5881 -14926 5882 -14927 0
20625 -60 -5886 0
20625 -61 14928 0
22649 -553 11812 0
11817 22649 -553 0
-22649 -571 -11816 -11817 1556 1557 0
12082 22906 -549 0
12083 22906 -549 0
-22906 -571 -12086 -12087 1556 1557 0
24223 -47 15196 0
24223 -53 15197 0
-60 -24223 -15201 -15198 1428 1431 0
-24223 -61 1428 -15202 1432 -15198 0
24224 -81 15206 0
24224 -83 15205 0
24224 -89 15206 0
-24224 -96 -15210 -15207 1437 1440 0
-97 -24224 -15211 -15207 1437 1441 0
24225 -109 15214 0
-124 24225 15215 0
24225 -125 15215 0
-132 -24225 -15219 -15216 1446 1449 0
-133 -24225 -15220 -15216 1446 1450 0
-24225 -142 -15219 1449 -15220 1450 0
-234 24228 15242 0
-15247 -24228 -252 -15248 1477 1478 0
16006 -45 24420 0
16007 -45 24420 0
-1428 -46 24420 0
-1429 -47 24420 0
-1431 -49 24420 0
-1432 -50 24420 0
16006 -50 24420 0
16012 -50 24420 0
-1428 -58 24420 0
-1429 -58 24420 0
16009 -58 24420 0
-1428 -60 24420 0
-1431 -60 24420 0
-60 16011 24420 0
-1432 -61 24420 0
16012 -61 24420 0
-1431 -64 24420 0
16009 -64 24420 0
-64 16011 24420 0
-1432 -65 24420 0
16009 -65 24420 0
16012 -65 24420 0
16010 -68 24420 0
16012 -68 24420 0
16011 -70 24420 0
16012 -70 24420 0
16015 -81 24421 0
16016 -81 24421 0
16017 -94 24421 0
16018 -94 24421 0
-1440 -96 24421 0
16017 -96 24421 0
16020 -96 24421 0
-1441 -97 24421 0
16017 -97 24421 0
16021 -97 24421 0
16018 -100 24421 0
16020 -100 24421 0
16018 -101 24421 0
16021 -101 24421 0
-1441 -104 24421 0
-1440 -106 24421 0
-1441 -106 24421 0
16020 -106 24421 0
16021 -106 24421 0
16021 -108 24421 0
16022 -108 24421 0
16026 -130 24422 0
16027 -130 24422 0
-1446 -132 24422 0
-1449 -132 24422 0
16026 -132 24422 0
16029 -132 24422 0
-1446 -133 24422 0
-1450 -133 24422 0
16026 -133 24422 0
16027 -136 24422 0
-1450 -140 24422 0
16030 -140 24422 0
-1449 -142 24422 0
-1450 -142 24422 0
16029 -142 24422 0
16030 -142 24422 0
16030 -144 24422 0
16033 -145 24423 0
16033 -154 24423 0
16035 -154 24423 0
16033 -158 24423 0
16034 -160 24423 0
16035 -160 24423 0
16034 -163 24423 0
16034 -164 24423 0
16038 -168 24423 0
16035 -169 24423 0
16039 -169 24423 0
16036 -172 24423 0
16038 -172 24423 0
16036 -173 24423 0
16039 -173 24423 0
16038 -175 24423 0
16039 -176 24423 0
16038 -178 24423 0
16039 -178 24423 0
16039 -180 24423 0
-180 16040 24423 0
16044 -190 24424 0
-194 -1468 24424 0
16042 -194 24424 0
16044 -196 24424 0
-200 -1468 24424 0
16044 -204 24424 0
16047 -204 24424 0
-205 -1468 24424 0
16045 -208 24424 0
16047 -208 24424 0
-209 -1468 24424 0
16045 -209 24424 0
16048 -209 24424 0
-212 -1468 24424 0
16048 -212 24424 0
-1468 -214 24424 0
16047 -214 24424 0
16048 -214 24424 0
-216 -1468 24424 0
16048 -216 24424 0
-226 16053 24425 0
-232 16053 24425 0
16053 -240 24425 0
16056 -240 24425 0
16053 -241 24425 0
16057 -241 24425 0
16054 -244 24425 0
16056 -244 24425 0
16054 -245 24425 0
16057 -245 24425 0
16055 -247 24425 0
16056 -247 24425 0
-1477 -248 24425 0
16057 -248 24425 0
16056 -250 24425 0
16057 -250 24425 0
-1478 -252 24425 0
-262 16062 24426 0
-268 16062 24426 0
16065 -276 24426 0
16063 -280 24426 0
16065 -280 24426 0
16063 -281 24426 0
16066 -281 24426 0
16064 -283 24426 0
16065 -283 24426 0
16064 -284 24426 0
16066 -284 24426 0
16065 -286 24426 0
16066 -286 24426 0
-1487 -288 24426 0
16071 -298 24427 0
16071 -304 24427 0
16072 -317 24427 0
16075 -317 24427 0
16073 -320 24427 0
16075 -320 24427 0
16074 -322 24427 0
16075 -322 24427 0
16080 -334 24428 0
-340 16080 24428 0
16081 -353 24428 0
16084 -353 24428 0
16082 -356 24428 0
16084 -356 24428 0
-1503 -358 24428 0
-1504 -358 24428 0
16083 -358 24428 0
16084 -358 24428 0
-370 16089 24429 0
-376 16089 24429 0
16091 -391 24429 0
16092 -391 24429 0
16093 -394 24429 0
-406 16098 24430 0
-412 16098 24430 0
16100 -427 24430 0
16101 -427 24430 0
16100 -428 24430 0
16102 -428 24430 0
16102 -430 24430 0
16102 -432 24430 0
16107 -442 24431 0
16105 -445 24431 0
16107 -448 24431 0
16109 -463 24431 0
16110 -466 24431 0
16111 -466 24431 0
16112 -468 24431 0
-478 16116 24432 0
16116 -484 24432 0
16118 -500 24432 0
16120 -500 24432 0
16120 -502 24432 0
16125 -514 24433 0
-520 16125 24433 0
-1548 -538 24433 0
-1549 -538 24433 0
-1552 -549 24434 0
-1552 -550 24434 0
-1554 -550 24434 0
-1552 -551 24434 0
-1555 -551 24434 0
-1552 -552 24434 0
16132 -552 24434 0
16136 -552 24434 0
-1552 -553 24434 0
-1554 -556 24434 0
-1555 -557 24434 0
-1553 -558 24434 0
16133 -558 24434 0
16136 -558 24434 0
-1553 -559 24434 0
-1555 -562 24434 0
16136 -563 24434 0
-1554 -564 24434 0
16135 -567 24434 0
16136 -567 24434 0
-1558 -572 24434 0
-1557 -574 24434 0
-1558 -574 24434 0
-24420 0
-24421 0
-24422 0
-24423 0
-24424 0
-24425 0
-24426 0
-24427 0
-24428 0
-24429 0
-24430 0
-24431 0
-24432 0
-24433 0
-24434 0
24436 -45 15467 0
-24436 -47 -15469 -15466 1561 1564 0
-58 24436 -1563 0
-60 24436 -1563 0
-24436 -65 -15469 -15472 1567 1564 0
-66 -24436 1564 -15469 -15473 1568 0
-24436 -70 -15472 -15471 1567 1566 0
24437 15475 -81 0
-107 -24437 -15480 -15482 1575 1577 0
24557 -48 15736 0
-54 -24557 -15737 -15740 1562 1565 0
-24814 -46 -12496 1696 -12498 1698 0
-64 24814 -1699 0
24950 -47 -1699 0
24950 -53 -1699 0
24950 -58 -1699 0
-24950 -61 -15472 -15468 1698 1702 0
24950 -64 -1699 0
-24950 -70 -15472 -15471 1702 1701 0
25933 -46 15196 0
25933 -52 15197 0
-25933 -70 -15201 -15202 1836 1837 0
25936 15224 -153 0
-15226 -25936 -166 -15225 1860 1861 0
26522 -22 0
26522 -24 0
26522 -25 0
-58 26523 -1968 0
-60 26523 -1968 0
26523 -61 -1968 0
-1969 26523 -65 0
26523 -65 -1972 0
26523 -1971 -70 0
26524 -94 -1977 0
26524 -96 -1977 0
26524 -97 -1977 0
-1978 26524 -101 0
26524 -104 -1979 0
-1980 -106 26524 0
26524 -106 -1981 0
-120 26525 -1988 0
-126 26525 -1988 0
26525 -130 -1986 0
-131 26525 -1988 0
26525 -132 -1986 0
26525 -133 -1986 0
26525 -135 -1988 0
26525 -1987 -137 0
-139 26525 -1988 0
26525 -140 -1990 0
26525 -1989 -142 0
26525 -142 -1990 0
26525 -144 -1990 0
-156 26526 -1997 0
-1998 26526 -157 0
-162 26526 -1997 0
-163 -1998 26526 0
-1995 26526 -166 0
-167 26526 -1997 0
-1995 -168 26526 0
-1998 -168 26526 0
-1995 -169 26526 0
26526 -1997 -171 0
-172 -1998 26526 0
-1996 -173 26526 0
26526 -175 -1997 0
-1998 26526 -175 0
26526 -176 -1997 0
26526 -176 -1999 0
-1998 -178 26526 0
-178 26526 -1999 0
26526 -1999 -180 0
-192 26527 -2006 0
-2007 26527 -193 0
-198 26527 -2006 0
-199 -2007 26527 0
-202 -2004 26527 0
-203 26527 -2006 0
-2004 26527 -204 0
-2007 26527 -204 0
-205 -2004 26527 0
-207 26527 -2006 0
-208 -2007 26527 0
-209 -2005 26527 0
26527 -211 -2006 0
-2007 26527 -211 0
-212 26527 -2006 0
-2008 -212 26527 0
-2007 26527 -214 0
-2008 26527 -214 0
-2008 26527 -216 0
-228 26528 -2015 0
26528 -229 -2016 0
-234 26528 -2015 0
-235 26528 -2016 0
-2013 26528 -238 0
-239 26528 -2015 0
-2013 26528 -240 0
26528 -240 -2016 0
-241 -2013 26528 0
-243 26528 -2015 0
-244 26528 -2016 0
-2014 26528 -245 0
-247 26528 -2015 0
-247 26528 -2016 0
-248 26528 -2017 0
-250 26528 -2016 0
-250 26528 -2017 0
26528 -2017 -252 0
-264 26529 -2024 0
-265 26529 -2025 0
26529 -2024 -270 0
-271 26529 -2025 0
-2022 26529 -274 0
26529 -275 -2024 0
-276 26529 -2025 0
-2022 26529 -277 0
-279 26529 -2024 0
26529 -2025 -280 0
-2023 26529 -281 0
-283 26529 -2024 0
-283 26529 -2025 0
-284 26529 -2024 0
-284 26529 -2026 0
26529 -2025 -286 0
26529 -2026 -286 0
26529 -2026 -288 0
-298 -2031 26530 0
-300 26530 -2033 0
-301 -2034 26530 0
-306 26530 -2033 0
-307 -2034 26530 0
-310 -2031 26530 0
-311 26530 -2033 0
-312 -2034 26530 0
26530 -2033 -315 0
-316 -2034 26530 0
-2032 -317 26530 0
-319 26530 -2033 0
-319 -2034 26530 0
26530 -320 -2033 0
-2035 -320 26530 0
-322 -2034 26530 0
-322 -2035 26530 0
-2035 26530 -324 0
-336 26531 -2042 0
-342 26531 -2042 0
26531 -2042 -347 0
-349 -2040 26531 0
-351 26531 -2042 0
-2041 26531 -353 0
26531 -2042 -355 0
26531 -2043 -355 0
-356 26531 -2042 0
-358 26531 -2043 0
-2044 26531 -360 0
-372 26532 -2051 0
-373 -2052 26532 0
-378 26532 -2051 0
-379 -2052 26532 0
26532 -2051 -383 0
-384 -2052 26532 0
26532 -2051 -387 0
-388 -2052 26532 0
26532 -2051 -391 0
-2052 26532 -391 0
-2051 26532 -392 0
-2052 26532 -394 0
26532 -2053 -396 0
26533 -408 -2060 0
-409 26533 -2061 0
-414 26533 -2060 0
-415 26533 -2061 0
-419 26533 -2060 0
-420 26533 -2061 0
-423 26533 -2060 0
-424 26533 -2061 0
26533 -2060 -427 0
26533 -2061 -427 0
-428 26533 -2060 0
26533 -2061 -430 0
26533 -2062 -430 0
26533 -2062 -432 0
-444 -2069 26534 0
-445 -2070 26534 0
-445 -26534 -16105 -16110 2065 2070 0
-450 26534 -2069 0
-451 -2070 26534 0
-455 -2069 26534 0
-456 -2070 26534 0
-459 26534 -2069 0
-460 -2070 26534 0
-2069 26534 -463 0
-2070 26534 -463 0
26534 -2069 -464 0
-2070 26534 -466 0
-2071 26534 -466 0
-26534 2070 -466 -16110 2071 -16111 0
-2071 26534 -468 0
-481 -2079 26535 0
-487 -2079 26535 0
-492 -2079 26535 0
-496 -2079 26535 0
-499 26535 -2078 0
26535 -2079 -499 0
-502 26535 -2079 0
-2080 -502 26535 0
26535 -2080 -504 0
-2087 26536 -536 0
26536 -2088 -538 0
26536 -2089 -538 0
-2097 26537 -574 0
26538 -26522 0
26544 -26523 0
26544 -26538 0
26545 -26523 -26538 0
26550 -26524 0
26550 -26544 0
26551 -26545 0
26551 -26524 -26544 0
26552 -26524 -26545 0
26556 -26525 0
26556 -26550 0
26557 -26551 0
-26552 26558 0
26557 -26525 -26550 0
26558 -26525 -26551 0
26559 -26552 -26525 0
26562 -26526 0
26562 -26556 0
26563 -26557 0
26564 -26558 0
26565 -26559 0
26563 -26526 -26556 0
26564 -26526 -26557 0
26565 -26558 -26526 0
-26559 26566 -26526 0
26568 -26527 0
26568 -26562 0
26569 -26563 0
26570 -26564 0
26571 -26565 0
-26566 26572 0
26569 -26527 -26562 0
26570 -26527 -26563 0
26571 -26564 -26527 0
-26565 26572 -26527 0
-26566 -26527 26573 0
26574 -26528 0
26574 -26568 0
26575 -26569 0
26576 -26570 0
26577 -26571 0
-26572 26578 0
-26573 26579 0
26575 -26528 -26568 0
26576 -26528 -26569 0
26577 -26570 -26528 0
-26571 -26528 26578 0
-26572 -26528 26579 0
26580 -26529 0
26580 -26574 0
26581 -26575 0
26582 -26576 0
26583 -26577 0
-26578 26584 0
-26579 26585 0
26581 -26529 -26574 0
26582 -26529 -26575 0
26583 -26576 -26529 0
-26577 -26529 26584 0
-26578 -26529 26585 0
26586 -26530 0
26586 -26580 0
26587 -26581 0
26588 -26582 0
26589 -26583 0
-26584 26590 0
-26585 26591 0
26587 -26530 -26580 0
26588 -26530 -26581 0
26589 -26582 -26530 0
-26530 26590 -26583 0
-26584 -26530 26591 0
26593 -26587 0
26594 -26588 0
26595 -26589 0
-26590 26596 0
-26591 26597 0
26593 -26531 -26586 0
26594 -26531 -26587 0
26595 -26588 -26531 0
-26531 -26589 26596 0
-26590 -26531 26597 0
26600 -26594 0
26601 -26595 0
-26596 26602 0
-26597 26603 0
26600 -26532 -26593 0
26601 -26594 -26532 0
26602 -26532 -26595 0
-26596 -26532 26603 0
26606 -26600 0
26607 -26601 0
-26602 26608 0
-26603 26609 0
26607 -26600 -26533 0
26608 -26533 -26601 0
-26602 -26533 26609 0
26613 -26607 0
26614 -26608 0
-26609 26615 0
26613 -26606 -26534 0
26614 -26534 -26607 0
-26534 -26608 26615 0
-26615 26621 0
-26614 -26535 26621 0
-26621 26627 0
-26573 -26528 0
-26579 -26529 0
-26585 -26530 0
-26591 -26531 0
-26597 -26532 0
-26603 -26533 0
-26609 -26534 0
-26615 -26535 0
-26621 -26536 0
-26627 -26537 0
26871 -45 15467 0
-62 -26871 2373 -15468 -15473 2378 0
28459 -47 15466 0
-28459 -60 -15471 -15468 2511 2508 0
28746 -9 0
-37 -28747 -16006 2641 2640 -16005 0
28747 -45 -2642 0
28747 -52 -2642 0
28747 -53 -2642 0
28747 -55 -2642 0
-88 28748 -2651 0
-89 28748 -2651 0
28748 -91 -2651 0
-92 28748 -2651 0
16024 28749 -109 0
28749 -117 -2660 0
-124 28749 -2660 0
-125 28749 -2660 0
-127 28749 -2660 0
28749 -128 -2660 0
28749 -142 -2664 0
-28749 2664 -142 2665 -16030 -16029 0
-2669 28750 -153 0
-2669 -160 28750 0
-2669 -161 28750 0
-2669 -163 28750 0
-2674 -176 28750 0
-2673 -178 28750 0
-2674 -178 28750 0
-2678 28751 -189 0
-2678 28751 -196 0
-2678 28751 -197 0
-2678 28751 -199 0
28751 -2680 -208 0
-208 -28751 2680 -16045 -16047 2682 0
28751 -2683 -212 0
28751 -2682 -214 0
28751 -216 -2684 0
28752 -248 -2692 0
28752 -250 -2691 0
28752 -2692 -250 0
-28752 -250 2691 -16057 2692 -16056 0
28752 -252 -2693 0
-2696 28753 -261 0
-268 -2696 28753 0
-269 -2696 28753 0
-271 -2696 28753 0
28753 -284 -2701 0
28753 -2700 -286 0
28753 -2701 -286 0
28753 -288 -2702 0
-2705 28754 -297 0
-2705 28754 -304 0
-305 -2705 28754 0
-307 -2705 28754 0
28754 -2710 -320 0
28754 -2709 -322 0
28754 -324 -2711 0
-2714 28755 -333 0
-340 -2714 28755 0
-341 -2714 28755 0
-343 -2714 28755 0
28755 -2719 -356 0
28755 -2718 -358 0
28755 -358 -2719 0
28755 -360 -2720 0
-2723 28756 -369 0
-376 -2723 28756 0
-377 -2723 28756 0
-378 -2723 28756 0
-2723 -379 28756 0
28756 -2728 -392 0
28756 -2728 -394 0
28756 -396 -2729 0
-2732 28757 -405 0
-2732 28757 -412 0
-413 -2732 28757 0
-414 -2732 28757 0
-2732 28757 -415 0
28757 -428 -2737 0
28757 -2737 -430 0
28757 -432 -2738 0
28758 -2741 -441 0
28758 -2741 -448 0
-449 28758 -2741 0
-450 28758 -2741 0
-451 28758 -2741 0
28758 -2746 -464 0
28758 -2747 -468 0
-2750 28759 -477 0
-2750 28759 -484 0
-485 -2750 28759 0
-486 -2750 28759 0
-487 -2750 28759 0
28759 -2755 -500 0
-2759 28760 -513 0
-520 -2759 28760 0
-521 -2759 28760 0
-2759 28760 -522 0
28762 -28746 0
28767 -28762 0
28768 -28747 -28762 0
28772 -28767 0
28773 -28768 0
28773 -28748 -28767 0
28774 -28748 -28768 0
28777 -28772 0
28778 -28773 0
-28774 28779 0
28778 -28749 -28772 0
28779 -28749 -28773 0
28782 -28777 0
28783 -28778 0
-28779 28784 0
28783 -28750 -28777 0
28784 -28750 -28778 0
-28779 28785 -28750 0
28787 -28782 0
28788 -28783 0
-28784 28789 0
-28785 28790 0
28788 -28751 -28782 0
28789 -28751 -28783 0
-28784 28790 -28751 0
-28785 -28751 28791 0
28793 -28788 0
-28789 28794 0
-28790 28795 0
-28791 28796 0
28793 -28752 -28787 0
28794 -28752 -28788 0
-28789 28795 -28752 0
-28790 -28752 28796 0
28798 -28793 0
-28794 28799 0
-28795 28800 0
-28796 28801 0
28799 -28753 -28793 0
-28794 28800 -28753 0
-28795 -28753 28801 0
28803 -28798 0
-28799 28804 0
-28800 28805 0
-28801 28806 0
28804 -28754 -28798 0
-28799 28805 -28754 0
-28800 -28754 28806 0
-28804 28809 0
-28805 28810 0
-28806 28811 0
28809 -28755 -28803 0
-28804 28810 -28755 0
-28805 -28755 28811 0
-28809 28814 0
-28810 28815 0
-28811 28816 0
-28809 28815 -28756 0
-28810 -28756 28816 0
-28815 28820 0
-28816 28821 0
-28814 28820 -28757 0
-28815 -28757 28821 0
-28821 28826 0
-28820 -28758 28826 0
-28826 28831 0
-28791 -28752 0
-28796 -28753 0
-28801 -28754 0
-28806 -28755 0
-28811 -28756 0
-28816 -28757 0
-28821 -28758 0
-28826 -28759 0
-28831 -28760 0
28973 -22 0
28973 -24 0
28973 -25 0
-58 28974 -2778 0
-60 28974 -2778 0
28974 -61 -2778 0
-2779 28974 -65 0
28974 -2782 -65 0
28975 -97 -2787 0
-2788 28975 -101 0
28975 -2791 -104 0
-2790 -106 28975 0
28975 -106 -2791 0
28976 -133 -2796 0
28976 -140 -2800 0
28976 -2800 -142 0
28976 -144 -2801 0
-2809 -176 28977 0
-2808 -178 28977 0
28977 -178 -2809 0
28977 -180 -2810 0
28978 -2818 -212 0
28978 -216 -2819 0
28979 -252 -2828 0
28980 -2836 -288 0
28981 -2845 -324 0
28982 -360 -2855 0
28983 -2863 -396 0
28986 -2890 -500 0
28989 -28973 0
28994 -28974 0
28994 -28989 0
28995 -28989 -28974 0
28999 -28975 0
28999 -28994 0
29000 -28975 -28994 0
29001 -28995 -28975 0
29004 -28976 0
29004 -28999 0
29006 -29001 0
29005 -28976 -28999 0
29006 -29000 -28976 0
29007 -29001 -28976 0
29010 -29005 0
29011 -29006 0
29012 -29007 0
29010 -28977 -29004 0
29011 -29005 -28977 0
29012 -29006 -28977 0
29016 -29011 0
29017 -29012 0
29016 -29010 -28978 0
29017 -29011 -28978 0
29021 -29016 0
29022 -29017 0
29022 -29016 -28979 0
-29017 -28979 29023 0
29026 -29021 0
29027 -29022 0
-29023 29028 0
29027 -28980 -29021 0
29031 -29026 0
29032 -29027 0
-29028 29033 0
29032 -28981 -29026 0
29036 -29031 0
29037 -29032 0
-29033 29038 0
29037 -29031 -28982 0
29042 -29037 0
-29038 29043 0
-28983 29042 -29036 0
29047 -29042 0
-29043 29048 0
-29048 29053 0
-29053 -28986 0
29472 -22 0
29473 -65 -3049 0
-3061 29474 -104 0
29476 -180 -3080 0
29477 -216 -3089 0
29482 -3133 -394 0
29483 -3142 -430 0
29488 -29472 0
29494 -29488 -29473 0
29500 -29494 -29474 0
29505 -29500 0
29510 -29505 0
29511 -29505 -29476 0
29516 -29511 0
29516 -29510 -29477 0
29521 -29516 0
29526 -29521 0
29531 -29526 0
29536 -29531 0
-29482 -29536 29542 0
-29542 -29483 0
29926 -32 0
-68 29927 -3320 0
29928 -104 -3329 0
-120 -3338 29929 0
-126 -3338 29929 0
-131 -3338 29929 0
-135 -3338 29929 0
-139 -3338 29929 0
-140 29929 -3338 0
-144 29929 -3340 0
-156 -3347 29930 0
-162 -3347 29930 0
-167 -3347 29930 0
-3347 29930 -171 0
-175 -3347 29930 0
-176 -3347 29930 0
-180 29930 -3350 0
-211 -3356 29931 0
-212 -3356 29931 0
-3358 29931 -214 0
-216 29931 -3359 0
29932 -248 -3365 0
29932 -3367 -252 0
29932 -252 -3368 0
-3374 -284 29933 0
29933 -3376 -286 0
29933 -288 -3377 0
29934 -3383 -320 0
29934 -324 -3386 0
29935 -3392 -356 0
29935 -356 -3394 0
29935 -358 -3394 0
29935 -360 -3395 0
29936 -392 -3401 0
29936 -3403 -396 0
-428 29937 -3410 0
29937 -3412 -430 0
29937 -432 -3413 0
29938 -3421 -468 0
29938 -3422 -468 0
29939 -3430 -500 0
29940 -3439 -536 0
29940 -3439 -538 0
29942 -29926 0
-29927 29945 0
29945 -29942 0
29948 -29928 0
29948 -29945 0
-29929 29951 0
29951 -29948 0
29952 -29929 -29948 0
-29930 29954 0
29954 -29951 0
29955 -29952 0
29955 -29930 -29951 0
-29931 29957 0
29957 -29954 0
29958 -29955 0
29958 -29931 -29954 0
29960 -29932 0
29960 -29957 0
29961 -29958 0
29961 -29932 -29957 0
29963 -29933 0
29963 -29960 0
29964 -29961 0
29964 -29933 -29960 0
29965 -29933 -29961 0
29966 -29934 0
29966 -29963 0
29967 -29964 0
-29965 29968 0
29967 -29934 -29963 0
29968 -29934 -29964 0
29969 -29935 0
29969 -29966 0
29970 -29967 0
29970 -29935 -29966 0
29972 -29936 0
29972 -29969 0
29973 -29970 0
29973 -29936 -29969 0
29975 -29937 0
29975 -29972 0
29976 -29973 0
29976 -29937 -29972 0
-29937 29977 -29973 0
29979 -29976 0
-29977 29980 0
29979 -29938 -29975 0
-29980 29983 0
-29939 29983 -29979 0
-29968 -29935 0
-29940 -29983 0
30335 -10 0
30335 -16 0
30335 -22 0
30335 -24 0
30335 -25 0
-3859 -47 30336 0
-3859 30336 -53 0
-58 30336 -3858 0
-58 -3859 30336 0
-60 30336 -3858 0
30336 -61 -3858 0
-64 -3859 30336 0
-3859 30336 -65 0
30336 -3862 -65 0
30336 -3861 -70 0
30337 -86 -3871 0
-92 30337 -3871 0
-94 30337 -3867 0
30337 -96 -3867 0
-97 30337 -3867 0
-97 30337 -3871 0
-100 -3868 30337 0
-3868 30337 -101 0
30337 -101 -3871 0
30337 -104 -3869 0
-3870 -106 30337 0
-106 30337 -3871 0
-119 -3877 30338 0
-120 30338 -3878 0
-125 -3877 30338 0
-126 30338 -3878 0
-130 30338 -3876 0
-3877 -130 30338 0
-131 30338 -3878 0
-132 30338 -3876 0
-133 30338 -3876 0
-135 30338 -3878 0
-3877 30338 -137 0
30338 -137 -3880 0
-139 30338 -3878 0
30338 -140 -3878 0
-3879 30338 -142 0
30338 -142 -3880 0
30338 -144 -3880 0
-154 -3885 30339 0
-156 30339 -3887 0
-3885 -160 30339 0
-162 30339 -3887 0
-3885 30339 -166 0
-167 30339 -3887 0
-3885 -168 30339 0
-3885 -169 30339 0
30339 -3887 -171 0
-3886 -173 30339 0
30339 -173 -3889 0
30339 -175 -3887 0
30339 -176 -3887 0
30339 -176 -3889 0
-3888 -178 30339 0
30339 -178 -3889 0
30339 -180 -3890 0
-3894 30340 -190 0
-192 30340 -3896 0
-3894 30340 -196 0
-198 30340 -3896 0
-3894 -202 30340 0
-203 30340 -3896 0
-3894 30340 -204 0
-205 -3894 30340 0
-205 30340 -3898 0
30340 -207 -3896 0
-3895 -209 30340 0
30340 -211 -3896 0
30340 -212 -3896 0
30340 -3898 -212 0
30340 -3897 -214 0
30340 -3898 -214 0
30340 -3898 -216 0
-228 30341 -3905 0
-234 30341 -3905 0
-3903 30341 -238 0
-239 30341 -3905 0
-3903 30341 -240 0
-241 -3903 30341 0
-243 30341 -3905 0
-3904 30341 -245 0
30341 -245 -3907 0
30341 -247 -3905 0
30341 -248 -3905 0
30341 -248 -3907 0
-250 30341 -3906 0
30341 -250 -3907 0
30341 -3907 -252 0
30341 -252 -3908 0
-264 30342 -3914 0
-265 30342 -3915 0
30342 -3916 -266 0
30342 -3914 -270 0
-271 30342 -3915 0
30342 -3916 -272 0
-3912 30342 -274 0
30342 -3914 -275 0
-276 -3912 30342 0
-276 30342 -3915 0
-3912 30342 -277 0
-279 30342 -3914 0
30342 -3915 -280 0
-3913 30342 -281 0
30342 -281 -3916 0
30342 -283 -3914 0
30342 -283 -3915 0
-284 -3914 30342 0
-284 30342 -3916 0
30342 -3915 -286 0
30342 -3916 -286 0
30342 -288 -3917 0
-298 -3921 30343 0
-300 30343 -3923 0
-301 30343 -3924 0
-304 -3921 30343 0
-306 30343 -3923 0
-307 30343 -3924 0
-3921 -310 30343 0
-311 -3923 30343 0
-3921 30343 -312 0
30343 -312 -3924 0
-3921 30343 -313 0
30343 -3923 -315 0
-316 30343 -3924 0
-3922 30343 -317 0
30343 -3923 -319 0
30343 -3924 -319 0
-3923 30343 -320 0
30343 -3925 -320 0
30343 -3924 -322 0
30343 -322 -3925 0
30343 -3925 -324 0
30343 -324 -3926 0
-336 30344 -3932 0
-337 30344 -3933 0
-342 30344 -3932 0
-343 30344 -3933 0
30344 -3932 -347 0
-348 30344 -3933 0
-3930 -349 30344 0
-352 30344 -3933 0
-3931 30344 -353 0
30344 -3932 -355 0
30344 -3933 -355 0
-3932 30344 -356 0
30344 -356 -3934 0
30344 -358 -3933 0
30344 -358 -3934 0
30344 -360 -3935 0
-372 30345 -3941 0
-373 30345 -3942 0
-378 30345 -3941 0
-379 30345 -3942 0
30345 -3941 -383 0
-384 30345 -3942 0
-3941 30345 -387 0
-388 30345 -3942 0
30345 -3941 -391 0
30345 -3942 -391 0
-3941 30345 -392 0
30345 -3943 -394 0
30345 -3943 -396 0
30345 -396 -3944 0
-3950 30346 -408 0
-409 30346 -3951 0
-414 -3950 30346 0
-415 30346 -3951 0
-419 -3950 30346 0
-420 30346 -3951 0
-423 -3950 30346 0
-424 30346 -3951 0
-3950 30346 -427 0
30346 -3951 -427 0
-428 -3950 30346 0
-428 30346 -3952 0
30346 -3952 -430 0
30346 -432 -3953 0
-444 -3959 30347 0
-445 30347 -3960 0
-450 -3959 30347 0
-451 30347 -3960 0
-3959 30347 -455 0
-456 30347 -3960 0
-459 -3959 30347 0
-460 30347 -3960 0
-3959 30347 -463 0
30347 -3960 -463 0
-3959 30347 -464 0
30347 -3960 -466 0
-3961 30347 -466 0
-3961 30347 -468 0
30347 -468 -3962 0
-480 -3968 30348 0
-481 -3969 30348 0
-486 -3968 30348 0
-487 -3969 30348 0
-491 -3968 30348 0
-3969 30348 -492 0
-495 -3968 30348 0
-496 -3969 30348 0
-3968 30348 -499 0
-3969 30348 -499 0
-3968 30348 -500 0
-3968 -501 30348 0
-3969 30348 -502 0
30348 -502 -3970 0
30348 -504 -3971 0
-3977 30349 -516 0
-517 -3978 30349 0
-3977 -522 30349 0
-523 -3978 30349 0
-527 -3977 30349 0
-528 -3978 30349 0
-531 -3977 30349 0
-532 -3978 30349 0
-3977 -535 30349 0
-535 -3978 30349 0
-3979 30349 -536 0
30349 -3978 -538 0
30349 -3979 -538 0
-3987 30350 -553 0
-3987 30350 -559 0
-3987 30350 -564 0
-3987 30350 -568 0
-571 30350 -3986 0
-571 30350 -3987 0
30351 -30335 0
30357 -30336 0
30357 -30351 0
30358 -30351 -30336 0
30363 -30337 0
30363 -30357 0
30364 -30358 0
30364 -30337 -30357 0
30365 -30337 -30358 0
30369 -30338 0
30369 -30363 0
30370 -30364 0
-30365 30371 0
30370 -30338 -30363 0
30371 -30338 -30364 0
30372 -30365 -30338 0
30375 -30339 0
30375 -30369 0
30376 -30370 0
30377 -30371 0
30378 -30372 0
30376 -30339 -30369 0
30377 -30339 -30370 0
30378 -30371 -30339 0
-30372 -30339 30379 0
30381 -30340 0
30381 -30375 0
30382 -30376 0
30383 -30377 0
30384 -30378 0
-30379 30385 0
30382 -30340 -30375 0
30383 -30340 -30376 0
30384 -30377 -30340 0
-30378 -30340 30385 0
30387 -30341 0
30387 -30381 0
30388 -30382 0
30389 -30383 0
30390 -30384 0
-30385 30391 0
30388 -30341 -30381 0
30389 -30341 -30382 0
30390 -30341 -30383 0
-30384 -30341 30391 0
-30385 -30341 30392 0
30393 -30342 0
30393 -30387 0
30394 -30388 0
30395 -30389 0
30396 -30390 0
-30391 30397 0
-30392 30398 0
30394 -30342 -30387 0
30395 -30342 -30388 0
30396 -30342 -30389 0
-30390 -30342 30397 0
-30391 -30342 30398 0
30399 -30343 0
30399 -30393 0
30400 -30394 0
30401 -30395 0
30402 -30396 0
-30397 30403 0
-30398 30404 0
30400 -30343 -30393 0
30401 -30343 -30394 0
30402 -30343 -30395 0
-30396 -30343 30403 0
-30397 -30343 30404 0
30406 -30400 0
30407 -30401 0
30408 -30402 0
-30403 30409 0
-30404 30410 0
30406 -30344 -30399 0
30407 -30344 -30400 0
30408 -30344 -30401 0
-30402 -30344 30409 0
-30403 -30344 30410 0
30412 -30406 0
30413 -30407 0
30414 -30408 0
-30409 30415 0
-30410 30416 0
30413 -30345 -30406 0
30414 -30345 -30407 0
-30408 -30345 30415 0
-30409 -30345 30416 0
30419 -30413 0
30420 -30414 0
-30415 30421 0
-30416 30422 0
30419 -30346 -30412 0
30420 -30413 -30346 0
-30414 -30346 30421 0
-30415 -30346 30422 0
30426 -30420 0
-30421 30427 0
-30422 30428 0
30426 -30347 -30419 0
-30420 -30347 30427 0
-30347 -30421 30428 0
-30427 30433 0
-30428 30434 0
-30426 -30348 30433 0
-30348 -30427 30434 0
-30434 30440 0
-30433 -30349 30440 0
-30392 -30342 0
-30398 -30343 0
-30404 -30344 0
-30410 -30345 0
-30416 -30346 0
-30347 -30422 0
-30428 -30348 0
-30349 -30434 0
-30440 -30350 0
30441 -22 0
30442 -65 -4399 0
30443 -104 -4409 0
30444 -144 -4420 0
30445 -180 -4430 0
30446 -4438 -216 0
30457 -30441 0
30463 -30442 0
30464 -30457 -30442 0
30470 -30443 -30463 0
30471 -30443 -30464 0
30476 -30470 0
30477 -30471 0
30478 -30471 -30444 0
30482 -30476 0
30483 -30477 0
30484 -30478 0
30484 -30477 -30445 0
30489 -30483 0
30490 -30484 0
30489 -30446 -30482 0
30490 -30483 -30446 0
30495 -30489 0
30496 -30490 0
30501 -30495 0
30502 -30496 0
30507 -30501 0
30508 -30502 0
30513 -30507 0
30514 -30508 0
30519 -30513 0
30520 -30514 0
30526 -30520 0
-30683 -9 0
30683 -13 0
30683 -19 0
30683 -24 0
-30683 -25 0
30683 -28 0
-30683 -29 0
30683 -34 0
30684 -49 -5886 0
-30684 -52 -16008 -16007 5882 5883 0
30684 -55 -5886 0
-58 -30684 -16008 5883 -16009 5884 0
-60 30684 -5886 0
30684 -61 -5887 0
-61 -30684 -16008 5883 5887 -16012 0
-64 30684 -5886 0
-65 -30684 5887 -16009 5884 -16012 0
30684 -70 -5886 0
-85 30685 -5895 0
-86 30685 -5896 0
-87 30685 -5897 0
-91 30685 -5895 0
-92 30685 -5896 0
-94 -30685 5893 -16017 5892 -16018 0
30685 -96 -5895 0
-97 30685 -5896 0
16021 -97 30685 0
-97 -30685 5892 5896 -16017 -16021 0
-98 30685 -5897 0
-100 30685 -5895 0
30685 -5896 -101 0
-30685 -101 5893 5896 -16021 -16018 0
-102 30685 -5897 0
-106 30685 -5895 0
-106 30685 -5896 0
-107 30685 -5897 0
30686 -121 -5904 0
30686 -122 -5905 0
-127 30686 -5904 0
30686 -128 -5905 0
-5901 -130 30686 0
-5902 -130 30686 0
-132 30686 -5904 0
-133 30686 -5905 0
30686 -136 -5904 0
30686 -137 -5905 0
30686 -140 -5905 0
30686 -142 -5904 0
30686 -142 -5905 0
30687 -5913 -157 0
30687 -5914 -158 0
-163 30687 -5913 0
-164 30687 -5914 0
-168 30687 -5913 0
30687 -169 -5914 0
-169 -30687 5914 -16035 5910 -16039 0
-172 30687 -5913 0
-173 30687 -5914 0
30687 -175 -5913 0
30687 -176 -5914 0
30687 -178 -5913 0
30687 -178 -5914 0
30687 -180 -5915 0
30688 -5922 -193 0
-194 30688 -5923 0
-199 30688 -5922 0
-200 30688 -5923 0
30688 -5922 -204 0
-205 30688 -5923 0
-208 30688 -5922 0
-5920 -209 30688 0
-209 30688 -5923 0
30688 -5922 -211 0
-5921 30688 -212 0
30688 -212 -5923 0
-30688 -212 5923 -16046 5921 -16048 0
-5922 30688 -214 0
30688 -5923 -214 0
30688 -216 -5924 0
30689 -229 -5931 0
-230 30689 -5932 0
-235 30689 -5931 0
-236 30689 -5932 0
30689 -240 -5931 0
-241 30689 -5932 0
-244 30689 -5931 0
30689 -245 -5932 0
5929 -245 -30689 5932 -16057 -16054 0
-30689 5931 5930 -247 -16055 -16056 0
-248 30689 -5932 0
30689 -250 -5931 0
30689 -250 -5932 0
30689 -5932 -252 0
30689 -252 -5933 0
-265 30690 -5940 0
30690 -266 -5941 0
-271 30690 -5940 0
30690 -272 -5941 0
-276 30690 -5940 0
30690 -277 -5941 0
30690 -280 -5940 0
30690 -281 -5941 0
5938 -281 5941 -30690 -16066 -16063 0
30690 -284 -5941 0
30690 -5940 -286 0
30690 -5941 -286 0
30690 -288 -5942 0
-301 30691 -5949 0
30691 -302 -5950 0
-307 30691 -5949 0
30691 -308 -5950 0
30691 -312 -5949 0
30691 -5950 -313 0
30691 -316 -5949 0
30691 -317 -5950 0
30691 -319 -5949 0
30691 -320 -5950 0
30691 -322 -5949 0
30691 -322 -5950 0
30691 -5950 -324 0
30691 -324 -5951 0
30692 -337 -5958 0
30692 -338 -5959 0
-343 30692 -5958 0
-344 30692 -5959 0
30692 -348 -5958 0
-349 30692 -5959 0
30692 -352 -5958 0
30692 -5959 -353 0
30692 -356 -5959 0
30692 -358 -5958 0
30692 -358 -5959 0
30692 -360 -5960 0
-374 30693 -5968 0
30693 -5968 -380 0
30693 -385 -5968 0
30693 -389 -5968 0
30693 -5968 -392 0
30693 -5967 -394 0
30693 -5968 -394 0
30693 -5968 -396 0
30693 -396 -5969 0
30694 -428 -5977 0
30694 -5977 -430 0
30694 -5977 -432 0
30694 -432 -5978 0
30695 -5986 -464 0
30695 -5986 -466 0
30695 -5986 -468 0
30695 -468 -5987 0
30696 -5995 -500 0
30696 -5995 -502 0
30696 -504 -5996 0
30697 -6004 -536 0
30697 -6004 -538 0
30697 -6004 -540 0
30698 -572 -6013 0
30699 -30683 0
30704 -30684 0
30704 -30699 0
30705 -30684 -30699 0
30709 -30685 0
30709 -30704 0
30710 -30705 0
30710 -30685 -30704 0
30711 -30705 -30685 0
30714 -30686 0
30714 -30709 0
30715 -30710 0
-30711 30716 0
30715 -30686 -30709 0
30716 -30710 -30686 0
-30711 30717 -30686 0
30719 -30687 0
30719 -30714 0
30720 -30715 0
-30716 30721 0
-30717 30722 0
30720 -30687 -30714 0
30721 -30715 -30687 0
-30716 30722 -30687 0
-30717 -30687 30723 0
30724 -30688 0
30724 -30719 0
30725 -30720 0
-30721 30726 0
-30722 30727 0
-30723 30728 0
30725 -30688 -30719 0
30726 -30688 -30720 0
-30721 30727 -30688 0
-30722 -30688 30728 0
30729 -30689 0
30729 -30724 0
30730 -30725 0
30731 -30726 0
-30727 30732 0
-30728 30733 0
30730 -30689 -30724 0
30731 -30689 -30725 0
-30726 30732 -30689 0
-30727 -30689 30733 0
30734 -30690 0
30734 -30729 0
30735 -30730 0
30736 -30731 0
-30732 30737 0
-30733 30738 0
30735 -30690 -30729 0
30736 -30690 -30730 0
30737 -30731 -30690 0
-30732 -30690 30738 0
30739 -30691 0
30739 -30734 0
30740 -30735 0
30741 -30736 0
-30737 30742 0
-30738 30743 0
30740 -30691 -30734 0
30741 -30691 -30735 0
30742 -30736 -30691 0
-30737 -30691 30743 0
30745 -30740 0
30746 -30741 0
-30742 30747 0
-30743 30748 0
30745 -30692 -30739 0
30746 -30692 -30740 0
30747 -30741 -30692 0
-30742 -30692 30748 0
30750 -30745 0
30751 -30746 0
-30747 30752 0
-30748 30753 0
30751 -30693 -30745 0
30752 -30746 -30693 0
-30747 -30693 30753 0
30756 -30751 0
30757 -30752 0
-30753 30758 0
30757 -30751 -30694 0
-30752 -30694 30758 0
30762 -30757 0
-30758 30763 0
30762 -30756 -30695 0
-30757 -30695 30763 0
30767 -30762 0
-30763 30768 0
-30762 -30696 30768 0
-30768 30773 0
-30767 -30697 30773 0
-30723 -30688 0
-30728 -30689 0
-30733 -30690 0
-30738 -30691 0
-30743 -30692 0
-30748 -30693 0
-30753 -30694 0
-30758 -30695 0
-30763 -30696 0
-30768 -30697 0
-30773 -30698 0
-30774 -32 0
30774 -34 0
30913 -132 -6174 0
30913 -136 -6174 0
30914 -178 -6183 0
30916 -6201 -250 0
30917 -6210 -286 0
30921 -428 -6245 0
30922 -444 -6254 0
-450 30922 -6254 0
30922 -6254 -455 0
30923 -504 -6266 0
30924 -6274 -536 0
30925 -6281 -571 0
30944 -30913 0
30950 -30944 0
30951 -30914 -30944 0
30956 -30950 0
30957 -30951 0
30962 -30956 0
30963 -30957 0
30963 -30916 -30956 0
30969 -30963 0
30969 -30917 -30962 0
30975 -30969 0
30981 -30975 0
30987 -30981 0
30994 -30921 -30987 0
-30922 31001 -30994 0
-31001 31008 -30923 0
-31008 -30924 31015 0
-31015 -30925 0
31016 -9 0
31017 -60 -6291 0
31018 -88 -6296 0
31019 -124 -6306 0
31025 -6363 -358 0
31026 -6371 -392 0
31027 -6380 -408 0
-414 31027 -6380 0
-419 31027 -6380 0
31027 -6380 -423 0
31027 -6382 -432 0
31028 -6389 -444 0
-450 31028 -6389 0
31028 -6389 -455 0
31028 -459 -6389 0
31028 -6389 -464 0
31028 -6391 -464 0
31028 -6391 -468 0
-480 31029 -6398 0
-486 -6398 31029 0
31029 -491 -6398 0
-495 31029 -6398 0
31029 -6398 -499 0
31029 -6400 -500 0
31030 -6407 -516 0
31030 -6407 -522 0
31030 -527 -6407 0
31030 -531 -6407 0
31030 -6407 -535 0
31030 -6409 -536 0
31031 -571 -6416 0
31032 -31016 0
31041 -31017 -31032 0
31050 -31018 -31041 0
31059 -31019 -31050 0
-31059 31067 0
-31067 31075 0
-31075 31083 0
31091 -31083 0
31099 -31091 0
-31099 31108 -31025 0
-31108 -31026 31117 0
-31117 31125 0
-31117 -31027 31126 0
-31126 31134 0
-31125 -31028 31134 0
-31126 -31028 31135 0
-31134 31142 0
-31135 31143 0
-31134 -31029 31143 0
-31143 31151 0
-31142 -31030 31151 0
-31135 -31029 0
-31143 -31030 0
-31151 -31031 0
-1 -31152 0
31152 -9 0
-31152 -25 0
-32 31152 0
31696 -25 0
31696 -29 0
31696 -34 0
31697 -61 -8857 0
31697 -65 -8857 0
31697 -70 -8857 0
31698 -97 -8866 0
31698 -101 -8866 0
31698 -104 -8866 0
31698 -106 -8866 0
31699 -133 -8875 0
31699 -137 -8875 0
31699 -140 -8875 0
31699 -142 -8875 0
31699 -144 -8876 0
31700 -173 -8884 0
31700 -176 -8884 0
31700 -178 -8884 0
31700 -180 -8885 0
31701 -205 -8893 0
31701 -209 -8893 0
31701 -8893 -212 0
31701 -8893 -214 0
31701 -216 -8894 0
31702 -241 -8902 0
31702 -8902 -245 0
31702 -248 -8902 0
31702 -8902 -250 0
31702 -252 -8903 0
31703 -8911 -281 0
31703 -284 -8911 0
31703 -8911 -286 0
31703 -288 -8912 0
31704 -8920 -320 0
31704 -324 -8921 0
31705 -360 -8930 0
31706 -8939 -396 0
31707 -8947 -430 0
31708 -8956 -466 0
31712 -31696 0
31717 -31697 0
31717 -31712 0
31718 -31697 -31712 0
31722 -31698 0
31722 -31717 0
31723 -31718 0
31723 -31698 -31717 0
31724 -31698 -31718 0
31727 -31699 0
31727 -31722 0
31728 -31723 0
31729 -31724 0
31728 -31699 -31722 0
31729 -31699 -31723 0
31730 -31724 -31699 0
31732 -31700 0
31732 -31727 0
31733 -31728 0
31734 -31729 0
31735 -31730 0
31733 -31700 -31727 0
31734 -31700 -31728 0
31735 -31729 -31700 0
31737 -31701 0
31737 -31732 0
31738 -31733 0
31739 -31734 0
31740 -31735 0
31738 -31701 -31732 0
31739 -31701 -31733 0
31740 -31734 -31701 0
31742 -31702 0
31742 -31737 0
31743 -31738 0
31744 -31739 0
31745 -31740 0
31743 -31702 -31737 0
31744 -31702 -31738 0
31745 -31739 -31702 0
31749 -31744 0
31750 -31745 0
31748 -31703 -31742 0
31749 -31703 -31743 0
31750 -31744 -31703 0
31754 -31749 0
31755 -31750 0
31754 -31704 -31748 0
31755 -31749 -31704 0
31759 -31754 0
31760 -31755 0
31760 -31754 -31705 0
31764 -31759 0
31765 -31760 0
31765 -31759 -31706 0
31769 -31764 0
31770 -31765 0
31770 -31707 -31764 0
31775 -31770 0
-31708 31775 -31769 0
-32195 -9 0
-32195 -10 0
-32195 -11 0
-32195 -13 0
32195 -14 0
-32195 -16 0
-32195 -17 0
-32195 -19 0
32195 -20 0
-32195 -22 0
-32195 -24 0
32195 -25 0
-32195 -28 0
32195 -29 0
32195 -34 0
-32196 -45 9796 -16007 -16006 9797 0
-32196 -46 9796 -16008 -16006 9798 0
-47 -32196 -16009 9799 9796 -16006 0
-49 -32196 9801 -16011 -16006 9796 0
32196 -50 -9802 0
-32196 -52 -16008 -16007 9797 9798 0
-32196 -53 9797 -16009 9799 -16007 0
-32196 -55 9797 -16011 9801 -16007 0
32196 -56 -9802 0
-9798 -58 32196 0
-9799 -58 32196 0
-58 -32196 -16008 9798 -16009 9799 0
-60 -32196 9801 9798 -16008 -16011 0
32196 -61 -9802 0
-64 -32196 9801 -16009 9799 -16011 0
32196 -65 -9802 0
32196 -70 -9802 0
32196 -72 -9803 0
32197 -86 -9811 0
-92 32197 -9811 0
-94 -32197 9807 -16018 -16017 9808 0
-32197 -96 9807 -16020 9810 -16017 0
-97 32197 -9811 0
32197 -101 -9811 0
32197 -104 -9811 0
-106 32197 -9811 0
-120 32198 -9818 0
32198 -122 -9820 0
-126 32198 -9818 0
32198 -128 -9820 0
-131 32198 -9818 0
16026 -132 32198 0
16029 -132 32198 0
-132 -32198 9819 -16026 -16029 9816 0
-133 32198 -9820 0
-135 32198 -9818 0
-137 32198 -9820 0
-139 32198 -9818 0
32198 -140 -9820 0
32198 -142 -9820 0
32198 -144 -9821 0
9823 -153 -32199 -16033 -16034 9824 0
-154 -32199 9823 -16035 -16033 9825 0
-155 -32199 9823 -16036 -16033 9826 0
-156 32199 -9827 0
-9828 32199 -157 0
9828 -32199 -157 9823 -16038 -16033 0
32199 -9829 -158 0
-160 9824 -32199 -16035 -16034 9825 0
-161 -32199 -16034 -16036 9824 9826 0
-162 32199 -9827 0
-163 -9828 32199 0
-163 9828 -32199 -16038 9824 -16034 0
-164 32199 -9829 0
-167 32199 -9827 0
-9828 -168 32199 0
9828 -168 -32199 -16035 9825 -16038 0
-169 32199 -9829 0
32199 -9827 -171 0
-172 -9828 32199 0
-172 -16036 -32199 -16038 9828 9826 0
32199 -173 -9829 0
-174 32199 -9830 0
32199 -175 -9827 0
-9828 32199 -175 0
32199 -176 -9829 0
-178 32199 -9829 0
32199 -9829 -180 0
32199 -180 -9830 0
-192 32200 -9836 0
32200 -9837 -193 0
-194 32200 -9838 0
-198 32200 -9836 0
-199 32200 -9837 0
-200 32200 -9838 0
-201 32200 -9839 0
-203 32200 -9836 0
32200 -9837 -204 0
9834 -32200 -204 -16044 -16047 9837 0
-205 32200 -9838 0
32200 -207 -9836 0
-208 32200 -9837 0
-209 32200 -9838 0
-210 32200 -9839 0
32200 -211 -9836 0
32200 -9837 -211 0
32200 -9838 -212 0
32200 -9838 -214 0
32200 -216 -9839 0
-228 32201 -9845 0
-229 32201 -9846 0
-230 32201 -9847 0
-234 32201 -9845 0
-235 32201 -9846 0
-236 32201 -9847 0
-239 32201 -9845 0
-240 32201 -9846 0
9843 -240 -32201 -16053 -16056 9846 0
-241 32201 -9847 0
-242 32201 -9848 0
-243 32201 -9845 0
-244 32201 -9846 0
9844 -244 -32201 -16056 -16054 9846 0
-245 32201 -9847 0
-247 32201 -9845 0
-247 32201 -9846 0
-248 32201 -9845 0
-248 32201 -9847 0
-250 32201 -9847 0
32201 -9847 -252 0
32201 -9848 -252 0
-264 32202 -9854 0
-265 32202 -9855 0
32202 -266 -9856 0
32202 -9854 -270 0
-271 32202 -9855 0
32202 -272 -9856 0
-275 32202 -9854 0
-276 32202 -9855 0
9852 -276 -32202 -16062 -16065 9855 0
-277 32202 -9856 0
-279 32202 -9854 0
-280 32202 -9855 0
9853 -16063 -32202 -280 -16065 9855 0
-281 32202 -9856 0
-283 -9854 32202 0
-283 32202 -9855 0
-284 -9854 32202 0
-284 32202 -9856 0
32202 -9856 -286 0
32202 -288 -9857 0
-300 32203 -9863 0
-301 -9864 32203 0
-302 32203 -9865 0
-306 32203 -9863 0
-307 -9864 32203 0
-308 32203 -9865 0
-311 32203 -9863 0
-312 -9864 32203 0
9861 -312 -32203 -16074 -16071 9864 0
32203 -9865 -313 0
32203 -9863 -315 0
-316 -9864 32203 0
-317 32203 -9865 0
-319 32203 -9863 0
-9864 -319 32203 0
-320 32203 -9865 0
-322 32203 -9865 0
32203 -9865 -324 0
32203 -324 -9866 0
-336 32204 -9872 0
-337 32204 -9873 0
-338 -9874 32204 0
-342 32204 -9872 0
-343 32204 -9873 0
-344 -9874 32204 0
32204 -9872 -347 0
-348 32204 -9873 0
-349 -9874 32204 0
-351 32204 -9872 0
-352 32204 -9873 0
32204 -9874 -353 0
32204 -9872 -355 0
32204 -9873 -355 0
-356 -9874 32204 0
-358 -9874 32204 0
32204 -360 -9875 0
-372 32205 -9881 0
-373 32205 -9882 0
-374 32205 -9883 0
-378 32205 -9881 0
-379 32205 -9882 0
32205 -9883 -380 0
32205 -9881 -383 0
-384 32205 -9882 0
-385 32205 -9883 0
32205 -387 -9881 0
-388 32205 -9882 0
-389 32205 -9883 0
32205 -391 -9881 0
32205 -391 -9882 0
-391 -16092 9881 9882 -16091 -32205 0
32205 -392 -9883 0
32205 -9882 -394 0
32205 -9883 -394 0
32205 -396 -9884 0
-408 32206 -9890 0
-409 32206 -9891 0
-414 32206 -9890 0
-415 32206 -9891 0
-419 32206 -9890 0
-420 32206 -9891 0
-423 32206 -9890 0
-424 32206 -9891 0
32206 -427 -9890 0
32206 -427 -9891 0
9891 9890 -427 -16101 -16100 -32206 0
-428 32206 -9890 0
-428 32206 -9892 0
32206 -9892 -430 0
32206 -9892 -432 0
32206 -432 -9893 0
-444 -9899 32207 0
-445 32207 -9900 0
-450 -9899 32207 0
-451 32207 -9900 0
-9899 32207 -455 0
-456 32207 -9900 0
-459 -9899 32207 0
-460 32207 -9900 0
-9899 32207 -463 0
32207 -9900 -463 0
32207 -9901 -464 0
32207 -9901 -466 0
32207 -9901 -468 0
32207 -468 -9902 0
-480 -9908 32208 0
-481 32208 -9909 0
-486 -9908 32208 0
-487 32208 -9909 0
-491 -9908 32208 0
-492 32208 -9909 0
-495 -9908 32208 0
-496 32208 -9909 0
-9908 32208 -499 0
32208 -9909 -499 0
-9910 32208 -500 0
-9909 32208 -502 0
32208 -502 -9910 0
-9910 32208 -504 0
32208 -504 -9911 0
-9917 32209 -516 0
-517 32209 -9918 0
-522 -9917 32209 0
-523 32209 -9918 0
-527 -9917 32209 0
-528 32209 -9918 0
-531 32209 -9917 0
-532 32209 -9918 0
-535 -9917 32209 0
-535 32209 -9918 0
-9917 32209 -536 0
-9919 32209 -536 0
32209 -9918 -538 0
32209 -9919 -538 0
-32210 -552 9926 -16132 9922 -16136 0
32210 -553 -9927 0
-32210 -558 -16136 -16133 9923 9926 0
32210 -559 -9927 0
-32210 -563 9926 -16136 9924 -16134 0
32210 -564 -9927 0
-32210 -567 -16135 -16136 9925 9926 0
32210 -568 -9927 0
-9926 32210 -571 0
-9927 -571 32210 0
32210 -572 -9928 0
32210 -574 -9928 0
32211 -32195 0
32217 -32196 0
32217 -32211 0
32218 -32196 -32211 0
32223 -32197 0
32223 -32217 0
32224 -32218 0
32224 -32197 -32217 0
32225 -32197 -32218 0
32229 -32198 0
32229 -32223 0
32230 -32224 0
-32225 32231 0
32230 -32198 -32223 0
32231 -32198 -32224 0
-32225 32232 -32198 0
32235 -32199 0
32235 -32229 0
32236 -32230 0
32237 -32231 0
-32232 32238 0
32236 -32199 -32229 0
32237 -32199 -32230 0
-32231 32238 -32199 0
-32232 -32199 32239 0
32241 -32200 0
32241 -32235 0
32242 -32236 0
-32237 32243 0
-32238 32244 0
-32239 32245 0
32242 -32200 -32235 0
32243 -32200 -32236 0
32244 -32237 -32200 0
-32238 -32200 32245 0
-32239 -32200 32246 0
32247 -32201 0
32247 -32241 0
32248 -32242 0
-32243 32249 0
-32244 32250 0
-32245 32251 0
-32246 32252 0
32248 -32201 -32241 0
-32201 32249 -32242 0
32250 -32201 -32243 0
-32244 -32201 32251 0
-32245 -32201 32252 0
32253 -32202 0
32253 -32247 0
32254 -32248 0
-32249 32255 0
-32250 32256 0
-32251 32257 0
-32252 32258 0
32254 -32202 -32247 0
-32202 32255 -32248 0
32256 -32202 -32249 0
-32250 -32202 32257 0
-32251 -32202 32258 0
32259 -32203 0
32259 -32253 0
32260 -32254 0
-32255 32261 0
-32256 32262 0
-32257 32263 0
-32258 32264 0
32260 -32203 -32253 0
-32203 32261 -32254 0
32262 -32203 -32255 0
-32256 -32203 32263 0
-32257 -32203 32264 0
32265 -32204 0
32265 -32259 0
32266 -32260 0
-32261 32267 0
-32262 32268 0
-32263 32269 0
-32264 32270 0
32266 -32204 -32259 0
-32204 32267 -32260 0
32268 -32204 -32261 0
-32262 -32204 32269 0
-32263 -32204 32270 0
32272 -32266 0
32273 -32267 0
32274 -32268 0
-32269 32275 0
-32270 32276 0
32272 -32205 -32265 0
32273 -32205 -32266 0
32274 -32205 -32267 0
-32205 -32268 32275 0
-32269 -32205 32276 0
32279 -32273 0
32280 -32274 0
-32275 32281 0
-32276 32282 0
32279 -32206 -32272 0
32280 -32273 -32206 0
-32274 -32206 32281 0
-32275 -32206 32282 0
32286 -32280 0
-32281 32287 0
-32282 32288 0
32286 -32279 -32207 0
-32207 -32280 32287 0
-32207 -32281 32288 0
-32287 32293 0
-32288 32294 0
-32208 -32286 32293 0
-32208 -32287 32294 0
-32294 32300 0
-32293 -32209 32300 0
-32246 -32201 0
-32252 -32202 0
-32258 -32203 0
-32264 -32204 0
-32270 -32205 0
-32276 -32206 0
-32282 -32207 0
-32288 -32208 0
-32209 -32294 0
-32300 -32210 0
-32437 -9 0
-32437 -13 0
-32437 -19 0
32437 -22 0
-32437 -24 0
32437 -28 0
32437 -29 0
32437 -32 0
32437 -34 0
-32573 -22 0
32573 -34 0
32709 -10 0
32709 -13 0
32709 -14 0
-32709 -32 0
15727 32724 -549 0
15728 32724 -549 0
-32724 -571 -15731 -15732 1556 1557 0
-1 32800 0
-37 32801 0
-32800 32801 0
-73 32802 0
-32801 32802 0
-73 -32801 0
-109 32803 0
-32802 32803 0
-109 -32802 0
-145 32804 0
-32803 32804 0
-145 -32803 0
-181 32805 0
-32804 32805 0
-181 -32804 0
-217 32806 0
-32805 32806 0
-217 -32805 0
-253 32807 0
-32806 32807 0
-253 -32806 0
-289 32808 0
-32807 32808 0
-289 -32807 0
-325 32809 0
-32808 32809 0
-325 -32808 0
-361 32810 0
-32809 32810 0
-361 -32809 0
-397 32811 0
-32810 32811 0
-32810 -397 0
-433 32812 0
-32811 32812 0
-433 -32811 0
-469 32813 0
-32812 32813 0
-469 -32812 0
32814 -32813 0
-32813 -505 0
-541 -32814 0
-2 0
-3 0
-4 0
-5 0
-6 0
-7 0
-8 0
-38 0
-39 0
-40 0
-41 0
-42 0
-43 0
-44 0
-74 0
-75 0
-76 0
-77 0
-78 0
-79 0
-80 0
-110 0
-111 0
-112 0
-113 0
-114 0
-115 0
-116 0
-146 0
-147 0
-148 0
-149 0
-150 0
-151 0
-152 0
-182 0
-183 0
-184 0
-185 0
-186 0
-187 0
-188 0
-218 0
-219 0
-220 0
-221 0
-222 0
-223 0
-224 0
-254 0
-255 0
-256 0
-257 0
-258 0
-259 0
-260 0
-290 0
-291 0
-292 0
-293 0
-294 0
-295 0
-296 0
-326 0
-327 0
-328 0
-329 0
-330 0
-331 0
-332 0
-362 0
-363 0
-364 0
-365 0
-366 0
-367 0
-368 0
-398 0
-399 0
-400 0
-401 0
-402 0
-403 0
-404 0
-434 0
-435 0
-436 0
-437 0
-438 0
-439 0
-440 0
-470 0
-471 0
-472 0
-473 0
-474 0
-475 0
-476 0
-506 0
-507 0
-508 0
-509 0
-510 0
-511 0
-512 0
-542 0
-543 0
-544 0
-545 0
-546 0
-547 0
-548 0
32866 -32815 0
32867 -32866 0
-32817 -32867 0
32819 32820 32818 0
32868 -32818 0
32869 -32819 0
32869 -32868 0
-32819 -32868 0
-32820 -32869 0
32821 32822 32823 0
32870 -32821 0
32871 -32822 0
32871 -32870 0
-32822 -32870 0
-32871 -32823 0
32824 32825 32826 0
32872 -32824 0
32873 -32825 0
32873 -32872 0
-32825 -32872 0
-32826 -32873 0
32828 32827 32829 0
32874 -32827 0
-32828 32875 0
32875 -32874 0
-32874 -32828 0
-32875 -32829 0
32830 32832 32831 0
-32830 32876 0
-32831 32877 0
-32876 32877 0
-32876 -32831 0
-32877 -32832 0
32834 32833 32835 0
32878 -32833 0
-32834 32879 0
-32878 32879 0
-32878 -32834 0
-32879 -32835 0
32836 32837 32838 0
32880 -32836 0
-32837 32881 0
32881 -32880 0
-32880 -32837 0
-32881 -32838 0
32841 32840 32839 0
-32839 32882 0
32883 -32840 0
-32882 32883 0
-32882 -32840 0
-32883 -32841 0
32844 32843 32842 0
-32842 32884 0
-32843 32885 0
-32884 32885 0
-32884 -32843 0
-32885 -32844 0
32845 32847 32846 0
-32845 32886 0
-32846 32887 0
-32886 32887 0
-32886 -32846 0
-32887 -32847 0
32848 32849 32850 0
32888 -32848 0
-32849 32889 0
32889 -32888 0
-32888 -32849 0
-32889 -32850 0
32851 32852 32853 0
32890 -32851 0
-32852 32891 0
32891 -32890 0
-32890 -32852 0
-32891 -32853 0
32854 32855 32856 0
32892 -32854 0
-32855 32893 0
32893 -32892 0
-32893 -32856 0
32857 32859 32858 0
-32857 32894 0
-32858 32895 0
-32894 32895 0
-32895 -32859 0
32860 32861 32862 0
32897 -32861 0
-32862 -32897 0
-32863 32898 0
-32864 32899 0
-32898 32899 0
-32899 -32865 0
32815 0
32865 0
32818 -9 -32815 0
32818 -10 -32815 0
32818 -11 -32815 0
-12 -32815 0
32818 -13 -32815 0
32818 -14 -32815 0
-15 -32815 0
32818 -16 -32815 0
32818 -17 -32815 0
-18 -32815 0
32818 -19 -32815 0
32818 -20 -32815 0
-21 -32815 0
32818 -22 -32815 0
-23 -32815 0
32818 -24 -32815 0
32818 -25 -32815 0
-26 -32815 0
-27 -32815 0
32818 -28 -32815 0
32818 -29 -32815 0
-30 -32815 0
-31 -32815 0
32819 -32 -32815 0
-33 -32815 0
32818 -34 -32815 0
-35 -32815 0
-36 -32815 0
-37 32821 -32818 0
-45 32821 -32818 0
-46 32821 -32818 0
-47 32821 -32818 0
-48 -32818 0
-49 32821 -32818 0
-50 32821 -32818 0
-51 -32818 0
-52 32821 -32818 0
-53 32821 -32818 0
-54 -32818 0
-55 32821 -32818 0
-56 32821 -32818 0
-57 -32818 0
-58 32821 -32818 0
-59 -32818 0
-60 32821 -32818 0
-61 32821 -32818 0
-62 -32818 0
-63 -32818 0
-64 32821 -32818 0
-65 32821 -32818 0
-66 -32818 0
-67 -32818 0
-68 32822 -32818 0
-69 -32818 0
-70 32821 -32818 0
-71 -32818 0
-72 -32818 0
-37 -32819 32822 0
-45 -32819 32822 0
-46 -32819 32822 0
-47 -32819 32822 0
-48 -32819 32822 0
-49 -32819 32822 0
-50 -32819 0
-51 -32819 0
-52 -32819 32822 0
-53 -32819 32822 0
-54 -32819 32822 0
-55 -32819 32822 0
-56 -32819 0
-57 -32819 0
-58 -32819 32822 0
-59 -32819 32822 0
-60 -32819 32822 0
-61 -32819 0
-62 -32819 0
-63 -32819 32822 0
-64 -32819 32822 0
-65 -32819 0
-66 -32819 0
-67 -32819 32822 0
-68 -32819 0
-69 -32819 0
-70 -32819 0
-32819 -71 0
-72 -32819 32823 0
-32820 -71 0
-32820 -72 0
32824 -73 -32821 0
32824 -81 -32821 0
-82 32824 -32821 0
-83 32824 -32821 0
-84 -32821 0
-85 32824 -32821 0
-86 32824 -32821 0
-87 -32821 0
-88 32824 -32821 0
-89 32824 -32821 0
-90 -32821 0
-91 32824 -32821 0
-92 32824 -32821 0
-32821 -93 0
-94 32824 -32821 0
-95 -32821 0
32824 -96 -32821 0
-97 32824 -32821 0
-98 -32821 0
-99 -32821 0
-100 32824 -32821 0
-101 32824 -32821 0
-102 -32821 0
-103 -32821 0
-104 32825 -32821 0
-105 -32821 0
-106 32824 -32821 0
-107 -32821 0
-108 -32821 0
-32822 -73 32825 0
-32822 -81 32825 0
-82 -32822 32825 0
-83 -32822 32825 0
-32822 -84 32825 0
-85 -32822 32825 0
-86 -32822 0
-87 -32822 0
-88 -32822 32825 0
-89 -32822 32825 0
-90 -32822 32825 0
-91 -32822 32825 0
-92 -32822 0
-32822 -93 0
-94 -32822 32825 0
-95 -32822 32825 0
-32822 -96 32825 0
-97 -32822 0
-98 -32822 0
-99 -32822 32825 0
-100 -32822 32825 0
-101 -32822 0
-102 -32822 0
-103 -32822 32825 0
-104 -32822 0
-105 -32822 0
-106 -32822 0
-107 -32822 0
-108 -32822 32826 0
-87 -32823 0
-32823 -93 0
-98 -32823 0
-102 -32823 0
-105 -32823 0
-107 -32823 0
-108 -32823 0
-109 -32824 32827 0
-117 -32824 32827 0
-118 -32824 32827 0
-119 -32824 32827 0
-120 -32824 0
-121 -32824 32827 0
-122 -32824 32827 0
-123 -32824 0
-124 -32824 32827 0
-125 -32824 32827 0
-126 -32824 0
-127 -32824 32827 0
-128 -32824 32827 0
-129 -32824 0
-130 -32824 32827 0
-131 -32824 0
-132 -32824 32827 0
-133 -32824 32827 0
-134 -32824 0
-135 -32824 0
-136 -32824 32827 0
-137 -32824 32827 0
-32824 -138 0
-139 -32824 0
-140 -32824 32828 0
-141 -32824 0
-142 -32824 32827 0
-143 -32824 0
-144 -32824 0
-32825 -109 32828 0
-117 -32825 32828 0
-118 -32825 32828 0
-119 -32825 32828 0
-120 -32825 32828 0
-121 -32825 32828 0
-122 -32825 0
-123 -32825 0
-124 -32825 32828 0
-125 -32825 32828 0
-126 -32825 32828 0
-127 -32825 32828 0
-128 -32825 0
-129 -32825 0
-130 -32825 32828 0
-131 -32825 32828 0
-132 -32825 32828 0
-133 -32825 0
-134 -32825 0
-135 -32825 32828 0
-136 -32825 32828 0
-137 -32825 0
-32825 -138 0
-139 -32825 32828 0
-140 -32825 0
-32825 -141 0
-142 -32825 0
-143 -32825 0
-144 -32825 32829 0
-32826 -123 0
-129 -32826 0
-134 -32826 0
-32826 -138 0
-32826 -141 0
-143 -32826 0
-32826 -144 0
-145 -32827 32830 0
-153 -32827 32830 0
-154 -32827 32830 0
-155 -32827 32830 0
-156 -32827 0
-157 -32827 32830 0
-158 -32827 32830 0
-159 -32827 0
-160 -32827 32830 0
-161 -32827 32830 0
-162 -32827 0
-163 -32827 32830 0
-164 -32827 32830 0
-165 -32827 0
-166 -32827 32830 0
-167 -32827 0
-168 -32827 32830 0
-169 -32827 32830 0
-32827 -170 0
-32827 -171 0
-172 -32827 32830 0
-173 -32827 32830 0
-174 -32827 0
-175 -32827 0
-176 -32827 32831 0
-177 -32827 0
-178 -32827 32830 0
-179 -32827 0
-180 -32827 0
-32828 -145 32831 0
-153 -32828 32831 0
-154 -32828 32831 0
-155 -32828 32831 0
-156 -32828 32831 0
-32828 -157 32831 0
-32828 -158 0
-32828 -159 0
-160 -32828 32831 0
-161 -32828 32831 0
-162 -32828 32831 0
-163 -32828 32831 0
-164 -32828 0
-165 -32828 0
-166 -32828 32831 0
-167 -32828 32831 0
-168 -32828 32831 0
-169 -32828 0
-32828 -170 0
-32828 -171 32831 0
-172 -32828 32831 0
-173 -32828 0
-174 -32828 0
-175 -32828 32831 0
-176 -32828 0
-177 -32828 0
-178 -32828 0
-179 -32828 0
-180 -32828 32832 0
-145 -32829 32832 0
-153 -32829 32832 0
-154 -32829 32832 0
-155 -32829 32832 0
-156 -32829 32832 0
-157 -32829 32832 0
-159 -32829 0
-160 -32829 32832 0
-161 -32829 32832 0
-162 -32829 32832 0
-163 -32829 32832 0
-165 -32829 0
-166 -32829 32832 0
-167 -32829 32832 0
-168 -32829 32832 0
-32829 -170 0
-32829 -171 32832 0
-172 -32829 32832 0
-174 -32829 0
-175 -32829 32832 0
-176 -32829 32832 0
-177 -32829 0
-178 -32829 32832 0
-179 -32829 0
-180 -32829 0
32833 -181 -32830 0
-189 32833 -32830 0
-190 32833 -32830 0
-191 32833 -32830 0
-192 -32830 0
32833 -32830 -193 0
-194 32833 -32830 0
-195 -32830 0
32833 -196 -32830 0
-197 32833 -32830 0
-198 -32830 0
-199 32833 -32830 0
-200 32833 -32830 0
-201 -32830 0
-202 32833 -32830 0
-203 -32830 0
32833 -32830 -204 0
-205 32833 -32830 0
-206 -32830 0
-207 -32830 0
-208 32833 -32830 0
-209 32833 -32830 0
-210 -32830 0
-211 -32830 0
-212 -32830 32834 0
-32830 -213 0
32833 -32830 -214 0
-215 -32830 0
-216 -32830 0
-32831 -181 32834 0
-189 -32831 32834 0
-190 -32831 32834 0
-191 -32831 32834 0
-192 -32831 32834 0
-193 -32831 32834 0
-194 -32831 0
-32831 -195 0
-196 -32831 32834 0
-197 -32831 32834 0
-198 -32831 32834 0
-199 -32831 32834 0
-200 -32831 0
-201 -32831 0
-202 -32831 32834 0
-203 -32831 32834 0
-204 -32831 32834 0
-205 -32831 0
-206 -32831 0
-207 -32831 32834 0
-208 -32831 32834 0
-209 -32831 0
-210 -32831 0
-211 -32831 32834 0
-212 -32831 0
-32831 -213 0
-32831 -214 0
-215 -32831 0
-216 -32831 32835 0
-181 32835 -32832 0
-189 32835 -32832 0
-190 32835 -32832 0
-191 -32832 32835 0
-192 -32832 32835 0
-193 -32832 32835 0
-195 -32832 0
-196 -32832 32835 0
-197 -32832 32835 0
-198 -32832 32835 0
-199 -32832 32835 0
-201 -32832 0
-202 -32832 32835 0
-203 -32832 32835 0
-204 32835 -32832 0
-206 -32832 0
-207 -32832 32835 0
-208 32835 -32832 0
-210 -32832 0
-211 32835 -32832 0
-212 32835 -32832 0
-213 -32832 0
32835 -32832 -214 0
-215 -32832 0
-216 -32832 0
-217 -32833 32836 0
-225 -32833 32836 0
-226 -32833 32836 0
-227 -32833 32836 0
-228 -32833 0
-229 -32833 32836 0
-230 -32833 32836 0
-32833 -231 0
-232 -32833 32836 0
-233 -32833 32836 0
-234 -32833 0
-235 -32833 32836 0
-236 -32833 32836 0
-237 -32833 0
-238 -32833 32836 0
-239 -32833 0
-240 -32833 32836 0
-241 -32833 32836 0
-242 -32833 0
-243 -32833 0
-244 -32833 32836 0
-245 -32833 32836 0
-246 -32833 0
-247 -32833 0
-248 -32833 32837 0
-249 -32833 0
-250 -32833 32836 0
-251 -32833 0
-32833 -252 0
-32834 -217 32837 0
-225 -32834 32837 0
-226 -32834 32837 0
-227 -32834 32837 0
-228 -32834 32837 0
-229 -32834 32837 0
-230 -32834 0
-32834 -231 0
-232 -32834 32837 0
-233 -32834 32837 0
-234 -32834 32837 0
-235 -32834 32837 0
-236 -32834 0
-32834 -237 0
-238 -32834 32837 0
-239 -32834 32837 0
-240 -32834 32837 0
-241 -32834 0
-242 -32834 0
-243 -32834 32837 0
-244 -32834 32837 0
-245 -32834 0
-32834 -246 0
-247 -32834 32837 0
-248 -32834 0
-32834 -249 0
-250 -32834 0
-251 -32834 0
-32834 -252 32838 0
-217 -32835 32838 0
-225 -32835 32838 0
-226 -32835 32838 0
-227 -32835 32838 0
-228 -32835 32838 0
-229 -32835 32838 0
-231 -32835 0
-232 -32835 32838 0
-233 -32835 32838 0
-234 -32835 32838 0
-235 -32835 32838 0
-237 -32835 0
-238 -32835 32838 0
-239 -32835 32838 0
-240 -32835 32838 0
-242 -32835 0
-243 -32835 32838 0
-244 -32835 32838 0
-246 -32835 0
-247 -32835 32838 0
-248 -32835 32838 0
-249 -32835 0
-250 -32835 32838 0
-251 -32835 0
-252 -32835 0
-253 -32836 32839 0
-261 -32836 32839 0
-262 -32836 32839 0
-263 -32836 32839 0
-264 -32836 0
-265 -32836 32839 0
-266 -32836 32839 0
-267 -32836 0
-268 -32836 32839 0
-269 -32836 32839 0
-270 -32836 0
-271 -32836 32839 0
-272 -32836 32839 0
-273 -32836 0
-274 -32836 32839 0
-275 -32836 0
-276 -32836 32839 0
-277 -32836 32839 0
-278 -32836 0
-279 -32836 0
-280 -32836 32839 0
-281 -32836 32839 0
-32836 -282 0
-283 -32836 0
-284 -32836 32840 0
-285 -32836 0
-286 -32836 32839 0
-287 -32836 0
-288 -32836 0
-32837 -253 32840 0
-32837 -261 32840 0
-262 -32837 32840 0
-263 -32837 32840 0
-264 -32837 32840 0
-265 -32837 32840 0
-266 -32837 0
-267 -32837 0
-268 -32837 32840 0
-269 -32837 32840 0
-270 -32837 32840 0
-271 -32837 32840 0
-272 -32837 0
-32837 -273 0
-32837 -274 32840 0
-275 -32837 32840 0
-276 -32837 32840 0
-277 -32837 0
-278 -32837 0
-279 -32837 32840 0
-280 -32837 32840 0
-281 -32837 0
-32837 -282 0
-283 -32837 32840 0
-284 -32837 0
-285 -32837 0
-32837 -286 0
-287 -32837 0
-288 -32837 32841 0
-253 -32838 32841 0
-261 -32838 32841 0
-262 -32838 32841 0
-263 -32838 32841 0
-264 -32838 32841 0
-265 -32838 32841 0
-267 -32838 0
-268 -32838 32841 0
-269 -32838 32841 0
-270 -32838 32841 0
-271 -32838 32841 0
-273 -32838 0
-274 -32838 32841 0
-275 -32838 32841 0
-276 -32838 32841 0
-278 -32838 0
-279 -32838 32841 0
-280 -32838 32841 0
-32838 -282 0
-283 -32838 32841 0
-284 -32838 32841 0
-285 -32838 0
-286 -32838 32841 0
-287 -32838 0
-288 -32838 0
-289 -32839 32842 0
-32839 -297 32842 0
-298 -32839 32842 0
-299 -32839 32842 0
-300 -32839 0
-301 -32839 32842 0
-302 -32839 32842 0
-303 -32839 0
-304 -32839 32842 0
-305 -32839 32842 0
-306 -32839 0
-307 -32839 32842 0
-308 -32839 32842 0
-32839 -309 0
-310 -32839 32842 0
-311 -32839 0
-312 -32839 32842 0
-313 -32839 32842 0
-314 -32839 0
-32839 -315 0
-316 -32839 32842 0
-317 -32839 32842 0
-318 -32839 0
-319 -32839 0
-320 -32839 32843 0
-321 -32839 0
-322 -32839 32842 0
-323 -32839 0
-324 -32839 0
-32840 -289 32843 0
-32840 -297 32843 0
-298 -32840 32843 0
-299 -32840 32843 0
-300 -32840 32843 0
-301 -32840 32843 0
-302 -32840 0
-303 -32840 0
-304 -32840 32843 0
-305 -32840 32843 0
-306 -32840 32843 0
-307 -32840 32843 0
-308 -32840 0
-309 -32840 0
-310 -32840 32843 0
-311 -32840 32843 0
-312 -32840 32843 0
-32840 -313 0
-314 -32840 0
-32840 32843 -315 0
-316 -32840 32843 0
-317 -32840 0
-318 -32840 0
-319 -32840 32843 0
-320 -32840 0
-321 -32840 0
-322 -32840 0
-323 -32840 0
-32840 -324 32844 0
-289 -32841 32844 0
-297 -32841 32844 0
-298 -32841 32844 0
-299 -32841 32844 0
-300 -32841 32844 0
-301 -32841 32844 0
-303 -32841 0
-304 -32841 32844 0
-305 -32841 32844 0
-306 -32841 32844 0
-307 -32841 32844 0
-309 -32841 0
-310 -32841 32844 0
-311 -32841 32844 0
-312 -32841 32844 0
-314 -32841 0
-32841 32844 -315 0
-316 -32841 32844 0
-318 -32841 0
-319 -32841 32844 0
-320 -32841 32844 0
-321 -32841 0
-322 -32841 32844 0
-323 -32841 0
-324 -32841 0
-32842 -325 32845 0
-333 -32842 32845 0
-334 -32842 32845 0
-335 -32842 32845 0
-336 -32842 0
-337 -32842 32845 0
-338 -32842 32845 0
-339 -32842 0
-340 -32842 32845 0
-341 -32842 32845 0
-342 -32842 0
-343 -32842 32845 0
-344 -32842 32845 0
-345 -32842 0
-32842 -346 32845 0
-32842 -347 0
-348 -32842 32845 0
-349 -32842 32845 0
-350 -32842 0
-351 -32842 0
-352 -32842 32845 0
-353 -32842 32845 0
-354 -32842 0
-355 -32842 0
-356 -32842 32846 0
-357 -32842 0
-358 -32842 32845 0
-359 -32842 0
-360 -32842 0
-32843 -325 32846 0
-333 -32843 32846 0
-334 -32843 32846 0
-335 -32843 32846 0
-336 -32843 32846 0
-337 -32843 32846 0
-338 -32843 0
-339 -32843 0
-340 -32843 32846 0
-341 -32843 32846 0
-342 -32843 32846 0
-343 -32843 32846 0
-344 -32843 0
-345 -32843 0
-32843 -346 32846 0
-32843 -347 32846 0
-348 -32843 32846 0
-349 -32843 0
-350 -32843 0
-351 -32843 32846 0
-352 -32843 32846 0
-353 -32843 0
-354 -32843 0
-355 -32843 32846 0
-356 -32843 0
-357 -32843 0
-358 -32843 0
-359 -32843 0
-32843 -360 32847 0
-32844 -325 32847 0
-333 -32844 32847 0
-334 -32844 32847 0
-335 -32844 32847 0
-336 -32844 32847 0
-337 -32844 32847 0
-339 -32844 0
-340 -32844 32847 0
-341 -32844 32847 0
-342 -32844 32847 0
-343 -32844 32847 0
-345 -32844 0
-32844 -346 32847 0
-32844 -347 32847 0
-348 -32844 32847 0
-350 -32844 0
-351 -32844 32847 0
-352 -32844 32847 0
-354 -32844 0
-355 -32844 32847 0
-356 -32844 32847 0
-357 -32844 0
-358 -32844 32847 0
-359 -32844 0
-360 -32844 0
-361 -32845 32848 0
-369 -32845 32848 0
-370 -32845 32848 0
-32845 -371 32848 0
-372 -32845 0
-373 -32845 32848 0
-374 -32845 32848 0
-375 -32845 0
-376 -32845 32848 0
-377 -32845 32848 0
-378 -32845 0
-379 -32845 32848 0
-380 -32845 32848 0
-381 -32845 0
-382 -32845 32848 0
-32845 -383 0
-384 -32845 32848 0
-385 -32845 32848 0
-386 -32845 0
-387 -32845 0
-388 -32845 32848 0
-389 -32845 32848 0
-390 -32845 0
-391 -32845 0
-392 -32845 32849 0
-393 -32845 0
-32845 -394 32848 0
-395 -32845 0
-32845 -396 0
-361 -32846 32849 0
-369 -32846 32849 0
-370 -32846 32849 0
-371 -32846 32849 0
-372 -32846 32849 0
-373 -32846 32849 0
-374 -32846 0
-375 -32846 0
-376 -32846 32849 0
-377 -32846 32849 0
-378 -32846 32849 0
-379 -32846 32849 0
-380 -32846 0
-381 -32846 0
-382 -32846 32849 0
-32846 -383 32849 0
-384 -32846 32849 0
-385 -32846 0
-386 -32846 0
-387 -32846 32849 0
-388 -32846 32849 0
-389 -32846 0
-390 -32846 0
-391 -32846 32849 0
-392 -32846 0
-393 -32846 0
-394 -32846 0
-395 -32846 0
-396 -32846 32850 0
-361 -32847 32850 0
-369 -32847 32850 0
-370 -32847 32850 0
-371 -32847 32850 0
-372 -32847 32850 0
-373 -32847 32850 0
-375 -32847 0
-376 -32847 32850 0
-377 -32847 32850 0
-378 -32847 32850 0
-379 -32847 32850 0
-381 -32847 0
-382 -32847 32850 0
-32847 -383 32850 0
-384 -32847 32850 0
-386 -32847 0
-387 -32847 32850 0
-388 -32847 32850 0
-390 -32847 0
-391 -32847 32850 0
-392 -32847 32850 0
-393 -32847 0
-394 -32847 32850 0
-395 -32847 0
-396 -32847 0
-397 -32848 32851 0
-405 -32848 32851 0
-406 -32848 32851 0
-407 -32848 32851 0
-408 -32848 0
-409 -32848 32851 0
-410 -32848 32851 0
-411 -32848 0
-412 -32848 32851 0
-413 -32848 32851 0
-414 -32848 0
-415 -32848 32851 0
-416 -32848 32851 0
-417 -32848 0
-418 -32848 32851 0
-419 -32848 0
-420 -32848 32851 0
-421 -32848 32851 0
-32848 -422 0
-423 -32848 0
-424 -32848 32851 0
-425 -32848 32851 0
-426 -32848 0
-427 -32848 0
-428 -32848 32852 0
-429 -32848 0
-430 -32848 32851 0
-431 -32848 0
-432 -32848 0
-32849 -397 32852 0
-405 -32849 32852 0
-406 -32849 32852 0
-407 -32849 32852 0
-408 -32849 32852 0
-409 -32849 32852 0
-410 -32849 0
-411 -32849 0
-412 -32849 32852 0
-413 -32849 32852 0
-414 -32849 32852 0
-415 -32849 32852 0
-416 -32849 0
-417 -32849 0
-418 -32849 32852 0
-419 -32849 32852 0
-420 -32849 32852 0
-421 -32849 0
-32849 -422 0
-423 -32849 32852 0
-424 -32849 32852 0
-425 -32849 0
-426 -32849 0
-427 -32849 32852 0
-428 -32849 0
-429 -32849 0
-430 -32849 0
-431 -32849 0
-432 -32849 32853 0
-397 -32850 32853 0
-405 -32850 32853 0
-406 -32850 32853 0
-407 -32850 32853 0
-408 -32850 32853 0
-409 -32850 32853 0
-411 -32850 0
-412 -32850 32853 0
-413 -32850 32853 0
-414 -32850 32853 0
-415 -32850 32853 0
-417 -32850 0
-418 -32850 32853 0
-419 -32850 32853 0
-420 -32850 32853 0
-32850 -422 0
-423 -32850 32853 0
-424 -32850 32853 0
-426 -32850 0
-427 -32850 32853 0
-428 -32850 32853 0
-429 -32850 0
-430 -32850 32853 0
-431 -32850 0
-432 -32850 0
-433 32854 -32851 0
-441 32854 -32851 0
-442 32854 -32851 0
-443 32854 -32851 0
-444 -32851 0
-445 32854 -32851 0
-446 32854 -32851 0
-447 -32851 0
-448 32854 -32851 0
-449 32854 -32851 0
-450 -32851 0
-451 32854 -32851 0
-452 32854 -32851 0
-453 -32851 0
-454 32854 -32851 0
-455 -32851 0
-456 32854 -32851 0
-457 32854 -32851 0
-32851 -458 0
-459 -32851 0
-460 32854 -32851 0
-461 32854 -32851 0
-462 -32851 0
-463 -32851 0
-464 -32851 32855 0
-465 -32851 0
-466 32854 -32851 0
-467 -32851 0
-468 -32851 0
-433 -32852 32855 0
-441 -32852 32855 0
-442 -32852 32855 0
-443 -32852 32855 0
-444 -32852 32855 0
-445 -32852 32855 0
-446 -32852 0
-447 -32852 0
-448 -32852 32855 0
-449 -32852 32855 0
-450 -32852 32855 0
-451 -32852 32855 0
-452 -32852 0
-453 -32852 0
-454 -32852 32855 0
-455 -32852 32855 0
-456 -32852 32855 0
-457 -32852 0
-32852 -458 0
-459 -32852 32855 0
-460 -32852 32855 0
-461 -32852 0
-462 -32852 0
-32852 -463 32855 0
-464 -32852 0
-465 -32852 0
-466 -32852 0
-467 -32852 0
-468 -32852 32856 0
-433 -32853 32856 0
-441 -32853 32856 0
-442 -32853 32856 0
-443 -32853 32856 0
-444 -32853 32856 0
-445 -32853 32856 0
-447 -32853 0
-448 -32853 32856 0
-449 -32853 32856 0
-450 -32853 32856 0
-451 -32853 32856 0
-453 -32853 0
-454 -32853 32856 0
-455 -32853 32856 0
-456 -32853 32856 0
-32853 -458 0
-459 -32853 32856 0
-460 -32853 32856 0
-462 -32853 0
-463 -32853 32856 0
-464 -32853 32856 0
-465 -32853 0
-466 -32853 32856 0
-467 -32853 0
-468 -32853 0
-469 32857 -32854 0
-477 32857 -32854 0
-478 32857 -32854 0
-479 32857 -32854 0
-480 -32854 0
-481 32857 -32854 0
-482 32857 -32854 0
-483 -32854 0
-484 32857 -32854 0
-485 32857 -32854 0
-486 -32854 0
-487 32857 -32854 0
-488 32857 -32854 0
-489 -32854 0
-490 32857 -32854 0
-491 -32854 0
-492 32857 -32854 0
-493 32857 -32854 0
-32854 -494 0
-495 -32854 0
-496 32857 -32854 0
-497 32857 -32854 0
-498 -32854 0
-499 -32854 0
-500 32858 -32854 0
-501 -32854 0
-502 32857 -32854 0
-503 -32854 0
-504 -32854 0
-469 -32855 32858 0
-477 -32855 32858 0
-478 -32855 32858 0
-479 -32855 32858 0
-480 -32855 32858 0
-481 -32855 32858 0
-482 -32855 0
-483 -32855 0
-484 -32855 32858 0
-485 -32855 32858 0
-486 -32855 32858 0
-487 -32855 32858 0
-488 -32855 0
-489 -32855 0
-490 -32855 32858 0
-491 -32855 32858 0
-492 -32855 32858 0
-493 -32855 0
-32855 -494 0
-495 -32855 32858 0
-496 -32855 32858 0
-497 -32855 0
-498 -32855 0
-499 -32855 32858 0
-500 -32855 0
-501 -32855 0
-502 -32855 0
-32855 -503 0
-32855 -504 32859 0
-469 -32856 32859 0
-477 -32856 32859 0
-478 -32856 32859 0
-479 -32856 32859 0
-480 -32856 32859 0
-481 -32856 32859 0
-483 -32856 0
-484 -32856 32859 0
-485 -32856 32859 0
-486 -32856 32859 0
-487 -32856 32859 0
-489 -32856 0
-490 -32856 32859 0
-491 -32856 32859 0
-492 -32856 32859 0
-32856 -494 0
-495 -32856 32859 0
-496 -32856 32859 0
-498 -32856 0
-499 -32856 32859 0
-500 -32856 32859 0
-501 -32856 0
-502 -32856 32859 0
-503 -32856 0
-504 -32856 0
-505 -32857 32860 0
-513 -32857 32860 0
-514 -32857 32860 0
-515 -32857 32860 0
-516 -32857 0
-517 -32857 32860 0
-518 -32857 32860 0
-519 -32857 0
-520 -32857 32860 0
-521 -32857 32860 0
-522 -32857 0
-523 -32857 32860 0
-524 -32857 32860 0
-525 -32857 0
-526 -32857 32860 0
-527 -32857 0
-528 -32857 32860 0
-529 -32857 32860 0
-530 -32857 0
-531 -32857 0
-532 -32857 32860 0
-533 -32857 32860 0
-534 -32857 0
-535 -32857 0
-536 -32857 32861 0
-537 -32857 0
-538 -32857 32860 0
-539 -32857 0
-32857 -540 0
-32858 -505 32861 0
-513 -32858 32861 0
-514 -32858 32861 0
-515 -32858 32861 0
-516 -32858 32861 0
-517 -32858 32861 0
-518 -32858 0
-519 -32858 0
-520 -32858 32861 0
-521 -32858 32861 0
-522 -32858 32861 0
-523 -32858 32861 0
-524 -32858 0
-525 -32858 0
-526 -32858 32861 0
-527 -32858 32861 0
-528 -32858 32861 0
-529 -32858 0
-530 -32858 0
-531 -32858 32861 0
-532 -32858 32861 0
-533 -32858 0
-534 -32858 0
-535 -32858 32861 0
-536 -32858 0
-537 -32858 0
-538 -32858 0
-539 -32858 0
-32858 -540 32862 0
-505 -32859 32862 0
-513 -32859 32862 0
-514 -32859 32862 0
-515 -32859 32862 0
-516 -32859 32862 0
-517 -32859 32862 0
-519 -32859 0
-520 -32859 32862 0
-521 -32859 32862 0
-522 -32859 32862 0
-523 -32859 32862 0
-525 -32859 0
-526 -32859 32862 0
-527 -32859 32862 0
-528 -32859 32862 0
-530 -32859 0
-531 -32859 32862 0
-532 -32859 32862 0
-534 -32859 0
-535 -32859 32862 0
-536 -32859 32862 0
-537 -32859 0
-538 -32859 32862 0
-539 -32859 0
-540 -32859 0
-32860 -549 32863 0
-550 -32860 32863 0
-551 -32860 32863 0
-552 -32860 0
-553 -32860 32863 0
-554 -32860 32863 0
-555 -32860 0
-556 -32860 32863 0
-557 -32860 32863 0
-558 -32860 0
-559 -32860 32863 0
-560 -32860 32863 0
-561 -32860 0
-562 -32860 32863 0
-563 -32860 0
-564 -32860 32863 0
-565 -32860 32863 0
-566 -32860 0
-567 -32860 0
-568 -32860 32863 0
-569 -32860 32863 0
-570 -32860 0
-571 -32860 0
-572 -32860 32864 0
-573 -32860 0
-574 -32860 32863 0
-575 -32860 0
-576 -32860 0
-32861 -549 32864 0
-32861 -550 32864 0
-32861 -551 32864 0
-552 -32861 32864 0
-32861 -553 32864 0
-32861 -554 0
-555 -32861 0
-32861 -556 32864 0
-32861 -557 32864 0
-558 -32861 32864 0
-32861 -559 32864 0
-32861 -560 0
-561 -32861 0
-32861 -562 32864 0
-563 -32861 32864 0
-32861 -564 32864 0
-32861 -565 0
-566 -32861 0
-567 -32861 32864 0
-32861 -568 32864 0
-32861 -569 0
-570 -32861 0
-571 -32861 32864 0
-32861 -572 0
-573 -32861 0
-32861 -574 0
-575 -32861 0
-555 -32862 0
-561 -32862 0
-566 -32862 0
-32862 -570 0
-573 -32862 0
-32862 -575 0
-32862 -576 0
-32901 32817 0
-32902 34 0
32902 -34 -32815 0
-32904 32820 0
-32905 70 0
32905 -70 -32818 0
86 -32906 92 97 101 104 106 79 0
-32907 32823 0
-32907 32906 0
-32908 32821 0
-32908 106 0
-106 32908 -32821 0
-32910 32826 0
-32826 -122 0
-32911 142 0
-142 32911 -32824 0
-176 32912 0
-178 32912 0
-32913 32829 0
-32912 -32829 32913 0
-158 -32829 0
-164 -32829 0
-169 -32829 0
-173 -32829 0
-32914 32827 0
-32914 178 0
-178 32914 -32827 0
194 -32915 200 205 209 212 214 187 0
32915 -212 0
32915 -214 0
-32916 32832 0
-32916 32915 0
-32832 -32915 32916 0
-194 -32832 0
-200 -32832 0
-205 -32832 0
-209 -32832 0
-32917 32830 0
-32917 214 0
-32830 32917 -214 0
230 -32918 236 241 245 248 250 223 0
-248 32918 0
-250 32918 0
-32919 32835 0
-32919 32918 0
-32918 -32835 32919 0
-230 -32835 0
-236 -32835 0
-241 -32835 0
-245 -32835 0
-32920 32833 0
-32920 250 0
-250 32920 -32833 0
266 -32921 272 277 281 284 286 259 0
-284 32921 0
32921 -286 0
-32922 32838 0
-32922 32921 0
-32838 32922 -32921 0
-266 -32838 0
-272 -32838 0
-277 -32838 0
-281 -32838 0
-32923 32836 0
-32923 286 0
-286 32923 -32836 0
302 -32924 308 313 317 320 322 295 0
32924 -320 0
-322 32924 0
-32925 32841 0
-32925 32924 0
-32841 32925 -32924 0
-302 -32841 0
-308 -32841 0
-313 -32841 0
-317 -32841 0
-32926 32839 0
-32926 322 0
-322 -32839 32926 0
32927 -356 0
-358 32927 0
-32928 32844 0
-32927 -32844 32928 0
-338 -32844 0
-344 -32844 0
-349 -32844 0
-353 -32844 0
-32929 32842 0
-32929 358 0
-358 -32842 32929 0
374 -32930 380 385 389 392 394 367 0
-374 32930 0
32930 -380 0
32930 -385 0
32930 -389 0
-392 32930 0
32930 -394 0
-32931 32847 0
32931 -32847 -32930 0
-374 -32847 0
-380 -32847 0
-385 -32847 0
-389 -32847 0
-32932 32845 0
-32932 394 0
-394 -32845 32932 0
410 -32933 416 421 425 428 430 403 0
-410 32933 0
-416 32933 0
-421 32933 0
-425 32933 0
-428 32933 0
32933 -430 0
-32934 32850 0
-32934 32933 0
-32933 -32850 32934 0
-410 -32850 0
-416 -32850 0
-421 -32850 0
-425 -32850 0
-32935 32848 0
-32935 430 0
-430 32935 -32848 0
446 -32936 452 457 461 464 466 439 0
32936 -464 0
32936 -466 0
-32937 32853 0
-32937 32936 0
-32853 32937 -32936 0
-446 -32853 0
-452 -32853 0
-457 -32853 0
-461 -32853 0
-32938 32851 0
-32938 466 0
-466 32938 -32851 0
482 -32939 488 493 497 500 502 475 0
-482 32939 0
-488 32939 0
-497 32939 0
32939 -500 0
-502 32939 0
-32940 32856 0
-32940 32939 0
-32856 32940 -32939 0
-482 -32856 0
-488 -32856 0
-493 -32856 0
-497 -32856 0
-32941 32854 0
32942 -536 0
32942 -538 0
-32943 32859 0
-32942 32943 -32859 0
-518 -32859 0
-524 -32859 0
-529 -32859 0
-533 -32859 0
-32944 32857 0
-32945 554 565 560 572 574 569 547 0
32945 -572 0
32945 -574 0
-32946 32945 0
-32862 -32945 32946 0
-32862 -554 0
-32862 -560 0
-32862 -565 0
-32862 -569 0
-32947 32860 0
32904 32907 32910 32913 32916 32919 32922 32925 32928 32931 32934 32937 32940 32943 32946 32901 0
-32913 32952 0
-32916 32953 0
-32952 32953 0
-32952 -32916 0
-32919 32954 0
-32953 32954 0
-32953 -32919 0
-32922 32955 0
-32954 32955 0
-32954 -32922 0
-32925 32956 0
-32955 32956 0
-32925 -32955 0
-32928 32957 0
-32956 32957 0
-32928 -32956 0
32958 -32931 0
-32957 32958 0
-32957 -32931 0
-32934 32959 0
32959 -32958 0
-32958 -32934 0
-32937 32960 0
32960 -32959 0
-32937 -32959 0
32961 -32940 0
32961 -32960 0
-32940 -32960 0
-32943 32962 0
32962 -32961 0
-32943 -32961 0
-32946 -32962 0
32902 -32963 32935 32905 32908 32911 32941 32917 32932 32914 32920 32923 32926 32929 32938 32944 32947 0
32963 -32902 0
32963 -32905 0
32963 -32908 0
32963 -32911 0
-32914 32963 0
32963 -32917 0
-32920 32963 0
32963 -32923 0
32963 -32926 0
32963 -32929 0
-32932 32963 0
32963 -176 -32829 0
32963 -212 -32832 0
-248 32963 -32835 0
-284 32963 -32838 0
32963 -320 -32841 0
-356 32963 -32844 0
32963 -392 -32847 0
-428 32963 -32850 0
32963 -464 -32853 0
32963 -500 -32856 0
32963 -536 -32859 0
32963 -32862 -572 0
32964 16140 0
32976 16141 0
32976 -32964 0
32977 16141 -32964 0
32988 16142 0
32988 -32976 0
32989 -32977 0
32989 16142 -32976 0
16142 32990 -32977 0
33000 -32988 0
33001 -32989 0
-32990 33002 0
33001 16143 -32988 0
33002 -32989 16143 0
33003 -32990 16143 0
33013 -33001 0
33014 -33002 0
33015 -33003 0
33013 16144 -33000 0
16144 33014 -33001 0
33015 16144 -33002 0
16144 -33003 33016 0
33026 -33014 0
33027 -33015 0
-33016 33028 0
33026 16145 -33013 0
33027 16145 -33014 0
-33015 16145 33028 0
-33016 16145 33029 0
33039 -33027 0
33040 -33028 0
-33029 33041 0
33039 16146 -33026 0
33040 16146 -33027 0
33041 -33028 16146 0
-33029 33042 16146 0
33052 -33040 0
33053 -33041 0
-33042 33054 0
33052 16147 -33039 0
33053 -33040 16147 0
-33041 33054 16147 0
-33042 33055 16147 0
33065 -33053 0
-33054 33066 0
-33055 33067 0
33065 -33052 16148 0
33066 -33053 16148 0
-33054 33067 16148 0
-33055 33068 16148 0
33078 -33066 0
-33067 33079 0
-33068 33080 0
33078 -33065 16149 0
33079 -33066 16149 0
33080 -33067 16149 0
-33068 33081 16149 0
33091 -33079 0
33092 -33080 0
-33081 33093 0
33091 -33078 16150 0
33092 -33079 16150 0
33093 -33080 16150 0
-33081 33094 16150 0
33104 -33092 0
33105 -33093 0
-33094 33106 0
33104 -33091 16151 0
33105 -33092 16151 0
-33093 33106 16151 0
-33094 16151 33107 0
-33105 33117 0
-33106 33118 0
-33107 33119 0
33117 -33104 16152 0
-33105 33118 16152 0
-33106 16152 33119 0
-33118 33130 0
-33119 33131 0
-33117 33130 16153 0
-33118 16153 33131 0
-33131 33143 0
-33130 16154 33143 0
-33107 16152 0
-33119 16153 0
-33131 16154 0
-33143 16155 0
33144 16216 0
33156 16217 0
33156 -33144 0
33157 16217 -33144 0
33168 -33156 0
33169 -33157 0
33169 16218 -33156 0
33170 16218 -33157 0
33181 -33169 0
33182 -33170 0
33181 16219 -33168 0
33182 16219 -33169 0
33183 -33170 16219 0
33193 -33181 0
33194 -33182 0
-33183 33195 0
33194 16220 -33181 0
33195 16220 -33182 0
-33183 33196 16220 0
33206 -33194 0
-33195 33207 0
-33196 33208 0
33206 16221 -33193 0
33207 -33194 16221 0
-33195 33208 16221 0
-33196 33209 16221 0
-33207 33219 0
-33208 33220 0
-33209 33221 0
33219 -33206 16222 0
-33207 33220 16222 0
-33208 33221 16222 0
-33209 33222 16222 0
-33220 33232 0
-33221 33233 0
-33222 33234 0
-33219 33232 16223 0
-33220 33233 16223 0
-33221 33234 16223 0
-33222 33235 16223 0
-33233 33245 0
-33234 33246 0
-33235 33247 0
-33232 33245 16224 0
-33233 33246 16224 0
-33234 33247 16224 0
-33235 33248 16224 0
-33246 33258 0
-33247 33259 0
-33248 33260 0
-33245 33258 16225 0
-33246 33259 16225 0
-33247 33260 16225 0
33271 -33259 0
-33260 33272 0
-33258 33271 16226 0
-33259 33272 16226 0
-33260 33273 16226 0
-33272 33284 0
-33273 33285 0
-33271 33284 16227 0
-33272 33285 16227 0
-33273 33286 16227 0
-33285 33297 0
-33286 33298 0
-33284 16228 33297 0
-33285 16228 33298 0
-33286 16228 33299 0
-33298 33310 0
-33299 33311 0
-33297 33310 16229 0
-33298 16229 33311 0
-33311 33323 0
-33310 16230 33323 0
-33299 16229 0
-33311 16230 0
-33323 16231 0
33534 16338 0
33546 16339 0
33546 -33534 0
33547 16339 -33534 0
33559 -33547 0
33559 16340 -33546 0
33560 -33547 16340 0
33571 -33559 0
33572 -33560 0
33572 -33559 16341 0
33573 -33560 16341 0
33583 -33571 0
33584 -33572 0
-33573 33585 0
33584 16342 -33571 0
33585 16342 -33572 0
-33573 33586 16342 0
33596 -33584 0
33597 -33585 0
-33586 33598 0
33596 -33583 16343 0
33597 -33584 16343 0
-33585 33598 16343 0
-33586 33599 16343 0
33609 -33597 0
-33598 33610 0
-33599 33611 0
33609 -33596 16344 0
-33597 33610 16344 0
-33598 33611 16344 0
-33599 33612 16344 0
-33610 33622 0
-33611 33623 0
-33612 33624 0
-33609 33622 16345 0
-33610 33623 16345 0
-33611 33624 16345 0
-33612 33625 16345 0
33635 -33623 0
-33624 33636 0
-33625 33637 0
-33622 33635 16346 0
-33623 33636 16346 0
-33624 33637 16346 0
-33625 33638 16346 0
-33636 33648 0
-33637 33649 0
-33638 33650 0
-33635 33648 16347 0
-33636 33649 16347 0
-33637 33650 16347 0
-33638 33651 16347 0
33661 -33649 0
-33650 33662 0
-33651 33663 0
-33648 33661 16348 0
-33649 33662 16348 0
-33650 33663 16348 0
-33651 33664 16348 0
33674 -33662 0
-33663 33675 0
-33664 33676 0
-33661 33674 16349 0
-33662 33675 16349 0
-33663 33676 16349 0
-33664 16349 33677 0
-33675 33687 0
-33676 33688 0
-33677 33689 0
-33674 16350 33687 0
-33675 16350 33688 0
-33676 16350 33689 0
-33688 33700 0
-33689 33701 0
-33687 33700 16351 0
-33688 16351 33701 0
-33701 33713 0
-33700 16352 33713 0
-33677 16350 0
-33689 16351 0
-33701 16352 0
-33713 16353 0
33939 -16140 0
33939 -16216 0
33939 -16338 0
33940 -16141 0
-16217 33940 0
33940 -16339 0
33941 -16142 0
-16218 33941 0
-16294 33941 0
-16340 33941 0
33942 -16143 0
-16219 33942 0
-16341 33942 0
-16144 33943 0
-16220 33943 0
-16342 33943 0
33944 -16145 0
-16221 33944 0
-16297 33944 0
-16343 33944 0
-16146 33945 0
-16222 33945 0
-16298 33945 0
-16344 33945 0
-16147 33946 0
-16223 33946 0
-16299 33946 0
-16345 33946 0
-16421 33946 0
-16148 33947 0
-16224 33947 0
-16346 33947 0
-16422 33947 0
-33948 16225 16423 16347 16149 16301 0
-16149 33948 0
-16225 33948 0
-16347 33948 0
-16423 33948 0
-16150 33949 0
-16226 33949 0
-16348 33949 0
-16151 33950 0
-16227 33950 0
-16349 33950 0
-16425 33950 0
-16152 33951 0
-16228 33951 0
-16350 33951 0
-16426 33951 0
-16153 33952 0
-16229 33952 0
-16351 33952 0
-16427 33952 0
33953 -16154 0
-16230 33953 0
-16352 33953 0
33954 -16155 0
-16231 33954 0
-16353 33954 0
33955 -33939 0
33960 -33940 0
33960 -33955 0
33961 -33940 -33955 0
33965 -33941 0
33965 -33960 0
33966 -33961 0
33966 -33941 -33960 0
33967 -33941 -33961 0
33970 -33942 0
33970 -33965 0
33971 -33966 0
-33967 33972 0
33971 -33942 -33965 0
33972 -33942 -33966 0
-33967 -33942 33973 0
33975 -33943 0
33975 -33970 0
33976 -33971 0
33977 -33972 0
-33973 33978 0
33976 -33943 -33970 0
33977 -33943 -33971 0
-33943 -33972 33978 0
-33973 -33943 33979 0
33980 -33944 0
33980 -33975 0
33981 -33976 0
33982 -33977 0
-33978 33983 0
-33979 33984 0
33981 -33944 -33975 0
33982 -33976 -33944 0
-33977 33983 -33944 0
-33978 33984 -33944 0
33985 -33980 0
33986 -33981 0
33987 -33982 0
-33983 33988 0
-33984 33989 0
33986 -33945 -33980 0
33987 -33945 -33981 0
-33945 -33982 33988 0
-33945 -33983 33989 0
33990 -33946 0
33990 -33985 0
33991 -33986 0
33992 -33987 0
-33988 33993 0
-33989 33994 0
33991 -33946 -33985 0
-33946 33992 -33986 0
-33946 -33987 33993 0
-33946 -33988 33994 0
33995 -33990 0
33996 -33991 0
33997 -33992 0
-33993 33998 0
-33994 33999 0
33996 -33947 -33990 0
-33947 33997 -33991 0
-33947 -33992 33998 0
-33947 -33993 33999 0
34001 -33996 0
34002 -33997 0
-33998 34003 0
-33999 34004 0
34001 -33948 -33995 0
34002 -33948 -33996 0
-33948 -33997 34003 0
-33948 -33998 34004 0
34006 -34001 0
34007 -34002 0
-34003 34008 0
-34004 34009 0
-33949 34007 -34001 0
-33949 -34002 34008 0
-33949 -34003 34009 0
34011 -34006 0
34012 -34007 0
-34008 34013 0
-34009 34014 0
-33950 34012 -34006 0
-33950 -34007 34013 0
-33950 -34008 34014 0
34017 -34012 0
-34013 34018 0
-34014 34019 0
34017 -33951 -34011 0
-34012 -33951 34018 0
-34013 -33951 34019 0
-34018 34023 0
-34019 34024 0
-33952 -34017 34023 0
-33952 -34018 34024 0
-34024 34029 0
-34023 -33953 34029 0
-33979 -33944 0
-33984 -33945 0
-33989 -33946 0
-33994 -33947 0
-33999 -33948 0
-33949 -34004 0
-34009 -33950 0
-34014 -33951 0
-33952 -34019 0
-33953 -34024 0
-34029 -33954 0
