p cnf 32 494
29 -23 27 -22 28 0
-28 21 -20 23 0
21 -20 -26 23 0
-29 -19 -18 22 31 0
-20 -16 -30 -23 -25 0
17 -16 -23 18 0
18 -16 31 17 26 0
-16 -23 22 18 0
-28 -15 -20 23 0
32 -16 -21 -13 0
-29 -12 28 -17 13 0
-20 -12 14 22 28 0
-32 13 -11 16 28 0
27 -23 14 -18 -11 0
-31 30 -11 23 28 0
-15 24 23 -16 -10 0
-14 -10 -21 11 17 0
-10 -20 -18 13 0
-10 31 23 -26 0
-10 24 23 31 0
-31 26 10 -9 -23 0
-9 -23 -17 10 12 0
16 12 10 -9 18 0
26 -23 10 16 -9 0
-27 -26 -9 19 14 0
-12 18 31 -8 14 0
-32 -12 18 31 -8 0
-32 13 -11 18 -8 0
-8 18 22 -11 0
-28 15 -8 -30 -10 0
-10 -8 18 -24 26 0
30 -23 -9 -8 -13 0
-31 -8 -23 10 -9 0
-8 -19 18 9 0
-8 18 22 9 0
29 -30 31 -8 14 0
-31 -8 -22 19 17 0
-32 -8 18 -24 31 0
-8 18 -24 -19 0
-31 -8 -23 19 -22 0
-8 26 -24 27 23 0
-7 -30 23 8 -19 0
16 -7 -13 27 10 0
-14 -7 -23 24 13 0
-14 21 -23 -7 13 0
-7 26 -28 -17 14 0
-7 -23 22 -26 24 0
-28 -12 -18 -6 0
26 -20 -11 28 -6 0
12 -6 23 -11 -31 0
-31 -6 -11 16 23 0
-10 31 -6 -18 0
-10 -18 -6 -12 0
-10 -18 -6 13 0
-9 -30 14 -6 19 0
29 7 -6 -10 -14 0
7 -10 13 -6 -27 0
8 -6 -17 31 0
-12 -10 -18 9 -6 0
-27 -10 13 -6 9 0
27 12 -6 32 -31 0
-19 30 -5 -24 0
-32 -19 -5 25 30 0
-16 18 -5 -23 0
31 -14 -5 23 22 0
-10 -24 -5 -13 14 0
-10 -7 -5 25 -9 0
-28 -18 -5 9 13 0
-19 11 -5 25 -24 0
-19 18 -5 -23 0
-31 -4 -18 23 20 0
28 -4 -13 15 18 0
-12 -4 -26 13 24 0
-11 -4 -31 -21 0
-11 -4 -14 -31 0
29 -28 -30 -8 -4 0
-4 -8 29 -19 0
-4 5 -13 -23 30 0
-4 -17 -13 5 18 0
-4 5 15 -23 30 0
-11 -4 7 -21 23 0
-21 -27 19 -18 -3 0
-12 -3 23 -28 0
9 -3 -17 -8 16 0
-3 31 -30 26 -8 0
-3 13 8 -6 0
-3 15 8 -19 -6 0
-3 -6 8 25 0
-3 29 -30 -4 -8 0
-12 -3 4 -28 0
-12 -3 4 23 0
-6 -3 4 -28 0
-6 -3 13 4 0
-3 13 7 4 -31 0
-3 32 -19 4 10 0
-3 -28 13 4 0
-3 -22 4 13 -31 0
-3 -16 4 13 -31 0
-31 -3 13 17 4 0
-26 -3 4 23 0
24 -3 23 4 0
24 -3 4 -28 0
-3 11 5 -9 0
-3 31 6 29 -27 0
-3 -18 6 -17 -21 0
-3 13 7 17 -31 0
-3 -12 8 23 0
-3 13 8 -28 0
-3 13 14 8 0
-3 13 8 23 0
-3 -28 23 8 0
-3 11 13 23 0
-3 12 26 -13 -24 0
-3 13 23 -28 0
-3 -27 31 -25 19 0
-29 -3 23 -28 0
-29 -3 25 24 0
-29 -2 31 -18 0
27 -2 31 -18 0
-2 26 -19 -32 -14 0
20 -29 31 -2 -13 0
27 -2 -18 -12 0
-12 -2 -22 19 0
-2 -10 31 -18 0
-2 -18 -10 -12 0
-10 -2 -22 19 0
-9 -2 -11 -27 24 0
-2 -19 -8 -32 29 0
-2 22 13 -8 15 0
22 -2 13 18 -8 0
-21 15 -2 -8 23 0
-2 26 23 15 -8 0
-2 8 -7 -30 0
8 -2 31 -7 0
-2 6 -29 -4 14 0
-12 8 -2 -3 0
-2 8 14 -3 0
21 -3 -26 -2 0
-2 -3 25 21 0
-2 -9 3 23 15 0
-31 3 23 -6 -2 0
7 -2 23 3 10 0
-2 30 23 10 3 0
-31 -2 23 3 15 0
-31 -2 23 3 30 0
27 5 -2 -22 -23 0
-2 -10 -22 5 0
-7 5 -2 -13 -12 0
-10 5 -2 8 0
-2 11 -29 5 0
6 -22 28 32 -2 0
-2 8 -10 -12 0
-2 -10 31 8 0
8 -2 16 -30 0
-2 8 25 -30 0
8 -2 31 25 0
27 -2 31 8 0
13 -14 24 -2 10 0
-27 -2 10 -25 24 0
11 -2 19 16 0
12 -14 -2 -31 30 0
27 -2 -22 19 -23 0
-29 -2 25 31 0
-1 -32 -26 27 0
-1 31 -26 27 0
-20 -1 -28 23 0
-20 -1 -26 23 0
20 -1 -18 32 -31 0
17 -1 -23 -15 -27 0
-14 -1 29 19 18 0
-1 32 -18 -13 -31 0
-27 -1 14 17 -13 0
-12 -1 27 -22 0
-12 -1 27 19 0
-1 -10 26 12 -24 0
-1 22 -23 -30 -10 0
32 -23 22 -1 -10 0
-20 -1 -14 16 -9 0
-1 -8 -30 14 -10 0
-16 -1 22 -23 -7 0
-1 21 -23 -7 -10 0
-1 -7 22 -23 -10 0
-1 -18 -7 -31 12 0
-1 -7 21 17 12 0
-27 -1 -23 -7 17 0
-1 -28 -6 -32 0
-1 31 -17 -6 0
11 -1 -32 -6 0
-1 20 -18 -4 32 0
-1 -12 -3 23 0
-1 27 -9 -3 0
-12 -1 -3 -6 0
-1 13 -3 23 0
-1 -3 23 18 -26 0
-1 -3 24 23 0
-1 -28 24 -3 0
-1 -2 -11 -31 12 0
-1 -2 -11 -31 22 0
-1 -2 -19 -31 3 0
-20 -1 2 -14 23 0
-14 -1 2 18 23 0
-1 18 2 -17 -9 0
-21 -1 2 -9 -14 0
-1 10 2 -17 -9 0
-21 -1 2 -9 18 0
-1 -6 2 -17 -32 0
-1 29 2 -17 -6 0
-14 -1 2 -6 -21 0
-14 -1 2 -6 7 0
-14 -1 23 -5 2 0
-1 13 -5 2 -21 0
-21 -1 2 4 -9 0
-21 -1 2 13 4 0
-1 -28 2 -17 10 0
-1 18 2 23 24 0
32 -1 -31 -29 3 0
-1 20 3 5 32 0
-1 17 25 14 3 0
27 -1 4 -9 0
-1 -26 4 -6 0
-1 -12 4 -6 0
20 -1 -18 -27 5 0
20 -1 -18 -27 6 0
-1 6 -23 -19 -10 0
-1 -32 8 -17 0
-1 31 8 -17 0
27 -1 8 -12 0
-1 31 23 8 0
-1 31 8 27 0
-20 -1 11 23 0
11 -1 -32 19 0
32 -1 -18 12 -31 0
20 -1 -18 12 -31 0
-1 -31 -18 -13 12 0
-1 13 -28 23 0
29 -1 19 18 16 0
-1 27 16 31 0
-1 27 -32 19 0
-1 -26 23 31 0
-1 24 23 31 0
-1 31 24 27 0
-22 1 23 -17 30 0
20 -23 -13 1 28 0
21 -16 1 -11 14 0
21 32 -24 1 -11 0
-15 -16 -29 1 -8 0
1 -23 28 -13 -8 0
-22 1 23 -6 10 0
-6 19 23 10 1 0
18 30 -5 1 0
-4 5 1 -13 28 0
-4 5 -13 1 -7 0
6 -4 1 28 -13 0
-2 -18 1 -24 -23 0
-13 -23 28 1 -2 0
20 -23 -13 1 -2 0
-13 -4 -29 -2 1 0
21 -2 -13 1 -4 0
-7 -4 -29 -2 1 0
-2 -4 1 -23 5 0
-2 -4 5 1 -13 0
-2 6 -13 1 -4 0
-2 -4 14 -23 1 0
-24 -2 1 -23 5 0
-13 5 -23 1 -2 0
-2 5 14 1 -23 0
-3 31 2 1 19 0
3 -23 -24 1 -18 0
26 -23 -18 1 3 0
26 3 1 22 -18 0
3 -23 -11 1 -18 0
-8 -23 3 1 -18 0
-8 3 -13 -23 1 0
-15 12 1 -8 3 0
-7 26 1 -15 3 0
-4 28 1 3 -24 0
-24 -4 3 1 -23 0
-4 26 -23 1 3 0
-4 -13 3 1 -23 0
22 -4 3 -13 1 0
-4 28 1 -13 3 0
-4 28 1 3 -10 0
-4 -7 3 1 -13 0
6 -4 1 -13 3 0
6 -4 1 28 3 0
-4 12 3 1 -23 0
22 -4 1 3 -24 0
6 26 1 3 -15 0
6 -8 1 3 -13 0
15 19 -17 4 1 0
-20 15 19 1 4 0
-32 18 30 4 1 0
25 5 1 -23 28 0
-16 -19 1 28 5 0
1 -23 28 -13 5 0
21 6 1 32 -11 0
7 -22 23 1 10 0
7 -21 23 1 10 0
7 -25 18 1 0
-22 1 23 10 -32 0
-20 19 10 1 31 0
-19 -30 28 1 12 0
12 -29 25 -30 1 0
15 -21 23 -17 1 0
-20 -21 19 1 15 0
-22 16 23 1 30 0
-14 -27 23 -20 2 0
-14 18 23 -27 2 0
17 -24 -13 2 0
-12 -15 -23 -26 2 0
32 -29 2 -23 -10 0
-10 -24 14 2 -13 0
-10 32 -13 14 2 0
-8 24 2 30 -16 0
-25 30 -8 2 -9 0
-28 -17 2 -6 -27 0
7 15 2 -27 -6 0
-27 -14 -5 23 2 0
-28 13 2 -5 23 0
-22 -4 2 -18 20 0
-23 -3 2 -30 31 0
-3 -23 31 2 -15 0
-3 -18 -13 -30 2 0
-18 -3 2 -13 19 0
-3 19 2 -30 -13 0
-3 -10 2 -30 -13 0
-3 -7 2 -23 -10 0
-3 -18 2 -30 -4 0
-3 -23 31 2 6 0
-3 6 -10 2 -23 0
9 -3 2 -23 -15 0
29 26 2 3 -17 0
-19 -25 2 4 23 0
-19 24 2 4 23 0
-31 -8 2 -9 4 0
-14 7 2 4 -6 0
-14 23 2 4 -5 0
-8 24 2 -5 4 0
13 23 2 4 -5 0
-28 23 2 4 -5 0
-25 23 2 4 -5 0
24 23 4 2 -5 0
-14 7 2 4 -9 0
6 8 2 -23 11 0
9 6 2 -23 0
7 -27 2 -16 13 0
8 19 2 28 -18 0
-15 8 -23 2 -26 0
-18 -22 -13 2 8 0
32 8 2 -13 -18 0
8 11 2 -13 -18 0
32 -23 2 9 0
9 -24 -13 2 0
32 9 2 -13 0
15 -19 10 -11 2 0
11 -13 2 14 25 0
-12 -30 2 -23 11 0
29 26 2 13 -21 0
-28 -20 13 23 2 0
-20 13 23 -27 2 0
-28 13 2 23 -27 0
-31 29 2 13 26 0
-15 16 2 14 28 0
-31 -19 3 30 0
29 -20 -17 -24 3 0
-9 13 3 24 15 0
21 3 -9 13 20 0
-7 -15 -30 -17 3 0
3 -6 23 14 -9 0
-31 27 3 -6 23 0
27 -31 3 -6 -29 0
-14 16 -5 3 19 0
-25 -15 3 -5 -8 0
-15 -8 3 -5 -18 0
-14 -8 -5 3 -27 0
-14 -15 3 -5 -8 0
6 16 -5 3 19 0
-18 9 3 -5 31 0
29 16 3 -5 19 0
-4 -17 31 22 3 0
16 -4 3 -13 6 0
6 -4 3 12 28 0
22 -4 3 16 31 0
21 11 4 3 8 0
-29 18 4 30 3 0
7 -19 3 18 0
-31 30 3 -26 8 0
17 -16 10 3 0
-26 3 10 30 13 0
27 -19 3 13 18 0
13 30 3 18 -19 0
21 13 3 27 18 0
20 3 30 -26 13 0
16 3 -24 -23 19 0
26 16 -23 19 3 0
17 -19 3 18 0
-31 20 3 32 0
20 3 25 -26 30 0
-31 3 25 23 30 0
-15 24 4 23 0
-15 -28 4 24 0
-10 22 18 4 -23 0
-28 -12 4 -6 0
-25 -18 -5 4 -8 0
17 -18 4 -5 -8 0
-27 6 -32 4 30 0
-31 13 -22 -30 4 0
-15 13 -30 -31 4 0
13 -15 4 23 0
13 -30 4 23 0
17 -25 4 -26 23 0
27 -25 -21 4 20 0
-30 -26 4 23 0
30 5 -23 15 -13 0
15 18 -13 -26 5 0
21 5 15 30 -13 0
-12 5 15 30 -13 0
-27 -25 -11 5 19 0
-9 -23 -24 5 -17 0
30 -23 -9 -13 5 0
18 5 -13 -17 -9 0
-11 5 16 -8 13 0
13 20 16 -8 5 0
5 -32 -6 8 0
-27 6 -21 5 -18 0
-14 6 -18 20 5 0
15 18 25 5 8 0
29 -27 5 -18 10 0
28 5 18 -26 15 0
-27 6 -21 30 0
29 -27 -18 20 6 0
-14 -16 -23 6 0
-12 -27 -23 6 -26 0
-29 6 24 12 -8 0
-25 -13 16 -7 6 0
32 6 18 -22 -7 0
6 -23 31 11 -28 0
6 -22 18 19 -31 0
7 -22 23 -24 -13 0
7 -21 14 -13 23 0
29 7 19 -10 30 0
7 -23 -9 30 -8 0
7 -31 -23 19 -8 0
-31 7 11 13 -27 0
-28 31 18 -24 7 0
-25 8 24 -23 -27 0
-28 13 23 8 0
20 -21 18 -30 8 0
21 -25 24 -23 8 0
-27 9 23 13 -10 0
-25 -14 10 9 0
30 9 28 10 0
-25 -14 9 12 0
-27 13 23 9 -30 0
-19 18 -23 9 0
22 9 -23 18 0
-27 30 10 28 0
-27 -25 10 28 0
29 -27 -18 24 10 0
26 -23 10 -17 25 0
15 -23 -13 10 16 0
-27 -32 28 10 -12 0
-27 -12 10 28 -15 0
-12 24 28 10 -27 0
-30 10 25 -11 -17 0
-17 -23 25 10 12 0
-17 -23 10 14 12 0
-31 26 10 14 -23 0
10 -23 -24 15 16 0
29 17 10 -27 0
-25 -27 10 19 31 0
-31 -20 11 13 -27 0
13 11 23 -20 0
-31 -18 23 12 20 0
29 12 23 -18 20 0
-14 -16 12 -25 0
-18 -22 -13 12 23 0
12 -18 -13 19 23 0
-31 -18 -13 12 23 0
29 12 -13 -18 23 0
-28 13 23 -20 0
-20 -15 -18 13 0
-15 13 -30 23 0
-29 -14 -23 13 -25 0
-25 13 -29 -23 18 0
27 -23 14 -18 30 0
-32 27 14 -18 0
-32 -29 14 24 0
27 -32 14 24 0
-16 -30 19 15 -25 0
32 15 22 -16 19 0
-28 17 -23 18 31 0
17 -19 -23 18 0
-20 -25 18 -29 -23 0
