p cnf 7632 1406
-5152 0
-4262 0
-3372 0
-2482 0
-702 0
-5147 5152 0
-5142 5147 0
-5137 5142 0
-5132 5137 0
-5127 5132 0
-5122 5127 0
-5117 5122 0
-5112 5117 0
-5107 5112 0
-5102 5107 0
-5097 5102 0
-5092 5097 0
-5087 5092 0
-5082 5087 0
-5077 5082 0
-5072 5077 0
-5067 5072 0
-5062 5067 0
-5057 5062 0
-5052 5057 0
-5047 5052 0
-5042 5047 0
-5037 5042 0
-5032 5037 0
-5027 5032 0
-5022 5027 0
-5017 5022 0
-5012 5017 0
-4995 5000 0
-4990 4995 0
-4985 4990 0
-4980 4985 0
-4975 4980 0
-4967 4970 0
-4965 4967 0
-4963 4964 0
-4257 4262 0
-4252 4257 0
-4247 4252 0
-4242 4247 0
-4237 4242 0
-4232 4237 0
-4227 4232 0
-4222 4227 0
-4217 4222 0
-4212 4217 0
-4207 4212 0
-4202 4207 0
-4197 4202 0
-4192 4197 0
-4187 4192 0
-4182 4187 0
-4177 4182 0
-4172 4177 0
-4167 4172 0
-4162 4167 0
-4157 4162 0
-4152 4157 0
-4147 4152 0
-4142 4147 0
-4137 4142 0
-4132 4137 0
-4127 4132 0
-4122 4127 0
-4117 4122 0
-4112 4117 0
-4100 4105 0
-4095 4100 0
-4090 4095 0
-4085 4090 0
4089 -4084 0
4084 -4080 0
-4077 4080 0
-4075 4077 0
-3367 3372 0
-3362 3367 0
-3357 3362 0
-3352 3357 0
-3347 3352 0
-3342 3347 0
-3337 3342 0
-3332 3337 0
-3327 3332 0
-3322 3327 0
-3317 3322 0
-3312 3317 0
-3307 3312 0
-3302 3307 0
-3297 3302 0
-3292 3297 0
-3287 3292 0
-3282 3287 0
-3277 3282 0
-3272 3277 0
-3267 3272 0
-3262 3267 0
-3257 3262 0
-3252 3257 0
-3247 3252 0
-3242 3247 0
-3237 3242 0
-3232 3237 0
-3227 3232 0
-3222 3227 0
-3217 3222 0
-3212 3217 0
-3201 3206 0
-3200 3205 0
-3196 3201 0
-3195 3200 0
-3188 3191 0
-3187 3190 0
3189 -3186 0
-3185 3187 0
3186 -3184 0
3184 -3183 0
-2477 2482 0
-2472 2477 0
-2467 2472 0
-2462 2467 0
-2457 2462 0
-2452 2457 0
-2447 2452 0
-2442 2447 0
-2437 2442 0
-2432 2437 0
-2427 2432 0
-2422 2427 0
-2417 2422 0
-2412 2417 0
-2407 2412 0
-2402 2407 0
-2397 2402 0
-2392 2397 0
-2387 2392 0
-2382 2387 0
-2377 2382 0
-2372 2377 0
-2367 2372 0
-2362 2367 0
-2357 2362 0
-2352 2357 0
-2347 2352 0
-2342 2347 0
-2337 2342 0
-2332 2337 0
-2327 2332 0
-2322 2327 0
-2317 2322 0
-2312 2317 0
-2298 2301 0
-2297 2300 0
-2295 2297 0
-697 702 0
-692 697 0
-687 692 0
-682 687 0
-677 682 0
-672 677 0
-667 672 0
-662 667 0
-657 662 0
-652 657 0
-647 652 0
-642 647 0
-637 642 0
-632 637 0
-627 632 0
-622 627 0
-617 622 0
-612 617 0
-607 612 0
-602 607 0
-597 602 0
400 -392 0
392 -384 0
384 -376 0
376 -368 0
573 -368 0
-360 368 0
-352 360 0
-344 352 0
-336 344 0
-328 336 0
-320 328 0
-312 320 0
-304 312 0
-296 304 0
-288 296 0
-280 288 0
-272 280 0
-264 272 0
-256 264 0
2293 258 0
3183 259 0
260 4073 0
261 4963 0
3184 267 0
4074 268 0
269 4964 0
3186 275 0
3189 283 0
349 -5006 5012 0
-5000 5006 341 0
-4970 293 4975 0
277 -4964 4967 0
-4963 269 4965 0
340 -4111 4117 0
332 -4106 4112 0
-4105 4111 332 0
-4100 4106 324 0
308 -4089 4095 0
300 -4084 4090 0
292 -4080 4085 0
276 -4074 4077 0
-4073 268 4075 0
323 -3211 3217 0
315 -3206 3212 0
-3205 3211 315 0
-3200 3206 307 0
-3195 3201 299 0
-3194 299 3200 0
-3191 291 3196 0
-3190 291 3195 0
3194 291 -3189 0
283 3190 -3186 0
-3185 275 3188 0
275 3187 -3184 0
3185 -3183 267 0
306 -2311 2317 0
298 -2306 2312 0
-2305 2311 298 0
-2301 2306 290 0
-2300 2305 290 0
274 -2295 2298 0
266 -2293 2295 0
-400 -591 597 0
591 -585 -392 0
585 -579 -384 0
579 -376 -573 0
-475 -474 -471 0
22 23 24 0
27 25 26 0
28 30 29 0
32 31 33 0
42 40 41 0
45 43 44 0
46 47 48 0
56 55 57 0
60 58 59 0
68 67 69 0
85 257 265 0
86 257 273 0
87 257 281 0
88 257 289 0
88 258 290 0
89 258 298 0
90 258 306 0
103 273 265 0
104 265 281 0
105 265 289 0
105 266 290 0
106 266 298 0
107 267 307 0
108 267 315 0
109 267 323 0
109 268 324 0
110 268 332 0
111 269 341 0
112 269 349 0
120 281 273 0
120 274 282 0
121 273 289 0
121 274 290 0
122 274 298 0
123 275 307 0
124 275 315 0
127 277 341 0
128 277 349 0
136 281 289 0
136 282 290 0
137 282 298 0
138 282 306 0
283 138 307 0
139 283 315 0
140 284 324 0
141 284 332 0
142 285 341 0
143 285 349 0
151 290 298 0
152 290 306 0
152 291 307 0
153 314 290 0
291 153 315 0
154 291 323 0
154 292 324 0
155 292 332 0
156 293 341 0
157 293 349 0
165 298 306 0
165 299 307 0
166 314 298 0
166 299 315 0
167 300 324 0
168 300 332 0
169 300 340 0
169 301 341 0
170 301 349 0
178 314 306 0
178 307 315 0
179 307 323 0
179 308 324 0
180 308 332 0
181 309 341 0
182 309 349 0
190 315 323 0
190 316 324 0
191 331 315 0
191 316 332 0
317 191 333 0
192 316 340 0
192 317 341 0
193 317 349 0
201 331 323 0
201 324 332 0
202 324 340 0
202 325 341 0
203 325 349 0
211 332 340 0
333 341 211 0
348 212 332 0
333 212 349 0
333 357 213 0
348 220 340 0
341 220 349 0
356 221 340 0
341 357 221 0
356 348 228 0
357 228 349 0
365 229 349 0
365 357 235 0
-474 47 -46 48 0
369 368 -361 360 0
361 360 -353 352 0
353 -345 352 344 0
345 344 -337 336 0
337 336 -329 328 0
329 328 -321 320 0
321 -313 320 312 0
313 -305 312 304 0
305 -297 304 296 0
297 296 -289 288 0
-281 289 288 280 0
-273 281 280 272 0
-265 273 272 264 0
-257 265 264 256 0
-47 474 -46 -48 0
475 -47 -48 -46 0
47 474 -46 -48 0
-47 48 -46 474 0
471 -45 -44 43 0
471 -45 -43 44 0
471 -43 -44 45 0
370 -369 360 -362 368 -361 0
362 360 -353 352 -354 -361 0
354 -346 -345 344 352 -353 0
346 336 -338 -337 344 -345 0
338 328 -329 -330 336 -337 0
330 -322 -321 320 328 -329 0
322 -314 -313 312 320 -321 0
-306 314 -305 304 312 -313 0
-298 -297 306 296 304 -305 0
-290 -289 298 288 296 -297 0
-282 -281 -289 280 288 290 0
-273 -274 282 272 280 -281 0
-274 282 272 280 281 273 0
274 -266 264 272 265 273 0
266 -258 256 264 265 257 0
371 -369 -363 -362 -361 360 368 -370 0
363 -361 -355 -354 -353 352 360 -362 0
355 -347 -353 -346 -345 344 352 -354 0
347 -345 -339 -338 -337 336 344 -346 0
339 -337 -331 -330 -329 328 336 -338 0
-323 331 -329 -322 -321 320 328 -330 0
-315 -321 323 -314 -313 312 320 -322 0
-307 -306 -313 -314 -305 304 312 315 0
-298 -299 -305 307 -297 296 304 -306 0
-299 307 -297 296 -305 304 306 298 0
-291 299 -289 288 -297 296 298 290 0
-283 291 -289 280 282 288 -281 290 0
283 -275 273 272 -274 280 281 -282 0
275 -267 -274 264 -266 272 273 265 0
-259 266 256 267 264 265 257 258 0
259 22 23 25 27 258 42 257 0
259 22 23 41 26 258 27 257 0
259 42 24 40 258 22 27 257 0
267 40 22 26 41 266 25 265 0
259 22 27 41 258 42 26 257 0
266 44 22 268 43 29 265 28 0
259 258 24 42 23 40 26 257 0
259 40 24 41 25 27 258 257 0
259 42 24 40 258 26 27 257 0
268 266 43 24 44 30 28 265 0
269 267 31 26 25 265 58 32 0
269 265 31 59 27 58 25 267 0
269 267 60 31 27 59 32 265 0
269 58 59 33 27 267 31 265 0
285 282 60 40 41 48 46 283 0
285 283 59 48 41 40 47 282 0
283 285 40 42 58 48 46 282 0
283 285 46 40 42 59 58 282 0
285 42 40 282 60 59 47 283 0
283 285 42 41 46 48 282 59 0
285 283 282 48 41 58 47 42 0
285 282 42 58 59 46 48 283 0
29 22 23 26 28 40 25 55 43 0
28 22 23 26 30 45 57 40 25 0
30 22 25 23 26 29 40 44 56 0
46 22 23 32 31 26 40 58 25 0
40 22 48 31 25 26 33 23 60 0
47 40 22 33 26 25 59 32 23 0
45 22 23 42 30 28 25 55 27 0
22 42 31 27 32 23 46 59 25 0
23 33 25 31 27 22 48 58 42 0
47 22 23 32 42 60 25 33 27 0
45 40 25 23 42 22 28 43 55 0
56 22 23 42 44 43 40 25 29 0
57 22 23 25 45 42 44 40 30 0
58 46 22 31 48 23 42 40 25 0
47 46 40 42 23 22 59 25 32 0
60 42 23 22 47 48 40 25 33 0
45 28 22 41 30 23 26 27 56 0
44 29 22 26 23 30 27 41 55 0
60 22 31 23 32 41 26 27 46 0
22 23 33 31 59 26 48 27 41 0
22 32 26 27 23 33 47 41 58 0
45 22 23 43 26 40 41 28 57 0
55 43 22 26 41 23 40 44 29 0
45 22 23 40 44 41 26 56 30 0
60 46 22 23 48 26 40 31 41 0
46 22 23 41 47 40 58 26 32 0
47 22 23 40 41 59 33 26 48 0
28 22 23 42 41 43 45 27 56 0
46 42 22 41 23 27 59 48 31 0
46 42 22 41 23 47 32 27 60 0
58 42 22 23 41 27 47 48 33 0
28 22 32 31 23 67 46 43 29 0
28 22 31 48 30 23 67 45 33 0
45 46 22 67 43 48 23 28 31 0
68 46 22 23 47 45 43 32 28 0
30 69 22 23 29 31 44 46 32 0
30 22 31 23 29 48 44 68 33 0
30 29 22 44 23 47 33 67 32 0
44 46 22 23 47 43 29 67 32 0
30 44 48 31 46 23 45 68 22 0
45 47 46 32 69 22 44 23 30 0
67 22 23 44 47 48 45 30 33 0
28 55 25 24 22 41 44 26 29 0
28 43 41 24 22 25 30 57 26 0
56 45 24 25 22 30 41 29 26 0
58 47 41 22 31 24 32 26 25 0
33 24 26 25 31 22 41 60 46 0
41 33 25 24 32 22 48 26 59 0
28 29 24 25 22 40 27 44 56 0
30 29 25 22 27 57 24 45 40 0
40 59 31 22 24 32 25 27 47 0
27 33 25 46 31 22 24 58 40 0
24 33 25 27 60 32 40 48 22 0
43 40 24 25 41 22 55 28 44 0
29 44 24 41 22 40 45 56 25 0
45 40 22 41 24 43 25 57 30 0
46 40 22 24 41 47 25 31 58 0
47 59 22 24 48 40 41 32 25 0
46 40 22 24 41 33 48 25 60 0
28 29 24 42 26 27 44 57 22 0
55 29 24 22 27 26 30 42 45 0
42 22 31 27 32 24 26 47 60 0
42 59 31 22 24 27 26 46 33 0
32 24 33 26 27 22 42 48 58 0
28 42 24 41 22 44 26 43 57 0
44 42 24 41 22 55 26 45 29 0
56 42 24 41 22 43 26 45 30 0
47 58 41 24 32 22 42 48 26 0
46 22 48 24 41 42 59 26 33 0
45 42 24 40 44 22 27 57 29 0
46 47 24 40 42 22 59 27 31 0
47 60 48 24 42 22 32 27 40 0
46 40 24 48 42 27 22 33 58 0
28 43 22 24 47 32 30 31 68 0
67 43 24 22 47 46 44 28 31 0
30 69 31 24 32 22 47 45 29 0
47 69 24 46 31 29 22 44 45 0
29 47 24 48 22 67 44 45 32 0
47 46 22 24 43 45 31 30 68 0
30 46 24 48 45 67 22 33 43 0
30 40 26 41 45 57 56 25 22 0
59 40 22 41 26 33 60 25 48 0
60 42 59 25 27 40 32 47 22 0
42 33 25 58 22 60 27 40 48 0
28 43 25 22 40 55 44 29 56 0
60 48 33 31 58 25 46 40 22 0
56 42 41 22 57 26 27 28 43 0
44 57 22 41 29 55 26 42 27 0
45 42 27 41 55 56 26 30 22 0
60 58 41 32 22 47 42 27 26 0
55 43 22 26 57 41 29 28 44 0
47 46 41 32 31 58 60 26 22 0
46 60 22 41 48 31 33 26 59 0
47 58 41 22 32 33 48 26 59 0
47 46 22 32 31 42 27 59 60 0
58 46 31 27 59 48 33 42 22 0
30 42 24 25 23 28 26 44 57 0
30 42 23 24 25 26 43 29 56 0
58 42 24 31 48 25 23 32 26 0
24 33 26 31 23 25 47 60 42 0
46 42 24 25 32 26 23 33 59 0
56 45 24 25 23 29 27 41 28 0
55 28 24 30 23 27 44 41 25 0
59 41 32 27 24 31 23 25 48 0
42 41 23 24 44 55 45 28 25 0
56 42 23 24 41 43 29 25 45 0
30 42 23 24 41 43 57 44 25 0
47 42 31 24 48 23 41 25 58 0
46 59 24 41 23 42 48 25 32 0
47 60 24 42 23 41 46 25 33 0
45 29 24 26 23 57 40 27 28 0
60 40 31 26 23 24 48 32 27 0
24 33 26 31 27 23 40 59 47 0
46 24 33 23 32 27 40 26 58 0
28 45 42 24 26 23 40 57 44 0
43 42 40 24 23 29 45 26 55 0
30 43 24 42 23 40 44 26 56 0
42 40 31 23 48 24 26 47 60 0
46 40 32 24 42 23 48 58 26 0
47 46 24 40 42 23 26 33 59 0
30 43 24 40 23 27 44 41 55 0
47 41 27 40 48 24 31 59 23 0
46 40 24 48 23 41 27 60 32 0
46 24 33 58 41 23 40 27 47 0
28 67 24 32 31 23 45 29 48 0
45 46 24 32 23 29 28 33 68 0
68 28 48 31 24 32 23 44 30 0
44 24 33 31 23 30 28 67 47 0
28 67 24 31 48 23 45 47 44 0
68 46 24 48 23 44 32 28 45 0
30 46 24 32 23 43 29 67 33 0
68 44 24 31 47 48 23 43 30 0
69 46 24 48 44 32 23 43 30 0
67 46 24 44 23 43 33 30 47 0
55 42 27 41 57 25 44 23 30 0
60 46 41 42 27 23 32 59 25 0
60 42 27 41 25 23 58 33 47 0
56 55 42 29 45 43 23 25 28 0
56 43 44 29 57 30 23 42 25 0
56 23 26 41 45 40 57 27 28 0
57 29 23 41 27 43 40 55 26 0
56 30 23 41 40 26 44 55 27 0
40 46 26 32 47 58 23 33 59 0
60 58 41 47 27 23 32 46 33 0
45 28 67 69 43 29 23 31 48 0
56 55 42 24 41 26 25 45 29 0
58 42 25 26 47 31 41 60 24 0
58 59 24 25 42 26 41 48 32 0
47 40 25 31 24 41 59 58 27 0
60 46 41 25 27 40 58 33 24 0
55 44 41 24 30 43 57 28 25 0
56 29 24 25 43 57 41 45 30 0
60 46 41 25 32 33 24 59 48 0
45 42 40 24 55 26 27 57 29 0
56 42 24 40 55 26 27 43 30 0
58 42 40 27 60 26 24 32 48 0
28 44 42 43 26 30 56 57 24 0
56 55 45 43 29 30 42 24 26 0
47 46 24 26 33 59 31 60 42 0
45 44 40 29 27 28 57 56 24 0
46 60 33 24 58 48 40 27 32 0
29 47 69 32 24 45 48 67 31 0
56 60 26 33 29 25 31 30 68 0
68 29 60 33 28 32 25 56 27 0
30 29 33 32 60 27 25 57 67 0
30 27 33 31 26 28 56 67 59 0
55 27 33 31 26 29 30 59 68 0
55 30 67 69 56 29 58 26 32 0
68 29 60 33 32 67 58 27 57 0
68 47 40 58 41 57 43 45 46 0
44 47 40 46 41 56 69 58 45 0
68 46 48 41 45 44 40 60 56 0
45 47 59 46 57 42 40 44 69 0
67 47 59 42 57 40 56 44 60 0
67 60 42 41 47 57 44 43 46 0
58 69 48 41 59 42 57 56 43 0
69 60 42 41 45 55 47 46 44 0
45 42 48 59 41 67 55 58 56 0
67 68 48 59 46 45 55 58 42 0
-55 -69 -241 -371 -364 -363 -60 -372 -365 -373 0
-56 -372 -371 -241 -364 -363 -60 -68 -365 -373 0
-55 -241 -59 -371 -364 -363 -372 -373 -365 -68 0
-372 -58 -241 -371 -364 -363 -67 -373 -365 -55 0
-57 -69 -357 -236 -356 -355 -371 -373 -372 -59 0
-372 -58 -236 -371 -356 -355 -373 -69 -357 -56 0
-43 -241 -365 -370 -69 -362 -372 -364 -48 -373 0
-45 -69 -370 -241 -364 -362 -372 -365 -47 -373 0
-69 -44 -370 -241 -364 -362 -46 -373 -365 -372 0
-372 -241 -48 -370 -364 -362 -68 -44 -373 -365 0
-372 -241 -370 -47 -364 -362 -68 -43 -365 -373 0
-45 -372 -370 -241 -364 -362 -46 -68 -365 -373 0
-45 -67 -370 -241 -364 -362 -372 -373 -48 -365 0
-372 -241 -370 -47 -364 -362 -67 -44 -373 -365 0
-43 -241 -46 -370 -67 -362 -372 -365 -364 -373 0
-43 -236 -370 -357 -356 -354 -69 -372 -48 -373 0
-45 -236 -370 -357 -356 -354 -69 -372 -373 -47 0
-69 -236 -370 -357 -356 -354 -46 -44 -373 -372 0
-372 -236 -48 -370 -356 -354 -68 -357 -373 -44 0
-236 -370 -47 -372 -356 -354 -68 -357 -43 -373 0
-45 -236 -370 -357 -356 -354 -46 -372 -373 -68 0
-45 -236 -370 -67 -356 -354 -372 -357 -48 -373 0
-236 -370 -47 -372 -356 -354 -67 -357 -44 -373 0
-43 -236 -370 -357 -356 -354 -46 -67 -373 -372 0
-372 -348 -349 -370 -230 -346 -43 -48 -373 -69 0
-372 -348 -349 -370 -230 -346 -45 -69 -373 -47 0
-372 -348 -349 -370 -230 -346 -46 -373 -69 -44 0
-372 -348 -349 -370 -230 -346 -44 -48 -373 -68 0
-372 -348 -349 -47 -370 -346 -68 -43 -373 -230 0
-372 -348 -349 -370 -230 -346 -46 -45 -373 -68 0
-372 -348 -349 -370 -230 -346 -45 -48 -373 -67 0
-372 -348 -349 -370 -230 -346 -67 -47 -44 -373 0
-348 -67 -349 -46 -370 -346 -372 -373 -43 -230 0
-206 -43 -370 -69 -324 -322 -372 -373 -48 -325 0
-206 -370 -325 -372 -373 -322 -324 -47 -69 -45 0
-206 -370 -325 -372 -46 -322 -324 -373 -44 -69 0
-206 -372 -47 -370 -324 -322 -67 -325 -373 -44 0
-206 -370 -325 -372 -46 -322 -373 -67 -324 -43 0
-196 -43 -370 -69 -373 -314 -372 -316 -317 -48 0
-196 -370 -317 -372 -373 -314 -46 -316 -69 -44 0
-196 -316 -47 -373 -370 -314 -372 -43 -68 -317 0
-196 -370 -317 -372 -46 -314 -373 -316 -68 -45 0
-196 -370 -317 -372 -47 -314 -44 -373 -67 -316 0
-196 -370 -317 -46 -372 -314 -316 -373 -67 -43 0
-28 -69 -369 -236 -356 -353 -372 -373 -33 -357 0
-28 -356 -32 -369 -236 -353 -372 -373 -357 -68 0
-372 -348 -349 -32 -369 -345 -28 -373 -68 -230 0
-206 -369 -325 -33 -372 -321 -373 -324 -68 -29 0
-206 -369 -325 -372 -32 -321 -373 -28 -324 -68 0
-206 -369 -325 -372 -31 -321 -324 -30 -373 -68 0
-206 -372 -32 -369 -67 -321 -29 -373 -325 -324 0
-206 -369 -325 -372 -67 -321 -373 -31 -324 -28 0
-196 -369 -317 -372 -373 -313 -28 -33 -316 -69 0
-196 -369 -317 -372 -373 -313 -316 -31 -69 -29 0
-196 -369 -317 -372 -373 -313 -32 -316 -68 -28 0
-196 -369 -317 -372 -68 -313 -31 -373 -316 -30 0
-196 -369 -317 -372 -67 -313 -373 -33 -316 -30 0
-196 -372 -32 -369 -67 -313 -29 -373 -316 -317 0
-196 -369 -317 -372 -28 -313 -31 -316 -67 -373 0
-241 -60 -48 -371 -363 -362 -370 -40 -373 -365 0
-370 -60 -42 -371 -363 -362 -47 -241 -365 -373 0
-241 -60 -41 -370 -363 -362 -46 -371 -373 -365 0
-241 -48 -41 -371 -363 -362 -370 -59 -373 -365 0
-241 -47 -40 -371 -363 -362 -370 -59 -365 -373 0
-59 -46 -42 -370 -363 -362 -241 -371 -365 -373 0
-58 -48 -42 -371 -363 -362 -370 -241 -365 -373 0
-58 -241 -41 -371 -363 -362 -370 -47 -365 -373 0
-58 -241 -40 -371 -363 -362 -370 -46 -365 -373 0
-236 -60 -48 -371 -355 -354 -370 -357 -40 -373 0
-236 -370 -47 -371 -355 -354 -42 -60 -357 -373 0
-236 -357 -41 -370 -355 -354 -46 -60 -371 -373 0
-236 -48 -41 -371 -355 -354 -370 -357 -59 -373 0
-236 -370 -47 -371 -355 -354 -40 -59 -373 -357 0
-236 -357 -354 -42 -355 -59 -370 -46 -371 -373 0
-236 -48 -42 -371 -355 -354 -370 -58 -357 -373 0
-58 -236 -41 -371 -355 -354 -370 -357 -47 -373 0
-58 -236 -40 -371 -355 -354 -370 -46 -373 -357 0
-230 -349 -40 -371 -347 -346 -373 -370 -48 -60 0
-349 -60 -42 -47 -347 -346 -370 -371 -373 -230 0
-230 -349 -41 -46 -347 -346 -373 -370 -371 -60 0
-230 -349 -41 -48 -347 -346 -59 -370 -371 -373 0
-230 -349 -346 -59 -347 -371 -370 -47 -373 -40 0
-59 -46 -42 -349 -347 -346 -371 -370 -373 -230 0
-58 -349 -42 -48 -347 -346 -373 -370 -371 -230 0
-58 -47 -41 -371 -347 -346 -370 -230 -373 -349 0
-58 -46 -40 -371 -347 -346 -230 -373 -349 -370 0
-60 -46 -338 -223 -371 -370 -41 -339 -373 -341 0
-223 -341 -48 -370 -371 -338 -339 -41 -373 -59 0
-58 -46 -339 -371 -370 -338 -223 -373 -341 -40 0
-215 -333 -370 -371 -331 -330 -60 -42 -47 -373 0
-215 -333 -370 -371 -373 -330 -46 -331 -60 -41 0
-215 -48 -330 -371 -370 -41 -331 -373 -59 -333 0
-215 -333 -370 -371 -42 -330 -46 -331 -59 -373 0
-215 -58 -331 -371 -370 -330 -333 -42 -48 -373 0
-215 -371 -331 -370 -47 -330 -333 -58 -373 -41 0
-215 -58 -40 -331 -370 -330 -46 -371 -333 -373 0
-60 -241 -25 -369 -363 -361 -371 -373 -365 -33 0
-241 -32 -27 -371 -363 -361 -369 -373 -365 -60 0
-241 -60 -26 -369 -363 -361 -371 -373 -365 -31 0
-241 -373 -26 -59 -363 -361 -371 -369 -365 -33 0
-241 -369 -32 -371 -363 -361 -365 -373 -59 -25 0
-31 -241 -27 -369 -363 -361 -365 -373 -371 -59 0
-58 -241 -371 -369 -363 -361 -33 -373 -365 -27 0
-241 -26 -32 -373 -371 -363 -361 -369 -365 -58 0
-236 -357 -25 -33 -355 -369 -371 -353 -60 -373 0
-60 -32 -27 -369 -355 -353 -371 -236 -373 -357 0
-31 -60 -26 -357 -355 -353 -371 -369 -236 -373 0
-59 -357 -26 -33 -355 -353 -369 -371 -236 -373 0
-236 -369 -32 -371 -355 -353 -59 -357 -25 -373 0
-31 -236 -27 -369 -355 -353 -373 -371 -357 -59 0
-58 -236 -33 -369 -355 -353 -371 -373 -357 -27 0
-58 -26 -32 -369 -355 -353 -371 -357 -373 -236 0
-58 -31 -25 -369 -355 -353 -371 -373 -357 -236 0
-230 -369 -347 -371 -33 -345 -373 -349 -60 -25 0
-230 -349 -27 -32 -347 -371 -345 -373 -369 -60 0
-230 -349 -26 -31 -347 -345 -369 -373 -371 -60 0
-349 -33 -26 -59 -347 -345 -371 -373 -369 -230 0
-230 -369 -32 -371 -347 -345 -373 -349 -25 -59 0
-230 -349 -27 -31 -347 -59 -373 -345 -369 -371 0
-58 -349 -27 -33 -347 -345 -371 -373 -369 -230 0
-230 -26 -32 -349 -347 -371 -345 -373 -369 -58 0
-223 -341 -369 -371 -33 -337 -373 -25 -339 -60 0
-31 -59 -223 -339 -369 -337 -371 -27 -373 -341 0
-58 -223 -339 -369 -371 -337 -341 -373 -27 -33 0
-215 -331 -32 -371 -369 -329 -333 -60 -27 -373 0
-215 -31 -59 -331 -369 -329 -371 -27 -333 -373 0
-215 -58 -331 -369 -371 -329 -333 -27 -33 -373 0
-215 -331 -32 -371 -369 -329 -333 -373 -58 -26 0
-215 -58 -331 -369 -371 -329 -333 -373 -31 -25 0
-241 -48 -22 -370 -362 -361 -369 -33 -373 -365 0
-48 -24 -32 -370 -362 -361 -369 -241 -365 -373 0
-31 -370 -48 -241 -23 -361 -369 -362 -365 -373 0
-370 -369 -47 -33 -362 -361 -241 -23 -365 -373 0
-369 -47 -22 -370 -362 -361 -241 -32 -365 -373 0
-365 -47 -24 -370 -362 -361 -369 -241 -31 -373 0
-241 -46 -24 -373 -362 -361 -369 -370 -365 -33 0
-241 -370 -32 -23 -362 -361 -369 -373 -46 -365 0
-31 -241 -46 -369 -362 -361 -370 -22 -373 -365 0
-236 -48 -22 -370 -354 -353 -369 -33 -373 -357 0
-236 -48 -24 -370 -354 -353 -369 -32 -373 -357 0
-31 -369 -48 -236 -23 -353 -354 -370 -357 -373 0
-236 -369 -47 -370 -354 -353 -33 -23 -357 -373 0
-236 -369 -47 -370 -354 -353 -22 -32 -357 -373 0
-236 -369 -47 -370 -354 -353 -24 -31 -373 -357 0
-236 -370 -24 -357 -354 -353 -369 -46 -33 -373 0
-236 -354 -32 -369 -370 -353 -23 -373 -357 -46 0
-31 -236 -22 -354 -370 -353 -357 -369 -46 -373 0
-349 -33 -48 -22 -346 -345 -370 -373 -369 -230 0
-230 -349 -24 -32 -346 -345 -370 -373 -369 -48 0
-230 -349 -23 -370 -346 -345 -369 -373 -48 -31 0
-230 -47 -23 -349 -346 -345 -370 -369 -373 -33 0
-230 -349 -32 -47 -346 -345 -370 -373 -369 -22 0
-230 -349 -24 -369 -346 -345 -370 -373 -31 -47 0
-349 -33 -24 -346 -46 -345 -370 -373 -369 -230 0
-230 -349 -370 -23 -346 -32 -345 -369 -46 -373 0
-31 -349 -22 -46 -346 -345 -370 -369 -373 -230 0
-215 -48 -32 -370 -369 -329 -333 -330 -24 -373 0
-215 -48 -330 -370 -369 -329 -333 -373 -31 -23 0
-215 -47 -330 -370 -369 -329 -33 -373 -333 -23 0
-215 -47 -330 -370 -369 -329 -333 -31 -373 -24 0
-215 -370 -330 -24 -369 -329 -373 -46 -33 -333 0
-215 -369 -32 -370 -330 -329 -373 -333 -46 -23 0
-206 -369 -325 -370 -322 -321 -373 -48 -33 -22 0
-206 -369 -325 -370 -322 -321 -32 -373 -22 -47 0
-206 -369 -325 -370 -322 -321 -22 -46 -31 -373 0
-45 -241 -40 -370 -57 -362 -371 -363 -364 -372 0
-57 -44 -370 -42 -241 -362 -371 -363 -364 -372 0
-43 -370 -41 -241 -57 -362 -371 -372 -363 -364 0
-56 -370 -41 -241 -45 -362 -371 -363 -364 -372 0
-56 -241 -40 -370 -44 -362 -371 -363 -372 -364 0
-43 -56 -370 -241 -42 -362 -371 -363 -364 -372 0
-45 -55 -370 -42 -241 -362 -371 -363 -364 -372 0
-55 -370 -41 -241 -44 -362 -371 -363 -364 -372 0
-43 -241 -40 -370 -55 -362 -363 -371 -364 -372 0
-45 -236 -370 -40 -355 -354 -57 -356 -371 -372 0
-57 -236 -370 -42 -355 -354 -44 -356 -371 -372 0
-43 -236 -370 -41 -57 -354 -355 -356 -371 -372 0
-56 -236 -370 -41 -356 -354 -355 -45 -371 -372 0
-56 -236 -370 -40 -355 -354 -44 -356 -371 -372 0
-43 -236 -370 -56 -355 -354 -42 -371 -356 -372 0
-45 -236 -370 -42 -355 -354 -55 -356 -371 -372 0
-55 -236 -370 -41 -356 -354 -355 -372 -371 -44 0
-43 -236 -370 -40 -355 -354 -55 -356 -371 -372 0
-45 -57 -40 -370 -230 -346 -348 -371 -372 -347 0
-57 -44 -42 -370 -347 -346 -230 -348 -371 -372 0
-43 -57 -370 -41 -230 -346 -348 -347 -371 -372 0
-348 -45 -370 -41 -230 -346 -371 -372 -347 -56 0
-44 -56 -40 -370 -230 -346 -348 -347 -371 -372 0
-43 -56 -370 -230 -347 -346 -42 -371 -348 -372 0
-45 -55 -42 -370 -347 -346 -230 -348 -372 -371 0
-55 -372 -370 -41 -347 -346 -371 -230 -348 -44 0
-43 -55 -40 -370 -230 -346 -347 -371 -372 -348 0
-57 -28 -369 -26 -241 -361 -371 -363 -372 -364 0
-56 -30 -369 -26 -241 -361 -371 -363 -364 -372 0
-28 -369 -27 -241 -363 -361 -371 -372 -364 -56 0
-30 -369 -27 -241 -55 -361 -371 -363 -364 -372 0
-29 -55 -26 -369 -241 -361 -371 -363 -364 -372 0
-29 -236 -26 -355 -369 -353 -55 -356 -372 -371 0
-30 -230 -25 -369 -347 -345 -348 -57 -371 -372 0
-57 -230 -26 -369 -347 -345 -348 -372 -371 -28 0
-28 -369 -27 -230 -347 -345 -371 -348 -372 -56 0
-30 -369 -27 -230 -347 -345 -55 -348 -371 -372 0
-29 -230 -26 -369 -347 -345 -55 -348 -372 -371 0
-45 -369 -22 -370 -362 -361 -241 -364 -372 -30 0
-29 -372 -24 -370 -362 -361 -369 -241 -364 -45 0
-28 -241 -23 -370 -362 -361 -369 -45 -372 -364 0
-30 -241 -23 -370 -362 -361 -369 -44 -364 -372 0
-29 -44 -369 -370 -362 -361 -241 -22 -364 -372 0
-28 -44 -24 -370 -362 -361 -369 -241 -364 -372 0
-43 -372 -24 -370 -362 -361 -369 -241 -364 -30 0
-43 -241 -23 -370 -362 -361 -369 -29 -364 -372 0
-28 -43 -369 -370 -362 -361 -241 -22 -372 -364 0
-45 -236 -369 -370 -354 -353 -22 -356 -30 -372 0
-29 -236 -24 -370 -354 -353 -369 -356 -45 -372 0
-28 -236 -369 -370 -354 -353 -23 -356 -45 -372 0
-30 -236 -369 -370 -354 -353 -23 -44 -356 -372 0
-29 -236 -369 -370 -354 -353 -44 -22 -356 -372 0
-28 -236 -24 -370 -354 -353 -369 -44 -356 -372 0
-43 -236 -24 -370 -354 -353 -369 -356 -372 -30 0
-43 -236 -369 -370 -354 -353 -23 -29 -356 -372 0
-28 -236 -369 -370 -354 -353 -43 -22 -356 -372 0
-45 -369 -22 -230 -346 -345 -370 -372 -30 -348 0
-29 -230 -24 -370 -346 -345 -369 -348 -372 -45 0
-348 -230 -23 -370 -346 -345 -369 -45 -372 -28 0
-30 -230 -23 -370 -346 -345 -369 -44 -348 -372 0
-29 -44 -369 -370 -346 -345 -230 -22 -348 -372 0
-28 -230 -24 -370 -346 -345 -369 -44 -348 -372 0
-43 -230 -24 -370 -346 -345 -369 -348 -372 -30 0
-43 -230 -23 -370 -346 -345 -369 -29 -348 -372 0
-28 -43 -369 -370 -346 -345 -230 -22 -348 -372 0
372 -364 -369 -370 -363 -362 -361 360 368 -371 0
-241 -369 -363 -24 -362 -361 -370 -371 -42 -26 0
-241 -371 -23 -40 -26 -361 -369 -370 -363 -362 0
-236 -369 -355 -354 -24 -353 -370 -371 -42 -26 0
-236 -369 -40 -370 -354 -353 -355 -371 -26 -23 0
-370 -24 -338 -42 -369 -337 -223 -371 -339 -26 0
-223 -369 -40 -370 -338 -337 -26 -371 -339 -23 0
-55 -69 -363 -357 -356 -355 -365 -364 -235 -60 0
-56 -68 -363 -364 -356 -355 -365 -357 -235 -60 0
-57 -67 -363 -357 -356 -355 -365 -364 -235 -60 0
-364 -349 -229 -363 -348 -347 -59 -55 -365 -68 0
-43 -69 -48 -362 -356 -354 -364 -357 -235 -365 0
-69 -364 -47 -362 -356 -354 -45 -357 -235 -365 0
-69 -44 -362 -357 -356 -354 -364 -46 -365 -235 0
-68 -356 -48 -357 -362 -354 -365 -364 -235 -44 0
-43 -68 -47 -362 -356 -354 -365 -357 -235 -364 0
-45 -356 -46 -357 -362 -354 -68 -364 -365 -235 0
-45 -356 -48 -357 -362 -354 -67 -364 -235 -365 0
-44 -67 -47 -362 -356 -354 -357 -364 -235 -365 0
-43 -356 -46 -357 -362 -354 -235 -364 -67 -365 0
-364 -349 -229 -362 -348 -346 -43 -48 -365 -69 0
-364 -349 -229 -362 -348 -346 -45 -69 -365 -47 0
-364 -349 -229 -362 -348 -346 -46 -365 -69 -44 0
-364 -349 -229 -362 -348 -346 -44 -48 -365 -68 0
-348 -364 -349 -47 -362 -346 -68 -365 -43 -229 0
-364 -349 -229 -362 -348 -346 -46 -45 -68 -365 0
-364 -349 -229 -362 -348 -346 -45 -48 -365 -67 0
-364 -349 -229 -362 -348 -346 -67 -44 -365 -47 0
-364 -349 -229 -362 -348 -346 -43 -365 -67 -46 0
-205 -364 -48 -362 -324 -322 -43 -365 -69 -325 0
-205 -362 -325 -364 -45 -322 -365 -69 -324 -47 0
-205 -324 -47 -362 -364 -322 -365 -44 -325 -67 0
-205 -362 -325 -364 -365 -322 -46 -67 -324 -43 0
-195 -43 -362 -365 -69 -314 -364 -316 -48 -317 0
-195 -362 -317 -364 -365 -314 -46 -69 -316 -44 0
-195 -314 -47 -365 -362 -364 -316 -43 -68 -317 0
-195 -362 -317 -364 -46 -314 -365 -316 -68 -45 0
-195 -362 -317 -364 -47 -314 -44 -67 -365 -316 0
-195 -362 -317 -46 -364 -314 -316 -365 -67 -43 0
-28 -69 -361 -364 -356 -353 -365 -357 -235 -33 0
-29 -68 -361 -364 -356 -353 -365 -357 -235 -33 0
-30 -67 -361 -364 -356 -353 -365 -357 -235 -33 0
-205 -325 -361 -33 -364 -321 -324 -28 -365 -69 0
-324 -69 -32 -361 -364 -321 -30 -325 -365 -205 0
-205 -325 -361 -364 -31 -321 -69 -324 -365 -29 0
-205 -325 -361 -33 -364 -321 -365 -324 -68 -29 0
-205 -364 -32 -361 -324 -321 -365 -28 -325 -68 0
-205 -325 -361 -364 -31 -321 -324 -365 -30 -68 0
-205 -364 -32 -361 -67 -321 -29 -365 -325 -324 0
-205 -325 -361 -364 -28 -321 -365 -31 -324 -67 0
-195 -317 -361 -364 -365 -313 -28 -33 -316 -69 0
-195 -317 -361 -364 -365 -313 -316 -31 -69 -29 0
-195 -317 -361 -364 -365 -313 -32 -316 -28 -68 0
-195 -317 -361 -364 -365 -313 -316 -31 -68 -30 0
-195 -317 -361 -33 -364 -313 -316 -365 -67 -30 0
-195 -364 -32 -361 -67 -313 -365 -29 -316 -317 0
-195 -317 -361 -364 -31 -313 -67 -316 -365 -28 0
-357 -48 -235 -40 -363 -354 -355 -60 -362 -365 0
-357 -47 -42 -60 -355 -354 -363 -362 -235 -365 0
-46 -357 -363 -41 -355 -354 -235 -60 -365 -362 0
-357 -48 -41 -235 -59 -354 -355 -362 -363 -365 0
-59 -362 -363 -235 -355 -354 -357 -40 -47 -365 0
-46 -357 -363 -42 -355 -354 -362 -235 -59 -365 0
-42 -48 -235 -357 -363 -58 -362 -354 -355 -365 0
-58 -47 -41 -362 -355 -354 -365 -357 -235 -363 0
-46 -40 -235 -363 -58 -354 -355 -357 -365 -362 0
-349 -40 -229 -363 -347 -346 -365 -362 -48 -60 0
-349 -60 -42 -47 -347 -346 -362 -363 -365 -229 0
-349 -46 -229 -363 -347 -346 -365 -362 -41 -60 0
-349 -41 -229 -48 -347 -346 -363 -362 -365 -59 0
-349 -47 -229 -59 -347 -346 -365 -362 -363 -40 0
-349 -42 -229 -46 -347 -346 -363 -362 -365 -59 0
-349 -42 -229 -363 -347 -346 -365 -362 -48 -58 0
-58 -41 -229 -362 -347 -346 -363 -47 -365 -349 0
-349 -40 -229 -46 -347 -346 -362 -363 -365 -58 0
-60 -341 -338 -41 -363 -362 -339 -222 -46 -365 0
-48 -341 -339 -363 -362 -338 -222 -59 -365 -41 0
-58 -46 -339 -363 -362 -338 -222 -365 -341 -40 0
-214 -333 -362 -363 -42 -330 -331 -60 -47 -365 0
-214 -333 -362 -363 -365 -330 -46 -331 -60 -41 0
-214 -48 -330 -363 -362 -41 -331 -365 -59 -333 0
-214 -333 -362 -363 -42 -330 -331 -46 -365 -59 0
-214 -58 -331 -363 -362 -330 -333 -42 -48 -365 0
-214 -47 -363 -362 -331 -330 -333 -58 -365 -41 0
-214 -58 -40 -331 -362 -330 -46 -363 -333 -365 0
-25 -365 -235 -60 -355 -361 -33 -363 -353 -357 0
-31 -60 -26 -357 -355 -353 -365 -361 -235 -363 0
-26 -357 -235 -59 -355 -353 -363 -365 -361 -33 0
-58 -33 -27 -361 -355 -353 -363 -357 -235 -365 0
-33 -365 -361 -347 -363 -345 -229 -349 -60 -25 0
-349 -32 -229 -27 -347 -363 -345 -365 -361 -60 0
-349 -26 -229 -363 -347 -345 -361 -365 -31 -60 0
-349 -33 -26 -59 -347 -345 -363 -365 -361 -229 0
-32 -365 -229 -363 -347 -345 -361 -59 -25 -349 0
-349 -31 -229 -27 -347 -345 -365 -361 -59 -363 0
-58 -349 -27 -33 -347 -345 -365 -361 -363 -229 0
-58 -26 -32 -349 -347 -363 -345 -365 -361 -229 0
-341 -33 -361 -363 -222 -337 -365 -25 -339 -60 0
-31 -222 -27 -339 -361 -337 -365 -363 -59 -341 0
-58 -341 -339 -361 -363 -337 -222 -365 -27 -33 0
-214 -331 -32 -363 -361 -329 -333 -60 -27 -365 0
-214 -31 -59 -331 -361 -329 -363 -27 -333 -365 0
-214 -58 -331 -361 -363 -329 -333 -27 -33 -365 0
-214 -331 -32 -363 -361 -329 -333 -365 -58 -26 0
-214 -58 -331 -361 -363 -329 -333 -365 -31 -25 0
-22 -48 -235 -362 -354 -353 -357 -365 -361 -33 0
-24 -32 -235 -362 -354 -353 -357 -365 -361 -48 0
-31 -48 -235 -361 -23 -353 -357 -362 -354 -365 0
-33 -47 -23 -362 -354 -353 -361 -357 -235 -365 0
-47 -362 -32 -22 -354 -353 -361 -357 -235 -365 0
-31 -24 -235 -361 -354 -353 -365 -357 -362 -47 0
-46 -24 -235 -362 -354 -353 -361 -357 -33 -365 0
-23 -32 -235 -362 -46 -353 -361 -357 -354 -365 0
-31 -22 -235 -357 -361 -353 -362 -365 -354 -46 0
-349 -33 -229 -346 -361 -345 -362 -365 -48 -22 0
-349 -24 -229 -32 -346 -345 -362 -365 -361 -48 0
-349 -362 -229 -365 -23 -345 -361 -346 -48 -31 0
-47 -23 -229 -349 -346 -345 -365 -362 -361 -33 0
-349 -47 -229 -32 -346 -345 -362 -365 -361 -22 0
-349 -24 -229 -361 -346 -345 -365 -362 -31 -47 0
-349 -24 -229 -46 -346 -345 -362 -365 -361 -33 0
-349 -362 -229 -23 -346 -32 -345 -361 -46 -365 0
-349 -22 -229 -361 -346 -345 -362 -46 -365 -31 0
-214 -48 -330 -362 -361 -329 -24 -333 -32 -365 0
-214 -48 -330 -362 -361 -329 -333 -365 -31 -23 0
-214 -33 -361 -362 -330 -329 -333 -365 -47 -23 0
-214 -47 -330 -362 -361 -329 -333 -31 -365 -24 0
-214 -365 -330 -362 -361 -329 -24 -46 -333 -33 0
-214 -32 -361 -362 -330 -329 -365 -333 -46 -23 0
-205 -325 -361 -362 -322 -321 -365 -48 -33 -22 0
-205 -325 -361 -362 -322 -321 -32 -365 -47 -22 0
-205 -325 -361 -362 -322 -321 -22 -46 -31 -365 0
-45 -57 -362 -40 -355 -354 -364 -363 -235 -356 0
-57 -44 -362 -364 -42 -354 -355 -363 -235 -356 0
-43 -364 -362 -41 -57 -354 -363 -356 -235 -355 0
-45 -364 -362 -41 -56 -354 -363 -355 -235 -356 0
-44 -56 -40 -362 -355 -354 -364 -363 -235 -356 0
-56 -43 -362 -42 -364 -354 -355 -363 -235 -356 0
-45 -55 -42 -362 -355 -354 -363 -364 -235 -356 0
-55 -44 -362 -41 -355 -354 -364 -363 -235 -356 0
-43 -55 -362 -40 -356 -354 -363 -364 -235 -355 0
-45 -362 -229 -40 -57 -346 -363 -348 -364 -347 0
-57 -362 -229 -44 -347 -346 -42 -348 -364 -363 0
-43 -362 -229 -41 -347 -346 -57 -364 -348 -363 0
-348 -362 -229 -41 -45 -346 -363 -347 -364 -56 0
-44 -362 -229 -347 -40 -346 -363 -348 -56 -364 0
-56 -42 -229 -362 -347 -346 -43 -363 -348 -364 0
-55 -42 -229 -362 -347 -346 -363 -348 -364 -45 0
-348 -362 -229 -55 -347 -346 -363 -41 -364 -44 0
-43 -362 -229 -55 -40 -346 -363 -347 -364 -348 0
-30 -57 -361 -364 -355 -353 -25 -363 -235 -356 0
-57 -29 -361 -235 -355 -353 -363 -364 -27 -356 0
-28 -57 -361 -26 -356 -353 -363 -364 -235 -355 0
-30 -356 -26 -361 -355 -353 -363 -364 -235 -56 0
-28 -55 -361 -356 -355 -353 -363 -364 -235 -25 0
-30 -25 -361 -229 -347 -345 -57 -348 -363 -364 0
-28 -26 -361 -229 -347 -345 -363 -364 -348 -57 0
-56 -348 -361 -229 -347 -345 -363 -27 -364 -28 0
-30 -348 -361 -229 -347 -345 -363 -27 -364 -55 0
-348 -55 -361 -229 -347 -345 -363 -364 -29 -26 0
-30 -45 -361 -362 -354 -353 -22 -356 -235 -364 0
-45 -29 -24 -362 -354 -353 -361 -364 -235 -356 0
-45 -28 -361 -362 -354 -353 -23 -356 -235 -364 0
-44 -30 -361 -362 -354 -353 -23 -364 -235 -356 0
-29 -44 -361 -362 -354 -353 -364 -22 -235 -356 0
-28 -44 -24 -362 -354 -353 -361 -364 -235 -356 0
-30 -43 -24 -362 -354 -353 -361 -364 -235 -356 0
-43 -29 -361 -362 -354 -353 -235 -23 -364 -356 0
-28 -43 -361 -362 -354 -353 -356 -22 -235 -364 0
-45 -362 -361 -229 -346 -345 -348 -30 -22 -364 0
-29 -24 -229 -362 -346 -345 -361 -348 -364 -45 0
-348 -362 -361 -229 -346 -345 -23 -45 -364 -28 0
-30 -362 -361 -229 -346 -345 -23 -348 -364 -44 0
-29 -362 -361 -229 -346 -345 -44 -22 -348 -364 0
-28 -24 -229 -362 -346 -345 -361 -44 -348 -364 0
-43 -24 -229 -362 -346 -345 -361 -348 -364 -30 0
-43 -362 -361 -229 -346 -345 -23 -348 -364 -29 0
-28 -362 -361 -229 -346 -345 -43 -22 -348 -364 0
364 -356 -361 -362 -355 -354 -353 352 360 -363 0
-42 -22 -235 -362 -354 -353 -361 -355 -363 -27 0
-26 -24 -235 -355 -354 -353 -361 -362 -363 -42 0
-25 -42 -235 -362 -354 -353 -361 -363 -355 -23 0
-41 -362 -235 -361 -354 -353 -22 -355 -26 -363 0
-24 -41 -235 -362 -354 -353 -355 -361 -363 -25 0
-362 -354 -235 -361 -27 -353 -355 -363 -24 -40 0
-40 -23 -235 -362 -354 -353 -361 -355 -363 -26 0
-22 -25 -235 -363 -354 -353 -361 -355 -362 -40 0
-24 -362 -361 -229 -346 -345 -347 -363 -40 -27 0
-40 -362 -361 -229 -346 -345 -347 -363 -25 -22 0
-222 -362 -361 -27 -338 -337 -339 -363 -42 -22 0
-26 -24 -338 -362 -361 -337 -339 -363 -42 -222 0
-222 -23 -361 -362 -338 -337 -25 -363 -339 -42 0
-26 -41 -361 -362 -22 -337 -339 -363 -338 -222 0
-222 -24 -361 -362 -338 -337 -339 -363 -41 -25 0
-26 -222 -361 -362 -40 -337 -338 -363 -339 -23 0
-214 -362 -361 -27 -330 -329 -42 -363 -331 -22 0
-214 -23 -361 -362 -330 -329 -25 -363 -331 -42 0
-214 -26 -361 -362 -330 -329 -331 -363 -41 -22 0
-214 -24 -361 -362 -330 -329 -331 -363 -41 -25 0
-214 -24 -361 -362 -330 -329 -331 -363 -40 -27 0
-214 -40 -361 -362 -330 -329 -25 -363 -22 -331 0
-27 -228 -361 -353 -347 -345 -355 -363 -235 -229 0
-26 -228 -361 -353 -347 -345 -355 -363 -235 -229 0
-25 -228 -361 -353 -347 -345 -355 -363 -235 -229 0
-348 -356 -349 -355 -68 -347 -59 -55 -357 -228 0
-348 -356 -349 -357 -354 -346 -228 -43 -48 -69 0
-348 -45 -349 -357 -354 -346 -356 -69 -47 -228 0
-348 -349 -228 -357 -46 -346 -354 -356 -69 -44 0
-348 -356 -349 -48 -354 -346 -228 -357 -44 -68 0
-348 -68 -349 -357 -354 -346 -356 -47 -43 -228 0
-348 -68 -349 -357 -354 -346 -46 -356 -45 -228 0
-348 -356 -349 -48 -354 -346 -228 -357 -67 -45 0
-348 -356 -349 -47 -354 -346 -228 -357 -67 -44 0
-348 -356 -349 -357 -354 -346 -228 -43 -67 -46 0
-204 -324 -354 -357 -356 -322 -43 -48 -69 -325 0
-204 -354 -325 -356 -46 -322 -324 -44 -357 -69 0
-204 -45 -354 -357 -46 -322 -356 -68 -324 -325 0
-204 -354 -325 -356 -357 -322 -67 -47 -324 -44 0
-204 -354 -325 -356 -357 -322 -46 -67 -324 -43 0
-316 -354 -317 -357 -356 -314 -43 -48 -69 -194 0
-194 -354 -317 -356 -357 -314 -48 -44 -68 -316 0
-194 -43 -354 -357 -356 -314 -316 -68 -47 -317 0
-194 -354 -317 -356 -357 -314 -48 -67 -316 -45 0
-194 -316 -354 -357 -356 -314 -46 -43 -67 -317 0
-204 -324 -353 -357 -356 -321 -28 -69 -33 -325 0
-204 -324 -353 -357 -356 -321 -31 -69 -325 -29 0
-324 -325 -353 -357 -356 -321 -68 -33 -204 -29 0
-324 -325 -353 -357 -356 -321 -32 -28 -204 -68 0
-204 -324 -353 -357 -356 -321 -30 -31 -325 -68 0
-356 -325 -353 -32 -67 -321 -357 -29 -324 -204 0
-204 -325 -353 -356 -28 -321 -31 -357 -324 -67 0
-194 -316 -353 -357 -356 -313 -28 -33 -317 -69 0
-194 -316 -353 -357 -356 -313 -30 -32 -317 -69 0
-194 -317 -353 -356 -316 -313 -357 -31 -69 -29 0
-194 -317 -353 -356 -357 -313 -32 -68 -316 -28 0
-194 -316 -353 -357 -356 -313 -68 -31 -317 -30 0
-194 -30 -353 -357 -356 -313 -67 -33 -316 -317 0
-29 -356 -32 -353 -67 -313 -357 -317 -316 -194 0
-194 -317 -353 -356 -357 -313 -31 -28 -316 -67 0
-48 -40 -228 -346 -347 -355 -357 -354 -349 -60 0
-349 -60 -42 -47 -347 -346 -354 -355 -357 -228 0
-46 -346 -347 -228 -355 -349 -357 -354 -41 -60 0
-349 -48 -41 -347 -228 -346 -59 -354 -357 -355 0
-357 -346 -347 -228 -349 -355 -47 -354 -59 -40 0
-59 -46 -42 -349 -347 -346 -357 -354 -355 -228 0
-349 -42 -228 -346 -347 -355 -357 -354 -48 -58 0
-58 -47 -41 -355 -347 -346 -354 -228 -357 -349 0
-46 -40 -228 -349 -357 -346 -354 -347 -355 -58 0
-357 -341 -354 -338 -355 -221 -339 -46 -60 -41 0
-59 -48 -338 -339 -354 -355 -41 -221 -357 -341 0
-357 -341 -354 -338 -355 -221 -339 -46 -58 -40 0
-60 -333 -331 -354 -213 -330 -355 -42 -357 -47 0
-48 -213 -330 -354 -355 -41 -331 -357 -59 -333 0
-333 -357 -354 -355 -331 -330 -46 -213 -59 -42 0
-333 -357 -354 -355 -331 -330 -213 -48 -58 -42 0
-58 -333 -355 -357 -354 -330 -41 -331 -47 -213 0
-58 -46 -40 -330 -355 -354 -331 -213 -333 -357 0
-33 -357 -353 -355 -347 -345 -228 -349 -60 -25 0
-349 -32 -228 -27 -357 -355 -347 -353 -345 -60 0
-31 -60 -26 -355 -357 -345 -353 -347 -228 -349 0
-349 -33 -26 -59 -357 -345 -353 -347 -355 -228 0
-32 -357 -228 -355 -347 -345 -353 -349 -25 -59 0
-31 -349 -27 -347 -228 -59 -357 -345 -353 -355 0
-58 -349 -27 -33 -347 -345 -355 -357 -353 -228 0
-58 -26 -32 -349 -347 -355 -353 -357 -345 -228 0
-221 -357 -353 -355 -339 -337 -341 -33 -60 -25 0
-59 -31 -357 -353 -355 -337 -339 -341 -221 -27 0
-58 -357 -27 -353 -355 -337 -339 -341 -33 -221 0
-333 -32 -355 -353 -331 -329 -213 -357 -27 -60 0
-357 -26 -355 -353 -331 -329 -213 -31 -60 -333 0
-333 -357 -353 -355 -331 -329 -213 -59 -27 -31 0
-58 -33 -27 -355 -353 -329 -331 -333 -357 -213 0
-333 -32 -355 -353 -331 -329 -213 -58 -357 -26 0
-58 -333 -331 -353 -213 -329 -355 -357 -31 -25 0
-349 -33 -22 -346 -353 -345 -357 -354 -48 -228 0
-349 -48 -24 -346 -32 -345 -357 -354 -353 -228 0
-48 -23 -228 -349 -346 -345 -354 -357 -353 -31 0
-33 -47 -23 -346 -349 -345 -354 -357 -353 -228 0
-349 -22 -228 -346 -32 -345 -354 -353 -357 -47 0
-31 -47 -228 -354 -346 -345 -353 -24 -357 -349 0
-349 -33 -24 -346 -46 -345 -357 -354 -353 -228 0
-349 -354 -228 -23 -346 -32 -357 -46 -353 -345 0
-31 -349 -22 -346 -46 -345 -357 -353 -354 -228 0
-48 -24 -32 -354 -353 -329 -333 -357 -330 -213 0
-31 -48 -330 -354 -353 -329 -333 -357 -213 -23 0
-47 -33 -354 -353 -330 -329 -357 -333 -213 -23 0
-47 -357 -24 -354 -330 -329 -353 -333 -213 -31 0
-33 -357 -24 -354 -353 -329 -330 -333 -46 -213 0
-333 -32 -353 -354 -330 -329 -213 -357 -46 -23 0
-204 -325 -353 -354 -322 -321 -48 -357 -33 -22 0
-204 -325 -353 -354 -322 -321 -32 -22 -357 -47 0
-204 -325 -353 -354 -322 -321 -22 -357 -46 -31 0
-45 -57 -354 -40 -228 -346 -355 -356 -348 -347 0
-57 -44 -354 -356 -42 -346 -355 -347 -348 -228 0
-43 -356 -354 -41 -347 -346 -355 -228 -348 -57 0
-45 -56 -354 -347 -41 -346 -355 -356 -348 -228 0
-44 -56 -40 -354 -347 -346 -355 -356 -228 -348 0
-43 -56 -354 -356 -42 -346 -355 -347 -348 -228 0
-45 -55 -42 -354 -347 -346 -355 -356 -348 -228 0
-55 -44 -354 -347 -41 -346 -355 -348 -228 -356 0
-43 -55 -354 -347 -40 -346 -355 -228 -348 -356 0
-30 -57 -353 -356 -347 -345 -355 -228 -348 -25 0
-28 -57 -353 -26 -347 -345 -355 -228 -348 -356 0
-28 -56 -353 -27 -347 -345 -355 -356 -348 -228 0
-30 -55 -353 -347 -27 -345 -355 -356 -348 -228 0
-29 -55 -353 -26 -347 -345 -355 -356 -228 -348 0
-45 -30 -353 -354 -346 -345 -22 -356 -228 -348 0
-45 -29 -24 -354 -346 -345 -353 -356 -348 -228 0
-45 -28 -353 -354 -346 -345 -23 -348 -356 -228 0
-44 -30 -353 -354 -346 -345 -23 -228 -348 -356 0
-348 -29 -353 -354 -346 -345 -356 -22 -44 -228 0
-28 -44 -24 -354 -346 -345 -353 -228 -348 -356 0
-30 -43 -24 -354 -346 -345 -353 -356 -348 -228 0
-43 -29 -353 -354 -346 -345 -23 -356 -348 -228 0
-28 -43 -353 -354 -346 -345 -356 -22 -348 -228 0
-348 356 -353 -354 -347 -346 -345 344 352 -355 0
-41 -23 -228 -353 -346 -345 -354 -27 -347 -355 0
-24 -354 -353 -228 -27 -345 -346 -355 -347 -40 0
-40 -354 -353 -228 -346 -345 -347 -355 -25 -22 0
-221 -42 -353 -354 -338 -337 -339 -355 -27 -22 0
-221 -24 -338 -354 -353 -337 -42 -355 -339 -26 0
-221 -25 -353 -354 -338 -337 -23 -355 -339 -42 0
-221 -41 -353 -354 -338 -337 -339 -355 -23 -27 0
-221 -26 -353 -354 -338 -337 -339 -355 -41 -22 0
-221 -24 -353 -354 -41 -337 -339 -355 -338 -25 0
-221 -26 -353 -40 -354 -337 -338 -355 -339 -23 0
-213 -42 -353 -354 -330 -329 -27 -355 -331 -22 0
-213 -25 -353 -354 -330 -329 -23 -355 -331 -42 0
-213 -41 -353 -354 -330 -329 -331 -355 -23 -27 0
-26 -213 -353 -354 -330 -329 -331 -355 -41 -22 0
-24 -213 -353 -354 -330 -329 -331 -355 -41 -25 0
-24 -40 -353 -354 -330 -329 -331 -355 -27 -213 0
-213 -40 -353 -354 -330 -329 -25 -355 -22 -331 0
-220 -339 -228 -42 -354 -338 -347 -346 -355 -221 0
-221 -339 -228 -41 -354 -338 -347 -355 -346 -220 0
-221 -40 -228 -346 -354 -338 -347 -355 -339 -220 0
-212 -330 -228 -24 -353 -329 -346 -354 -345 -213 0
-212 -330 -353 -345 -228 -329 -346 -354 -23 -213 0
-111 -112 -347 -339 -348 -340 -220 -56 -267 -268 0
-112 -267 -347 -339 -348 -55 -220 -340 -111 -268 0
-127 -340 -346 -338 -348 -276 -45 -220 -274 -128 0
-127 -348 -346 -338 -220 -44 -276 -340 -274 -128 0
-112 -111 -346 -338 -348 -45 -268 -266 -220 -340 0
-111 -112 -346 -338 -348 -268 -44 -266 -340 -220 0
-156 -292 -345 -337 -348 -289 -30 -340 -220 -157 0
-157 -292 -345 -337 -348 -289 -29 -220 -156 -340 0
-340 348 -345 -346 -339 -338 -337 336 344 -347 0
-220 -346 -345 -27 -338 -337 -339 -347 -41 -23 0
-212 -346 -345 -27 -330 -329 -331 -347 -41 -23 0
-24 -40 -27 -346 -330 -329 -345 -347 -331 -212 0
-212 -40 -345 -346 -330 -329 -25 -347 -22 -331 0
-143 -142 -346 -338 -42 -347 -339 -220 -282 -283 0
-143 -142 -346 -338 -339 -347 -41 -220 -282 -283 0
-143 -142 -346 -338 -339 -347 -40 -220 -282 -283 0
-128 -275 -346 -338 -42 -347 -339 -220 -274 -127 0
-128 -220 -338 -41 -339 -347 -346 -275 -274 -127 0
-127 -128 -346 -338 -339 -347 -40 -220 -275 -274 0
-170 -220 -345 -337 -27 -297 -347 -339 -299 -169 0
-170 -299 -345 -337 -339 -297 -347 -220 -26 -169 0
-170 -220 -345 -337 -25 -297 -169 -339 -299 -347 0
-156 -291 -345 -337 -339 -289 -347 -27 -220 -157 0
-157 -291 -345 -337 -339 -289 -347 -26 -220 -156 0
-156 -291 -345 -337 -339 -289 -347 -25 -220 -157 0
-220 -24 -330 -337 -211 -329 -338 -346 -345 -212 0
-220 -212 -23 -337 -330 -329 -338 -346 -345 -211 0
-220 -212 -345 -22 -330 -329 -338 -346 -337 -211 0
-203 -322 -24 -337 -345 -321 -338 -346 -220 -202 0
-203 -202 -345 -337 -322 -321 -338 -346 -23 -220 0
-203 -202 -345 -337 -322 -321 -338 -346 -22 -220 0
-193 -314 -24 -337 -345 -313 -338 -346 -220 -192 0
-193 -192 -345 -337 -314 -313 -338 -346 -23 -220 0
-193 -314 -345 -337 -22 -313 -338 -346 -220 -192 0
-182 -220 -338 -24 -345 -305 -346 -337 -306 -181 0
-182 -181 -345 -337 -338 -305 -346 -23 -220 -306 0
-170 -298 -345 -337 -338 -297 -346 -24 -220 -169 0
-170 -169 -345 -337 -338 -297 -346 -220 -298 -23 0
-193 -314 -345 -329 -212 -313 -330 -346 -191 -23 0
-193 -203 -345 -321 -314 -313 -322 -346 -24 -190 0
-193 -203 -345 -321 -314 -313 -322 -346 -190 -23 0
-193 -203 -345 -321 -314 -313 -322 -346 -22 -190 0
-128 -112 -338 -346 -266 -111 -274 -220 -127 -103 0
-31 -59 -341 -331 -337 -329 -339 -211 -27 -333 0
-341 -33 -338 -330 -337 -329 -24 -46 -211 -333 0
-332 -337 340 -331 -338 -330 -329 328 336 -339 0
-22 -42 -331 -330 -338 -329 -27 -339 -337 -211 0
-42 -25 -330 -338 -23 -329 -337 -339 -331 -211 0
-211 -41 -331 -339 -330 -329 -338 -337 -23 -27 0
-26 -211 -330 -337 -338 -329 -331 -339 -41 -22 0
-24 -211 -337 -330 -338 -329 -331 -339 -41 -25 0
-168 -297 -27 -329 -339 -337 -331 -169 -211 -299 0
-168 -169 -337 -329 -26 -297 -339 -331 -299 -211 0
-168 -169 -337 -329 -331 -297 -339 -211 -299 -25 0
-202 -322 -24 -329 -337 -321 -330 -338 -201 -211 0
-202 -322 -337 -329 -211 -321 -330 -338 -23 -201 0
-202 -322 -337 -329 -211 -321 -330 -338 -201 -22 0
-191 -314 -24 -329 -337 -313 -330 -338 -211 -192 0
-191 -192 -337 -329 -314 -313 -330 -338 -23 -211 0
-191 -192 -337 -329 -314 -313 -330 -338 -211 -22 0
-323 -201 -330 -331 -60 -322 -48 -40 -333 -325 0
-323 -201 -330 -46 -331 -322 -41 -60 -325 -333 0
-323 -201 -330 -331 -59 -322 -40 -47 -325 -333 0
-201 -58 -330 -331 -323 -322 -40 -46 -325 -333 0
-141 -140 -331 -283 -325 -333 -323 -201 -285 -60 0
-141 -140 -331 -333 -325 -323 -201 -58 -285 -283 0
-109 -330 -325 -322 -201 -110 -266 -333 -269 -46 0
-329 -333 -325 -321 -293 -289 -154 -155 -201 -33 0
-333 -329 -325 -321 -32 -289 -154 -293 -201 -155 0
-323 -324 -329 -330 332 -322 -321 320 328 -331 0
-180 -201 -329 -321 -331 -305 -179 -323 -307 -26 0
-307 -201 -329 -321 -331 -305 -179 -25 -323 -180 0
-167 -201 -329 -321 -331 -297 -299 -27 -168 -323 0
-167 -323 -329 -321 -331 -297 -26 -168 -201 -299 0
-323 -299 -329 -321 -201 -297 -331 -25 -168 -167 0
-191 -314 -24 -321 -329 -313 -322 -330 -190 -201 0
-191 -201 -329 -321 -314 -313 -322 -330 -23 -190 0
-191 -329 -190 -321 -314 -313 -322 -330 -22 -201 0
-180 -179 -329 -321 -322 -305 -330 -201 -306 -23 0
-322 -48 -317 -321 -314 -313 -190 -31 -23 -325 0
-269 -322 -48 -314 -109 -325 -317 -190 -108 -266 0
-269 -322 -317 -314 -109 -47 -190 -325 -108 -266 0
-269 -322 -317 -314 -46 -190 -109 -108 -266 -325 0
-33 -317 -321 -313 -325 -289 -190 -154 -153 -293 0
-32 -190 -321 -313 -325 -289 -317 -154 -153 -293 0
-31 -317 -321 -313 -325 -289 -190 -154 -153 -293 0
-45 -266 -322 -314 -190 -324 -268 -109 -108 -316 0
-108 -266 -322 -314 -44 -268 -316 -109 -324 -190 0
-108 -43 -322 -314 -190 -316 -268 -324 -109 -266 0
-315 -323 -321 -322 324 -314 -313 312 320 -316 0
-316 324 -321 -314 -313 312 -322 320 323 315 0
-314 -178 -24 -313 -321 -305 -322 -179 -190 -306 0
-179 -314 -321 -313 -178 -305 -322 -23 -190 -306 0
-179 -314 -321 -313 -178 -305 -322 -190 -22 -306 0
-309 -314 -48 -306 -68 -316 -317 -178 -308 -44 0
-124 -314 -47 -306 -317 -309 -178 -274 -277 -123 0
-124 -123 -314 -317 -309 -274 -306 -178 -277 -46 0
-301 -305 -313 -317 -165 -297 -178 -166 -309 -33 0
-301 -166 -32 -305 -313 -297 -317 -309 -178 -165 0
-178 -33 -293 -305 -313 -289 -152 -317 -153 -309 0
-178 -305 -293 -32 -313 -289 -317 -309 -153 -152 0
-308 -268 -314 -306 -316 -266 -178 -108 -107 -45 0
-124 -139 -314 -266 -274 -282 -120 -108 -104 -103 0
-166 -297 -153 -289 -305 -313 -152 -178 -165 -151 0
-139 -281 -289 -305 -313 -178 -152 -153 -138 -136 0
-259 -260 -57 -300 -308 -299 -165 -90 -89 -307 0
-259 -307 -56 -300 -260 -308 -165 -299 -89 -90 0
-259 -260 -55 -307 -299 -308 -165 -90 -89 -300 0
-292 -30 -305 -297 -308 -289 -165 -152 -151 -300 0
-292 -300 -305 -297 -29 -289 -165 -308 -151 -152 0
-28 -292 -305 -297 -300 -289 -165 -308 -151 -152 0
308 -307 -305 306 -297 296 -300 304 -299 298 0
-291 -307 -305 -297 -27 -289 -165 -152 -151 -299 0
-291 -307 -305 -297 -26 -289 -165 -152 -151 -299 0
-291 -307 -305 -297 -25 -289 -152 -165 -151 -299 0
-138 -281 -289 -297 -305 -165 -151 -152 -137 -136 0
-291 -292 -69 -60 -299 -301 -151 -300 -293 -55 0
-301 -291 -57 -59 -69 -299 -151 -293 -292 -300 0
-300 -58 -293 -69 -299 -291 -151 -292 -301 -56 0
-291 -300 -59 -68 -301 -299 -151 -293 -292 -55 0
-299 -58 -68 -57 -301 -291 -292 -293 -151 -300 0
-291 -269 -106 -299 -293 -301 -151 -267 -105 -59 0
-285 -297 -293 -289 -33 -281 -151 -137 -136 -301 0
-281 -297 -293 -289 -32 -285 -151 -137 -136 -301 0
-292 300 -297 290 -289 288 -299 296 298 -291 0
-291 -283 -297 -289 -137 -299 -27 -151 -281 -136 0
-291 -283 -297 -289 -26 -137 -151 -299 -136 -281 0
-291 -283 -297 -289 -25 -299 -151 -137 -136 -281 0
-291 -106 -299 -89 -151 -267 -105 -259 -88 -85 0
-292 291 -289 288 -297 300 296 298 290 299 0
-122 -121 -289 -297 -281 -151 -136 -137 -273 -120 0
-284 292 -289 280 282 283 288 290 -281 291 0
-284 -285 -69 -282 -276 -274 -120 -277 -47 -45 0
-284 -277 -48 -68 -282 -274 -120 -285 -276 -44 0
-277 -267 -60 -283 -275 -269 -120 -104 -103 -285 0
-285 -267 -59 -275 -283 -277 -120 -104 -103 -269 0
-277 -285 -60 -275 -283 -259 -120 -261 -86 -87 0
-277 -285 -59 -261 -275 -283 -120 -87 -86 -259 0
-277 -285 -58 -259 -261 -283 -120 -87 -86 -275 0
-261 -269 -283 -285 -259 -267 -104 -87 -85 -60 0
-285 -267 -58 -104 -269 -259 -261 -87 -85 -283 0
-277 -269 -48 -274 -282 -266 -120 -104 -103 -285 0
-277 -285 -282 -269 -47 -103 -120 -104 -266 -274 0
-277 -269 -46 -266 -274 -285 -120 -104 -103 -282 0
-284 -268 -282 -274 -276 -266 -120 -104 -103 -45 0
-275 -267 -266 -274 -282 -283 -120 -104 -103 -42 0
-283 -267 -41 -282 -266 -274 -120 -104 -103 -275 0
-275 -267 -40 -282 -274 -283 -120 -104 -103 -266 0
-259 -283 -267 -275 -87 -120 -104 -103 -86 -85 0
-274 -258 -266 -87 -120 -104 -103 -282 -86 -85 0
276 275 -268 264 -266 265 272 273 -274 267 0
-121 -136 -105 -120 -104 -103 -88 -87 -86 -85 0
55 40 31 25 28 22 67 58 46 43 0
68 55 47 22 40 59 25 43 32 28 0
43 69 33 22 60 40 25 55 48 28 0
58 40 25 69 31 46 29 22 56 44 0
59 67 22 47 44 29 40 25 56 32 0
68 29 48 22 25 60 40 44 56 33 0
47 69 40 59 22 32 45 25 30 57 0
60 43 31 41 22 28 46 57 26 67 0
68 43 22 47 32 57 58 26 28 41 0
59 69 22 26 43 41 28 57 48 33 0
46 55 22 31 41 26 29 60 44 69 0
55 67 32 22 58 44 47 26 41 29 0
68 29 33 22 26 41 48 55 44 59 0
68 45 46 22 41 60 31 56 30 26 0
69 45 22 26 41 47 56 58 30 32 0
67 59 33 22 48 41 45 56 30 26 0
68 42 22 47 43 32 60 27 56 28 0
56 69 33 22 48 27 42 43 58 28 0
22 46 27 31 42 29 59 44 57 69 0
68 57 58 22 42 29 44 48 33 27 0
45 46 22 59 42 30 55 31 68 27 0
55 60 69 22 47 32 42 45 30 27 0
55 58 31 25 23 42 67 48 45 28 0
68 45 46 59 28 32 23 25 55 42 0
69 60 33 42 23 45 55 25 47 28 0
29 56 31 69 25 42 48 23 43 58 0
56 29 46 59 23 32 25 67 42 43 0
68 60 33 42 43 47 25 23 29 56 0
68 58 31 25 23 42 57 30 44 48 0
30 44 69 59 42 25 23 46 57 32 0
57 30 47 33 42 60 44 25 67 23 0
67 40 26 60 23 31 45 28 48 57 0
68 58 40 46 32 23 57 26 45 28 0
57 69 59 40 23 47 45 28 26 33 0
60 43 31 40 26 23 55 48 29 69 0
46 40 26 67 43 32 58 23 29 55 0
68 55 33 26 47 23 40 43 29 59 0
68 56 31 60 26 23 48 40 30 44 0
44 46 40 69 32 23 26 56 30 58 0
44 47 59 23 67 26 40 30 56 33 0
45 67 27 59 48 56 23 41 31 28 0
56 46 41 32 27 28 45 23 60 68 0
69 43 59 27 41 23 57 29 48 31 0
60 67 41 32 27 29 43 46 57 23 0
68 29 58 57 43 41 47 27 23 33 0
68 44 31 48 23 27 30 41 55 59 0
60 69 41 27 23 32 44 55 46 30 0
55 28 24 47 31 67 25 58 41 44 0
68 55 48 32 24 59 44 25 28 41 0
44 60 25 46 55 41 33 69 28 24 0
56 29 24 31 47 41 69 58 45 25 0
45 67 24 48 59 25 41 32 29 56 0
46 24 33 41 56 68 60 25 45 29 0
68 30 24 47 58 57 25 41 43 31 0
57 69 24 32 48 59 25 43 41 30 0
46 24 33 41 25 30 67 43 57 60 0
57 67 24 47 31 60 26 44 28 42 0
68 44 32 58 42 28 26 48 24 57 0
55 60 69 47 42 45 31 26 29 24 0
55 29 24 48 58 67 42 32 45 26 0
46 59 24 26 42 29 45 55 33 68 0
56 69 24 43 58 42 48 32 30 26 0
30 46 24 33 42 56 59 67 43 26 0
47 67 40 31 59 56 44 24 28 27 0
68 44 60 40 28 24 32 48 27 56 0
69 46 40 24 44 27 28 33 56 58 0
29 47 24 59 69 27 31 40 45 57 0
57 67 24 60 29 48 45 32 27 40 0
68 47 24 40 31 59 27 30 55 43 0
60 69 24 32 43 27 48 40 55 30 0
46 67 24 27 43 55 40 30 33 58 0
196 195 236 235 194 241 312 352 360 368 0
206 205 204 235 236 241 320 352 360 368 0
328 336 213 212 221 228 220 211 344 352 0
222 214 213 211 221 235 328 336 352 360 0
229 328 344 228 213 235 214 212 352 360 0
236 215 235 213 214 241 328 352 360 368 0
223 241 221 235 236 222 336 352 360 368 0
230 241 235 229 236 352 344 228 360 368 0
373 -372 -370 -369 -365 -371 -363 -362 -361 360 368 -364 0
-357 365 -362 -361 -363 -356 -355 -354 -353 352 360 -364 0
-349 357 -354 -353 -355 -348 -356 -346 -345 344 352 -347 0
-340 -341 -346 -345 -347 -339 -348 -338 -337 336 344 349 0
-332 -333 -339 -337 -338 341 -331 -330 -329 328 336 -340 0
-317 325 -321 -322 315 -314 -313 312 -316 320 323 -324 0
284 292 -289 280 282 283 -281 288 290 -285 291 293 0
276 -269 268 264 -266 267 265 272 273 -274 275 277 0
