p cnf 7647 270
-2497 0
-717 0
-2492 2497 0
-2487 2492 0
-2482 2487 0
-2477 2482 0
-2472 2477 0
-2467 2472 0
-2462 2467 0
-2457 2462 0
-2452 2457 0
-2447 2452 0
-2442 2447 0
-2437 2442 0
-2432 2437 0
-2427 2432 0
-2422 2427 0
-2417 2422 0
-2412 2417 0
-2407 2412 0
-2402 2407 0
-2397 2402 0
-2392 2397 0
-2387 2392 0
-2382 2387 0
-2377 2382 0
-2372 2377 0
-2367 2372 0
-2362 2367 0
-2357 2362 0
-2352 2357 0
-2347 2352 0
-2342 2347 0
-2337 2342 0
-2332 2337 0
-2327 2332 0
-2322 2327 0
-712 717 0
-707 712 0
-702 707 0
-697 702 0
-692 697 0
-687 692 0
-682 687 0
-677 682 0
-672 677 0
-667 672 0
-662 667 0
-657 662 0
-652 657 0
-647 652 0
-642 647 0
-637 642 0
-632 637 0
-627 632 0
-622 627 0
-617 622 0
-612 617 0
400 -392 0
392 -384 0
384 -376 0
376 -368 0
588 -368 0
-360 368 0
-352 360 0
-344 352 0
-336 344 0
-328 336 0
-320 328 0
-312 320 0
-304 312 0
-296 304 0
-288 296 0
-280 288 0
-272 280 0
-264 272 0
-256 264 0
2 -3 0
1 -2 0
258 2308 0
290 -2317 2322 0
-2313 282 2317 0
-2310 274 2313 0
-2308 266 2310 0
-400 -606 612 0
606 -600 -392 0
600 -594 -384 0
594 -588 -376 0
-241 -369 -361 0
-236 -369 -353 0
-230 -369 -345 0
-235 -361 -353 0
-229 -361 -345 0
-228 -353 -345 0
-1 -2 -3 0
41 40 42 0
151 291 299 0
152 291 307 0
315 291 153 0
165 307 299 0
315 299 166 0
315 307 178 0
369 -361 368 360 0
361 -353 360 352 0
353 -345 352 344 0
-337 345 344 336 0
-329 337 336 328 0
-321 329 328 320 0
-313 321 320 312 0
-305 313 312 304 0
-297 305 304 296 0
-289 297 296 288 0
-281 289 288 280 0
-273 281 280 272 0
-265 273 272 264 0
-257 265 264 256 0
346 -338 336 344 345 337 0
338 -330 328 336 337 329 0
330 -322 320 328 329 321 0
322 -314 312 320 321 313 0
314 -306 304 312 313 305 0
306 -298 297 304 305 296 0
298 -290 289 296 297 288 0
-282 280 290 288 289 281 0
-274 282 272 280 281 273 0
-266 274 264 272 273 265 0
-258 266 256 264 265 257 0
347 -339 -338 336 344 337 345 -346 0
339 -331 -330 328 329 336 337 -338 0
331 -323 321 320 -322 328 329 -330 0
323 -322 -315 312 313 320 321 -314 0
315 305 -307 304 -306 312 313 -314 0
-299 307 -298 296 297 304 305 -306 0
-291 299 -290 288 289 296 297 -298 0
-42 -211 -346 -338 -212 -330 -339 -347 -220 -331 0
-41 -211 -346 -338 -212 -330 -339 -347 -220 -331 0
-40 -211 -346 -338 -212 -330 -339 -347 -220 -331 0
-42 -202 -346 -338 -323 -322 -339 -347 -220 -203 0
-202 -322 -346 -338 -347 -41 -339 -323 -220 -203 0
-202 -203 -220 -346 -338 -40 -323 -322 -347 -339 0
-42 -192 -346 -338 -315 -314 -339 -220 -347 -193 0
-192 -315 -346 -338 -41 -314 -339 -220 -347 -193 0
-192 -193 -220 -338 -40 -346 -315 -347 -314 -339 0
-42 -181 -346 -220 -347 -306 -338 -307 -339 -182 0
-181 -307 -338 -220 -346 -41 -339 -306 -182 -347 0
-181 -182 -220 -338 -307 -346 -306 -339 -347 -40 0
-42 -201 -330 -346 -203 -322 -331 -323 -212 -347 0
-201 -203 -346 -330 -41 -322 -331 -323 -212 -347 0
-201 -203 -346 -330 -40 -322 -331 -347 -323 -212 0
-42 -191 -212 -346 -193 -315 -330 -331 -347 -314 0
-191 -193 -212 -346 -41 -315 -330 -331 -347 -314 0
-191 -193 -212 -347 -40 -346 -315 -314 -331 -330 0
-42 -180 -346 -330 -212 -331 -306 -307 -347 -182 0
-180 -307 -330 -346 -212 -331 -41 -306 -347 -182 0
-180 -182 -346 -330 -212 -307 -40 -306 -347 -331 0
-42 -193 -203 -322 -315 -314 -346 -190 -347 -323 0
-315 -193 -203 -322 -41 -314 -346 -190 -347 -323 0
-190 -193 -203 -40 -315 -322 -346 -314 -347 -323 0
-42 -307 -203 -346 -179 -323 -306 -347 -322 -182 0
-179 -307 -203 -41 -346 -306 -182 -347 -322 -323 0
-179 -307 -40 -203 -346 -347 -182 -306 -322 -323 0
-42 -178 -193 -307 -346 -182 -315 -306 -314 -347 0
-178 -307 -193 -41 -346 -315 -182 -306 -314 -347 0
-178 -307 -40 -193 -346 -182 -315 -306 -347 -314 0
-181 -182 -220 -338 -346 -306 -170 -298 -169 -165 0
-157 -290 -220 -182 -338 -346 -156 -181 -306 -152 0
-157 -156 -220 -290 -338 -346 -169 -298 -170 -151 0
-168 -170 -212 -182 -180 -298 -346 -306 -330 -165 0
-290 -155 -330 -346 -212 -182 -306 -157 -180 -152 0
-157 -168 -330 -346 -170 -212 -290 -298 -155 -151 0
-170 -167 -203 -182 -179 -346 -322 -306 -298 -165 0
-179 -182 -203 -157 -290 -154 -322 -346 -306 -152 0
-170 -167 -203 -290 -154 -346 -322 -298 -157 -151 0
-170 -182 -193 -178 -306 -298 -314 -346 -166 -165 0
-153 -182 -193 -290 -157 -152 -178 -346 -306 -314 0
-157 -290 -193 -170 -153 -166 -346 -298 -314 -151 0
-157 -151 -182 -306 -170 -152 -290 -298 -346 -165 0
-42 -323 -338 -211 -330 -322 -331 -339 -201 -202 0
-323 -322 -338 -211 -330 -41 -331 -339 -201 -202 0
-201 -40 -338 -211 -202 -322 -330 -323 -339 -331 0
-42 -315 -338 -211 -331 -314 -330 -339 -192 -191 0
-315 -314 -338 -211 -331 -41 -330 -339 -192 -191 0
-191 -40 -338 -211 -315 -314 -330 -339 -192 -331 0
-42 -307 -330 -211 -338 -306 -331 -180 -339 -181 0
-307 -306 -338 -211 -330 -41 -331 -181 -339 -180 0
-180 -40 -211 -307 -331 -306 -330 -338 -339 -181 0
-42 -202 -338 -190 -315 -339 -314 -322 -323 -192 0
-202 -190 -338 -41 -315 -339 -314 -322 -323 -192 0
-202 -192 -40 -338 -339 -322 -315 -190 -314 -323 0
-42 -181 -338 -307 -323 -306 -179 -322 -202 -339 0
-181 -307 -338 -41 -179 -306 -323 -322 -202 -339 0
-181 -202 -307 -339 -40 -306 -323 -338 -322 -179 0
-181 -192 -338 -307 -315 -306 -178 -42 -314 -339 0
-181 -307 -338 -41 -192 -315 -314 -306 -339 -178 0
-181 -192 -338 -307 -40 -306 -314 -315 -339 -178 0
-169 -298 -330 -211 -180 -165 -306 -338 -168 -181 0
-156 -290 -211 -330 -181 -306 -338 -180 -155 -152 0
-168 -156 -330 -290 -338 -169 -298 -155 -211 -151 0
-181 -202 -179 -298 -338 -322 -167 -306 -169 -165 0
-202 -181 -154 -290 -179 -338 -156 -322 -306 -152 0
-202 -167 -169 -290 -338 -322 -298 -156 -154 -151 0
-181 -166 -169 -192 -338 -178 -298 -306 -314 -165 0
-181 -290 -338 -314 -178 -192 -153 -156 -306 -152 0
-166 -290 -314 -192 -338 -298 -169 -156 -153 -151 0
-181 -165 -290 -156 -338 -169 -298 -306 -152 -151 0
-42 -191 -201 -331 -315 -314 -330 -323 -322 -190 0
-191 -201 -331 -41 -315 -314 -330 -323 -322 -190 0
-191 -201 -40 -323 -315 -190 -330 -314 -331 -322 0
-42 -179 -307 -201 -330 -180 -306 -322 -323 -331 0
-201 -307 -41 -180 -330 -179 -306 -331 -323 -322 0
-180 -201 -307 -40 -330 -179 -306 -322 -323 -331 0
-42 -191 -331 -315 -307 -306 -314 -180 -178 -330 0
-191 -307 -41 -180 -315 -306 -314 -331 -178 -330 0
-180 -191 -307 -40 -315 -306 -314 -330 -331 -178 0
-167 -168 -179 -180 -298 -201 -306 -322 -330 -165 0
-154 -180 -322 -330 -179 -152 -290 -201 -306 -155 0
-154 -167 -290 -168 -298 -155 -322 -151 -201 -330 0
-166 -168 -180 -178 -191 -298 -306 -314 -330 -165 0
-191 -290 -180 -306 -153 -155 -330 -178 -314 -152 0
-166 -168 -153 -290 -298 -155 -191 -314 -330 -151 0
-168 -165 -180 -290 -152 -155 -151 -298 -330 -306 0
-42 -179 -307 -315 -323 -322 -314 -306 -190 -178 0
-179 -307 -41 -190 -315 -306 -314 -323 -322 -178 0
-179 -178 -315 -314 -322 -306 -323 -307 -190 -40 0
-167 -166 -179 -178 -322 -298 -306 -314 -190 -165 0
-154 -290 -314 -152 -179 -178 -190 -306 -153 -322 0
-166 -167 -290 -190 -153 -298 -154 -322 -314 -151 0
-154 -167 -290 -152 -179 -322 -165 -298 -306 -151 0
-165 -166 -290 -153 -178 -298 -306 -314 -152 -151 0
154 190 3 289 288 153 312 313 320 321 0
153 155 3 289 288 191 312 313 328 329 0
156 153 3 192 288 289 312 313 336 337 0
157 153 3 193 289 288 312 313 344 345 0
154 155 3 201 288 289 320 321 328 329 0
156 154 3 202 288 289 320 321 336 337 0
154 157 3 203 289 288 320 321 344 345 0
156 155 3 211 289 288 328 329 336 337 0
212 157 3 155 288 289 328 329 344 345 0
156 220 3 289 288 157 336 337 344 345 0
167 190 3 166 296 297 312 313 320 321 0
168 166 3 191 296 297 312 313 328 329 0
166 169 3 192 296 297 312 313 336 337 0
166 170 3 297 193 296 312 313 344 345 0
168 167 3 201 296 297 320 321 328 329 0
167 169 3 202 297 296 320 321 336 337 0
167 170 3 203 297 296 320 321 344 345 0
168 169 3 211 297 296 328 329 336 337 0
168 212 3 170 296 297 328 329 344 345 0
220 170 3 169 296 297 336 337 344 345 0
190 178 3 179 304 305 312 313 320 321 0
178 180 3 191 304 305 312 313 328 329 0
178 181 3 192 305 304 312 313 336 337 0
178 182 3 305 304 193 312 313 344 345 0
179 180 3 201 304 305 320 321 328 329 0
179 181 3 202 304 305 320 321 336 337 0
179 182 3 305 304 203 320 321 344 345 0
305 3 304 211 180 181 328 329 336 337 0
180 212 3 182 304 305 328 329 344 345 0
181 220 3 182 304 305 336 337 344 345 0
190 191 3 201 312 313 320 321 328 329 0
190 192 3 202 312 313 320 321 336 337 0
190 203 3 345 313 312 320 193 344 321 0
313 3 312 211 191 192 328 329 336 337 0
212 193 3 191 313 312 328 329 344 345 0
220 192 3 193 312 313 336 337 344 345 0
321 3 320 202 211 201 328 329 336 337 0
212 201 3 203 320 321 328 329 344 345 0
220 203 3 202 321 320 336 337 344 345 0
212 220 3 211 328 329 336 337 344 345 0
228 229 230 235 236 241 344 352 360 368 0
