p cnf 7659 360
-729 0
-724 729 0
-719 724 0
-714 719 0
-709 714 0
-704 709 0
-699 704 0
-694 699 0
-689 694 0
-684 689 0
-679 684 0
-674 679 0
-669 674 0
-664 669 0
-659 664 0
-654 659 0
-649 654 0
-644 649 0
-639 644 0
-634 639 0
-629 634 0
-624 629 0
400 -392 0
392 -384 0
384 -376 0
376 -368 0
600 -368 0
-360 368 0
-352 360 0
-344 352 0
-336 344 0
-328 336 0
-320 328 0
-312 320 0
-304 312 0
-296 304 0
-288 296 0
-280 288 0
-272 280 0
-264 272 0
-256 264 0
20 -21 0
19 -20 0
17 -18 0
16 -17 0
11 -12 0
10 -11 0
8 -9 0
7 -8 0
5 -6 0
4 -5 0
2 -3 0
1 -2 0
-400 -618 624 0
618 -612 -392 0
612 -606 -384 0
606 -600 -376 0
-519 -501 -471 0
-519 -444 -501 0
-414 -519 -501 0
-516 -492 -465 0
-516 -492 -435 0
-516 -435 -465 0
-447 -474 -498 0
-417 -474 -498 0
-417 -447 -498 0
-489 -495 -471 0
-441 -489 -495 0
-411 -489 -495 0
-477 -471 -495 0
-441 -477 -495 0
-411 -477 -495 0
-492 -435 -465 0
-489 -471 -477 0
-441 -489 -477 0
-411 -489 -477 0
-430 -486 -459 0
-429 -486 -459 0
-417 -447 -474 0
-444 -462 -468 0
-441 -462 -468 0
-462 -468 -408 0
-444 -468 -450 0
-441 -468 -450 0
-468 -450 -408 0
-444 -462 -450 0
-441 -462 -450 0
-462 -450 -408 0
-414 -438 -432 0
-411 -438 -432 0
-438 -432 -408 0
-414 -438 -420 0
-411 -438 -420 0
-438 -420 -408 0
-414 -432 -420 0
-411 -432 -420 0
-432 -420 -408 0
-241 -369 -361 0
-236 -369 -353 0
-230 -369 -345 0
-235 -361 -353 0
-229 -361 -345 0
-228 -353 -345 0
-211 -338 -330 0
-202 -338 -322 0
-201 -330 -322 0
-190 -323 -315 0
-179 -323 -307 0
-178 -315 -307 0
-42 -41 -40 0
-27 -26 -25 0
-24 -23 -22 0
-8 -9 -7 0
-5 -6 -4 0
-2 -3 -1 0
369 -361 368 360 0
361 -353 360 352 0
353 -345 352 344 0
-337 345 344 336 0
-329 337 336 328 0
-321 329 328 320 0
-313 321 320 312 0
-305 313 312 304 0
-297 305 304 296 0
-289 297 296 288 0
-281 289 288 280 0
-273 281 280 272 0
-265 273 272 264 0
-257 265 264 256 0
-64 -65 -66 516 0
-66 -65 64 516 0
-64 65 -66 516 0
64 65 -66 519 0
-64 66 -65 516 0
64 66 -65 519 0
-64 65 66 519 0
-55 -56 -57 498 0
-57 -56 55 498 0
-55 56 -57 498 0
55 56 -57 501 0
-55 57 -56 498 0
55 57 -56 501 0
-55 57 56 501 0
-52 -53 -54 492 0
-54 -53 52 492 0
-52 53 -54 492 0
52 53 -54 495 0
-52 54 -53 492 0
52 54 -53 495 0
-52 53 54 495 0
-49 -50 -51 486 0
-51 -50 49 486 0
-49 50 -51 486 0
49 50 -51 489 0
-49 51 -50 486 0
49 51 -50 489 0
-49 51 50 489 0
-43 -44 -45 474 0
-45 -44 43 474 0
-43 44 -45 474 0
43 44 -45 477 0
-43 45 -44 474 0
43 45 -44 477 0
-43 45 44 477 0
471 42 -40 41 0
-37 -38 -39 465 0
-39 -38 37 465 0
-37 -39 38 465 0
37 -39 38 468 0
-37 -38 39 465 0
37 -38 39 468 0
-37 38 39 468 0
-34 -35 -36 459 0
-36 -35 34 459 0
-34 35 -36 459 0
34 35 -36 462 0
-34 36 -35 459 0
34 36 -35 462 0
-34 36 35 462 0
-28 -29 -30 447 0
-30 -29 28 447 0
-28 29 -30 447 0
28 29 -30 450 0
-28 30 -29 447 0
28 30 -29 450 0
-28 29 30 450 0
26 27 444 -25 0
23 24 441 -22 0
-20 -21 -19 435 0
-19 21 -20 435 0
438 20 21 -19 0
-17 -18 -16 429 0
-16 18 -17 429 0
-16 17 18 432 0
-11 -12 -10 417 0
-10 12 -11 417 0
420 11 12 -10 0
414 8 9 -7 0
-4 5 6 411 0
408 2 3 -1 0
408 1 3 2 0
4 5 6 411 0
7 414 9 8 0
10 11 12 417 0
16 17 18 430 0
19 20 21 435 0
28 29 30 450 0
34 36 35 462 0
37 38 39 468 0
43 45 44 477 0
49 51 50 489 0
52 53 54 495 0
55 57 56 501 0
64 65 66 519 0
338 -330 328 336 337 329 0
330 -322 320 328 329 321 0
-314 322 312 320 321 313 0
-306 314 304 312 313 305 0
-298 306 305 304 296 297 0
-290 298 288 296 297 289 0
-282 290 281 288 289 280 0
-274 282 272 280 281 273 0
-266 274 264 272 273 265 0
-258 266 256 264 265 257 0
323 -315 312 313 320 321 322 314 0
315 -307 304 305 312 313 314 306 0
-299 307 296 297 304 305 306 298 0
-291 299 288 289 296 297 298 290 0
-283 291 282 280 288 289 290 281 0
-275 283 272 273 280 281 282 274 0
-267 275 264 265 272 273 274 266 0
-259 267 256 257 264 265 266 258 0
-42 -40 -5 -1 -7 -25 -22 -4 -23 0
-41 -26 -4 -1 -22 -8 -7 -25 -40 0
-27 -24 -4 -7 -25 -22 -40 -2 -1 0
-25 -40 -2 -5 -22 -8 -4 -7 -1 0
-86 -87 -88 -85 -121 -120 -136 -105 -104 -103 0
1 24 6 85 256 257 258 264 265 266 0
1 24 6 86 256 257 258 272 273 274 0
1 87 6 24 256 257 258 280 281 282 0
1 88 6 24 256 257 258 288 289 290 0
103 1 6 24 264 265 266 272 273 274 0
104 1 6 24 264 265 266 280 281 282 0
105 1 6 24 264 265 266 288 289 290 0
120 1 6 24 272 273 274 280 281 282 0
121 1 6 24 272 273 274 288 289 290 0
136 1 6 24 280 281 282 288 289 290 0
23 2 6 258 85 257 256 264 265 266 0
23 2 6 86 256 257 258 272 273 274 0
23 87 6 2 256 257 258 280 281 282 0
88 23 6 2 256 257 258 288 289 290 0
103 23 6 2 266 265 264 272 273 274 0
104 23 6 2 266 265 264 280 281 282 0
105 23 6 2 266 265 264 288 289 290 0
120 23 6 2 274 273 272 280 281 282 0
121 23 6 2 274 273 272 288 289 290 0
136 23 6 2 282 281 280 288 289 290 0
26 2 9 259 85 256 257 264 265 267 0
26 2 9 86 256 257 259 272 273 275 0
87 26 9 2 256 257 259 280 281 283 0
88 26 9 2 256 257 259 288 289 291 0
103 26 9 2 264 265 267 272 273 275 0
104 26 9 2 264 265 267 280 281 283 0
105 26 9 2 264 265 267 288 289 291 0
120 26 9 2 272 273 275 280 281 283 0
121 26 9 2 272 273 275 288 289 291 0
136 26 9 2 280 281 283 288 289 291 0
4 23 3 85 256 257 258 264 265 266 0
4 23 3 86 256 257 258 272 273 274 0
4 23 3 87 256 257 258 280 281 282 0
4 88 3 23 256 257 258 288 289 290 0
103 4 3 23 264 265 266 272 273 274 0
104 4 3 23 264 265 266 280 281 282 0
105 4 3 23 264 265 266 288 289 290 0
120 4 3 23 272 273 274 280 281 282 0
4 121 3 23 272 273 274 288 289 290 0
136 4 3 23 280 281 282 288 289 290 0
24 5 3 256 85 257 258 264 265 266 0
5 24 3 86 256 257 258 272 273 274 0
5 24 3 87 256 257 258 280 281 282 0
88 5 3 24 256 257 258 288 289 290 0
103 5 3 24 264 265 266 272 273 274 0
104 5 3 24 264 265 266 280 281 282 0
105 5 3 24 264 265 266 288 289 290 0
120 5 3 24 272 273 274 280 281 282 0
121 5 3 24 272 273 274 288 289 290 0
136 5 3 24 280 281 282 288 289 290 0
22 258 3 6 85 256 257 264 265 266 0
86 22 3 6 256 257 258 272 273 274 0
87 22 3 6 256 257 258 280 281 282 0
88 22 3 6 256 257 258 288 289 290 0
103 22 3 6 264 265 266 272 273 274 0
104 22 3 6 264 265 266 280 281 282 0
105 22 3 6 264 265 266 288 289 290 0
120 22 3 6 272 273 274 280 281 282 0
121 22 3 6 272 273 274 288 289 290 0
136 22 3 6 280 281 282 288 289 290 0
7 26 3 85 256 257 259 264 265 267 0
7 26 3 86 256 257 259 272 273 275 0
7 87 3 26 256 257 259 280 281 283 0
7 88 3 26 256 257 259 288 289 291 0
103 7 3 26 264 265 267 272 273 275 0
104 7 3 26 264 265 267 280 281 283 0
105 7 3 26 264 265 267 288 289 291 0
120 7 3 26 272 273 275 280 281 283 0
7 121 3 26 272 273 275 288 289 291 0
136 7 3 26 280 281 283 288 289 291 0
8 27 3 85 256 257 259 264 265 267 0
8 27 3 86 256 257 259 272 273 275 0
8 27 3 87 256 257 259 280 281 283 0
8 27 3 88 256 257 259 288 289 291 0
103 8 3 27 264 265 267 272 273 275 0
104 8 3 27 264 265 267 280 281 283 0
105 8 3 27 264 265 267 288 289 291 0
120 8 3 27 272 273 275 280 281 283 0
8 27 3 121 272 273 275 288 289 291 0
136 8 3 27 280 281 283 288 289 291 0
25 259 3 9 85 257 256 264 265 267 0
25 86 3 9 259 257 256 272 273 275 0
87 25 3 9 256 257 259 280 281 283 0
88 25 3 9 256 257 259 288 289 291 0
103 25 3 9 265 264 267 272 273 275 0
104 25 3 9 265 264 267 280 281 283 0
105 25 3 9 265 264 267 288 289 291 0
120 25 3 9 273 272 275 280 281 283 0
121 25 3 9 273 272 275 288 289 291 0
136 25 3 9 281 280 283 288 289 291 0
201 202 3 211 320 321 328 329 336 337 0
41 5 9 256 85 258 259 264 266 267 0
5 41 9 86 256 258 259 272 274 275 0
5 41 9 87 256 258 259 280 282 283 0
88 5 9 41 256 258 259 288 290 291 0
103 5 9 41 264 266 267 272 274 275 0
104 5 9 41 264 266 267 280 282 283 0
105 5 9 41 264 266 267 288 290 291 0
120 5 9 41 272 274 275 280 282 283 0
41 5 9 275 272 274 121 288 290 291 0
41 5 9 136 280 282 283 288 290 291 0
8 42 6 85 256 258 259 264 266 267 0
8 42 6 86 256 258 259 272 274 275 0
8 42 6 87 256 258 259 280 282 283 0
8 42 6 88 256 258 259 288 290 291 0
103 8 6 42 264 266 267 272 274 275 0
104 8 6 42 264 266 267 280 282 283 0
105 8 6 42 264 266 267 288 290 291 0
120 8 6 42 272 274 275 280 282 283 0
8 42 6 121 272 274 275 288 290 291 0
136 8 6 42 280 282 283 288 290 291 0
40 258 6 9 85 256 259 264 266 267 0
40 259 6 9 86 258 256 272 274 275 0
87 40 6 9 259 258 256 280 282 283 0
88 40 6 9 259 258 256 288 290 291 0
103 40 6 9 264 266 267 272 274 275 0
104 40 6 9 264 266 267 280 282 283 0
105 40 6 9 264 266 267 288 290 291 0
120 40 6 9 272 274 275 280 282 283 0
121 40 6 9 272 274 275 288 290 291 0
136 40 6 9 280 282 283 288 290 291 0
178 179 6 190 304 306 312 314 320 322 0
228 229 230 235 236 241 344 352 360 368 0
