p cnf 7611 460
-1571 0
-1381 0
-681 0
-1566 1571 0
-1561 1566 0
-1556 1561 0
-1551 1556 0
-1546 1551 0
-1541 1546 0
-1536 1541 0
-1531 1536 0
-1526 1531 0
-1521 1526 0
-1516 1521 0
-1511 1516 0
-1506 1511 0
-1501 1506 0
-1496 1501 0
-1491 1496 0
-1486 1491 0
-1481 1486 0
-1476 1481 0
-1471 1476 0
-1466 1471 0
-1461 1466 0
-1456 1461 0
-1451 1456 0
-1446 1451 0
-1441 1446 0
-1436 1441 0
-1431 1436 0
-1426 1431 0
-1421 1426 0
-1416 1421 0
-1411 1416 0
-1356 1381 0
-1331 1356 0
-1280 1305 0
1304 -1279 0
-1255 1280 0
1279 -1254 0
-1204 1229 0
1228 -1203 0
-1179 1204 0
1203 -1178 0
-1128 1153 0
1152 -1127 0
-1103 1128 0
1127 -1102 0
-1052 1077 0
1076 -1051 0
-1027 1052 0
1051 -1026 0
-977 1001 0
-976 1000 0
-953 976 0
952 -930 0
928 -907 0
907 -887 0
-676 681 0
-671 676 0
-666 671 0
-661 666 0
-656 661 0
-651 656 0
-646 651 0
-641 646 0
-636 641 0
-631 636 0
-626 631 0
-621 626 0
-616 621 0
-611 616 0
-606 611 0
-601 606 0
-596 601 0
-591 596 0
-586 591 0
-581 586 0
-576 581 0
-571 576 0
-566 571 0
-561 566 0
-556 561 0
-551 556 0
-546 551 0
-541 546 0
-536 541 0
-531 536 0
-526 531 0
-521 526 0
-516 521 0
-511 516 0
-506 511 0
400 -392 0
392 -384 0
384 -376 0
376 -368 0
368 -360 0
360 -352 0
352 -344 0
344 -336 0
336 -328 0
328 -320 0
320 -312 0
312 -304 0
304 -296 0
296 -288 0
692 -288 0
-280 288 0
-272 280 0
-264 272 0
-256 264 0
20 -21 0
19 -20 0
-18 17 0
-17 16 0
-15 14 0
-14 13 0
-12 11 0
-11 10 0
-9 8 0
-8 7 0
5 -6 0
4 -5 0
-3 2 0
-2 1 0
492 256 0
281 1388 0
313 -1405 1411 0
-1399 305 1405 0
-1393 297 1399 0
-1388 289 1393 0
-20 -1330 1356 0
-1305 -19 1331 0
1330 -1304 -19 0
-1229 -16 1255 0
1254 -1228 -16 0
-1153 1179 -13 0
1178 -1152 -13 0
-1077 1103 -10 0
1102 -1076 -10 0
-1001 1027 -7 0
1026 -1000 -7 0
-976 -6 1001 0
1000 -6 -975 0
-953 -5 977 0
-952 976 -5 0
975 -5 -951 0
-930 953 -4 0
951 -928 -4 0
-908 -3 930 0
908 -2 -887 0
887 -867 -1 0
867 -848 -400 0
848 -830 -392 0
830 -813 -384 0
813 -797 -376 0
797 -782 -368 0
782 -768 -360 0
768 -755 -352 0
755 -743 -344 0
743 -732 -336 0
732 -722 -328 0
722 -713 -320 0
713 -705 -312 0
705 -698 -304 0
698 -692 -296 0
288 -501 506 0
-497 501 280 0
497 -494 272 0
494 -492 264 0
-426 -427 -414 0
-426 -427 -411 0
-426 -427 -408 0
-414 -412 -411 0
-414 -409 -408 0
-412 -411 -408 0
2 1 3 0
4 5 6 0
8 7 9 0
12 11 10 0
15 14 13 0
18 17 16 0
19 20 21 0
42 41 40 0
85 256 264 0
86 256 272 0
87 256 280 0
88 257 289 0
89 257 297 0
90 257 305 0
91 257 313 0
103 264 272 0
104 264 280 0
120 272 280 0
151 289 297 0
152 289 305 0
153 289 313 0
165 297 305 0
166 297 313 0
178 305 313 0
190 314 322 0
191 314 330 0
201 322 330 0
211 331 339 0
212 331 347 0
220 339 347 0
229 351 367 0
230 375 351 0
231 351 383 0
232 391 351 0
233 399 351 0
234 407 351 0
375 241 367 0
242 367 383 0
391 367 243 0
399 367 244 0
407 367 245 0
246 375 383 0
391 375 247 0
399 375 248 0
407 375 249 0
391 383 250 0
399 383 251 0
407 383 252 0
399 391 253 0
391 407 254 0
407 399 255 0
401 -393 -392 -400 0
393 -385 -384 -392 0
385 -377 -376 -384 0
377 -369 -368 -376 0
369 -368 -360 -361 0
361 -353 -352 -360 0
353 -345 -344 -352 0
345 -337 -336 -344 0
337 -329 -328 -336 0
329 -321 -320 -328 0
321 -320 -312 -313 0
-305 -304 313 -312 0
-297 305 -296 -304 0
-289 297 -288 -296 0
-280 -281 -288 289 0
273 -265 272 264 0
265 -257 256 264 0
426 -21 -19 -20 0
427 -21 -19 -20 0
-8 9 -7 414 0
411 -6 -4 -5 0
412 -6 -4 -5 0
411 -5 -4 6 0
408 -2 -1 -3 0
409 -2 -1 -3 0
-2 408 -1 3 0
402 -394 -393 -400 -392 -401 0
394 -386 -385 -392 -384 -393 0
386 -378 -385 -384 -376 -377 0
378 -370 -377 -376 -368 -369 0
370 -362 -361 -369 -360 -368 0
362 -354 -360 -353 -352 -361 0
354 -346 -353 -352 -344 -345 0
346 -338 -344 -337 -336 -345 0
338 -330 -336 -337 -328 -329 0
-322 330 -328 -321 -320 -329 0
-314 322 -320 -313 -312 -321 0
403 -395 -401 -400 -394 -393 -392 -402 0
395 -387 -393 -394 -386 -385 -384 -392 0
387 -379 -386 -384 -378 -377 -376 -385 0
379 -371 -378 -376 -370 -369 -368 -377 0
371 -370 -362 -363 -369 -361 -360 -368 0
363 -355 -360 -361 -354 -353 -352 -362 0
355 -347 -354 -352 -346 -345 -344 -353 0
-339 347 -344 -345 -338 -337 -336 -346 0
-331 339 -336 -337 -330 -329 -328 -338 0
5 6 2 3 8 9 22 40 25 0
8 9 2 3 20 21 37 25 64 0
64 52 6 9 20 21 40 5 8 0
-64 -400 -399 -395 -255 -392 -403 -407 -19 -7 0
-254 -391 -407 -400 -403 -384 -387 -64 -19 -7 0
-252 -383 -407 -64 -400 -376 -403 -379 -19 -7 0
-249 -375 -407 -64 -400 -368 -403 -371 -19 -7 0
-245 -367 -407 -64 -400 -360 -363 -403 -19 -7 0
-234 -347 -400 -351 -407 -344 -403 -64 -19 -7 0
-52 -400 -399 -402 -394 -392 -255 -407 -19 -4 0
-254 -52 -391 -407 -386 -400 -384 -402 -19 -4 0
-252 -383 -407 -52 -378 -376 -400 -402 -19 -4 0
-249 -370 -407 -52 -400 -368 -402 -375 -19 -4 0
-245 -367 -402 -407 -362 -52 -360 -400 -19 -4 0
-234 -351 -400 -346 -407 -344 -52 -402 -19 -4 0
-37 -393 -399 -407 -255 -392 -400 -401 -19 -1 0
-37 -254 -385 -391 -400 -384 -401 -407 -19 -1 0
-37 -252 -377 -407 -400 -376 -401 -383 -19 -1 0
-37 -249 -369 -407 -375 -368 -400 -401 -19 -1 0
-37 -245 -407 -400 -361 -360 -401 -367 -19 -1 0
-37 -234 -345 -407 -401 -344 -400 -351 -19 -1 0
-42 -9 -400 -402 -394 -392 -255 -403 -395 -4 0
-41 -8 -400 -402 -394 -392 -255 -403 -395 -4 0
-40 -400 -255 -395 -394 -392 -4 -402 -7 -403 0
-42 -9 -400 -402 -386 -384 -387 -403 -254 -4 0
-41 -8 -400 -402 -386 -384 -387 -403 -254 -4 0
-254 -40 -400 -402 -386 -384 -387 -403 -7 -4 0
-42 -9 -400 -402 -378 -376 -379 -403 -252 -4 0
-41 -8 -400 -402 -378 -376 -379 -403 -252 -4 0
-252 -378 -400 -4 -403 -376 -379 -402 -7 -40 0
-42 -9 -400 -402 -370 -368 -371 -403 -249 -4 0
-41 -8 -400 -402 -370 -368 -371 -403 -249 -4 0
-249 -40 -400 -402 -370 -368 -371 -403 -7 -4 0
-245 -40 -400 -402 -362 -360 -363 -403 -7 -4 0
-42 -9 -400 -402 -346 -344 -347 -403 -234 -4 0
-41 -8 -400 -402 -346 -344 -347 -403 -234 -4 0
-25 -401 -255 -400 -393 -392 -403 -395 -7 -1 0
-25 -254 -401 -403 -385 -384 -400 -387 -7 -1 0
-25 -252 -403 -377 -400 -376 -401 -379 -7 -1 0
-25 -249 -369 -403 -371 -368 -400 -401 -7 -1 0
-25 -245 -363 -401 -361 -360 -400 -403 -7 -1 0
-249 -248 -255 -392 -371 -368 -400 -403 -395 -7 0
-234 -347 -395 -403 -255 -344 -392 -400 -233 -7 0
-252 -234 -347 -376 -400 -344 -379 -403 -231 -7 0
-249 -245 -241 -368 -363 -360 -371 -403 -400 -7 0
-249 -234 -230 -368 -347 -344 -400 -371 -403 -7 0
-22 -393 -255 -394 -400 -392 -401 -402 -4 -1 0
-22 -254 -385 -386 -400 -384 -401 -402 -4 -1 0
-22 -252 -402 -377 -400 -376 -378 -401 -4 -1 0
-22 -249 -401 -370 -369 -368 -400 -402 -4 -1 0
-254 -253 -255 -392 -385 -384 -393 -401 -400 -1 0
-252 -251 -255 -392 -377 -376 -393 -400 -401 -1 0
-244 -361 -255 -245 -400 -360 -393 -392 -401 -1 0
-252 -250 -254 -384 -377 -376 -385 -401 -400 -1 0
-249 -247 -254 -369 -384 -368 -385 -401 -400 -1 0
-245 -254 -243 -384 -361 -360 -385 -400 -401 -1 0
-234 -254 -232 -384 -345 -344 -385 -400 -401 -1 0
-252 -249 -246 -401 -376 -368 -377 -369 -400 -1 0
-252 -245 -242 -361 -376 -360 -377 -401 -400 -1 0
-234 -229 -345 -360 -400 -344 -361 -401 -245 -1 0
-64 -253 -392 -399 -391 -384 -395 -387 -19 -7 0
-251 -383 -399 -64 -392 -376 -395 -379 -19 -7 0
-248 -375 -399 -392 -64 -368 -395 -371 -19 -7 0
-244 -367 -64 -399 -392 -360 -363 -395 -19 -7 0
-233 -64 -392 -399 -351 -344 -347 -395 -19 -7 0
-52 -253 -392 -399 -386 -384 -391 -394 -19 -4 0
-251 -378 -399 -52 -392 -376 -383 -394 -19 -4 0
-248 -370 -399 -52 -392 -368 -375 -394 -19 -4 0
-244 -367 -394 -399 -362 -52 -360 -392 -19 -4 0
-233 -351 -392 -346 -399 -344 -52 -394 -19 -4 0
-37 -253 -385 -399 -391 -384 -392 -393 -19 -1 0
-37 -251 -377 -399 -383 -376 -392 -393 -19 -1 0
-37 -248 -399 -369 -375 -368 -392 -393 -19 -1 0
-37 -244 -367 -392 -361 -360 -393 -399 -19 -1 0
-37 -233 -393 -392 -345 -344 -399 -351 -19 -1 0
-42 -9 -392 -394 -386 -384 -387 -395 -253 -4 0
-41 -8 -392 -394 -386 -384 -387 -395 -253 -4 0
-253 -40 -392 -394 -386 -384 -387 -395 -7 -4 0
-42 -9 -392 -394 -378 -376 -379 -395 -251 -4 0
-41 -8 -392 -394 -378 -376 -379 -395 -251 -4 0
-251 -40 -392 -394 -378 -376 -379 -395 -7 -4 0
-42 -9 -392 -394 -370 -368 -371 -395 -248 -4 0
-41 -8 -392 -394 -370 -368 -371 -395 -248 -4 0
-248 -40 -392 -394 -370 -368 -371 -395 -7 -4 0
-244 -363 -362 -392 -40 -360 -394 -395 -7 -4 0
-42 -9 -392 -394 -346 -344 -347 -395 -233 -4 0
-41 -8 -392 -394 -346 -344 -347 -395 -233 -4 0
-25 -253 -385 -387 -392 -384 -393 -395 -7 -1 0
-25 -251 -377 -395 -392 -376 -393 -379 -7 -1 0
-25 -248 -369 -395 -392 -368 -393 -371 -7 -1 0
-25 -244 -393 -392 -361 -360 -363 -395 -7 -1 0
-248 -253 -371 -395 -384 -368 -387 -392 -247 -7 0
-244 -253 -363 -243 -392 -360 -384 -395 -387 -7 0
-251 -248 -246 -376 -392 -368 -379 -371 -395 -7 0
-251 -231 -395 -392 -347 -344 -379 -376 -233 -7 0
-248 -244 -395 -363 -368 -360 -371 -392 -241 -7 0
-248 -347 -371 -233 -392 -344 -368 -395 -230 -7 0
-233 -244 -392 -360 -347 -344 -363 -395 -229 -7 0
-22 -253 -385 -394 -392 -384 -393 -386 -4 -1 0
-22 -251 -377 -378 -394 -376 -392 -393 -4 -1 0
-22 -248 -369 -393 -392 -368 -370 -394 -4 -1 0
-233 -253 -346 -384 -392 -344 -386 -394 -232 -4 0
-251 -244 -362 -376 -392 -360 -378 -394 -242 -4 0
-251 -253 -377 -384 -392 -376 -385 -393 -250 -1 0
-250 -383 -391 -64 -384 -376 -379 -387 -19 -7 0
-247 -391 -375 -64 -384 -368 -387 -371 -19 -7 0
-367 -243 -64 -391 -387 -384 -360 -363 -19 -7 0
-232 -64 -384 -351 -387 -344 -347 -391 -19 -7 0
-250 -383 -391 -52 -384 -376 -378 -386 -19 -4 0
-247 -391 -375 -384 -370 -368 -52 -386 -19 -4 0
-367 -243 -52 -391 -362 -386 -360 -384 -19 -4 0
-232 -351 -384 -346 -391 -344 -386 -52 -19 -4 0
-37 -250 -383 -391 -377 -376 -385 -384 -19 -1 0
-37 -247 -369 -375 -391 -368 -384 -385 -19 -1 0
-37 -367 -243 -361 -384 -360 -385 -391 -19 -1 0
-37 -232 -391 -384 -345 -344 -385 -351 -19 -1 0
-250 -40 -384 -386 -378 -376 -379 -387 -7 -4 0
-247 -40 -384 -386 -370 -368 -371 -387 -7 -4 0
-243 -40 -384 -386 -362 -360 -363 -387 -7 -4 0
-42 -9 -384 -386 -346 -344 -347 -387 -232 -4 0
-41 -8 -384 -386 -346 -344 -347 -387 -232 -4 0
-25 -250 -377 -387 -384 -376 -379 -385 -7 -1 0
-25 -247 -369 -387 -384 -368 -385 -371 -7 -1 0
-25 -243 -387 -363 -385 -360 -361 -384 -7 -1 0
-250 -247 -246 -376 -384 -368 -379 -371 -387 -7 0
-250 -243 -242 -376 -384 -360 -363 -387 -379 -7 0
-250 -232 -231 -376 -384 -344 -347 -387 -379 -7 0
-247 -241 -371 -368 -363 -360 -384 -387 -243 -7 0
-22 -250 -377 -386 -384 -376 -385 -378 -4 -1 0
-22 -247 -369 -386 -384 -368 -385 -370 -4 -1 0
-247 -232 -230 -368 -345 -344 -369 -385 -384 -1 0
-232 -229 -345 -243 -360 -344 -361 -385 -384 -1 0
-383 -64 -379 -375 -246 -368 -376 -371 -19 -7 0
-383 -367 -242 -376 -64 -360 -379 -363 -19 -7 0
-383 -231 -64 -376 -351 -344 -347 -379 -19 -7 0
-383 -375 -246 -52 -376 -368 -370 -378 -19 -4 0
-383 -367 -242 -376 -52 -360 -362 -378 -19 -4 0
-383 -231 -346 -376 -351 -344 -52 -378 -19 -4 0
-37 -383 -375 -246 -369 -368 -376 -377 -19 -1 0
-37 -383 -242 -376 -361 -360 -377 -367 -19 -1 0
-37 -383 -231 -376 -345 -344 -377 -351 -19 -1 0
-42 -9 -376 -378 -346 -344 -231 -347 -379 -4 0
-41 -8 -376 -378 -346 -344 -231 -347 -379 -4 0
-229 -231 -376 -360 -347 -344 -363 -379 -242 -7 0
-22 -246 -378 -376 -370 -368 -377 -369 -4 -1 0
-242 -241 -369 -368 -361 -360 -377 -246 -376 -1 0
-230 -231 -345 -246 -376 -344 -369 -368 -377 -1 0
-367 -64 -241 -375 -368 -360 -371 -363 -19 -7 0
-230 -371 -344 -375 -351 -368 -347 -64 -19 -7 0
-367 -375 -241 -368 -52 -360 -370 -362 -19 -4 0
-230 -351 -368 -375 -346 -344 -52 -370 -19 -4 0
-37 -375 -241 -368 -361 -360 -369 -367 -19 -1 0
-37 -375 -345 -230 -368 -344 -369 -351 -19 -1 0
-42 -9 -368 -370 -346 -344 -347 -371 -230 -4 0
-41 -8 -368 -370 -346 -344 -347 -371 -230 -4 0
-230 -229 -241 -360 -345 -344 -361 -368 -369 -1 0
-229 -367 -64 -344 -360 -363 -347 -351 -19 -7 0
-229 -367 -351 -346 -360 -344 -362 -52 -19 -4 0
-37 -229 -367 -345 -360 -344 -361 -351 -19 -1 0
-212 -211 -344 -336 -330 -328 -338 -346 -220 -4 0
-191 -190 -328 -320 -313 -312 -321 -329 -201 -1 0
-273 -265 -281 -257 -120 -104 -103 -87 -86 -85 0
-91 -90 -178 -165 -166 -151 -152 -153 -89 -88 0
37 9 3 6 40 21 25 52 64 22 0
242 232 243 231 230 229 241 246 247 250 0
233 242 244 229 241 231 230 246 248 251 0
234 229 245 231 230 242 241 246 249 252 0
232 233 244 243 241 229 230 247 248 253 0
234 230 243 241 245 229 232 247 249 254 0
233 241 230 244 234 245 229 248 249 255 0
229 232 243 242 231 244 233 250 251 253 0
232 234 245 243 231 242 229 250 252 254 0
231 234 245 244 233 229 242 251 252 255 0
233 232 245 244 243 229 234 253 254 255 0
233 232 253 247 250 246 248 231 251 230 0
234 246 247 249 232 231 230 250 252 254 0
234 233 255 251 249 248 246 230 231 252 0
234 233 255 247 253 230 248 232 249 254 0
234 233 251 255 250 254 231 232 253 252 0
246 241 247 248 243 253 244 250 251 242 0
246 242 249 247 254 243 245 250 252 241 0
244 241 251 249 248 245 246 242 252 255 0
241 244 253 249 247 245 243 248 254 255 0
242 244 250 251 245 253 243 252 254 255 0
246 252 250 248 247 253 254 251 249 255 0
