p cnf 7656 465
-3396 0
-726 0
-3391 3396 0
-3386 3391 0
-3381 3386 0
-3376 3381 0
-3371 3376 0
-3366 3371 0
-3361 3366 0
-3356 3361 0
-3351 3356 0
-3346 3351 0
-3341 3346 0
-3336 3341 0
-3331 3336 0
-3326 3331 0
-3321 3326 0
-3316 3321 0
-3311 3316 0
-3306 3311 0
-3301 3306 0
-3296 3301 0
-3291 3296 0
-3286 3291 0
-3281 3286 0
-3276 3281 0
-3271 3276 0
-3266 3271 0
-3261 3266 0
-3256 3261 0
-3251 3256 0
-3246 3251 0
3250 -3245 0
-3241 3246 0
3245 -3240 0
-3236 3241 0
3240 -3235 0
-3231 3236 0
3235 -3230 0
-3226 3231 0
3230 -3225 0
-3221 3226 0
3225 -3220 0
3220 -3216 0
-721 726 0
-716 721 0
-711 716 0
-706 711 0
-701 706 0
-696 701 0
-691 696 0
-686 691 0
-681 686 0
-676 681 0
-671 676 0
-666 671 0
-661 666 0
-656 661 0
-651 656 0
-646 651 0
-641 646 0
-636 641 0
-631 636 0
-626 631 0
-621 626 0
400 -392 0
392 -384 0
384 -376 0
376 -368 0
597 -368 0
-360 368 0
-352 360 0
-344 352 0
-336 344 0
-328 336 0
-320 328 0
-312 320 0
-304 312 0
-296 304 0
-288 296 0
-280 288 0
-272 280 0
-264 272 0
-256 264 0
5 -6 0
4 -5 0
2 -3 0
1 -2 0
259 3207 0
-3250 347 3256 0
-3245 339 3251 0
291 -3216 3221 0
-3212 283 3216 0
-3209 275 3212 0
-3207 267 3209 0
-400 -615 621 0
615 -609 -392 0
609 -603 -384 0
603 -376 -597 0
-241 -361 -369 0
-236 -353 -369 0
-230 -369 -345 0
-235 -353 -361 0
-229 -361 -345 0
-228 -353 -345 0
-220 -346 -338 0
-212 -346 -330 0
-211 -338 -330 0
-4 -5 -6 0
-1 -2 -3 0
56 55 57 0
136 284 292 0
137 284 300 0
138 284 308 0
143 284 348 0
151 300 292 0
152 292 308 0
316 292 153 0
340 156 292 0
348 292 157 0
165 300 308 0
316 166 300 0
340 169 300 0
348 170 300 0
316 308 178 0
340 181 308 0
348 308 182 0
220 339 347 0
348 340 220 0
-361 369 368 360 0
361 -353 360 352 0
353 352 -345 344 0
-337 345 344 336 0
-329 337 336 328 0
-321 329 328 320 0
-313 321 320 312 0
-305 313 312 304 0
-297 305 304 296 0
-289 297 296 288 0
-281 289 288 280 0
-273 281 280 272 0
-265 273 272 264 0
-257 265 264 256 0
346 -338 336 344 345 337 0
-330 338 328 336 329 337 0
-322 330 320 328 329 321 0
-314 322 312 320 321 313 0
-306 314 305 312 304 313 0
-298 306 297 304 305 296 0
-290 298 289 296 297 288 0
-282 290 280 288 289 281 0
-274 282 272 280 281 273 0
-266 274 264 272 273 265 0
-258 266 256 264 265 257 0
-339 -338 347 336 344 337 345 -346 0
338 328 339 -331 336 337 329 330 0
331 330 -323 329 328 320 321 322 0
323 322 -315 312 320 321 313 314 0
315 306 -307 314 304 313 312 305 0
307 -299 298 296 304 305 297 306 0
299 290 -291 288 296 297 298 289 0
-283 282 291 290 288 289 281 280 0
-275 283 273 272 280 281 282 274 0
-267 275 264 265 272 273 274 266 0
-259 267 256 257 264 265 266 258 0
-220 -57 -339 -347 -211 -331 -332 -340 -212 -348 0
-220 -56 -339 -347 -211 -331 -332 -340 -212 -348 0
-220 -212 -339 -347 -211 -55 -332 -340 -331 -348 0
-220 -348 -339 -57 -347 -340 -324 -203 -202 -323 0
-220 -348 -339 -56 -347 -340 -324 -203 -202 -323 0
-220 -348 -339 -55 -347 -340 -324 -203 -202 -323 0
-220 -348 -339 -57 -347 -340 -316 -192 -193 -315 0
-220 -348 -339 -56 -347 -340 -316 -192 -193 -315 0
-220 -348 -339 -347 -55 -340 -316 -192 -193 -315 0
-220 -57 -339 -347 -340 -181 -307 -348 -182 -308 0
-220 -340 -347 -339 -56 -181 -307 -348 -182 -308 0
-220 -181 -340 -339 -347 -182 -55 -348 -307 -308 0
-212 -203 -324 -332 -347 -323 -348 -57 -201 -331 0
-212 -332 -347 -203 -324 -323 -348 -56 -201 -331 0
-212 -201 -347 -55 -203 -323 -348 -332 -324 -331 0
-212 -191 -57 -331 -347 -348 -316 -332 -315 -193 0
-212 -191 -347 -56 -331 -348 -316 -332 -315 -193 0
-212 -191 -348 -55 -347 -331 -316 -332 -315 -193 0
-180 -57 -347 -308 -331 -307 -212 -348 -332 -182 0
-180 -56 -347 -307 -331 -308 -348 -212 -332 -182 0
-180 -212 -347 -308 -348 -307 -331 -55 -332 -182 0
-300 -168 -347 -348 -57 -299 -331 -332 -212 -170 0
-300 -168 -347 -348 -56 -299 -331 -332 -212 -170 0
-300 -168 -347 -348 -55 -170 -212 -299 -331 -332 0
-190 -57 -347 -348 -203 -315 -316 -324 -323 -193 0
-190 -56 -347 -323 -203 -348 -316 -324 -315 -193 0
-190 -193 -347 -203 -348 -55 -323 -315 -316 -324 0
-179 -57 -347 -308 -203 -348 -182 -323 -324 -307 0
-179 -308 -56 -347 -203 -348 -182 -323 -324 -307 0
-179 -182 -308 -324 -347 -323 -348 -203 -307 -55 0
-300 -299 -347 -348 -57 -203 -323 -324 -167 -170 0
-300 -299 -348 -347 -203 -56 -323 -324 -167 -170 0
-300 -170 -347 -55 -167 -203 -348 -299 -323 -324 0
-57 -178 -347 -308 -193 -348 -315 -182 -307 -316 0
-178 -308 -56 -347 -348 -193 -182 -315 -307 -316 0
-178 -193 -308 -348 -55 -347 -315 -182 -307 -316 0
-300 -299 -193 -347 -348 -57 -315 -316 -166 -170 0
-300 -299 -347 -348 -193 -56 -315 -316 -166 -170 0
-300 -170 -347 -348 -193 -55 -166 -299 -316 -315 0
-300 -165 -347 -57 -182 -299 -307 -170 -308 -348 0
-165 -170 -348 -347 -182 -307 -56 -299 -308 -300 0
-300 -165 -347 -348 -182 -55 -170 -299 -308 -307 0
-220 -212 -170 -211 -347 -339 -169 -331 -299 -168 0
-220 -212 -339 -347 -211 -291 -156 -155 -157 -331 0
-220 -170 -339 -347 -203 -167 -202 -169 -323 -299 0
-220 -156 -203 -202 -347 -339 -157 -323 -291 -154 0
-220 -170 -339 -347 -192 -166 -315 -193 -169 -299 0
-220 -156 -339 -153 -347 -291 -193 -192 -315 -157 0
-220 -181 -182 -347 -169 -339 -170 -165 -299 -307 0
-220 -156 -181 -339 -347 -157 -291 -182 -152 -307 0
-220 -170 -339 -169 -347 -157 -156 -291 -151 -299 0
-212 -170 -201 -168 -203 -167 -347 -323 -299 -331 0
-212 -157 -154 -347 -201 -203 -291 -155 -323 -331 0
-140 -141 -347 -203 -201 -323 -331 -212 -283 -143 0
-212 -168 -166 -191 -347 -193 -331 -170 -299 -315 0
-212 -157 -347 -153 -191 -193 -155 -315 -331 -291 0
-139 -141 -212 -347 -191 -193 -315 -283 -143 -331 0
-212 -180 -182 -170 -347 -165 -168 -331 -299 -307 0
-212 -180 -182 -347 -152 -155 -157 -307 -291 -331 0
-138 -141 -307 -347 -182 -212 -180 -331 -143 -283 0
-157 -212 -347 -331 -155 -170 -291 -299 -168 -151 0
-143 -283 -170 -347 -168 -299 -212 -137 -141 -331 0
-143 -141 -157 -347 -212 -331 -291 -283 -155 -136 0
-190 -167 -203 -347 -193 -170 -323 -166 -299 -315 0
-190 -153 -154 -193 -347 -203 -157 -323 -315 -291 0
-139 -140 -203 -347 -190 -193 -143 -315 -283 -323 0
-170 -167 -203 -182 -347 -165 -179 -307 -299 -323 0
-179 -154 -347 -203 -182 -323 -307 -152 -157 -291 0
-140 -138 -203 -347 -307 -179 -182 -143 -323 -283 0
-167 -154 -347 -170 -323 -203 -157 -151 -291 -299 0
-140 -137 -170 -347 -203 -299 -167 -323 -283 -143 0
-140 -136 -203 -347 -157 -154 -143 -291 -323 -283 0
-165 -166 -193 -182 -178 -347 -170 -307 -299 -315 0
-153 -291 -182 -193 -347 -315 -178 -152 -157 -307 0
-138 -283 -347 -178 -193 -315 -307 -182 -139 -143 0
-157 -153 -347 -193 -166 -151 -299 -315 -291 -170 0
-139 -143 -166 -170 -315 -347 -193 -299 -283 -137 0
-139 -283 -153 -347 -157 -193 -143 -291 -315 -136 0
-157 -165 -347 -182 -152 -151 -307 -291 -170 -299 0
-138 -137 -170 -307 -182 -347 -299 -165 -143 -283 0
-138 -143 -182 -307 -157 -152 -291 -283 -347 -136 0
-143 -137 -170 -157 -347 -299 -291 -151 -283 -136 0
-57 -202 -339 -340 -332 -323 -324 -211 -331 -201 0
-56 -202 -339 -340 -332 -323 -324 -211 -331 -201 0
-55 -202 -339 -340 -332 -323 -324 -211 -331 -201 0
-192 -57 -339 -191 -340 -315 -332 -211 -316 -331 0
-192 -191 -339 -56 -211 -315 -332 -331 -316 -340 0
-192 -191 -339 -340 -55 -211 -331 -332 -316 -315 0
-181 -57 -308 -340 -339 -211 -307 -332 -331 -180 0
-181 -308 -56 -340 -339 -211 -307 -332 -331 -180 0
-181 -180 -308 -55 -339 -211 -340 -307 -331 -332 0
-300 -57 -339 -211 -340 -299 -331 -332 -168 -169 0
-300 -299 -339 -340 -211 -56 -331 -332 -168 -169 0
-300 -168 -340 -339 -55 -299 -331 -332 -211 -169 0
-190 -57 -340 -339 -316 -315 -324 -323 -192 -202 0
-192 -315 -340 -339 -202 -56 -323 -324 -316 -190 0
-190 -55 -339 -340 -202 -315 -324 -316 -323 -192 0
-57 -308 -339 -202 -340 -307 -323 -324 -181 -179 0
-308 -307 -339 -202 -340 -56 -324 -323 -181 -179 0
-181 -179 -339 -308 -340 -324 -307 -323 -55 -202 0
-300 -57 -339 -340 -299 -169 -323 -202 -324 -167 0
-300 -169 -340 -56 -202 -299 -323 -339 -324 -167 0
-300 -55 -339 -340 -202 -299 -323 -324 -169 -167 0
-181 -57 -339 -340 -308 -307 -316 -315 -192 -178 0
-181 -308 -339 -56 -340 -307 -316 -315 -192 -178 0
-178 -181 -339 -340 -308 -55 -316 -315 -307 -192 0
-299 -57 -339 -340 -308 -169 -307 -300 -181 -165 0
-299 -308 -339 -340 -56 -169 -307 -300 -181 -165 0
-300 -165 -340 -339 -308 -55 -181 -307 -299 -169 0
340 338 -332 330 -331 -339 336 337 329 328 0
-168 -169 -339 -211 -202 -201 -167 -331 -299 -323 0
-155 -156 -339 -202 -201 -211 -291 -323 -154 -331 0
-168 -166 -339 -211 -191 -192 -331 -299 -315 -169 0
-156 -291 -339 -192 -191 -155 -315 -211 -331 -153 0
-168 -169 -180 -165 -181 -339 -211 -331 -299 -307 0
-156 -155 -291 -181 -180 -339 -211 -152 -307 -331 0
-156 -291 -339 -169 -151 -155 -331 -211 -299 -168 0
-142 -283 -339 -299 -331 -169 -211 -168 -141 -137 0
-142 -283 -339 -291 -331 -141 -211 -155 -156 -136 0
-190 -299 -192 -339 -169 -202 -323 -315 -166 -167 0
-156 -291 -192 -202 -339 -154 -323 -190 -153 -315 0
-167 -169 -179 -339 -181 -323 -299 -202 -307 -165 0
-156 -154 -179 -181 -339 -202 -291 -323 -307 -152 0
-156 -151 -339 -169 -202 -154 -299 -291 -323 -167 0
-142 -283 -339 -299 -323 -169 -167 -140 -202 -137 0
-140 -283 -339 -156 -323 -154 -291 -142 -202 -136 0
-166 -178 -339 -181 -169 -192 -165 -307 -299 -315 0
-156 -181 -178 -291 -339 -192 -307 -153 -152 -315 0
-156 -299 -339 -192 -151 -291 -315 -166 -153 -169 0
-142 -283 -339 -299 -315 -139 -166 -169 -192 -137 0
-142 -283 -339 -291 -315 -156 -153 -139 -192 -136 0
-156 -152 -181 -165 -169 -339 -291 -307 -299 -151 0
-142 -283 -339 -307 -299 -165 -138 -181 -169 -137 0
-142 -283 -339 -291 -307 -152 -156 -138 -181 -136 0
-142 -283 -339 -291 -299 -156 -151 -169 -137 -136 0
-191 -57 -201 -316 -324 -315 -331 -323 -332 -190 0
-191 -316 -201 -323 -56 -315 -331 -332 -324 -190 0
-190 -55 -201 -323 -316 -315 -331 -332 -324 -191 0
-57 -179 -331 -308 -201 -307 -323 -180 -324 -332 0
-180 -179 -308 -56 -323 -307 -332 -201 -324 -331 0
-180 -179 -308 -55 -332 -324 -323 -201 -307 -331 0
-300 -167 -57 -323 -331 -299 -201 -332 -324 -168 0
-300 -167 -56 -201 -331 -299 -323 -332 -324 -168 0
-300 -168 -55 -201 -299 -167 -323 -331 -324 -332 0
-292 -291 -57 -201 -331 -323 -332 -324 -155 -154 0
-292 -291 -56 -201 -331 -323 -332 -324 -155 -154 0
-292 -155 -324 -291 -55 -323 -331 -154 -332 -201 0
-191 -180 -308 -57 -316 -307 -315 -331 -178 -332 0
-180 -308 -56 -191 -315 -307 -316 -331 -178 -332 0
-178 -180 -308 -55 -191 -307 -315 -316 -331 -332 0
-300 -168 -57 -332 -315 -331 -316 -191 -299 -166 0
-300 -168 -56 -316 -299 -315 -331 -332 -191 -166 0
-300 -168 -55 -191 -316 -315 -331 -166 -299 -332 0
-292 -191 -57 -155 -315 -291 -332 -331 -316 -153 0
-292 -191 -56 -315 -155 -291 -332 -331 -316 -153 0
-292 -291 -331 -55 -191 -153 -315 -155 -316 -332 0
-300 -165 -308 -180 -57 -299 -307 -331 -332 -168 0
-165 -180 -308 -56 -300 -299 -307 -331 -332 -168 0
-300 -168 -55 -180 -332 -165 -308 -299 -307 -331 0
-292 -155 -57 -307 -180 -291 -308 -331 -152 -332 0
-292 -155 -56 -307 -180 -291 -308 -331 -152 -332 0
-292 -152 -308 -55 -307 -291 -331 -155 -180 -332 0
-292 -151 -57 -332 -299 -291 -331 -155 -168 -300 0
-292 -151 -56 -331 -291 -332 -299 -155 -168 -300 0
-300 -168 -55 -291 -155 -292 -331 -299 -151 -332 0
332 330 -324 320 322 321 328 329 -323 -331 0
-168 -167 -179 -180 -201 -331 -307 -323 -299 -165 0
-154 -291 -201 -179 -180 -323 -331 -155 -307 -152 0
-168 -151 -201 -154 -155 -331 -167 -299 -291 -323 0
-140 -141 -201 -299 -168 -323 -331 -283 -167 -137 0
-140 -141 -154 -155 -201 -323 -291 -283 -136 -331 0
-168 -180 -178 -191 -315 -331 -166 -299 -165 -307 0
-153 -180 -178 -307 -331 -191 -155 -315 -291 -152 0
-168 -155 -166 -151 -331 -153 -299 -291 -191 -315 0
-139 -283 -166 -191 -299 -331 -315 -168 -141 -137 0
-141 -139 -153 -155 -331 -291 -315 -283 -191 -136 0
-155 -168 -180 -152 -165 -331 -291 -299 -307 -151 0
-138 -283 -307 -299 -168 -165 -331 -141 -180 -137 0
-138 -141 -152 -307 -155 -331 -283 -291 -180 -136 0
-141 -137 -168 -299 -151 -291 -331 -155 -283 -136 0
-179 -190 -316 -323 -315 -308 -324 -57 -178 -307 0
-179 -190 -308 -316 -323 -315 -324 -56 -178 -307 0
-190 -179 -308 -55 -307 -323 -315 -178 -316 -324 0
-300 -299 -316 -57 -324 -315 -323 -190 -167 -166 0
-300 -167 -56 -323 -190 -299 -324 -315 -316 -166 0
-300 -190 -55 -167 -299 -315 -324 -316 -323 -166 0
-300 -179 -57 -165 -167 -324 -299 -323 -307 -308 0
-300 -179 -56 -165 -167 -324 -299 -323 -307 -308 0
-300 -165 -308 -55 -179 -323 -167 -307 -299 -324 0
-292 -179 -57 -152 -291 -323 -154 -324 -307 -308 0
-292 -179 -56 -291 -307 -152 -323 -154 -324 -308 0
-292 -152 -308 -55 -291 -179 -154 -307 -324 -323 0
-300 -167 -57 -151 -299 -291 -323 -154 -324 -292 0
-300 -167 -56 -151 -299 -291 -323 -154 -324 -292 0
-292 -300 -151 -323 -154 -299 -291 -55 -324 -167 0
324 -323 -316 322 312 313 320 321 314 -315 0
-190 -178 -323 -179 -166 -299 -167 -315 -307 -165 0
-190 -153 -291 -154 -179 -178 -315 -307 -323 -152 0
-190 -153 -151 -315 -323 -154 -167 -291 -166 -299 0
-140 -139 -166 -315 -299 -167 -137 -323 -283 -190 0
-139 -140 -154 -153 -283 -136 -291 -323 -315 -190 0
-167 -154 -179 -152 -165 -151 -323 -291 -307 -299 0
-138 -140 -165 -299 -307 -167 -179 -323 -283 -137 0
-283 -138 -154 -179 -307 -152 -291 -140 -323 -136 0
-140 -137 -154 -167 -299 -151 -291 -283 -136 -323 0
-165 -299 -308 -316 -57 -315 -307 -178 -300 -166 0
-299 -308 -56 -316 -315 -178 -307 -165 -300 -166 0
-300 -165 -308 -55 -315 -299 -178 -316 -307 -166 0
-292 -152 -57 -178 -307 -291 -315 -308 -316 -153 0
-292 -152 -56 -178 -316 -291 -315 -307 -153 -308 0
-292 -291 -308 -55 -152 -153 -315 -307 -316 -178 0
-292 -291 -57 -316 -299 -315 -166 -300 -151 -153 0
-292 -291 -56 -316 -299 -315 -166 -300 -151 -153 0
-292 -166 -55 -151 -153 -291 -299 -316 -315 -300 0
316 -315 -308 306 304 305 312 313 314 -307 0
-153 -152 -178 -165 -166 -315 -291 -307 -299 -151 0
-139 -138 -178 -166 -315 -299 -307 -165 -283 -137 0
-138 -139 -152 -307 -153 -315 -178 -291 -283 -136 0
-139 -137 -153 -166 -299 -151 -283 -315 -291 -136 0
-292 -299 -307 -57 -308 -291 -151 -300 -165 -152 0
-292 -299 -307 -56 -308 -291 -151 -300 -165 -152 0
-300 -151 -308 -55 -292 -291 -307 -299 -165 -152 0
-300 308 -299 298 306 -307 304 305 296 297 0
-138 -137 -152 -299 -307 -165 -151 -291 -283 -136 0
-292 300 -291 290 288 -299 296 298 297 289 0
-284 -283 282 280 292 281 288 289 290 -291 0
137 138 3 165 280 297 296 281 304 305 0
137 139 3 166 280 281 296 297 312 313 0
140 137 3 167 280 281 296 297 320 321 0
137 141 3 168 280 281 296 297 328 329 0
138 139 3 178 313 281 304 305 312 280 0
140 138 3 179 305 280 304 281 320 321 0
141 138 3 180 280 329 304 305 328 281 0
142 138 3 181 280 281 304 305 336 337 0
143 138 3 182 281 280 304 305 344 345 0
140 139 3 190 280 281 312 313 320 321 0
142 139 3 192 280 281 312 313 336 337 0
143 139 3 313 280 193 312 281 344 345 0
141 140 3 201 280 321 320 281 328 329 0
142 140 3 202 280 281 320 321 336 337 0
143 140 3 203 280 321 320 281 344 345 0
142 141 3 211 280 281 328 329 336 337 0
143 141 3 212 280 329 328 281 344 345 0
151 152 3 165 288 289 296 297 304 305 0
151 166 3 153 288 289 296 297 312 313 0
151 154 3 167 288 289 296 297 320 321 0
155 151 3 168 288 289 296 297 328 329 0
152 153 3 178 289 288 304 305 312 313 0
152 154 3 179 289 288 304 305 320 321 0
155 152 3 180 289 288 304 305 328 329 0
152 156 3 181 289 288 304 305 336 337 0
157 152 3 182 289 288 304 305 344 345 0
153 289 3 190 154 313 312 288 320 321 0
155 191 3 289 153 313 312 288 328 329 0
153 156 3 192 289 288 312 313 336 337 0
157 153 3 193 289 288 312 313 344 345 0
155 154 3 289 201 288 320 321 328 329 0
156 202 3 154 289 288 320 321 336 337 0
157 154 3 203 289 288 320 321 344 345 0
155 156 3 211 289 288 328 329 336 337 0
157 155 3 212 289 288 328 329 344 345 0
156 157 3 220 288 289 336 337 344 345 0
165 166 3 178 296 313 304 305 312 297 0
165 167 3 179 305 296 304 321 320 297 0
165 180 3 168 296 297 304 305 328 329 0
169 165 3 181 296 297 304 305 336 337 0
170 165 3 182 296 297 304 305 344 345 0
166 167 3 190 297 296 312 313 320 321 0
166 168 3 297 191 296 312 329 328 313 0
166 169 3 192 297 296 312 313 336 337 0
170 166 3 193 296 297 312 313 344 345 0
201 168 3 296 297 167 320 321 328 329 0
167 202 3 169 297 296 320 321 336 337 0
170 167 3 203 296 297 320 321 344 345 0
169 168 3 211 296 297 328 329 336 337 0
170 168 3 212 297 296 328 329 344 345 0
170 169 3 220 297 296 336 337 344 345 0
305 3 304 190 178 179 312 313 320 321 0
180 191 3 178 305 304 312 313 328 329 0
181 192 3 178 305 304 312 313 336 337 0
178 193 3 182 305 304 312 313 344 345 0
180 201 3 179 305 321 320 304 328 329 0
202 181 3 179 305 304 320 321 336 337 0
179 203 3 182 305 304 320 321 344 345 0
180 305 3 211 181 304 328 329 336 337 0
180 305 3 212 182 329 328 304 344 345 0
181 305 3 220 182 304 336 337 344 345 0
191 201 3 190 313 312 320 321 328 329 0
202 192 3 313 190 312 320 321 336 337 0
190 203 3 193 312 313 320 321 344 345 0
192 191 3 211 312 313 328 329 336 337 0
191 193 3 212 312 313 328 329 344 345 0
192 193 3 220 344 313 336 337 312 345 0
202 201 3 211 320 321 328 329 336 337 0
201 203 3 321 212 320 328 329 344 345 0
202 203 3 220 320 321 336 337 344 345 0
329 3 328 220 212 211 336 337 344 345 0
141 6 191 139 280 314 312 282 328 330 0
6 152 180 155 288 306 304 290 328 330 0
228 229 230 235 236 241 344 352 360 368 0
