24 138
0 1
0 2
0 3
0 4
0 6
0 7
0 9
0 10
0 12
0 13
0 15
0 18
0 21
0 22
1 2
1 4
1 5
1 7
1 8
1 10
1 11
1 13
1 14
1 16
1 19
1 22
1 23
2 3
2 5
2 6
2 8
2 9
2 11
2 12
2 14
2 17
2 20
2 21
2 23
3 4
3 5
3 6
3 8
3 10
3 11
3 14
3 16
3 17
3 19
3 20
3 22
4 5
4 6
4 7
4 9
4 11
4 12
4 15
4 17
4 18
4 20
4 23
5 7
5 8
5 9
5 10
5 13
5 15
5 16
5 18
5 19
5 21
6 7
6 8
6 9
6 10
6 12
6 13
6 17
6 19
6 20
6 23
7 8
7 10
7 11
7 13
7 14
7 15
7 18
7 20
7 21
8 9
8 11
8 12
8 14
8 16
8 18
8 19
8 22
9 10
9 11
9 13
9 16
9 17
9 18
9 21
9 23
10 11
10 14
10 15
10 17
10 19
10 21
10 22
11 12
11 15
11 16
11 20
11 22
11 23
12 15
12 19
12 22
13 16
13 20
13 23
14 17
14 18
14 21
15 19
15 22
16 20
16 23
17 18
17 21
18 21
19 22
20 23
