p cnf 9844 749
5 8 1 4 -397 6 2 7 3 0
1 -398 15 14 9 10 11 12 13 0
-406 42 37 44 43 38 39 40 41 0
-407 50 37 51 45 46 47 48 49 0
-415 79 73 78 80 75 74 76 77 0
-73 416 0
-416 82 73 87 81 83 84 85 86 0
-424 111 115 116 110 109 112 113 114 0
-425 117 109 118 119 120 121 122 123 0
-433 152 151 145 146 147 148 149 150 0
-434 156 145 154 155 153 157 158 159 0
-442 188 181 182 183 184 185 187 186 0
-443 194 181 189 190 191 192 193 195 0
-451 223 222 217 224 219 220 221 218 0
-452 225 217 226 227 228 229 230 231 0
-460 254 253 259 260 255 256 257 258 0
-461 267 253 266 263 261 262 264 265 0
469 -289 0
-469 292 293 289 290 291 294 295 296 0
297 303 289 -470 298 300 301 302 299 0
-478 326 325 327 328 329 330 331 332 0
339 338 325 334 -479 333 335 336 337 0
-487 368 361 362 363 364 365 366 367 0
-488 375 361 369 370 371 372 373 374 0
5525 0
-5624 0
5526 0
5527 0
5528 0
5529 0
5531 0
5532 0
5533 0
5534 397 -5525 0
398 5535 -5526 0
5534 -1 -5525 -5526 0
-2 5534 -5525 -5527 0
-3 5534 -5525 -5528 0
-4 5534 -5525 -5529 0
-6 5534 -5525 -5531 0
-7 5534 -5525 -5532 0
-8 5534 -5525 -5533 0
5543 -5534 406 0
5544 407 -5535 0
5543 -37 -5534 -5535 0
-5543 5552 415 0
5553 416 -5544 0
-73 -5544 -5543 5552 0
-5552 5561 424 0
5562 425 -5553 0
5561 -109 -5552 -5553 0
-5561 5570 433 0
5571 434 -5562 0
-5561 -145 5570 -5562 0
-5570 5579 442 0
5580 443 -5571 0
-5570 -181 5579 -5571 0
-5579 5588 451 0
5589 452 -5580 0
-5579 -217 -5580 5588 0
-5588 5597 460 0
5598 461 -5589 0
-5588 -253 -5589 5597 0
-5597 5606 469 0
5607 470 -5598 0
-5597 5606 -5598 -289 0
-5606 5615 478 0
5615 -325 -5607 -5606 0
-5615 487 5624 0
6066 0
-6165 0
6075 398 -6066 0
6084 407 -6075 0
6084 -37 -6075 0
6093 416 -6084 0
6093 -73 -6084 0
6102 425 -6093 0
6102 -109 -6093 0
6111 434 -6102 0
6111 -145 -6102 0
6120 443 -6111 0
6120 -181 -6111 0
6129 452 -6120 0
6129 -217 -6120 0
6138 461 -6129 0
6138 -253 -6129 0
6147 470 -6138 0
6147 -289 -6138 0
479 -6147 6156 0
-325 -6147 6156 0
488 -6156 6165 0
-361 -6156 6165 0
-6389 0
-6390 0
-6398 397 6389 0
-6399 398 6390 0
-6398 -1 6389 0
-6398 -2 6389 0
-6398 -3 6389 0
-6398 -4 6389 0
-6398 -5 6389 0
-6398 -6 6389 0
-6398 -7 6389 0
-6398 -8 6389 0
-6407 406 6398 0
-6408 407 6399 0
-6408 -37 6398 6399 0
-38 -6407 6398 0
-39 -6407 6398 0
-40 -6407 6398 0
-41 -6407 6398 0
-42 -6407 6398 0
-43 -6407 6398 0
-6407 -44 6398 0
-6416 415 6407 0
-6417 416 6408 0
-6417 -73 6407 6408 0
-74 -6416 6407 0
-75 -6416 6407 0
-76 -6416 6407 0
-77 -6416 6407 0
-6416 -78 6407 0
-79 -6416 6407 0
-80 -6416 6407 0
-6425 424 6416 0
-6426 425 6417 0
-6426 -109 6416 6417 0
-110 -6425 6416 0
-111 -6425 6416 0
-112 -6425 6416 0
-113 -6425 6416 0
-114 -6425 6416 0
-115 -6425 6416 0
-116 -6425 6416 0
-6434 433 6425 0
-6435 434 6426 0
-145 -6434 6425 0
-6435 6426 6425 -145 0
-146 -6434 6425 0
-147 -6434 6425 0
-148 -6434 6425 0
-149 -6434 6425 0
-150 -6434 6425 0
-151 -6434 6425 0
-6434 -152 6425 0
-6443 442 6434 0
-6444 443 6435 0
-6443 -181 6434 0
-6444 -181 6434 6435 0
-182 -6443 6434 0
-183 -6443 6434 0
-184 -6443 6434 0
-185 -6443 6434 0
-186 -6443 6434 0
-187 -6443 6434 0
-6443 -188 6434 0
-6452 451 6443 0
-6453 452 6444 0
-6452 -217 6443 0
-6453 -217 6443 6444 0
-218 -6452 6443 0
-219 -6452 6443 0
-220 -6452 6443 0
-221 -6452 6443 0
-6452 -222 6443 0
-223 -6452 6443 0
-224 -6452 6443 0
-6461 460 6452 0
-6462 461 6453 0
-6461 -253 6452 0
-6462 -253 6452 6453 0
-254 -6461 6452 0
-255 -6461 6452 0
-256 -6461 6452 0
-257 -6461 6452 0
-258 -6461 6452 0
-259 -6461 6452 0
-260 -6461 6452 0
-6470 469 6461 0
-6471 470 6462 0
-6470 -289 6461 0
-6471 -289 6461 6462 0
-290 -6470 6461 0
-291 -6470 6461 0
-292 -6470 6461 0
-293 -6470 6461 0
-294 -6470 6461 0
-295 -6470 6461 0
-296 -6470 6461 0
-6480 479 6471 0
-6480 -325 6470 6471 0
6497 0
-6498 0
6597 0
6499 0
6500 0
6501 0
6502 0
6503 0
6504 0
6505 0
6506 397 -6497 0
-6507 398 6498 0
-6506 -1 6498 0
6506 -2 -6497 -6499 0
6506 -3 -6497 -6500 0
6506 -4 -6497 -6501 0
-5 6506 -6497 -6502 0
6506 -6 -6497 -6503 0
6506 -7 -6497 -6504 0
6506 -8 -6497 -6505 0
-6507 -9 6498 0
-6507 -10 6498 0
-6507 -11 6498 0
-6507 -12 6498 0
-6507 -13 6498 0
-6507 -14 6498 0
-15 -6507 6498 0
-6515 406 6506 0
-6516 407 6507 0
-6515 -37 6507 0
-37 6516 -6506 0
-45 -6516 6507 0
-46 -6516 6507 0
-47 -6516 6507 0
-48 -6516 6507 0
-49 -6516 6507 0
-50 -6516 6507 0
-51 -6516 6507 0
-6524 415 6515 0
-6525 416 6516 0
-73 -6524 6516 0
-78 -6524 6515 0
6521 -78 -6524 0
-81 -6525 6516 0
-82 -6525 6516 0
-83 -6525 6516 0
-84 -6525 6516 0
-85 -6525 6516 0
-86 -6525 6516 0
-87 -6525 6516 0
-6533 424 6524 0
-6534 425 6525 0
-109 -6533 6524 0
-109 -6533 6525 0
-109 -6524 6534 0
-109 -6534 6524 6525 0
-110 6524 -6533 0
-111 -6533 6524 0
-112 -6533 6524 0
-113 -6533 6524 0
-114 -6533 6524 0
-115 -6533 6524 0
-116 6524 -6533 0
-117 -6534 6525 0
-118 -6534 6525 0
-119 -6534 6525 0
-120 -6534 6525 0
-121 -6534 6525 0
-122 -6534 6525 0
-123 -6534 6525 0
-6542 433 6533 0
-6543 434 6534 0
-145 6533 -6542 0
-145 -6542 6534 0
-145 6533 -6543 6534 0
-146 -6542 6533 0
-147 -6542 6533 0
-148 -6542 6533 0
-149 -6542 6533 0
-150 6533 -6542 0
-151 6533 -6542 0
-153 -6543 6534 0
-154 -6543 6534 0
-155 -6543 6534 0
-156 -6543 6534 0
-157 -6543 6534 0
-158 -6543 6534 0
-159 -6543 6534 0
-6551 442 6542 0
-6552 443 6543 0
-181 -6551 6542 0
-181 6543 -6551 0
-181 6543 6542 -6552 0
-182 -6551 6542 0
-183 -6551 6542 0
-184 6542 -6551 0
-185 -6551 6542 0
-186 -6551 6542 0
-187 -6551 6542 0
-189 -6552 6543 0
-190 -6552 6543 0
-191 -6552 6543 0
-192 -6552 6543 0
-193 -6552 6543 0
-194 -6552 6543 0
-195 -6552 6543 0
-6560 451 6551 0
-6561 452 6552 0
-217 -6560 6551 0
-217 6552 -6560 0
-217 6552 6551 -6561 0
-218 6551 -6560 0
-219 6551 -6560 0
-220 -6560 6551 0
-221 -6560 6551 0
-222 6551 -6560 0
-223 -6560 6551 0
-224 -6560 6551 0
-225 6552 -6561 0
-226 6552 -6561 0
-227 6552 -6561 0
-228 6552 -6561 0
-229 6552 -6561 0
-230 6552 -6561 0
-231 6552 -6561 0
-6569 460 6560 0
-6570 461 6561 0
6561 -253 -6569 0
-6570 -253 6560 6561 0
-254 -6569 6560 0
-255 6560 -6569 0
-256 -6569 6560 0
-257 -6569 6560 0
-258 -6569 6560 0
-259 6560 -6569 0
-260 -6569 6560 0
-261 -6570 6561 0
-262 -6570 6561 0
-263 -6570 6561 0
-264 -6570 6561 0
-265 -6570 6561 0
-266 -6570 6561 0
-267 -6570 6561 0
-6578 469 6569 0
470 -6579 6570 0
-6578 -289 6570 0
-6569 -289 6579 0
6569 -289 -6579 6570 0
-297 -6579 6570 0
-298 -6579 6570 0
-299 -6579 6570 0
-300 -6579 6570 0
-301 -6579 6570 0
-302 -6579 6570 0
-303 -6579 6570 0
-6587 478 6578 0
479 -6588 6579 0
-6587 -325 6579 0
-325 -6588 6578 6579 0
-333 -6588 6579 0
-334 -6588 6579 0
-335 -6588 6579 0
-336 -6588 6579 0
-337 -6588 6579 0
-338 -6588 6579 0
-339 -6588 6579 0
6588 488 -6597 0
6588 -369 -6597 0
6588 -370 -6597 0
6588 -371 -6597 0
6588 -372 -6597 0
6588 -373 -6597 0
6588 -374 -6597 0
6588 -375 -6597 0
9749 -2 6389 0
9749 -3 6389 0
9749 -4 6389 0
9749 -5 6389 0
9749 -6 6389 0
9749 -7 6389 0
9749 -8 6389 0
9749 -9 6390 0
9749 -10 6390 0
9749 -11 6390 0
9749 -12 6390 0
9749 -13 6390 0
9749 -14 6390 0
-15 9749 6390 0
-37 9750 6398 0
-38 9750 6398 0
-39 9750 6398 0
-40 9750 6398 0
-41 9750 6398 0
-42 9750 6398 0
-43 9750 6398 0
-44 9750 6398 0
-73 9751 6407 0
-74 9751 6407 0
-75 9751 6407 0
-76 9751 6407 0
-77 9751 6407 0
-78 9751 6407 0
-79 9751 6407 0
-80 9751 6407 0
-81 6408 9751 0
9751 -82 6408 0
-83 6408 9751 0
-84 6408 9751 0
-85 6408 9751 0
-86 6408 9751 0
-87 6408 9751 0
9752 -109 6417 0
-110 6416 9752 0
-111 6416 9752 0
-112 6416 9752 0
-113 6416 9752 0
-114 6416 9752 0
-115 6416 9752 0
-116 6416 9752 0
-117 6417 9752 0
-118 6417 9752 0
-119 6417 9752 0
-120 6417 9752 0
-121 6417 9752 0
-122 6417 9752 0
-123 6417 9752 0
-145 9753 6425 0
-146 9753 6425 0
-147 9753 6425 0
-148 9753 6425 0
-149 9753 6425 0
-150 9753 6425 0
-151 9753 6425 0
-152 9753 6425 0
-153 9753 6426 0
-154 9753 6426 0
-155 9753 6426 0
-156 9753 6426 0
-157 9753 6426 0
-158 9753 6426 0
-159 9753 6426 0
-181 9754 6434 0
-182 9754 6434 0
-183 9754 6434 0
-184 9754 6434 0
-185 9754 6434 0
-186 9754 6434 0
-187 9754 6434 0
-188 9754 6434 0
-189 9754 6435 0
-190 9754 6435 0
-191 9754 6435 0
-192 9754 6435 0
-193 9754 6435 0
-194 9754 6435 0
-195 9754 6435 0
-217 9755 6443 0
-218 9755 6443 0
-219 9755 6443 0
-220 9755 6443 0
-221 9755 6443 0
-222 9755 6443 0
-223 9755 6443 0
-224 9755 6443 0
-225 9755 6444 0
-226 9755 6444 0
-227 9755 6444 0
-228 9755 6444 0
-229 9755 6444 0
-230 9755 6444 0
-231 9755 6444 0
6452 -253 9756 0
-254 6452 9756 0
-255 6452 9756 0
-256 6452 9756 0
-257 6452 9756 0
-258 6452 9756 0
-259 6452 9756 0
-260 6452 9756 0
-261 9756 6453 0
-262 9756 6453 0
-263 9756 6453 0
-264 9756 6453 0
-265 9756 6453 0
-266 9756 6453 0
9756 -267 6453 0
9757 -289 6461 0
-290 9757 6461 0
-291 9757 6461 0
-292 9757 6461 0
-293 9757 6461 0
-294 9757 6461 0
-295 9757 6461 0
-296 9757 6461 0
9757 6462 -297 0
-298 9757 6462 0
-299 9757 6462 0
-300 9757 6462 0
-301 9757 6462 0
-302 9757 6462 0
-303 9757 6462 0
9758 -325 6470 0
-326 9758 6470 0
-327 9758 6470 0
-328 9758 6470 0
-329 9758 6470 0
-330 9758 6470 0
-331 9758 6470 0
-332 9758 6470 0
9758 -333 6471 0
-334 9758 6471 0
-335 9758 6471 0
-336 9758 6471 0
-337 9758 6471 0
-338 9758 6471 0
9758 6471 -339 0
9759 6480 -361 0
6480 9759 -369 0
6480 9759 -370 0
6480 9759 -371 0
6480 9759 -372 0
6480 9759 -373 0
6480 9759 -374 0
6480 9759 -375 0
9760 -9749 0
9761 -9760 0
-9750 9762 -9760 0
-9762 9763 0
-9762 -9751 0
-9750 9761 0
9764 -9761 0
-9751 9763 -9761 0
-9763 9765 0
-9763 -9752 0
9764 -9751 0
9766 -9764 0
-9752 9765 -9764 0
-9765 9767 0
-9753 -9765 0
-9752 9766 0
9768 -9766 0
-9753 9767 -9766 0
-9767 9769 0
-9754 -9767 0
-9753 9768 0
9770 -9768 0
-9754 9769 -9768 0
-9769 9771 0
-9755 -9769 0
-9754 9770 0
9772 -9770 0
-9755 9771 -9770 0
-9771 9773 0
-9771 -9756 0
-9755 9772 0
9774 -9772 0
-9756 9773 -9772 0
-9773 9775 0
-9773 -9757 0
-9756 9774 0
9776 -9774 0
9775 -9757 -9774 0
-9775 9777 0
-9775 -9758 0
9776 -9757 0
9777 -9758 -9776 0
-9777 -9759 0
9778 -1 6498 0
-9 9778 6498 0
-10 9778 6498 0
-11 9778 6498 0
-12 9778 6498 0
-13 9778 6498 0
-14 9778 6498 0
-15 9778 6498 0
-37 9779 6506 0
-37 9779 6507 0
-38 9779 6506 0
-39 9779 6506 0
-40 9779 6506 0
-41 9779 6506 0
-42 9779 6506 0
-43 9779 6506 0
-44 9779 6506 0
-45 9779 6507 0
-46 9779 6507 0
-47 9779 6507 0
-48 9779 6507 0
-49 9779 6507 0
-50 9779 6507 0
-51 9779 6507 0
-73 6515 9780 0
-73 6516 9780 0
-74 6515 9780 0
-75 6515 9780 0
-76 6515 9780 0
-77 6515 9780 0
-78 6515 9780 0
-6521 -6515 -9780 -78 0
-79 6515 9780 0
-80 6515 9780 0
-81 6516 9780 0
-82 6516 9780 0
-83 6516 9780 0
-84 6516 9780 0
-85 6516 9780 0
-86 6516 9780 0
-87 6516 9780 0
-109 6524 9781 0
-109 6525 9781 0
-110 6524 9781 0
-111 6524 9781 0
-112 6524 9781 0
-113 6524 9781 0
-114 6524 9781 0
-115 6524 9781 0
-116 6524 9781 0
-117 6525 9781 0
-118 6525 9781 0
-119 6525 9781 0
-120 6525 9781 0
-121 6525 9781 0
-122 6525 9781 0
-123 6525 9781 0
-145 6533 9782 0
-145 6534 9782 0
-146 6533 9782 0
-147 6533 9782 0
-148 6533 9782 0
-149 6533 9782 0
-150 6533 9782 0
-151 6533 9782 0
-152 6533 9782 0
-153 6534 9782 0
-154 6534 9782 0
-155 6534 9782 0
-156 6534 9782 0
-157 6534 9782 0
-158 6534 9782 0
-159 6534 9782 0
-181 6542 9783 0
-181 6543 9783 0
-182 6542 9783 0
-183 6542 9783 0
-184 6542 9783 0
-185 6542 9783 0
-186 6542 9783 0
-187 6542 9783 0
-188 6542 9783 0
-189 6543 9783 0
-190 6543 9783 0
-191 6543 9783 0
-192 6543 9783 0
-193 6543 9783 0
-194 6543 9783 0
-195 6543 9783 0
-217 6551 9784 0
-217 6552 9784 0
-218 6551 9784 0
-219 6551 9784 0
-220 6551 9784 0
-221 6551 9784 0
-222 6551 9784 0
-223 6551 9784 0
-224 6551 9784 0
-225 6552 9784 0
-226 6552 9784 0
-227 6552 9784 0
-228 6552 9784 0
-229 6552 9784 0
-230 6552 9784 0
-231 6552 9784 0
-253 6560 9785 0
-253 6561 9785 0
-254 6560 9785 0
-255 6560 9785 0
-256 6560 9785 0
-257 6560 9785 0
-258 6560 9785 0
-259 6560 9785 0
-260 6560 9785 0
-261 6561 9785 0
-262 6561 9785 0
-263 6561 9785 0
-264 6561 9785 0
-265 6561 9785 0
-266 6561 9785 0
-267 6561 9785 0
-289 6569 9786 0
-289 6570 9786 0
-290 6569 9786 0
-291 6569 9786 0
-292 6569 9786 0
-293 6569 9786 0
-294 6569 9786 0
-295 6569 9786 0
-296 6569 9786 0
-297 6570 9786 0
-298 6570 9786 0
-299 6570 9786 0
-300 6570 9786 0
-301 6570 9786 0
-302 6570 9786 0
-303 6570 9786 0
-325 6578 9787 0
-325 6579 9787 0
-326 6578 9787 0
-327 6578 9787 0
-328 6578 9787 0
-329 6578 9787 0
-330 6578 9787 0
-331 6578 9787 0
-332 6578 9787 0
-333 6579 9787 0
-334 6579 9787 0
-335 6579 9787 0
-336 6579 9787 0
-337 6579 9787 0
-338 6579 9787 0
-339 6579 9787 0
-361 6587 9788 0
-361 6588 9788 0
-362 6587 9788 0
-363 6587 9788 0
-364 6587 9788 0
-365 6587 9788 0
-366 6587 9788 0
-367 6587 9788 0
-368 6587 9788 0
9789 -9778 0
9790 -9789 0
-9779 -9789 0
-9779 9790 0
9791 -9790 0
-9780 -9790 0
-9780 9791 0
9792 -9791 0
-9781 -9791 0
-9781 9792 0
9793 -9792 0
-9782 -9792 0
-9782 9793 0
9794 -9793 0
-9783 -9793 0
-9783 9794 0
9795 -9794 0
-9784 -9794 0
-9784 9795 0
9796 -9795 0
-9785 -9795 0
-9785 9796 0
9797 -9796 0
-9786 -9796 0
9797 -9786 0
9798 -9797 0
-9787 -9797 0
9798 -9787 0
-9788 -9798 0
