p cnf 10611 1515
503 -8 0
-503 -9 0
-397 3 2 7 8 4 5 6 1 0
13 11 1 9 -398 14 15 12 10 0
-399 19 2 9 21 18 16 17 20 0
22 10 16 -400 3 23 24 25 26 0
-401 22 30 28 17 27 11 29 4 0
23 -402 18 32 12 27 31 33 5 0
24 31 19 34 6 28 13 -403 35 0
-404 25 20 7 29 14 32 34 36 0
-405 15 30 26 35 21 33 8 36 0
-40 534 0
535 -534 0
-41 535 0
536 -535 0
536 -42 0
537 -536 0
-43 537 0
538 -537 0
538 -44 0
-45 -538 0
-406 39 37 38 44 43 40 41 42 0
-407 49 37 51 50 46 47 48 45 0
54 55 38 45 -408 56 52 53 57 0
-73 566 0
-566 -74 0
-75 568 0
-568 569 0
-76 569 0
-569 570 0
-77 570 0
-570 571 0
-78 571 0
-571 572 0
-79 572 0
-572 573 0
-80 573 0
-573 -81 0
-415 77 74 73 78 75 76 79 80 0
-416 87 81 73 86 82 83 84 85 0
92 -417 74 81 91 88 89 90 93 0
-111 603 0
-603 604 0
-112 604 0
-604 605 0
-113 605 0
-605 606 0
-114 606 0
-606 607 0
-115 607 0
-607 608 0
-116 608 0
-608 -117 0
-424 111 115 110 116 109 112 113 114 0
-425 119 117 109 120 118 121 122 123 0
-426 126 117 110 127 128 125 124 129 0
-145 636 0
-636 -146 0
-147 638 0
-638 639 0
-148 639 0
-639 640 0
-149 640 0
-640 641 0
-150 641 0
-641 642 0
-151 642 0
-642 643 0
-152 643 0
-643 -153 0
-145 433 0
-433 147 152 146 145 151 148 149 150 0
157 158 145 153 156 -434 154 155 159 0
435 -146 0
165 161 146 153 -435 160 162 163 164 0
-181 671 0
-671 672 0
672 -182 0
-672 673 0
-183 673 0
-673 674 0
-184 674 0
-674 675 0
-185 675 0
-675 676 0
-186 676 0
-676 677 0
-187 677 0
-677 678 0
-188 678 0
-678 -189 0
-442 188 183 181 182 187 184 185 186 0
191 190 -443 181 189 192 193 194 195 0
197 196 189 182 198 -444 199 200 201 0
-217 706 0
-706 707 0
-218 -706 0
-218 707 0
-707 708 0
-219 708 0
-708 709 0
-220 709 0
-709 710 0
-221 710 0
-710 711 0
-222 711 0
-711 712 0
-223 712 0
-712 713 0
-224 713 0
-713 714 0
-713 -225 0
-714 715 0
-226 -714 0
-715 716 0
-715 -227 0
-716 717 0
-228 -716 0
718 -717 0
-717 -229 0
719 -718 0
-230 -718 0
-231 -719 0
-451 218 217 223 224 219 220 221 222 0
-217 452 0
229 228 217 -452 226 230 231 227 225 0
-453 235 225 218 237 232 236 234 233 0
741 -253 0
742 -741 0
742 -254 0
743 -742 0
-255 743 0
744 -743 0
-256 744 0
745 -744 0
-257 745 0
746 -745 0
-258 746 0
747 -746 0
-259 747 0
748 -747 0
748 -260 0
-261 -748 0
-460 260 259 253 254 255 256 257 258 0
-461 265 253 264 262 261 263 266 267 0
271 273 261 254 -462 268 269 270 272 0
-289 776 0
-776 -290 0
-291 778 0
-778 779 0
-292 779 0
-779 780 0
-293 780 0
-780 781 0
-294 781 0
-781 782 0
-295 782 0
-782 783 0
-296 783 0
-783 -297 0
-469 295 289 291 290 296 292 293 294 0
-470 299 289 297 298 300 301 302 303 0
305 304 290 297 -471 306 307 308 309 0
-325 811 0
-811 812 0
-326 -811 0
-326 812 0
-812 813 0
-327 813 0
-813 814 0
-328 814 0
-814 815 0
-329 815 0
-815 816 0
-330 816 0
-816 817 0
-331 817 0
-817 818 0
-332 818 0
-818 819 0
-818 -333 0
-819 820 0
-819 -334 0
821 -820 0
-820 -335 0
822 -821 0
-336 -821 0
823 -822 0
-337 -822 0
824 -823 0
-338 -823 0
825 -824 0
-339 -824 0
826 -825 0
-340 -825 0
827 -826 0
-341 -826 0
828 -827 0
-342 -827 0
829 -828 0
-343 -828 0
830 -829 0
-344 -829 0
-345 -830 0
-478 326 325 332 328 327 331 329 330 0
335 336 325 -479 333 334 339 338 337 0
-480 345 333 326 340 344 341 342 343 0
-361 846 0
-846 847 0
-847 848 0
-363 848 0
-848 849 0
-364 849 0
-849 850 0
-365 850 0
-850 851 0
-366 851 0
-851 852 0
-367 852 0
-852 853 0
-368 853 0
-853 -369 0
-487 368 361 365 363 364 362 367 366 0
372 371 361 -488 369 370 373 374 375 0
-489 369 362 380 377 376 379 378 381 0
1747 0
-1846 0
-1750 0
-1751 0
-1752 0
399 1756 -1747 0
-18 -1756 1750 0
-19 -1756 1751 0
-20 -1756 1752 0
1765 408 -1756 0
1774 -1765 417 0
1783 -1774 426 0
1792 -1783 435 0
1801 -1792 444 0
1810 -1801 453 0
1819 -1810 462 0
1828 -1819 471 0
-1828 1837 480 0
-1828 -326 1837 0
-369 -1837 1846 0
3365 0
-3464 0
-3465 0
3367 0
3368 0
3369 0
-3370 0
3372 0
3373 0
397 3374 -3365 0
399 3376 -3367 0
3377 400 -3368 0
3381 404 -3372 0
3382 405 -3373 0
-5 -3374 3370 0
-7 3381 -3372 0
-8 3382 -3373 0
3377 -10 -3368 0
-14 3381 -3372 0
-15 3382 -3373 0
-16 3376 -3367 -3368 0
-16 3377 -3367 0
-17 3376 -3367 -3369 0
-18 3379 -3367 0
-20 3376 -3367 -3372 0
-20 3381 -3372 0
-21 3376 -3367 -3373 0
-21 3382 -3373 0
-22 3377 -3368 -3369 0
-25 3377 -3368 -3372 0
-25 3381 -3372 0
-26 3377 -3368 -3373 0
-26 3382 -3373 0
-29 3381 -3372 0
-30 3382 -3373 0
-32 3381 -3372 0
-33 3382 -3373 0
-34 3381 -3372 0
-35 3382 -3373 0
-36 3381 -3372 -3373 0
-36 3382 -3373 0
3383 406 -3374 0
3385 408 -3376 0
-38 3383 -3376 -3374 0
-39 3383 -3377 -3374 0
-41 -3379 -3374 3383 0
-43 3383 -3381 -3374 0
3383 -44 -3382 -3374 0
-3383 3392 415 0
3394 -3385 417 0
3392 -74 -3385 -3383 0
-3392 3401 424 0
3403 -3394 426 0
-3401 3410 433 0
-3402 3411 434 0
3412 -3403 435 0
3410 -146 -3401 -3403 0
-3410 3419 442 0
-3411 3420 443 0
3421 -3412 444 0
3419 -182 -3410 -3412 0
-3419 3428 451 0
-3420 3429 452 0
3430 -3421 453 0
-218 3428 -3419 -3421 0
-3428 3437 460 0
-3429 3438 461 0
3439 -3430 462 0
-254 3437 -3430 -3428 0
-3437 3446 469 0
-3438 3447 470 0
3447 -289 -3437 0
-3439 -3437 3446 -290 0
-3446 3455 478 0
-3447 3456 479 0
-3446 -325 3456 0
487 -3455 3464 0
488 -3456 3465 0
-361 -3455 3465 0
4661 0
-4760 0
-4662 0
-4761 0
4663 0
4664 0
4665 0
4666 0
4668 0
4669 0
4670 397 -4661 0
-4671 398 4662 0
4672 399 -4663 0
4674 401 -4665 0
-4 4670 -4661 -4665 0
-5 4670 -4661 -4666 0
4670 -8 -4661 -4669 0
-11 4674 -4665 0
-17 4674 -4665 0
4674 -22 -4665 0
-23 4673 -4664 -4666 0
-27 4674 -4665 -4666 0
-29 4674 -4665 -4668 0
4674 -30 -4665 -4669 0
4679 406 -4670 0
4681 408 -4672 0
-39 4679 -4670 -4673 0
-40 4679 -4674 -4670 0
4688 415 -4679 0
4690 -4681 417 0
4689 -73 -4679 0
4697 424 -4688 0
4698 -4689 425 0
4699 -4690 426 0
4698 -109 -4688 0
4697 -110 -4688 -4690 0
4706 433 -4697 0
-4698 4707 434 0
4707 -145 -4697 0
4706 -146 -4697 -4699 0
4715 442 -4706 0
-4707 4716 443 0
-181 4716 -4706 0
4724 451 -4715 0
-4716 4725 452 0
4725 -217 -4715 0
4733 460 -4724 0
-4725 4734 461 0
4734 -253 -4724 0
4742 469 -4733 0
-4734 4743 470 0
4751 478 -4742 0
-4743 4752 479 0
487 -4751 4760 0
488 -4752 4761 0
-361 -4751 4761 0
5633 0
-5732 0
5636 0
5639 0
5642 397 -5633 0
-24 5645 -5636 -5639 0
-39 5651 -5642 -5645 0
-5651 5660 415 0
-5660 5669 424 0
-5669 5678 433 0
-5678 5687 442 0
-5687 5696 451 0
-5696 5705 460 0
-5705 5714 469 0
-5714 5723 478 0
-5723 487 5732 0
5849 0
-5948 0
5850 0
5851 0
5852 0
5853 0
5855 0
5856 0
5857 0
5858 397 -5849 0
5859 398 -5850 0
5858 -1 -5849 -5850 0
5858 -2 -5849 -5851 0
-3 5858 -5849 -5852 0
-6 5858 -5849 -5855 0
5858 -7 -5849 -5856 0
-9 5859 -5850 -5851 0
-9 5860 -5851 0
5859 -10 -5850 -5852 0
5859 -11 -5850 -5853 0
-13 5859 -5850 -5855 0
-14 5859 -5850 -5856 0
5859 -15 -5850 -5857 0
5867 406 -5858 0
5868 407 -5859 0
-37 5867 -5859 -5858 0
-38 5867 -5860 -5858 0
5876 415 -5867 0
5877 416 -5868 0
5885 424 -5876 0
5886 -5877 425 0
5894 433 -5885 0
5895 -5886 434 0
-5886 -145 5894 -5885 0
5903 442 -5894 0
5904 -5895 443 0
5912 451 -5903 0
5913 -5904 452 0
-5904 -217 5912 -5903 0
5921 460 -5912 0
5922 -5913 461 0
-5913 -253 5921 -5912 0
5930 469 -5921 0
5931 470 -5922 0
-5922 5930 -5921 -289 0
5939 478 -5930 0
-5931 -325 -5930 5939 0
-5939 487 5948 0
-6713 0
6714 0
-6813 0
-6715 0
6814 0
6716 0
6717 0
6718 0
6719 0
6720 0
6721 0
-6722 397 6713 0
6723 398 -6714 0
-6724 399 6715 0
-6724 -2 6713 6715 0
-6722 -3 6713 0
-6722 -4 6713 0
-6722 -5 6713 0
-6722 -7 6713 0
-8 -6722 6713 0
-6723 -9 6715 0
-9 6724 -6714 0
6723 -10 -6714 -6716 0
6723 -11 -6714 -6717 0
-12 6723 -6714 -6718 0
6723 -13 -6714 -6719 0
6723 -14 -6714 -6720 0
6723 -15 -6714 -6721 0
-6724 -16 6715 0
-17 -6724 6715 0
-6724 -18 6715 0
-19 -6724 6715 0
-6724 -20 6715 0
-6724 -21 6715 0
-6731 406 6722 0
407 -6732 6723 0
408 -6733 6724 0
-6731 -38 6722 0
-6733 -38 6724 6722 0
-6731 -40 6722 0
-6731 -41 6722 0
-6731 -42 6722 0
-43 -6731 6722 0
-45 -6732 6723 0
-45 -6732 6724 0
-45 6733 -6723 0
-46 -6732 6723 0
-47 -6732 6723 0
-48 -6732 6723 0
-49 -6732 6723 0
-50 -6732 6723 0
-51 -6732 6723 0
-52 -6733 6724 0
-53 -6733 6724 0
-54 -6733 6724 0
-55 -6733 6724 0
-56 -6733 6724 0
-57 -6733 6724 0
-6740 6731 415 0
416 6732 -6741 0
417 6733 -6742 0
-73 -6740 6731 0
-73 -6732 6741 0
-73 -6741 6732 6731 0
-74 -6740 6731 0
-74 -6733 6742 0
-6742 -74 6731 6733 0
-75 -6740 6731 0
-76 -6740 6731 0
-77 -6740 6731 0
-6740 -78 6731 0
-79 -6740 6731 0
-80 -6740 6731 0
6732 -81 -6741 0
6733 -81 -6741 0
-81 -6732 6742 0
-81 -6733 6742 0
-81 6732 6733 -6742 0
-82 6732 -6741 0
-83 6732 -6741 0
-84 6732 -6741 0
-85 6732 -6741 0
-86 6732 -6741 0
-87 6732 -6741 0
-88 6733 -6742 0
-89 6733 -6742 0
-90 6733 -6742 0
-91 6733 -6742 0
-92 6733 -6742 0
-93 6733 -6742 0
-6749 6740 424 0
425 -6750 6741 0
-6751 426 6742 0
-109 -6749 6740 0
-109 -6741 6750 0
-109 6740 6741 -6750 0
-110 -6749 6740 0
-6751 -110 6740 6742 0
-111 -6749 6740 0
-112 -6749 6740 0
-113 -6749 6740 0
-114 -6749 6740 0
-115 -6749 6740 0
-116 -6749 6740 0
-117 -6750 6741 0
-117 -6750 6742 0
-6751 -117 6741 6742 0
-118 -6750 6741 0
-119 -6750 6741 0
-120 -6750 6741 0
-121 -6750 6741 0
-122 -6750 6741 0
-123 -6750 6741 0
-124 -6751 6742 0
-125 -6751 6742 0
-126 -6751 6742 0
-127 -6751 6742 0
-128 -6751 6742 0
-129 -6751 6742 0
-6758 6749 433 0
434 6750 -6759 0
435 6751 -6760 0
-145 6749 -6758 0
-145 -6750 6759 0
-145 6750 -6759 6749 0
6749 -146 -6758 0
-6758 -146 6751 0
-146 -6760 6751 6749 0
-147 6749 -6758 0
-148 6749 -6758 0
-149 6749 -6758 0
-150 6749 -6758 0
-151 6749 -6758 0
-152 6749 -6758 0
-153 6750 -6759 0
-153 -6759 6751 0
-153 6750 6751 -6760 0
-154 6750 -6759 0
-155 6750 -6759 0
-156 6750 -6759 0
-157 6750 -6759 0
-158 6750 -6759 0
-159 6750 -6759 0
-160 6751 -6760 0
-161 6751 -6760 0
-162 6751 -6760 0
-163 6751 -6760 0
-164 6751 -6760 0
-165 6751 -6760 0
-6767 6758 442 0
443 -6768 6759 0
444 6760 -6769 0
-181 -6767 6758 0
-181 6768 -6759 0
-181 -6768 6759 6758 0
-6767 -182 6758 0
-182 -6769 6758 6760 0
-183 -6767 6758 0
-184 -6767 6758 0
-185 -6767 6758 0
-186 -6767 6758 0
-187 -6767 6758 0
-188 -6767 6758 0
-189 -6768 6759 0
-189 6760 -6768 0
-189 6769 -6759 0
-189 6760 6759 -6769 0
-190 6759 -6768 0
-191 6759 -6768 0
-192 6759 -6768 0
-193 6759 -6768 0
-194 6759 -6768 0
-195 6759 -6768 0
-196 6760 -6769 0
-197 6760 -6769 0
-198 6760 -6769 0
-199 6760 -6769 0
-200 6760 -6769 0
-201 6760 -6769 0
-6776 6767 451 0
452 6768 -6777 0
453 -6778 6769 0
-217 -6776 6767 0
-217 6767 6768 -6777 0
-218 -6776 6767 0
-218 -6778 6769 6767 0
-219 -6776 6767 0
-220 -6776 6767 0
-221 -6776 6767 0
-222 -6776 6767 0
-223 -6776 6767 0
-224 -6776 6767 0
-225 6768 -6777 0
-225 6769 -6777 0
-225 -6768 6778 0
-225 6769 6768 -6778 0
-226 6768 -6777 0
-227 6768 -6777 0
-228 6768 -6777 0
6768 -6777 -229 0
-230 6768 -6777 0
-231 6768 -6777 0
-232 -6778 6769 0
-233 -6778 6769 0
-234 -6778 6769 0
-235 -6778 6769 0
-236 -6778 6769 0
-237 -6778 6769 0
-6785 6776 460 0
461 -6786 6777 0
462 -6787 6778 0
-253 -6785 6776 0
-253 6786 -6777 0
-253 -6786 6777 6776 0
-254 -6785 6776 0
-6787 -254 6776 6778 0
-255 -6785 6776 0
-256 -6785 6776 0
-257 -6785 6776 0
-258 -6785 6776 0
-259 -6785 6776 0
-260 -6785 6776 0
-6786 -261 6777 0
-6786 -261 6778 0
-261 6787 -6777 0
-261 6778 6777 -6787 0
-262 -6786 6777 0
-263 -6786 6777 0
-264 -6786 6777 0
-265 -6786 6777 0
-266 -6786 6777 0
-267 -6786 6777 0
-268 -6787 6778 0
-269 -6787 6778 0
-270 -6787 6778 0
-271 -6787 6778 0
-272 -6787 6778 0
-273 -6787 6778 0
-6794 6785 469 0
470 6786 -6795 0
471 -6796 6787 0
-289 -6794 6785 0
-289 6795 -6786 0
-289 6786 -6795 6785 0
-290 -6794 6785 0
-290 -6796 6785 6787 0
-291 -6794 6785 0
-292 -6794 6785 0
-293 -6794 6785 0
-294 -6794 6785 0
-295 -6794 6785 0
-296 -6794 6785 0
-297 6786 -6795 0
-297 6787 -6795 0
-297 6796 -6786 0
-297 6786 6787 -6796 0
-298 6786 -6795 0
-299 6786 -6795 0
-300 6786 -6795 0
-301 6786 -6795 0
-302 6786 -6795 0
-303 6786 -6795 0
-304 -6796 6787 0
-305 -6796 6787 0
-306 -6796 6787 0
-307 -6796 6787 0
-308 -6796 6787 0
-309 -6796 6787 0
-6803 6794 478 0
-6804 479 6795 0
480 -6805 6796 0
-325 6794 -6803 0
-325 6795 -6803 0
-325 6804 -6795 0
-325 6794 -6804 6795 0
-326 6794 -6803 0
-326 -6805 6796 6794 0
-327 6794 -6803 0
-328 6794 -6803 0
-329 6794 -6803 0
-330 6794 -6803 0
-331 6794 -6803 0
-332 6794 -6803 0
-333 -6804 6795 0
-333 -6804 6796 0
-333 6795 -6805 6796 0
-334 -6804 6795 0
-6804 6795 -335 0
-336 -6804 6795 0
-337 -6804 6795 0
-338 -6804 6795 0
-339 -6804 6795 0
-340 -6805 6796 0
-341 6796 -6805 0
-342 -6805 6796 0
-343 6796 -6805 0
-344 -6805 6796 0
-345 -6805 6796 0
6805 489 -6814 0
-361 -6803 6813 0
6803 -362 6805 -6814 0
6804 -369 6805 -6814 0
-6804 -6808 -372 6813 0
-6804 -6811 -375 6813 0
6805 -376 -6814 0
6805 -377 -6814 0
6805 -378 -6814 0
6805 -379 -6814 0
6805 -380 -6814 0
6805 -381 -6814 0
6821 0
-6920 0
6822 0
6921 0
-6823 0
6826 0
6830 397 -6821 0
-6832 399 6823 0
-2 6832 -6821 0
-6831 -9 6823 0
6832 -9 -6822 0
6831 -12 -6822 -6826 0
-6832 -16 6823 0
-17 -6832 6823 0
-6832 -18 6823 0
-19 -6832 6823 0
-6832 -20 6823 0
-6832 -21 6823 0
-6840 407 6831 0
-6841 408 6832 0
-37 6839 -6830 -6831 0
-45 -6840 6831 0
-45 -6840 6832 0
-46 -6840 6831 0
-47 -6840 6831 0
-48 -6840 6831 0
-49 -6840 6831 0
-50 -6840 6831 0
-51 -6840 6831 0
-52 -6841 6832 0
-53 -6841 6832 0
-54 -6841 6832 0
-6841 -55 6832 0
-56 -6841 6832 0
-57 -6841 6832 0
-6839 6848 415 0
-6849 416 6840 0
6841 -6850 417 0
-6849 -81 6840 0
-6849 6841 -81 0
-82 -6849 6840 0
-83 -6849 6840 0
-84 -6849 6840 0
-85 -6849 6840 0
-86 -6849 6840 0
-87 -6849 6840 0
-88 -6850 6841 0
-89 -6850 6841 0
-90 -6850 6841 0
-91 -6850 6841 0
-92 -6850 6841 0
-93 -6850 6841 0
-6848 6857 424 0
-6858 425 6849 0
6850 -6859 426 0
-6858 -117 6849 0
6850 -6858 -117 0
-118 6849 -6858 0
-119 6849 -6858 0
-120 6849 -6858 0
-121 6849 -6858 0
-122 6849 -6858 0
-123 6849 -6858 0
-124 6850 -6859 0
-125 6850 -6859 0
-126 6850 -6859 0
-127 6850 -6859 0
-128 6850 -6859 0
-129 6850 -6859 0
-6857 6866 433 0
-6867 6858 434 0
6859 -6868 435 0
6858 -153 -6867 0
6859 -153 -6867 0
-154 6858 -6867 0
-155 6858 -6867 0
-156 6858 -6867 0
6858 -6867 -157 0
-158 6858 -6867 0
-159 6858 -6867 0
-160 6859 -6868 0
-161 6859 -6868 0
-162 6859 -6868 0
-163 6859 -6868 0
-164 6859 -6868 0
6859 -6868 -165 0
-6866 6875 442 0
-6876 6867 443 0
-6877 6868 444 0
-6876 -189 6867 0
6868 -189 -6876 0
-190 6867 -6876 0
6867 -6876 -191 0
-192 6867 -6876 0
-193 6867 -6876 0
-194 6867 -6876 0
-195 6867 -6876 0
-196 -6877 6868 0
-6877 6868 -197 0
-198 -6877 6868 0
-199 -6877 6868 0
-200 -6877 6868 0
-201 -6877 6868 0
-6875 6884 451 0
-6885 6876 452 0
-6886 6877 453 0
-6877 6886 453 0
6876 -6885 -225 0
6877 -6885 -225 0
-226 6876 -6885 0
6876 -6885 -227 0
-228 6876 -6885 0
6876 -6885 -229 0
-230 6876 -6885 0
-231 6876 -6885 0
-232 -6886 6877 0
-233 -6886 6877 0
-234 -6886 6877 0
-235 -6886 6877 0
-236 -6886 6877 0
-237 -6886 6877 0
-6884 6893 460 0
-6894 6885 461 0
-6895 6886 462 0
6895 -6886 462 0
-6894 -261 6885 0
-6894 -261 6886 0
-262 6885 -6894 0
-263 6885 -6894 0
-264 6885 -6894 0
-265 6885 -6894 0
-266 6885 -6894 0
-267 6885 -6894 0
-268 -6895 6886 0
-269 -6895 6886 0
-270 -6895 6886 0
-6895 6886 -271 0
-272 -6895 6886 0
-273 -6895 6886 0
-6893 6902 469 0
-6903 6894 470 0
6895 -6904 471 0
6904 -6895 471 0
6894 -6903 6893 -289 0
6894 -297 -6903 0
-297 6895 -6903 0
-298 6894 -6903 0
-299 6894 -6903 0
-300 6894 -6903 0
-6903 -301 6894 0
-302 6894 -6903 0
-303 6894 -6903 0
6895 -6904 -304 0
-305 6895 -6904 0
-306 6895 -6904 0
-307 6895 -6904 0
-308 6895 -6904 0
-309 6895 -6904 0
-6902 6911 478 0
6903 479 -6912 0
6904 -6913 480 0
6903 -333 -6912 0
6904 -333 -6912 0
-334 6903 -6912 0
6903 -6912 -335 0
-336 6903 -6912 0
-337 6903 -6912 0
-338 6903 -6912 0
-339 6903 -6912 0
-340 6904 -6913 0
-341 6904 -6913 0
-342 6904 -6913 0
-343 6904 -6913 0
-344 6904 -6913 0
-345 6904 -6913 0
-6911 487 6920 0
6912 488 -6921 0
6912 -369 -6921 0
6913 -369 -6921 0
6912 -370 -6921 0
6912 -371 -6921 0
-372 6912 -6921 0
-373 6912 -6921 0
-374 6912 -6921 0
-375 6912 -6921 0
7037 0
-7136 0
-7038 0
7137 0
7041 0
7042 0
7043 0
7044 0
7045 0
7046 397 -7037 0
7051 402 -7042 0
7052 403 -7043 0
-7047 -9 7038 0
7051 -12 -7042 0
7052 -13 -7043 0
-19 7052 -7043 0
7051 -23 -7042 0
-24 7052 -7043 0
7051 -27 -7041 0
-28 7052 -7043 0
-31 7051 -7042 -7043 0
-31 7052 -7042 0
7051 -32 -7042 -7044 0
7051 -33 -7042 -7045 0
-34 7052 -7043 -7044 0
7052 -35 -7043 -7045 0
-7056 407 7047 0
-41 7055 -7051 -7046 0
-42 7055 -7052 -7046 0
-7055 7064 415 0
-7065 416 7056 0
-7064 7073 424 0
-7074 425 7065 0
-7074 -117 7065 0
-118 7065 -7074 0
-119 7065 -7074 0
-120 7065 -7074 0
-121 7065 -7074 0
-122 7065 -7074 0
-123 7065 -7074 0
-7073 7082 433 0
-7083 7074 434 0
-7082 7091 442 0
-7092 7083 443 0
-7091 7100 451 0
452 7092 -7101 0
-225 7092 -7101 0
-226 7092 -7101 0
-227 7092 -7101 0
-228 7092 -7101 0
-229 7092 -7101 0
-230 7092 -7101 0
-231 7092 -7101 0
-7100 7109 460 0
461 7101 -7110 0
-261 7101 -7110 0
-262 7101 -7110 0
-263 7101 -7110 0
-264 7101 -7110 0
-265 7101 -7110 0
-266 7101 -7110 0
-267 7101 -7110 0
-7109 7118 469 0
470 7110 -7119 0
7110 -297 -7119 0
-298 7110 -7119 0
-299 7110 -7119 0
-300 7110 -7119 0
7110 -301 -7119 0
-302 7110 -7119 0
-303 7110 -7119 0
-7118 7127 478 0
479 7119 -7128 0
-333 7119 -7128 0
-334 7119 -7128 0
-335 7119 -7128 0
-336 7119 -7128 0
-337 7119 -7128 0
-338 7119 -7128 0
-339 7119 -7128 0
-7127 487 7136 0
7128 488 -7137 0
7128 -369 -7137 0
7128 -370 -7137 0
7128 -371 -7137 0
7128 -372 -7137 0
7128 -373 -7137 0
7128 -374 -7137 0
7128 -375 -7137 0
-7145 0
-7244 0
7146 0
7147 0
7150 0
-7154 397 7145 0
-7154 -1 7145 0
-7154 -2 7145 0
-7154 -3 7145 0
-7154 -4 7145 0
-7154 -5 7145 0
-7154 -6 7145 0
-7154 -7 7145 0
-8 -7154 7145 0
-7163 406 7154 0
-37 -7163 7154 0
-38 -7163 7154 0
-39 -7163 7154 0
-40 -7163 7154 0
-41 -7163 7154 0
-42 -7163 7154 0
-43 -7163 7154 0
-44 -7163 7154 0
-7172 415 7163 0
-7172 -74 7163 0
-75 -7172 7163 0
-76 -7172 7163 0
-77 -7172 7163 0
-78 -7172 7163 0
-79 -7172 7163 0
-80 -7172 7163 0
-7181 424 7172 0
-7190 433 7181 0
433 -7181 7190 0
-7190 -146 7181 0
-7199 442 7190 0
-7190 442 7199 0
-7208 451 7199 0
7208 -7199 451 0
-7208 -218 7199 0
-7217 460 7208 0
7217 -7208 460 0
-7217 -253 7208 0
-7217 -254 7208 0
-255 -7217 7208 0
-256 -7217 7208 0
-257 -7217 7208 0
-258 -7217 7208 0
-259 -7217 7208 0
-7217 -260 7208 0
-7226 469 7217 0
-7217 469 7226 0
-7226 -289 7217 0
-7226 -290 7217 0
-291 -7226 7217 0
-292 -7226 7217 0
-293 -7226 7217 0
-294 -7226 7217 0
-295 -7226 7217 0
-7226 -296 7217 0
-7235 478 7226 0
-7226 7235 478 0
-325 7226 -7235 0
-327 -7235 7226 0
-7235 -328 7226 0
-329 -7235 7226 0
-330 -7235 7226 0
-331 -7235 7226 0
-7235 -332 7226 0
-7235 487 7244 0
-7236 -7235 -361 7244 0
-1 10446 6713 0
-2 10446 6715 0
-3 10446 6713 0
-4 10446 6713 0
-5 10446 6713 0
-6 10446 6713 0
-7 10446 6713 0
-8 10446 6713 0
-9 10446 6715 0
-10446 -10 -6714 -6716 0
-11 -10446 -6714 -6717 0
-12 -10446 -6714 -6718 0
-13 -10446 -6714 -6719 0
-10446 -14 -6714 -6720 0
-10446 -15 -6714 -6721 0
-16 10446 6715 0
-17 10446 6715 0
-18 10446 6715 0
-19 10446 6715 0
-20 10446 6715 0
10446 -21 6715 0
-25 -10446 -6716 -6720 0
-26 -10446 -6716 -6721 0
-28 -10446 -6717 -6719 0
-33 -10446 -6718 -6721 0
-34 -10446 -6719 -6720 0
-35 -10446 -6719 -6721 0
-38 10447 6722 0
-38 10447 6724 0
-40 10447 6722 0
-41 10447 6722 0
-42 10447 6722 0
-43 10447 6722 0
-44 10447 6722 0
-45 10447 6723 0
-45 10447 6724 0
-46 10447 6723 0
-47 10447 6723 0
-48 10447 6723 0
-49 10447 6723 0
-50 10447 6723 0
-51 10447 6723 0
-52 10447 6724 0
-53 10447 6724 0
-54 10447 6724 0
-55 10447 6724 0
-56 10447 6724 0
-57 10447 6724 0
-73 6731 10448 0
-73 6732 10448 0
-74 6731 10448 0
-74 6733 10448 0
-75 6731 10448 0
-76 6731 10448 0
-77 6731 10448 0
6731 -78 10448 0
-79 6731 10448 0
-80 6731 10448 0
-81 6732 10448 0
6733 -81 10448 0
-82 6732 10448 0
-83 6732 10448 0
-84 6732 10448 0
-85 6732 10448 0
-86 6732 10448 0
-87 6732 10448 0
-88 6733 10448 0
-89 6733 10448 0
-90 6733 10448 0
-91 6733 10448 0
-92 6733 10448 0
-93 6733 10448 0
-109 6740 10449 0
-109 6741 10449 0
-110 6740 10449 0
-110 6742 10449 0
-111 6740 10449 0
-112 6740 10449 0
-113 6740 10449 0
-114 6740 10449 0
-115 6740 10449 0
-116 6740 10449 0
-117 6741 10449 0
-117 10449 6742 0
-118 6741 10449 0
-119 6741 10449 0
-120 6741 10449 0
-121 6741 10449 0
-122 6741 10449 0
-123 6741 10449 0
-124 10449 6742 0
-125 10449 6742 0
-126 10449 6742 0
-127 10449 6742 0
-128 10449 6742 0
-129 10449 6742 0
-145 6749 10450 0
6749 -146 10450 0
-146 6751 10450 0
-147 6749 10450 0
-148 6749 10450 0
-149 6749 10450 0
-150 6749 10450 0
-151 6749 10450 0
-152 6749 10450 0
-153 6750 10450 0
-153 6751 10450 0
-154 10450 6750 0
-155 10450 6750 0
-156 10450 6750 0
10450 -157 6750 0
-158 10450 6750 0
-159 10450 6750 0
-160 6751 10450 0
-161 10450 6751 0
-162 10450 6751 0
-163 6751 10450 0
-164 10450 6751 0
-165 10450 6751 0
-181 6758 10451 0
-182 6758 10451 0
-182 6760 10451 0
-183 6758 10451 0
-184 6758 10451 0
-185 6758 10451 0
-186 6758 10451 0
-187 6758 10451 0
-188 6758 10451 0
-189 10451 6759 0
-189 6760 10451 0
-190 10451 6759 0
10451 -191 6759 0
-192 10451 6759 0
-193 10451 6759 0
-194 10451 6759 0
-195 10451 6759 0
-196 10451 6760 0
10451 -197 6760 0
-198 10451 6760 0
-199 10451 6760 0
-200 10451 6760 0
-201 10451 6760 0
-217 6767 10452 0
-217 10452 6768 0
-218 6767 10452 0
-219 6767 10452 0
-220 6767 10452 0
-221 6767 10452 0
-222 6767 10452 0
-223 6767 10452 0
-224 6767 10452 0
-225 10452 6768 0
10452 -225 6769 0
-226 10452 6768 0
10452 -227 6768 0
-228 10452 6768 0
10452 6768 -229 0
-230 10452 6768 0
-231 10452 6768 0
-232 6769 10452 0
-233 6769 10452 0
-234 6769 10452 0
-235 6769 10452 0
-236 6769 10452 0
-237 6769 10452 0
-253 6776 10453 0
-253 10453 6777 0
-254 6776 10453 0
-255 6776 10453 0
-256 6776 10453 0
-257 6776 10453 0
-258 6776 10453 0
-259 6776 10453 0
-260 6776 10453 0
-261 10453 6777 0
-261 6778 10453 0
-262 10453 6777 0
-263 10453 6777 0
-264 10453 6777 0
-265 10453 6777 0
-266 10453 6777 0
-267 10453 6777 0
-268 10453 6778 0
-269 10453 6778 0
-270 10453 6778 0
10453 -271 6778 0
-272 10453 6778 0
-273 10453 6778 0
-289 10454 6785 0
-290 6785 10454 0
-291 6785 10454 0
-292 6785 10454 0
-293 6785 10454 0
-294 6785 10454 0
-295 6785 10454 0
-296 6785 10454 0
-297 6786 10454 0
-297 10454 6787 0
-298 6786 10454 0
-299 6786 10454 0
-300 6786 10454 0
-301 6786 10454 0
-302 6786 10454 0
-303 6786 10454 0
10454 -304 6787 0
-305 10454 6787 0
-306 10454 6787 0
-307 10454 6787 0
-308 10454 6787 0
-309 10454 6787 0
-325 6794 10455 0
-325 6795 10455 0
-326 6794 10455 0
-326 6796 10455 0
-327 6794 10455 0
-328 6794 10455 0
-329 6794 10455 0
-330 6794 10455 0
-331 6794 10455 0
-332 6794 10455 0
-333 10455 6795 0
-333 6796 10455 0
-334 6795 10455 0
6795 10455 -335 0
-336 6795 10455 0
-337 6795 10455 0
-338 6795 10455 0
-339 6795 10455 0
-340 6796 10455 0
-341 6796 10455 0
-342 6796 10455 0
-343 6796 10455 0
-344 6796 10455 0
-345 6796 10455 0
-361 6803 10456 0
10456 -362 6803 0
6805 10456 -362 0
-363 6803 10456 0
-364 6803 10456 0
-365 6803 10456 0
-366 6803 10456 0
-367 6803 10456 0
-368 6803 10456 0
6804 10456 -369 0
-369 6805 10456 0
6804 10456 -370 0
6804 10456 -371 0
6804 10456 -372 0
6808 10456 -372 0
6804 10456 -373 0
6804 10456 -374 0
6804 10456 -375 0
6811 10456 -375 0
10457 -10446 0
10458 -10457 0
-10447 10459 -10457 0
-10459 10460 0
-10459 -10448 0
-10447 10458 0
10461 -10458 0
-10448 10460 -10458 0
-10460 10462 0
-10449 -10460 0
-10448 10461 0
10463 -10461 0
-10449 10462 -10461 0
-10462 10464 0
-10462 -10450 0
-10449 10463 0
10465 -10463 0
10464 -10450 -10463 0
-10464 10466 0
-10464 -10451 0
10465 -10450 0
10467 -10465 0
-10451 10466 -10465 0
-10466 10468 0
-10466 -10452 0
10467 -10451 0
10469 -10467 0
10468 -10452 -10467 0
-10468 10470 0
-10468 -10453 0
10469 -10452 0
10471 -10469 0
10470 -10453 -10469 0
-10470 10472 0
-10470 -10454 0
10471 -10453 0
10473 -10471 0
10472 -10454 -10471 0
10474 -10472 0
-10455 -10472 0
10473 -10454 0
10474 -10455 -10473 0
-10456 -10474 0
-1 10580 7145 0
-2 10580 7145 0
-3 10580 7145 0
-4 10580 7145 0
-5 10580 7145 0
-6 10580 7145 0
-7 10580 7145 0
10580 -8 7145 0
-9 -10580 -7146 -7147 0
-10580 -18 -7147 -7150 0
-37 10581 7154 0
-38 10581 7154 0
-39 10581 7154 0
-40 10581 7154 0
-41 10581 7154 0
-42 10581 7154 0
-43 10581 7154 0
-44 10581 7154 0
-73 7163 10582 0
-74 7163 10582 0
-75 7163 10582 0
-76 7163 10582 0
-77 7163 10582 0
-78 7163 10582 0
-79 7163 10582 0
-80 7163 10582 0
-109 7172 10583 0
-110 7172 10583 0
-111 7172 10583 0
-112 7172 10583 0
-113 7172 10583 0
-114 7172 10583 0
-115 7172 10583 0
-116 7172 10583 0
-145 7181 10584 0
-146 7181 10584 0
-147 7181 10584 0
-148 7181 10584 0
-149 7181 10584 0
-150 7181 10584 0
-151 7181 10584 0
-152 7181 10584 0
-181 7190 10585 0
-182 7190 10585 0
-183 7190 10585 0
-184 7190 10585 0
-185 7190 10585 0
-186 7190 10585 0
-187 7190 10585 0
-188 7190 10585 0
-217 7199 10586 0
-218 7199 10586 0
-219 7199 10586 0
-220 7199 10586 0
-221 7199 10586 0
-222 7199 10586 0
-223 7199 10586 0
-224 7199 10586 0
-253 7208 10587 0
-254 7208 10587 0
-255 7208 10587 0
-256 7208 10587 0
-257 7208 10587 0
-258 7208 10587 0
-259 7208 10587 0
-260 7208 10587 0
-289 7217 10588 0
-290 7217 10588 0
-291 7217 10588 0
-292 7217 10588 0
-293 7217 10588 0
-294 7217 10588 0
-295 7217 10588 0
-296 7217 10588 0
-325 7226 10589 0
-326 7226 10589 0
-327 7226 10589 0
-328 7226 10589 0
-329 7226 10589 0
-330 7226 10589 0
-331 7226 10589 0
-332 7226 10589 0
-361 7235 10590 0
7236 -361 10590 0
-362 7235 10590 0
-363 7235 10590 0
-364 7235 10590 0
-365 7235 10590 0
-366 7235 10590 0
-367 7235 10590 0
-368 7235 10590 0
10591 -10580 0
10592 -10591 0
-10581 -10591 0
-10581 10592 0
10593 -10592 0
-10582 -10592 0
10593 -10582 0
10594 -10593 0
-10583 -10593 0
10594 -10583 0
10595 -10594 0
-10584 -10594 0
-10584 10595 0
10596 -10595 0
-10585 -10595 0
-10585 10596 0
10597 -10596 0
-10586 -10596 0
-10586 10597 0
10598 -10597 0
-10587 -10597 0
10598 -10587 0
10599 -10598 0
-10588 -10598 0
-10588 10599 0
10600 -10599 0
-10589 -10599 0
10600 -10589 0
-10590 -10600 0
