p cnf 9979 2271
-397 2 7 8 5 3 6 1 4 0
-398 13 11 9 15 12 1 10 14 0
-399 16 17 21 9 18 19 2 20 0
-400 23 26 22 10 16 24 3 25 0
-401 30 11 27 17 28 29 4 22 0
-402 12 27 32 33 23 18 5 31 0
-403 13 28 34 35 19 24 6 31 0
36 7 -404 29 14 20 32 34 25 0
15 36 8 26 35 30 21 33 -405 0
531 -37 0
-38 -531 0
539 -45 0
-539 -46 0
-63 557 0
-557 558 0
-64 558 0
-558 559 0
-65 559 0
-559 560 0
-66 -559 0
-66 560 0
-560 561 0
-561 562 0
-562 563 0
-69 -562 0
-563 564 0
-564 565 0
-71 -564 0
-565 -72 0
-37 406 0
-41 406 0
-406 42 43 44 39 41 38 40 37 0
47 -407 46 37 48 45 49 50 51 0
55 53 -408 45 57 38 54 56 52 0
58 59 -409 39 46 62 60 61 52 0
53 -410 65 40 58 63 64 47 66 0
67 -411 68 41 48 63 54 59 69 0
413 -65 0
413 -72 0
-413 43 72 65 68 70 56 61 50 0
-414 44 72 62 71 66 57 69 51 0
-73 566 0
-566 567 0
-74 567 0
-567 568 0
-75 568 0
-568 569 0
-76 569 0
-569 570 0
-77 570 0
-570 571 0
-78 571 0
-571 572 0
572 -79 0
-572 573 0
-572 -80 0
-80 573 0
-573 574 0
-574 575 0
-575 576 0
-576 577 0
-577 578 0
-578 579 0
579 -86 0
-579 580 0
-87 -579 0
-87 580 0
-580 581 0
-581 582 0
-582 583 0
-583 584 0
-584 585 0
-92 -584 0
-92 585 0
-585 586 0
-93 -585 0
-93 586 0
-586 587 0
-587 588 0
-588 589 0
-589 590 0
-589 -97 0
590 -97 0
-590 591 0
-98 -590 0
-98 591 0
-591 592 0
-592 593 0
-593 594 0
-101 -593 0
-101 594 0
-594 595 0
-102 -594 0
-102 595 0
-595 596 0
-596 597 0
-104 -596 0
-104 597 0
-597 598 0
-105 -597 0
-105 598 0
-598 599 0
-106 -598 0
-106 599 0
-599 600 0
-107 -599 0
-600 -108 0
-415 73 80 79 76 77 78 74 75 0
-419 83 102 76 101 99 100 94 89 0
422 -79 0
422 -86 0
-101 422 0
422 -108 0
-422 108 97 86 79 101 106 92 104 0
-102 423 0
423 -108 0
-423 80 108 87 102 105 98 93 107 0
-115 607 0
-607 608 0
-116 608 0
-608 609 0
-609 610 0
-610 611 0
-611 612 0
-612 613 0
-613 614 0
-122 614 0
-614 615 0
-123 -614 0
-123 615 0
-615 616 0
-616 617 0
-617 618 0
-618 619 0
-619 620 0
-128 -619 0
-128 620 0
-620 621 0
-129 -620 0
-129 621 0
-621 622 0
-622 623 0
-623 624 0
-624 625 0
-624 -133 0
-133 625 0
-625 626 0
-134 -625 0
-134 626 0
-626 627 0
-627 628 0
-628 629 0
-137 629 0
-629 630 0
-138 -629 0
-138 630 0
-630 631 0
632 -631 0
-631 -140 0
632 -140 0
633 -632 0
-141 -632 0
633 -141 0
634 -633 0
-142 -633 0
-142 634 0
-143 -634 0
-428 112 137 135 130 125 119 136 138 0
-122 431 0
-137 431 0
431 -140 0
431 -144 0
-431 144 142 140 137 122 128 133 115 0
-138 432 0
432 -144 0
-432 138 116 143 134 141 144 129 123 0
-152 643 0
-643 644 0
-644 645 0
-645 646 0
-646 647 0
-647 648 0
-648 649 0
649 -158 0
650 -649 0
-159 -649 0
-159 650 0
651 -650 0
652 -651 0
653 -652 0
654 -653 0
655 -654 0
-164 -654 0
-164 655 0
656 -655 0
-165 656 0
657 -656 0
658 -657 0
659 -658 0
660 -659 0
-169 -659 0
-169 660 0
661 -660 0
-170 -660 0
-170 661 0
662 -661 0
663 -662 0
664 -663 0
-173 -663 0
-173 664 0
665 -664 0
-174 -664 0
665 -174 0
666 -665 0
667 -666 0
-176 -666 0
-176 667 0
668 -667 0
-177 -667 0
-177 668 0
-668 669 0
-178 -668 0
-178 669 0
-669 -179 0
-437 155 148 161 166 171 172 173 174 0
440 -158 0
-173 440 0
-180 440 0
180 -440 151 178 176 164 169 173 158 0
-174 441 0
441 -180 0
152 179 -441 159 165 174 170 177 180 0
-187 677 0
-677 678 0
-188 -677 0
-188 678 0
-678 679 0
-679 680 0
-680 681 0
-681 682 0
-682 683 0
-683 684 0
-194 684 0
-684 685 0
-195 -684 0
-195 685 0
-685 686 0
-686 687 0
-687 688 0
-688 689 0
-689 690 0
-200 690 0
691 -690 0
-690 -201 0
691 -201 0
692 -691 0
-202 692 0
693 -692 0
694 -693 0
695 -694 0
-205 -694 0
-205 695 0
696 -695 0
-206 -695 0
-206 696 0
697 -696 0
-207 697 0
698 -697 0
-208 698 0
699 -698 0
-209 -698 0
-209 699 0
700 -699 0
-210 -699 0
-210 700 0
701 -700 0
702 -701 0
-212 -701 0
-212 702 0
703 -702 0
-213 -702 0
-213 703 0
704 -703 0
-214 -703 0
-214 704 0
705 -704 0
-215 -704 0
-705 -216 0
184 -446 191 208 197 202 207 209 210 0
449 -209 0
449 -216 0
-449 187 205 216 200 194 212 209 214 0
450 -210 0
201 206 188 -450 216 210 213 195 215 0
-223 712 0
-712 713 0
-224 -712 0
-224 713 0
-713 714 0
-714 715 0
-715 716 0
-716 717 0
-717 718 0
-718 719 0
-230 -718 0
-230 719 0
-719 720 0
-231 -719 0
-231 720 0
-720 721 0
-721 722 0
-722 723 0
-723 724 0
-724 725 0
-724 -236 0
725 -236 0
726 -725 0
-237 -725 0
-237 726 0
-726 727 0
-727 728 0
-728 729 0
-729 730 0
-241 -729 0
-241 730 0
-730 731 0
-242 -730 0
-242 731 0
-731 732 0
-732 733 0
-733 734 0
-245 -733 0
-245 734 0
-734 735 0
-246 -734 0
-246 735 0
-735 736 0
-736 737 0
-248 -736 0
-248 737 0
-737 738 0
-737 -249 0
-249 738 0
-738 739 0
-250 -738 0
-250 739 0
-739 -251 0
-455 220 246 227 238 233 244 243 245 0
-245 458 0
-252 458 0
-458 250 252 223 241 236 248 230 245 0
-459 249 224 252 246 237 231 242 251 0
747 -259 0
748 -747 0
-260 -747 0
-260 748 0
749 -748 0
750 -749 0
751 -750 0
752 -751 0
753 -752 0
754 -753 0
-266 -753 0
-266 754 0
755 -754 0
-267 -754 0
-267 755 0
756 -755 0
-756 757 0
-757 758 0
-758 759 0
-759 760 0
-759 -272 0
-272 760 0
-760 761 0
-273 -760 0
-273 761 0
-761 762 0
-762 763 0
-763 764 0
765 -764 0
-764 -277 0
765 -277 0
766 -765 0
-278 -765 0
-278 766 0
767 -766 0
768 -767 0
769 -768 0
-281 -768 0
-281 769 0
770 -769 0
-282 -769 0
-282 770 0
771 -770 0
772 -771 0
-284 -771 0
-284 772 0
773 -772 0
-285 -772 0
-285 773 0
774 -773 0
-286 -773 0
-286 774 0
-287 -774 0
-464 279 263 269 274 256 280 281 282 0
467 -259 0
467 -266 0
467 -272 0
467 -277 0
467 -281 0
467 -288 0
286 266 -467 259 288 284 277 281 272 0
468 -287 0
267 287 -468 260 288 282 278 285 273 0
782 -295 0
783 -782 0
-296 -782 0
783 -296 0
784 -783 0
785 -784 0
786 -785 0
787 -786 0
788 -787 0
789 -788 0
-302 -788 0
-302 789 0
790 -789 0
-303 -789 0
790 -303 0
791 -790 0
792 -791 0
793 -792 0
794 -793 0
795 -794 0
-308 -794 0
-308 795 0
796 -795 0
-309 -795 0
-309 796 0
797 -796 0
798 -797 0
799 -798 0
800 -799 0
-313 -799 0
-313 800 0
801 -800 0
-314 -800 0
-314 801 0
802 -801 0
803 -802 0
804 -803 0
-317 -803 0
-317 804 0
805 -804 0
-318 -804 0
-318 805 0
806 -805 0
807 -806 0
-320 -806 0
-320 807 0
808 -807 0
-321 -807 0
809 -808 0
-322 -808 0
-323 -809 0
292 -473 317 299 305 310 316 318 315 0
476 -295 0
-302 476 0
-317 476 0
476 -324 0
-476 320 295 324 308 302 322 317 313 0
-318 477 0
477 -324 0
-477 296 324 321 303 323 309 314 318 0
335 328 -482 341 346 351 352 353 354 0
-360 485 0
-485 344 360 358 331 353 349 356 338 0
486 -360 0
345 350 -486 332 339 354 357 359 360 0
849 -364 0
-849 850 0
-850 851 0
-366 851 0
-851 852 0
852 -367 0
-852 853 0
-368 -852 0
-368 853 0
-853 854 0
-854 855 0
-855 856 0
856 -371 0
-856 857 0
-372 857 0
-857 858 0
-373 858 0
-858 859 0
-858 -374 0
859 -374 0
-859 860 0
-859 -375 0
-375 860 0
-860 861 0
-861 862 0
862 -377 0
-862 863 0
-378 863 0
-863 864 0
-379 864 0
-864 865 0
-864 -380 0
865 -380 0
866 -865 0
-381 -865 0
867 -866 0
867 -382 0
868 -867 0
-383 868 0
869 -868 0
-384 869 0
870 -869 0
871 -870 0
-386 -870 0
872 -871 0
872 -387 0
873 -872 0
873 -388 0
874 -873 0
875 -874 0
-390 -874 0
-390 875 0
876 -875 0
-391 876 0
877 -876 0
878 -877 0
-393 -877 0
-393 878 0
879 -878 0
880 -879 0
-395 -879 0
-395 880 0
-880 -396 0
-491 387 389 364 390 377 382 371 388 0
-492 365 372 393 378 383 387 392 391 0
-493 384 394 366 379 395 388 373 391 0
380 385 396 367 389 -494 392 394 374 0
-495 395 396 375 368 393 381 386 390 0
-989 0
-990 0
-991 0
-992 0
993 0
-1092 0
-994 0
-1093 0
-995 0
-1094 0
-996 0
-1095 0
-997 0
1096 0
397 -998 989 0
398 -999 990 0
399 -1000 991 0
400 -1001 992 0
401 1002 -993 0
402 -1003 994 0
403 -1004 995 0
-1005 404 996 0
-1006 405 997 0
-1005 -36 996 0
-1006 -36 996 997 0
-1007 406 998 0
-1008 407 999 0
-1009 408 1000 0
-1010 409 1001 0
1011 410 -1002 0
-1012 411 1003 0
-1014 413 1005 0
-1015 414 1006 0
-1007 -37 998 0
-1008 -37 998 999 0
-38 -1007 998 0
-1009 -38 998 1000 0
-1007 -39 998 0
-39 -1010 998 1001 0
-41 -1007 998 0
-1012 -41 998 1003 0
-42 -1007 998 0
-1008 -45 999 0
-1009 -45 999 1000 0
-1008 -46 999 0
-46 -1010 999 1001 0
-1008 -48 999 0
-48 -1012 999 1003 0
-1008 -49 999 0
-52 -1009 1000 0
-52 -1010 1000 1001 0
-53 -1009 1000 0
-54 -1009 1000 0
-54 -1012 1000 1003 0
-55 -1009 1000 0
-59 -1010 1001 0
-1012 -59 1001 1003 0
-60 -1010 1001 0
-67 -1012 1003 0
-1014 -72 1006 0
-1015 -72 1006 1005 0
1020 -1011 419 0
-1023 422 1014 0
-1024 423 1015 0
-1024 1007 -80 1015 0
-1024 -87 1008 1015 0
-1024 -93 1009 1015 0
-1024 -98 1010 1015 0
-1024 -105 1012 1015 0
-1023 -108 1015 0
-1024 -108 1015 1014 0
1029 428 -1020 0
-1032 431 1023 0
-1033 432 1024 0
-1020 -137 1032 0
-1032 -144 1023 0
-1033 -144 1023 1024 0
1038 437 -1029 0
-1041 440 1032 0
-1032 1041 440 0
-1042 441 1033 0
-1033 1042 441 0
-1041 1032 -180 0
-1042 1033 -180 1032 0
1047 446 -1038 0
-1050 1041 449 0
-1041 1050 449 0
-1051 450 1042 0
-1050 -216 1041 0
-1051 -216 1041 1042 0
1056 455 -1047 0
-1059 458 1050 0
-1050 1059 458 0
-1060 1051 459 0
-1059 -252 1050 0
-1050 -252 1060 0
-1060 1051 1050 -252 0
-1056 464 1065 0
-1068 467 1059 0
-1059 1068 467 0
-1069 468 1060 0
-1069 1059 -288 1060 0
1074 -1065 473 0
-1077 1068 476 0
-1068 1077 476 0
-1078 477 1069 0
-1065 -317 1077 0
1068 -324 1069 -1078 0
482 -1074 1083 0
-1077 1086 485 0
1078 486 -1087 0
-328 -1074 1083 0
-335 -1074 1083 0
-341 -1074 1083 0
-346 -1074 1083 0
-351 -1074 1084 0
-352 -1074 1085 0
1077 1078 -360 -1087 0
491 -1083 1092 0
492 -1084 1093 0
493 -1085 1094 0
494 -1086 1095 0
495 1087 -1096 0
-364 -1083 1092 0
-371 -1083 1092 0
-377 -1083 1092 0
-382 -1083 1092 0
-387 -1083 1093 0
-388 -1083 1094 0
-1097 0
-1098 0
-1099 0
-1100 0
-1101 0
-1102 0
-1103 0
1104 0
-1203 0
-1105 0
-1106 397 1097 0
-1107 398 1098 0
-1108 399 1099 0
-1109 400 1100 0
-1110 401 1101 0
-1111 402 1102 0
-1112 403 1103 0
1113 404 -1104 0
405 -1114 1105 0
-7 1113 -1104 0
-8 -1114 1097 1105 0
-14 1113 -1104 0
-15 -1114 1098 1105 0
-20 1113 -1104 0
-21 -1114 1099 1105 0
-25 1113 -1104 0
-26 -1114 1100 1105 0
-29 1113 -1104 0
-30 -1114 1101 1105 0
-32 1113 -1104 0
-33 -1114 1102 1105 0
-34 1113 -1104 0
-35 -1114 1103 1105 0
-1113 -36 1105 0
1114 -36 -1104 0
-1122 413 1113 0
1122 413 -1113 0
-1123 414 1114 0
1123 414 -1114 0
-43 1122 -1113 0
-44 1123 -1114 0
-50 1122 -1113 0
-51 1123 -1114 0
-56 1122 -1113 0
-57 1123 -1114 0
-61 1122 -1113 0
-62 1123 -1114 0
-65 1122 -1113 0
-68 1122 -1113 0
-69 1123 -1114 0
-70 1122 -1113 0
-71 1123 -1114 0
-72 -1122 1114 0
1123 -72 -1113 0
-1131 1122 422 0
1131 422 -1122 0
-1132 423 1123 0
-1123 1132 423 0
-79 1131 -1122 0
-1115 -80 1132 0
1131 -86 -1122 0
-92 1131 -1122 0
-97 1131 -1122 0
-1118 -98 1132 0
-101 1131 -1122 0
-1119 -102 1132 0
-104 1131 -1122 0
-1120 -105 1132 0
-106 1131 -1122 0
-1121 -107 1132 0
-1131 -108 1123 0
1132 -108 -1122 0
431 1131 -1140 0
1140 431 -1131 0
-1141 432 1132 0
-1132 1141 432 0
-1124 -115 1140 0
-115 1140 -1131 0
-1124 -116 1141 0
-1125 -122 1140 0
-122 1140 -1131 0
-128 1140 -1131 0
-1126 -129 1141 0
-1127 -133 1140 0
-133 1140 -1131 0
-1127 -134 1141 0
-137 1140 -1131 0
-1128 -138 1141 0
1140 -140 -1131 0
-142 1140 -1131 0
-1130 -143 1141 0
-1140 -144 1132 0
-1132 -1131 -144 1140 0
1141 -144 -1131 0
1140 440 -1149 0
1149 440 -1140 0
-1150 441 1141 0
-1141 441 1150 0
-1133 -151 1149 0
-151 1149 -1140 0
-1133 -152 1150 0
-1134 1149 -158 0
1149 -158 -1140 0
-1134 -159 1150 0
-1135 -164 1149 0
-164 1149 -1140 0
-1135 -165 1150 0
-169 1149 -1140 0
-1136 -170 1150 0
-173 1149 -1140 0
-176 1149 -1140 0
-1138 -177 1150 0
-178 1149 -1140 0
-1139 -179 1150 0
-1141 -1140 -180 1149 0
1150 -1140 -180 0
1149 -1158 449 0
1158 -1149 449 0
-1159 1150 450 0
450 -1150 1159 0
-1142 -187 1158 0
1158 -187 -1149 0
-1142 -188 1159 0
-1143 -194 1158 0
1158 -194 -1149 0
-1143 -195 1159 0
-1144 -200 1158 0
-200 1158 -1149 0
-1145 -205 1158 0
-205 1158 -1149 0
-1145 -206 1159 0
-1146 -209 1158 0
-209 1158 -1149 0
-1146 -210 1159 0
-212 1158 -1149 0
-214 1158 -1149 0
1150 -216 -1158 0
-1150 -216 -1149 1158 0
-216 -1149 1159 0
-1167 1158 458 0
1167 458 -1158 0
-1168 459 1159 0
1168 -1159 459 0
-1151 -223 1167 0
-223 1167 -1158 0
-230 1167 -1158 0
-236 1167 -1158 0
-241 1167 -1158 0
-245 1167 -1158 0
-248 1167 -1158 0
-1156 -249 1168 0
-250 1167 -1158 0
-1157 -251 1168 0
-1159 -252 -1158 1167 0
-252 -1158 1168 0
1167 467 -1176 0
1176 -1167 467 0
468 -1177 1168 0
1177 468 -1168 0
-259 1176 -1167 0
-1160 -260 1177 0
-1161 -266 1176 0
-266 1176 -1167 0
-272 1176 -1167 0
-1163 -277 1176 0
1176 -277 -1167 0
-281 1176 -1167 0
-284 1176 -1167 0
-1165 -285 1177 0
-286 1176 -1167 0
-1166 -287 1177 0
1168 -1176 -288 0
-1168 -1167 -288 1176 0
1177 -1167 -288 0
-1185 1176 476 0
1185 476 -1176 0
477 1186 -1177 0
-1169 -295 1185 0
1185 -295 -1176 0
-1169 -296 1186 0
-296 1186 -1177 0
-1170 -302 1185 0
-302 1185 -1176 0
-1170 -303 1186 0
-303 1186 -1177 0
-308 1185 -1176 0
-1171 -309 1186 0
-309 1186 -1177 0
-313 1185 -1176 0
-1172 -314 1186 0
-314 1186 -1177 0
-1173 -317 1185 0
-317 1185 -1176 0
-1173 -318 1186 0
-318 1186 -1177 0
-320 1185 -1176 0
-1174 -321 1186 0
-321 1186 -1177 0
-1175 -322 1185 0
-322 1185 -1176 0
-1175 -323 1186 0
-323 1186 -1177 0
1177 -324 -1185 0
-324 1185 -1176 -1177 0
1186 -324 -1176 0
1185 485 -1194 0
1194 485 -1185 0
1195 486 -1186 0
-1178 -331 1194 0
-331 -1185 1194 0
-1179 -338 1194 0
-338 -1185 1194 0
-1180 -344 1194 0
-344 -1185 1194 0
-1181 -349 1194 0
-349 -1185 1194 0
-1182 -353 1194 0
-353 -1185 1194 0
-1183 -356 1194 0
-356 -1185 1194 0
-1184 -358 1194 0
-358 -1185 1194 0
-1186 -360 -1185 1194 0
-1194 494 1203 0
-1194 -367 1203 0
-1194 -374 1203 0
-1194 -380 1203 0
-385 -1194 1203 0
-389 -1194 1203 0
-392 -1194 1203 0
-394 -1194 1203 0
-1194 -1195 -396 1203 0
-1205 0
-1206 0
-1207 0
-1208 0
-1209 0
1210 0
-1211 0
1311 0
-1213 0
1312 0
-1214 397 1205 0
-1215 398 1206 0
-1216 399 1207 0
-1217 400 1208 0
-1218 401 1209 0
1219 402 -1210 0
-1220 403 1211 0
-1222 405 1213 0
-1221 -36 1213 0
-1225 408 1216 0
-1227 410 1218 0
-1230 413 1221 0
-1231 414 1222 0
-1224 -46 1215 0
-1226 -46 1215 1217 0
-1224 -49 1215 0
-1230 -72 1222 0
-1236 1227 419 0
-1239 1230 422 0
-1240 423 1231 0
1224 -86 1230 -1239 0
1225 -92 -1239 1230 0
1226 -1239 -97 1230 0
-1239 -108 1231 0
-1245 428 1236 0
-1248 1239 431 0
-1249 432 1240 0
-1248 -144 1240 0
-1254 437 1245 0
-1257 1248 440 0
-1258 441 1249 0
1245 -174 -1258 1249 0
-1257 1249 -180 0
446 1254 -1263 0
-1266 1257 449 0
-1267 450 1258 0
-1266 -216 1258 0
-1272 455 1263 0
-1275 1266 458 0
-1276 1267 459 0
1263 -246 -1276 1267 0
-1275 -252 1267 0
-1281 1272 464 0
-1284 1275 467 0
-1285 468 1276 0
-1284 1275 -288 0
-1284 1276 -288 0
-1290 1281 473 0
-1293 476 1284 0
-1294 477 1285 0
-1293 -324 1285 0
-1302 1293 485 0
486 1294 -1303 0
-354 1290 -1303 1294 0
-1302 1294 -360 0
494 1302 -1311 0
495 1303 -1312 0
-396 1303 -1311 0
-1313 0
-1314 0
-1316 0
-1317 0
-1318 0
-1320 0
-1419 0
1321 0
-1322 397 1313 0
-1323 398 1314 0
-1325 400 1316 0
-1326 401 1317 0
-1327 402 1318 0
-1329 404 1320 0
1330 405 -1321 0
-1329 -36 1320 0
1330 -36 -1321 0
-1338 413 1329 0
1339 414 -1330 0
-1338 -72 1329 0
1339 -72 -1330 0
-1347 422 1338 0
1348 423 -1339 0
-1332 -86 1347 0
-1347 -108 1338 0
1348 -108 -1339 0
-1356 431 1347 0
-1347 1356 431 0
1357 432 -1348 0
-1340 -115 1356 0
-1342 -128 1356 0
-1344 -137 1356 0
-1346 -142 1356 0
-1356 -144 1347 0
1357 -144 -1348 0
-1365 440 1356 0
-1356 1365 440 0
1366 441 -1357 0
-1365 1356 -180 0
1366 -1357 -180 0
-1374 1365 449 0
-1365 1374 449 0
1375 450 -1366 0
-1358 -187 1374 0
1375 -188 -1366 0
1375 -195 -1366 0
1375 -210 -1366 0
-1363 -212 1374 0
1375 -213 -1366 0
-215 1375 -1366 0
-1374 1365 -216 0
1375 -216 -1366 0
-1383 458 1374 0
-1374 1383 458 0
1384 -1375 459 0
-1374 1383 -1375 -252 0
-1392 467 1383 0
-1383 1392 467 0
1393 468 -1384 0
-1379 1392 -277 0
-1383 -1384 -288 1392 0
-1392 1401 476 0
1402 -1393 477 0
-1391 -322 1401 0
-1392 -1393 -324 1401 0
-1401 1410 485 0
1411 -1402 486 0
-1401 -1402 -360 1410 0
494 -1410 1419 0
-1411 -396 -1410 1419 0
-1421 0
1422 0
-1423 0
-1424 0
-1425 0
-1426 0
-1427 0
-1428 0
1527 0
1429 0
-1430 397 1421 0
1431 398 -1422 0
-1432 399 1423 0
-1433 400 1424 0
-1434 401 1425 0
-1435 402 1426 0
-1436 403 1427 0
404 -1437 1428 0
1438 405 -1429 0
-1 -1430 1421 0
1431 -1 -1422 0
-2 -1430 1421 0
-1432 -2 1421 1423 0
-3 -1430 1421 0
-1433 -3 1421 1424 0
-4 -1430 1421 0
-1434 -4 1421 1425 0
-5 -1430 1421 0
-1435 -5 1421 1426 0
-6 -1430 1421 0
-1436 -6 1421 1427 0
-1430 -7 1421 0
-1437 -7 1421 1428 0
-8 -1430 1421 0
-1431 -9 1423 0
-1431 -10 1424 0
-11 -1431 1425 0
-11 1434 -1422 0
-12 -1431 1426 0
-13 -1431 1427 0
1437 -14 -1422 0
1431 -15 -1422 -1429 0
-16 -1432 1423 0
-1433 -16 1423 1424 0
-17 -1432 1423 0
-1434 -17 1423 1425 0
-18 -1432 1423 0
-1435 -18 1423 1426 0
-19 -1432 1423 0
-1436 -19 1423 1427 0
-1432 -20 1423 0
-1437 -20 1423 1428 0
-21 -1432 1423 0
-22 -1433 1424 0
-1434 -22 1424 1425 0
-23 -1433 1424 0
-1435 -23 1424 1426 0
-24 -1433 1424 0
-1436 -24 1424 1427 0
-1433 -25 1424 0
-1437 -25 1424 1428 0
-26 -1433 1424 0
-27 -1434 1425 0
-1435 -27 1425 1426 0
-28 -1434 1425 0
-1436 -28 1425 1427 0
-1434 -29 1425 0
-1437 -29 1425 1428 0
-30 -1434 1425 0
-31 -1435 1426 0
-1436 -31 1426 1427 0
-1435 -32 1426 0
-1437 -32 1426 1428 0
-1436 -34 1427 0
-1437 -34 1427 1428 0
-35 -1436 1427 0
-1437 -36 1428 0
-1439 406 1430 0
-1443 410 1434 0
-1446 413 1437 0
1447 414 -1438 0
-1439 -37 1430 0
-37 1440 -1431 0
-1439 -38 1430 0
-1439 -39 1430 0
-1442 -39 1430 1433 0
-40 -1439 1430 0
-1439 -41 1430 0
-1439 -42 1430 0
-43 -1446 1437 1430 0
-46 -1440 1433 0
-46 1442 -1431 0
-1440 -48 1435 0
-49 -1440 1436 0
-50 -1446 1431 1437 0
-52 -1442 1432 1433 0
-56 -1446 1432 1437 0
-61 -1446 1433 1437 0
-65 -1446 1434 1437 0
-68 -1446 1435 1437 0
-70 -1446 1436 1437 0
-1446 -72 1437 0
-1448 1439 415 0
-1452 1443 419 0
-1455 422 1446 0
1456 423 -1447 0
1439 -1455 -79 1446 0
-101 -1455 1443 1446 0
-1455 -108 1446 0
-1461 428 1452 0
-1464 431 1455 0
-1457 -115 1455 0
1448 -115 -1464 1455 0
-116 -1448 -1456 1457 0
1452 -137 -1464 1455 0
-1464 -144 1455 0
-1473 440 1464 0
1461 -173 -1473 1464 0
-1473 1464 -180 0
-1482 1473 449 0
1473 -1482 -216 0
-1491 458 1482 0
-1491 -252 1482 0
1491 -1500 467 0
-1500 1491 -288 0
-1509 476 1500 0
-1509 -324 1500 0
1509 -1518 485 0
1509 -1518 -360 0
1518 494 -1527 0
-396 1518 -1527 0
-1529 0
-1530 0
-1531 0
-1532 0
1533 0
-1632 0
-1534 0
-1535 0
-1536 0
1635 0
1537 0
1636 0
-1539 398 1530 0
1542 401 -1533 0
-1545 404 1536 0
1546 405 -1537 0
-1 -1539 1529 1530 0
-9 -1540 1530 1531 0
-10 -1541 1530 1532 0
-11 1542 -1533 0
-12 -1543 1530 1534 0
-13 -1544 1530 1535 0
-1545 -36 1536 0
1546 -36 -1537 0
1551 410 -1542 0
-1554 413 1545 0
1555 414 -1546 0
-44 1555 -1546 0
-50 -1554 1539 1545 0
-51 1555 -1546 0
-56 -1554 1540 1545 0
-61 -1554 1541 1545 0
-62 1555 -1546 0
-66 1555 -1542 0
-68 -1554 1543 1545 0
-69 1555 -1546 0
-70 -1554 1544 1545 0
-71 1555 -1546 0
1555 -72 -1546 0
1560 -1551 419 0
-1563 422 1554 0
1564 423 -1555 0
-1563 -108 1554 0
1555 -1564 -108 1554 0
1569 428 -1560 0
-1572 431 1563 0
1564 -1573 432 0
1573 432 -1564 0
1560 -137 -1572 1563 0
-1572 -144 1563 0
1573 -144 -1564 0
1578 437 -1569 0
-1581 440 1572 0
1573 -1582 441 0
1582 441 -1573 0
-1581 1572 -180 0
1573 -1581 -180 0
1587 446 -1578 0
-1590 1581 449 0
1582 -1591 450 0
1591 450 -1582 0
1581 -1590 -216 0
1582 -1590 -216 0
1591 -216 -1582 0
1596 455 -1587 0
-1599 458 1590 0
1591 -1600 459 0
1600 -1591 459 0
-1599 -252 1590 0
1591 -252 -1599 0
1605 -1596 464 0
-1608 467 1599 0
1600 -1609 468 0
1609 468 -1600 0
-1608 1599 -288 0
1600 -1608 -288 0
-1605 473 1614 0
-1617 476 1608 0
1609 -1618 477 0
1618 -1609 477 0
-1617 -324 1608 0
1609 -1617 -324 0
482 -1614 1623 0
1617 -1626 485 0
1618 486 -1627 0
1627 -1618 486 0
1610 -331 -1626 1617 0
1611 -338 -1626 1617 0
1612 -344 -1626 1617 0
1613 -349 -1626 1617 0
1614 -353 -1626 1617 0
1617 -1626 -360 0
1627 -1618 -360 0
1626 494 -1635 0
495 1627 -1636 0
-1627 -1623 -390 1632 0
-396 1626 -1635 0
1742 0
-1644 0
-1653 404 1644 0
-1653 -36 1644 0
-1662 413 1653 0
-1662 -72 1653 0
-1671 422 1662 0
-1671 -108 1662 0
-1680 431 1671 0
-1680 -144 1671 0
-1689 440 1680 0
-1689 1680 -180 0
-1698 1689 449 0
-1698 1689 -216 0
-1707 458 1698 0
-1716 467 1707 0
-1716 1707 -288 0
-1725 476 1716 0
-1725 -324 1716 0
-1733 1725 -358 0
493 1733 -1742 0
-1752 0
1851 0
-1761 404 1752 0
-1761 -36 1752 0
-1770 413 1761 0
-1770 -72 1761 0
-1779 422 1770 0
-1779 -108 1770 0
-1788 431 1779 0
-1788 -144 1779 0
-1797 440 1788 0
-1797 1788 -180 0
-1806 1797 449 0
1797 -1806 -216 0
-1815 458 1806 0
-1815 -252 1806 0
-1824 467 1815 0
-1824 1815 -288 0
-1833 476 1824 0
-1833 -324 1824 0
1833 -1842 485 0
1833 -1842 -360 0
1842 494 -1851 0
-396 1842 -1851 0
2065 0
-1968 0
-1977 404 1968 0
-1977 -36 1968 0
-1986 413 1977 0
-1986 -72 1977 0
-1995 422 1986 0
-1995 -108 1986 0
-2004 431 1995 0
-2004 -144 1995 0
-2013 440 2004 0
-2013 2004 -180 0
-2022 2013 449 0
-2022 2013 -216 0
-2031 458 2022 0
-2040 467 2031 0
-2040 2031 -288 0
-2049 476 2040 0
-2049 -324 2040 0
-2056 2049 -356 0
492 2056 -2065 0
2286 0
-2287 0
-2288 0
2291 0
2295 398 -2286 0
-2296 399 2287 0
-2297 400 2288 0
2300 403 -2291 0
2502 0
-2504 0
2604 0
2506 0
2605 0
2606 0
-2508 0
2511 398 -2502 0
-2513 400 2504 0
2515 402 -2506 0
-2517 404 2508 0
-2517 -36 2508 0
-2526 413 2517 0
-2526 -72 2517 0
-2535 422 2526 0
-2535 -108 2526 0
-2544 431 2535 0
-2544 -144 2535 0
-2553 440 2544 0
-2553 2544 -180 0
-2562 2553 449 0
-2562 2553 -216 0
-2571 458 2562 0
-2571 -252 2562 0
2571 -2580 467 0
-2580 2571 -288 0
-2589 476 2580 0
-2589 -324 2580 0
2589 -2598 485 0
-2595 2589 -353 0
2589 -2598 -360 0
491 2595 -2604 0
2598 -389 -2604 0
2598 -392 -2605 0
2598 -394 -2606 0
2718 0
2819 0
2721 0
-2724 0
2725 0
-2733 404 2724 0
2734 405 -2725 0
2727 -11 -2718 -2721 0
-2733 -36 2724 0
-2742 413 2733 0
-2742 -72 2733 0
-2751 422 2742 0
-2751 -108 2742 0
-2760 431 2751 0
-2760 -144 2751 0
-2769 440 2760 0
-2769 2760 -180 0
-2778 2769 449 0
-2778 2769 -216 0
-2787 458 2778 0
-2787 -252 2778 0
2787 -2796 467 0
-2796 2787 -288 0
-2805 476 2796 0
-2805 -324 2796 0
2805 -2814 485 0
2805 -2814 -360 0
2814 -385 -2819 0
-2825 0
-2826 0
-2827 0
-2828 0
-2829 0
-2830 0
-2929 0
-2831 0
2832 0
2931 0
2833 0
2841 404 -2832 0
2842 405 -2833 0
2841 -7 -2832 0
2842 -8 -2833 0
2841 -14 -2832 0
2842 -15 -2833 0
2841 -20 -2832 0
2842 -21 -2833 0
2841 -25 -2832 0
2842 -26 -2833 0
2841 -29 -2832 0
2842 -30 -2833 0
2841 -32 -2832 0
2842 -33 -2833 0
2841 -34 -2832 0
-35 2842 -2833 0
2841 -36 -2832 -2833 0
2842 -36 -2832 0
2850 413 -2841 0
2851 414 -2842 0
-43 2850 -2841 0
-44 2851 -2842 0
-50 2850 -2841 0
-51 2851 -2842 0
-56 2850 -2841 0
-57 2851 -2842 0
-61 2850 -2841 0
-62 2851 -2842 0
-65 2850 -2841 0
-66 2851 -2842 0
-68 2850 -2841 0
-69 2851 -2842 0
-70 2850 -2841 0
-71 2851 -2842 0
-72 2850 -2842 -2841 0
-72 2851 -2842 0
2859 422 -2850 0
2860 423 -2851 0
-79 2859 -2850 0
-80 2860 -2851 0
-86 2859 -2850 0
-87 2860 -2851 0
-92 2859 -2850 0
-93 2860 -2851 0
-97 2859 -2850 0
-98 2860 -2851 0
-101 2859 -2850 0
-102 2860 -2851 0
-104 2859 -2850 0
-105 2860 -2851 0
-106 2859 -2850 0
-107 2860 -2851 0
-108 2859 -2850 -2851 0
2860 -108 -2850 0
2868 431 -2859 0
2869 432 -2860 0
-115 2868 -2859 0
-116 2869 -2860 0
-122 2868 -2859 0
-123 2869 -2860 0
-128 2868 -2859 0
-129 2869 -2860 0
-133 2868 -2859 0
-134 2869 -2860 0
-137 2868 -2859 0
-138 2869 -2860 0
-140 2868 -2859 0
-141 2869 -2860 0
-142 2868 -2859 0
-143 2869 -2860 0
-144 2868 -2859 -2860 0
2869 -144 -2859 0
440 2877 -2868 0
2878 441 -2869 0
-151 2877 -2868 0
-152 2878 -2869 0
2877 -158 -2868 0
-159 2878 -2869 0
-164 2877 -2868 0
-165 2878 -2869 0
-169 2877 -2868 0
-170 2878 -2869 0
-173 2877 -2868 0
-174 2878 -2869 0
-176 2877 -2868 0
-177 2878 -2869 0
-178 2877 -2868 0
-179 2878 -2869 0
-180 2877 -2868 -2869 0
2878 -180 -2868 0
2886 449 -2877 0
450 2887 -2878 0
2886 -187 -2877 0
-188 2887 -2878 0
-194 2886 -2877 0
-195 2887 -2878 0
-200 2886 -2877 0
-201 2887 -2878 0
-205 2886 -2877 0
-206 2887 -2878 0
-209 2886 -2877 0
-210 2887 -2878 0
-212 2886 -2877 0
-213 2887 -2878 0
-214 2886 -2877 0
-215 2887 -2878 0
2886 -216 -2877 -2878 0
-216 2887 -2877 0
2895 458 -2886 0
2896 459 -2887 0
-223 2895 -2886 0
-224 -2887 2896 0
-230 2895 -2886 0
-231 -2887 2896 0
-236 2895 -2886 0
-237 2896 -2887 0
-241 2895 -2886 0
-242 2896 -2887 0
-245 2895 -2886 0
-246 2896 -2887 0
-248 2895 -2886 0
-249 2896 -2887 0
-250 2895 -2886 0
-251 2896 -2887 0
2895 -252 -2887 -2886 0
-252 2896 -2886 0
2904 467 -2895 0
2905 468 -2896 0
-259 2904 -2895 0
-260 2905 -2896 0
-266 2904 -2895 0
-267 2905 -2896 0
-272 2904 -2895 0
-273 2905 -2896 0
-277 2904 -2895 0
-278 2905 -2896 0
-281 2904 -2895 0
-282 2905 -2896 0
-284 2904 -2895 0
-285 2905 -2896 0
-286 2904 -2895 0
-287 2905 -2896 0
2904 -2896 -288 -2895 0
2905 -2896 -288 0
476 2913 -2904 0
2914 477 -2905 0
-295 2913 -2904 0
-296 2914 -2905 0
-302 2913 -2904 0
-303 2914 -2905 0
-308 2913 -2904 0
-309 2914 -2905 0
-313 2913 -2904 0
-314 2914 -2905 0
-317 2913 -2904 0
-318 2914 -2905 0
-320 2913 -2904 0
-321 2914 -2905 0
-322 2913 -2904 0
-323 2914 -2905 0
-324 2913 -2904 -2905 0
2914 -324 -2904 0
2922 485 -2913 0
2923 486 -2914 0
-332 2923 -2914 0
-339 2923 -2914 0
2923 -345 -2914 0
-350 2923 -2914 0
-354 2923 -2914 0
-357 2923 -2914 0
-359 2923 -2914 0
2922 -2914 -360 -2913 0
2923 -2914 -360 0
-365 -2915 2929 0
-365 -2920 2929 0
-396 2923 -2931 0
3588 0
3589 0
3597 404 -3588 0
3598 405 -3589 0
3606 413 -3597 0
3607 414 -3598 0
3615 422 -3606 0
3616 423 -3607 0
5309 0
5310 0
5311 0
-5312 0
-5314 0
5318 397 -5309 0
5319 398 -5310 0
5320 399 -5311 0
-5321 400 5312 0
-5323 402 5314 0
6065 0
-6068 0
6070 0
6074 397 -6065 0
-6077 400 6068 0
6079 402 -6070 0
-47 6941 -1002 0
-53 6941 -1002 0
-58 6941 -1002 0
-6941 -72 1006 1005 0
-184 6945 -1038 0
-191 6945 -1038 0
-197 6945 -1038 0
-6945 -216 1041 1042 0
-328 -1074 6949 0
-335 -1074 6949 0
-341 -1074 6949 0
-346 -1074 6949 0
-351 -1074 6949 0
-352 -1074 6949 0
-354 -1074 6949 0
-6949 1078 -360 1077 0
-44 -6976 1106 1114 0
-57 -6976 1108 1114 0
-62 -6976 1109 1114 0
6976 -65 -1113 0
6977 -79 -1122 0
1115 -80 1123 -6977 0
6977 -86 -1122 0
6977 -92 -1122 0
6977 -97 -1122 0
1118 -98 -6977 1123 0
-101 6977 -1122 0
1119 -102 1123 -6977 0
-104 6977 -1122 0
1120 -105 -6977 1123 0
-106 6977 -1122 0
1121 -107 -6977 1123 0
6978 -115 -1131 0
1124 -115 1131 -6978 0
-116 6978 -1132 0
1124 -116 -6978 1132 0
-122 6978 -1131 0
1125 -122 -6978 1131 0
-128 6978 -1131 0
-129 6978 -1132 0
1126 -129 -6978 1132 0
6978 -133 -1131 0
1127 -6978 1131 -133 0
-134 6978 -1132 0
1127 -134 -6978 1132 0
-138 -1132 6978 0
1128 -138 -6978 1132 0
-141 6978 -1132 0
-142 6978 -1131 0
-143 6978 -1132 0
1130 -143 -6978 1132 0
6979 -151 -1140 0
1133 -151 -6979 1140 0
6979 -152 -1141 0
1133 -6979 1141 -152 0
6979 -158 -1140 0
1134 1140 -158 -6979 0
-159 6979 -1141 0
1134 -159 -6979 1141 0
-164 6979 -1140 0
1135 -164 -6979 1140 0
6979 -165 -1141 0
1135 -165 1141 -6979 0
-169 6979 -1140 0
-170 6979 -1141 0
-170 1136 -6979 1141 0
6979 -173 -1140 0
6979 -174 -1141 0
-176 6979 -1140 0
6979 -177 -1141 0
1138 -177 -6979 1141 0
6979 -178 -1140 0
6979 -179 -1141 0
1139 -179 -6979 1141 0
6980 -187 -1149 0
1142 -187 1149 -6980 0
-188 6980 -1150 0
-188 1142 -6980 1150 0
6980 -194 -1149 0
1143 -194 1149 -6980 0
-195 6980 -1150 0
-195 1143 -6980 1150 0
-200 6980 -1149 0
-200 1144 -6980 1149 0
6980 -205 -1149 0
1145 -205 -6980 1149 0
-206 6980 -1150 0
1145 -6980 1150 -206 0
-209 6980 -1149 0
1146 -209 -6980 1149 0
6980 -210 -1150 0
1146 -210 1150 -6980 0
-223 -6981 1151 1158 0
-237 6981 -1159 0
6981 -241 -1158 0
6981 -242 -1159 0
6981 -245 -1158 0
6981 -246 -1159 0
6981 -249 -1159 0
1156 -249 1159 -6981 0
6981 -251 -1159 0
1157 -251 -6981 1159 0
6982 -260 -1168 0
1160 -260 1168 -6982 0
1161 -266 -6982 1167 0
-267 6982 -1168 0
6982 -272 -1167 0
-273 6982 -1168 0
6982 -277 -1167 0
1163 -277 1167 -6982 0
-282 6982 -1168 0
6982 -285 -1168 0
1165 -285 1168 -6982 0
-287 6982 -1168 0
-287 1166 -6982 1168 0
6983 -295 -1176 0
-6983 1169 -295 1176 0
6983 -296 -1177 0
-296 1169 -6983 1177 0
6983 -302 -1176 0
1170 -302 -6983 1176 0
-303 1170 -6983 1177 0
-308 6983 -1176 0
-309 1171 1177 -6983 0
-313 6983 -1176 0
-314 1172 -6983 1177 0
-317 6983 -1176 0
1173 -317 -6983 1176 0
1173 -318 -6983 1177 0
-320 6983 -1176 0
-321 6983 -1177 0
-321 1174 -6983 1177 0
-322 6983 -1176 0
1175 -322 -6983 1176 0
-323 6983 -1177 0
-323 1175 -6983 1177 0
6983 -324 -1176 0
1178 -331 -6984 1185 0
-332 6984 -1186 0
1179 -338 -6984 1185 0
-339 6984 -1186 0
1180 -344 -6984 1185 0
6984 -345 -1186 0
1181 -349 -6984 1185 0
-350 6984 -1186 0
1182 -353 -6984 1185 0
-354 6984 -1186 0
1183 -6984 -356 1185 0
-357 6984 -1186 0
1184 -358 -6984 1185 0
-359 6984 -1186 0
-37 -7011 1215 1214 0
-39 -7011 1214 1217 0
-45 -7011 1215 1216 0
-54 7011 -1219 0
7011 -59 -1219 0
7011 -67 -1219 0
7053 -80 -1339 0
1332 -7053 -86 1338 0
-87 7053 -1339 0
-93 7053 -1339 0
-98 7053 -1339 0
-102 7053 -1339 0
-105 7053 -1339 0
-107 7053 -1339 0
1340 -7054 -115 1347 0
7054 -116 -1348 0
7054 -123 -1348 0
1342 -7054 -128 1347 0
7054 -129 -1348 0
7054 -134 -1348 0
-7054 1344 -137 1347 0
7054 -138 -1348 0
7054 -141 -1348 0
1346 -7054 -142 1347 0
7054 -143 -1348 0
1358 -7056 -187 1365 0
7056 -188 -1366 0
-195 7056 -1366 0
7056 -206 -1366 0
7056 -210 -1366 0
1363 -7056 -212 1365 0
7056 -213 -1366 0
-215 7056 -1366 0
7058 -260 -1384 0
-267 7058 -1384 0
-273 7058 -1384 0
-7058 -277 1383 1379 0
7058 -282 -1384 0
7058 -285 -1384 0
7058 -287 -1384 0
7059 -296 -1393 0
1391 -322 1392 -7059 0
-38 -7081 1430 1432 0
-39 -7081 1430 1433 0
-40 -7081 1430 1434 0
-41 -7081 1430 1435 0
-42 -7081 1430 1436 0
7081 -45 -1431 0
7081 -46 -1431 0
-48 7081 -1431 0
-49 7081 -1431 0
-54 -7081 1435 1432 0
-55 -7081 1432 1436 0
-59 -7081 1433 1435 0
7081 -72 -1438 0
-1 -7119 1529 1530 0
-2 -7119 1529 1531 0
-3 -7119 1529 1532 0
-4 7119 -1533 0
-5 -7119 1529 1534 0
-6 -7119 1529 1535 0
-8 7119 -1537 0
-9 -7119 1530 1531 0
-10 -7119 1530 1532 0
-11 7119 -1533 0
-12 -7119 1530 1534 0
-13 -7119 1530 1535 0
-7119 -14 1530 1536 0
-15 7119 -1537 0
-16 -7119 1531 1532 0
-17 7119 -1533 0
-18 -7119 1531 1534 0
-19 -7119 1531 1535 0
-21 7119 -1537 0
-22 7119 -1533 0
-23 -7119 1532 1534 0
-24 -7119 1532 1535 0
-26 7119 -1537 0
-27 7119 -1533 0
-28 7119 -1533 0
7119 -29 -1533 0
-30 7119 -1533 0
-31 -7119 1534 1535 0
-33 7119 -1537 0
-35 7119 -1537 0
7119 -36 -1537 0
-40 7120 -1542 0
-44 7120 -1546 0
-47 7120 -1542 0
-51 7120 -1546 0
-53 7120 -1542 0
-57 7120 -1546 0
-58 7120 -1542 0
-62 7120 -1546 0
-63 7120 -1542 0
-64 7120 -1542 0
7120 -65 -1542 0
-66 7120 -1542 0
-69 7120 -1546 0
-71 7120 -1546 0
7120 -72 -1546 0
-76 -1551 7121 0
7121 -80 -1555 0
-83 -1551 7121 0
-87 7121 -1555 0
-89 -1551 7121 0
-93 7121 -1555 0
-94 -1551 7121 0
-98 7121 -1555 0
-99 -1551 7121 0
-100 -1551 7121 0
-102 7121 -1555 0
-105 7121 -1555 0
-107 7121 -1555 0
-1554 7121 -108 0
7121 -108 -1555 0
-112 -1560 7122 0
-116 7122 -1564 0
-119 -1560 7122 0
-123 7122 -1564 0
-125 -1560 7122 0
-129 7122 -1564 0
-130 -1560 7122 0
-134 7122 -1564 0
-135 -1560 7122 0
-136 -1560 7122 0
-1560 -137 7122 0
-138 -1564 7122 0
-141 7122 -1564 0
-143 7122 -1564 0
7122 -144 -1564 0
-148 -1569 7123 0
7123 -152 -1573 0
-155 -1569 7123 0
7123 -159 -1573 0
-161 -1569 7123 0
7123 -165 -1573 0
-166 -1569 7123 0
-170 7123 -1573 0
-171 -1569 7123 0
-172 -1569 7123 0
7123 -174 -1573 0
7123 -177 -1573 0
7123 -179 -1573 0
7123 -1573 -180 0
-184 -1578 7124 0
-188 7124 -1582 0
-191 -1578 7124 0
-195 7124 -1582 0
-197 -1578 7124 0
7124 -1582 -201 0
-202 -1578 7124 0
7124 -206 -1582 0
-207 -1578 7124 0
-208 -1578 7124 0
7124 -210 -1582 0
7124 -213 -1582 0
-215 7124 -1582 0
7124 -216 -1582 0
-220 -1587 7125 0
-224 7125 -1591 0
-227 -1587 7125 0
-231 7125 -1591 0
-233 -1587 7125 0
-237 7125 -1591 0
-238 -1587 7125 0
-242 7125 -1591 0
-243 -1587 7125 0
-244 -1587 7125 0
-246 7125 -1591 0
-249 7125 -1591 0
-251 7125 -1591 0
7125 -252 -1591 0
-256 -1596 7126 0
-260 7126 -1600 0
-263 -1596 7126 0
-267 7126 -1600 0
-269 -1596 7126 0
-273 7126 -1600 0
-274 -1596 7126 0
-278 7126 -1600 0
-279 -1596 7126 0
-280 -1596 7126 0
-282 7126 -1600 0
-285 7126 -1600 0
-287 7126 -1600 0
7126 -1600 -288 0
-292 -1605 7127 0
-296 7127 -1609 0
-299 -1605 7127 0
-303 7127 -1609 0
-305 -1605 7127 0
-309 7127 -1609 0
-310 -1605 7127 0
-314 7127 -1609 0
-315 -1605 7127 0
-316 -1605 7127 0
-318 7127 -1609 0
-321 7127 -1609 0
-323 7127 -1609 0
7127 -1609 -324 0
-1610 -331 7128 0
-332 -1618 7128 0
-1611 -338 7128 0
-339 -1618 7128 0
-1612 -344 7128 0
-345 -1618 7128 0
-1613 -349 7128 0
-350 -1618 7128 0
-1614 -353 7128 0
-354 -1618 7128 0
-357 -1618 7128 0
-359 -1618 7128 0
-1617 7128 -360 0
-1618 7128 -360 0
-368 -1627 7129 0
-375 -1627 7129 0
-381 -1627 7129 0
-386 -1627 7129 0
-390 -1627 7129 0
-393 -1627 7129 0
-395 -1627 7129 0
7129 -396 -1626 0
7129 -396 -1627 0
7130 -7119 0
7131 -7130 0
-7120 7132 -7130 0
-7132 7133 0
-7132 -7121 0
7131 -7120 0
7134 -7131 0
-7121 7133 -7131 0
-7133 7135 0
-7122 -7133 0
7134 -7121 0
7136 -7134 0
-7122 7135 -7134 0
-7135 7137 0
-7135 -7123 0
7136 -7122 0
7138 -7136 0
-7123 7137 -7136 0
-7137 7139 0
-7124 -7137 0
7138 -7123 0
7140 -7138 0
-7124 7139 -7138 0
-7139 7141 0
-7125 -7139 0
-7124 7140 0
7142 -7140 0
-7125 7141 -7140 0
-7141 7143 0
-7141 -7126 0
7142 -7125 0
7144 -7142 0
7143 -7126 -7142 0
-7143 7145 0
-7143 -7127 0
7144 -7126 0
7146 -7144 0
-7145 7147 0
-7128 -7145 0
7146 -7127 0
-7128 7147 -7146 0
-7147 -7129 0
-51 -7741 -2734 -2727 0
7741 -65 2733 0
-4 -7790 2825 2829 0
7790 -7 -2832 0
-8 7790 -2833 0
-9 -7790 2826 2827 0
-10 -7790 2826 2828 0
-11 -7790 2826 2829 0
7790 -14 -2832 0
-15 7790 -2833 0
-17 -7790 2827 2829 0
7790 -20 -2832 0
-21 7790 -2833 0
-22 -7790 2828 2829 0
7790 -25 -2832 0
-26 7790 -2833 0
-27 -7790 2829 2830 0
-28 -7790 2829 2831 0
7790 -29 -2832 0
-30 7790 -2833 0
7790 -32 -2832 0
-33 7790 -2833 0
7790 -34 -2832 0
-35 7790 -2833 0
7790 -36 -2832 0
-43 7791 -2841 0
-44 7791 -2842 0
-50 7791 -2841 0
-51 7791 -2842 0
-56 7791 -2841 0
-57 7791 -2842 0
-61 7791 -2841 0
-62 7791 -2842 0
-65 7791 -2841 0
-66 7791 -2842 0
-68 7791 -2841 0
-69 7791 -2842 0
-70 7791 -2841 0
-71 7791 -2842 0
-72 7791 -2842 0
-79 -2850 7792 0
-80 -2851 7792 0
-86 -2850 7792 0
-87 -2851 7792 0
-92 -2850 7792 0
-93 -2851 7792 0
-97 -2850 7792 0
-98 -2851 7792 0
-101 -2850 7792 0
-102 -2851 7792 0
-104 -2850 7792 0
-105 -2851 7792 0
-106 -2850 7792 0
-107 -2851 7792 0
-108 -2850 7792 0
-115 -2859 7793 0
-116 -2860 7793 0
-122 -2859 7793 0
-123 -2860 7793 0
-128 -2859 7793 0
-129 -2860 7793 0
-133 -2859 7793 0
-134 -2860 7793 0
-137 -2859 7793 0
-138 -2860 7793 0
-140 -2859 7793 0
-141 -2860 7793 0
-142 -2859 7793 0
-143 -2860 7793 0
-144 -2859 7793 0
-151 -2868 7794 0
-152 7794 -2869 0
-158 -2868 7794 0
-159 7794 -2869 0
-164 7794 -2868 0
-165 7794 -2869 0
-169 7794 -2868 0
-170 7794 -2869 0
-173 7794 -2868 0
-174 7794 -2869 0
-176 7794 -2868 0
-177 7794 -2869 0
-178 7794 -2868 0
-179 7794 -2869 0
7794 -180 -2868 0
-187 7795 -2877 0
-188 7795 -2878 0
-194 7795 -2877 0
-195 7795 -2878 0
-200 7795 -2877 0
7795 -201 -2878 0
-205 7795 -2877 0
-206 7795 -2878 0
-209 7795 -2877 0
-210 7795 -2878 0
-212 7795 -2877 0
-213 7795 -2878 0
-214 7795 -2877 0
-215 7795 -2878 0
-216 7795 -2877 0
-216 7795 -2878 0
-223 7796 -2886 0
-224 -2887 7796 0
-230 7796 -2886 0
-231 -2887 7796 0
-236 7796 -2886 0
-237 7796 -2887 0
-241 7796 -2886 0
-242 7796 -2887 0
-245 7796 -2886 0
-246 7796 -2887 0
-248 7796 -2886 0
-249 7796 -2887 0
-250 7796 -2886 0
-251 7796 -2887 0
-252 7796 -2886 0
-252 -2887 7796 0
-259 7797 -2895 0
-260 7797 -2896 0
-266 7797 -2895 0
-267 7797 -2896 0
-272 7797 -2895 0
-273 7797 -2896 0
-277 7797 -2895 0
-278 7797 -2896 0
-281 7797 -2895 0
-282 7797 -2896 0
-284 7797 -2895 0
-285 7797 -2896 0
-286 7797 -2895 0
-287 7797 -2896 0
7797 -288 -2895 0
-2896 7797 -288 0
-295 7798 -2904 0
-296 7798 -2905 0
-302 7798 -2904 0
-303 7798 -2905 0
-308 7798 -2904 0
-309 7798 -2905 0
-313 7798 -2904 0
-314 7798 -2905 0
-317 7798 -2904 0
-318 7798 -2905 0
-320 7798 -2904 0
-321 7798 -2905 0
-322 7798 -2904 0
-323 7798 -2905 0
-324 7798 -2904 0
-331 -2913 7799 0
-332 -2914 7799 0
-338 -2913 7799 0
-339 -2914 7799 0
-344 -2913 7799 0
-345 -2914 7799 0
-349 -2913 7799 0
-350 -2914 7799 0
-353 -2913 7799 0
-354 -2914 7799 0
-356 -2913 7799 0
-357 -2914 7799 0
-358 -2913 7799 0
-359 -2914 7799 0
-360 -2913 7799 0
-2914 -360 7799 0
2915 -365 -7800 2920 0
-367 -2922 7800 0
-368 -2923 7800 0
-374 -2922 7800 0
-375 -2923 7800 0
-2922 7800 -380 0
-381 -2923 7800 0
-2922 7800 -385 0
-386 -2923 7800 0
-2922 7800 -389 0
-390 -2923 7800 0
-2922 7800 -392 0
-393 -2923 7800 0
-2922 7800 -394 0
-395 -2923 7800 0
-2923 -396 7800 0
7801 -7790 0
7802 -7801 0
-7791 7803 -7801 0
-7803 7804 0
-7803 -7792 0
-7791 7802 0
7805 -7802 0
-7792 7804 -7802 0
-7804 7806 0
-7804 -7793 0
-7792 7805 0
7807 -7805 0
-7793 7806 -7805 0
-7806 7808 0
-7806 -7794 0
-7793 7807 0
7809 -7807 0
7808 -7794 -7807 0
-7808 7810 0
-7808 -7795 0
7809 -7794 0
7811 -7809 0
7810 -7795 -7809 0
-7810 7812 0
-7796 -7810 0
7811 -7795 0
7813 -7811 0
-7796 7812 -7811 0
-7812 7814 0
-7797 -7812 0
-7796 7813 0
7815 -7813 0
-7797 7814 -7813 0
7816 -7814 0
-7798 -7814 0
7815 -7797 0
7817 -7815 0
-7798 7816 -7815 0
7818 -7816 0
-7799 -7816 0
7817 -7798 0
7818 -7799 -7817 0
-7800 -7818 0
-9270 -37 -5318 -5319 0
-38 -9270 -5318 -5320 0
9270 -39 5321 0
9270 -41 5323 0
9270 -46 5321 0
9692 -39 6077 0
-9692 -41 -6074 -6079 0
9692 -46 6077 0
