p cnf 10272 1353
496 -1 0
-2 -496 0
503 -8 0
-503 -9 0
1 2 -397 8 7 3 4 5 6 0
-398 1 10 14 12 13 11 9 15 0
-399 2 16 17 9 18 19 20 21 0
-400 3 16 26 23 24 25 22 10 0
4 -401 17 30 22 28 29 27 11 0
-402 5 18 33 23 27 32 31 12 0
-403 6 19 35 24 28 31 34 13 0
-404 7 20 36 25 29 32 34 14 0
-405 8 21 36 26 30 33 35 15 0
-37 531 0
-531 532 0
-531 -38 0
-38 532 0
-532 533 0
-39 533 0
-533 534 0
-40 534 0
-534 535 0
-41 535 0
-535 536 0
-42 536 0
-536 537 0
-43 537 0
-537 538 0
-44 538 0
-538 539 0
-538 -45 0
-539 540 0
-540 541 0
-541 542 0
-542 543 0
-543 544 0
-544 545 0
-545 546 0
-52 -545 0
-546 547 0
-53 -546 0
-547 548 0
-54 -547 0
-548 549 0
-55 -548 0
550 -549 0
-549 -56 0
-57 -550 0
-406 37 39 38 44 43 40 41 42 0
49 48 37 46 45 50 -407 47 51 0
56 55 38 45 -408 57 52 53 54 0
-73 566 0
-566 567 0
-566 -74 0
567 -74 0
-567 568 0
-75 568 0
-568 569 0
-76 569 0
-569 570 0
-77 570 0
-570 571 0
-78 571 0
-571 572 0
-79 572 0
-572 573 0
-80 573 0
-573 574 0
-573 -81 0
-574 575 0
-575 576 0
-576 577 0
-577 578 0
-578 579 0
-579 580 0
-580 581 0
-580 -88 0
-581 582 0
-89 -581 0
-582 583 0
-90 -582 0
-583 584 0
-91 -583 0
-584 585 0
-92 -584 0
-585 -93 0
-415 73 74 75 80 79 76 77 78 0
-416 85 81 73 83 82 87 84 86 0
88 92 74 81 -417 89 93 90 91 0
-109 601 0
-601 -110 0
-111 603 0
-603 604 0
-112 604 0
-604 605 0
-113 605 0
-605 606 0
-114 606 0
-606 607 0
-115 607 0
-607 608 0
-116 608 0
-608 -117 0
-424 111 109 110 115 116 112 113 114 0
120 119 109 117 118 -425 122 121 123 0
426 -110 0
-426 129 117 110 126 125 124 127 128 0
-145 636 0
-636 637 0
-636 -146 0
-637 638 0
-147 638 0
-638 639 0
-148 639 0
-639 640 0
-149 640 0
-640 641 0
-150 641 0
-641 642 0
-151 642 0
-642 643 0
-152 643 0
-643 644 0
-153 -643 0
-644 645 0
-645 646 0
-646 647 0
-647 648 0
-648 649 0
-649 650 0
-650 651 0
-160 -650 0
-651 652 0
-161 -651 0
653 -652 0
-652 -162 0
654 -653 0
-163 -653 0
655 -654 0
-164 -654 0
-165 -655 0
-433 145 146 150 149 147 148 151 152 0
-434 159 145 153 154 157 156 155 158 0
-435 163 146 153 162 161 160 165 164 0
-181 671 0
-671 -182 0
-183 673 0
-673 674 0
-184 674 0
-674 675 0
-185 675 0
-675 676 0
-186 676 0
-676 677 0
-187 677 0
-677 678 0
678 -188 0
-189 -678 0
-442 188 187 182 181 183 184 185 186 0
193 -443 181 189 190 195 192 191 194 0
201 200 189 182 -444 197 198 199 196 0
-217 706 0
-706 -218 0
-219 708 0
-708 709 0
-220 709 0
-709 710 0
-221 710 0
-710 711 0
-222 711 0
-711 712 0
-223 712 0
-712 713 0
-224 713 0
-713 -225 0
-451 219 224 218 217 223 220 221 222 0
228 230 217 225 -452 226 227 231 229 0
234 233 218 225 -453 237 232 235 236 0
-253 741 0
-741 742 0
-741 -254 0
-254 742 0
-742 743 0
-255 743 0
-743 744 0
-256 744 0
-744 745 0
-257 745 0
-745 746 0
-258 746 0
-746 747 0
-259 747 0
-747 748 0
-260 748 0
-748 -261 0
-460 254 253 259 260 255 256 257 258 0
267 266 253 -461 263 262 261 265 264 0
268 269 254 -462 270 261 271 272 273 0
-289 776 0
-776 777 0
-776 -290 0
-777 778 0
-291 778 0
-778 779 0
-292 779 0
-779 780 0
-293 780 0
-780 781 0
-294 781 0
-781 782 0
-295 782 0
-782 783 0
-296 783 0
-783 784 0
-783 -297 0
-784 785 0
-785 786 0
-786 787 0
-787 788 0
-788 789 0
-789 790 0
-790 791 0
-304 -790 0
792 -791 0
-791 -305 0
793 -792 0
-306 -792 0
794 -793 0
-307 -793 0
795 -794 0
-308 -794 0
-309 -795 0
-469 290 289 296 291 295 292 293 294 0
297 302 -470 289 298 299 300 301 303 0
305 306 297 290 308 304 -471 309 307 0
-325 811 0
-811 812 0
-326 -811 0
-812 813 0
-813 814 0
-814 815 0
-815 816 0
-816 817 0
-817 818 0
-818 819 0
820 -819 0
821 -820 0
822 -821 0
823 -822 0
824 -823 0
825 -824 0
826 -825 0
-340 -825 0
827 -826 0
-341 -826 0
828 -827 0
-342 -827 0
829 -828 0
-343 -828 0
830 -829 0
-344 -829 0
-345 -830 0
327 328 325 326 -478 329 330 331 332 0
334 335 325 -479 333 336 337 338 339 0
341 326 333 343 -480 345 340 342 344 0
846 -361 0
-846 847 0
-846 -362 0
-847 848 0
-848 849 0
-849 850 0
-850 851 0
-851 852 0
-852 853 0
-853 854 0
-853 -369 0
-854 855 0
-855 856 0
-856 857 0
-857 858 0
-858 859 0
860 -859 0
861 -860 0
-860 -376 0
862 -861 0
-861 -377 0
863 -862 0
-862 -378 0
864 -863 0
-863 -379 0
865 -864 0
-864 -380 0
-865 -381 0
-487 362 361 364 363 365 366 367 368 0
-488 375 361 369 371 372 373 374 370 0
-489 362 381 369 376 377 378 379 380 0
-989 0
-990 0
-991 0
-992 0
993 0
-994 0
-995 0
-996 0
-997 0
397 -998 989 0
400 -1001 992 0
401 1002 -993 0
402 -1003 994 0
403 -1004 995 0
404 -1005 996 0
405 -1006 997 0
-9 -1000 990 991 0
-2177 0
2178 0
-2277 0
2179 0
-2278 0
2181 0
397 -2186 2177 0
399 2188 -2179 0
401 2190 -2181 0
-9 2187 -2178 -2179 0
2196 407 -2187 0
2197 408 -2188 0
2205 -2196 416 0
2206 417 -2197 0
2215 426 -2206 0
2214 -109 -2205 0
-2214 2223 434 0
2224 -2215 435 0
-2223 2232 443 0
2233 -2224 444 0
-2232 2241 452 0
2242 -2233 453 0
-2241 461 2250 0
2251 -2242 462 0
-2250 2259 470 0
2260 -2251 471 0
2260 -290 -2251 0
2260 -2251 -297 0
-2259 479 2268 0
480 -2260 2269 0
-2260 -333 2269 0
488 -2268 2277 0
489 -2269 2278 0
-369 -2269 2278 0
3365 0
-3464 0
-3366 0
-3465 0
3367 0
-3466 0
3369 0
3372 0
3373 0
3374 397 -3365 0
399 3376 -3367 0
-1 -3374 3366 0
3374 -4 -3365 -3369 0
-7 3374 -3365 -3372 0
-8 3374 -3365 -3373 0
3383 406 -3374 0
3385 408 -3376 0
3392 -3383 415 0
3394 417 -3385 0
3393 -73 -3383 0
3401 424 -3392 0
-3393 3402 425 0
3403 426 -3394 0
3402 -109 -3392 0
3410 -3401 433 0
-3402 3411 434 0
3412 -3403 435 0
3411 -145 -3401 0
3419 442 -3410 0
-3411 3420 443 0
3421 -3412 444 0
3420 -181 -3410 0
3428 451 -3419 0
-3420 3429 452 0
3430 -3421 453 0
3429 -217 -3419 0
3437 -3428 460 0
-3429 461 3438 0
3439 -3430 462 0
3438 -253 -3428 0
3446 -3437 469 0
-3438 3447 470 0
3447 -289 -3437 0
478 -3446 3455 0
-3447 479 3456 0
-325 -3446 3456 0
487 -3455 3464 0
-3456 488 3465 0
-361 -3455 3465 0
-361 -3456 3465 0
-369 -3456 3466 0
3581 0
-3680 0
3582 0
3583 0
-3586 0
-3587 0
3590 397 -3581 0
3592 399 -3583 0
3590 -1 -3581 -3582 0
-2 3590 -3581 -3583 0
-2 3592 -3583 0
-5 -3590 3586 0
-6 -3590 3587 0
-9 3591 -3582 -3583 0
3599 406 -3590 0
3601 408 -3592 0
3599 -37 -3591 -3590 0
3608 -3599 415 0
3610 417 -3601 0
3617 424 -3608 0
3617 -110 -3608 -3610 0
3626 -3617 433 0
3635 442 -3626 0
3644 451 -3635 0
3653 -3644 460 0
3662 -3653 469 0
-3662 478 3671 0
487 -3671 3680 0
6065 0
-6067 0
6166 0
397 6074 -6065 0
-6076 399 6067 0
-6076 -16 6067 0
-6076 -17 6067 0
-6076 -18 6067 0
-6076 -19 6067 0
-6076 -20 6067 0
-21 -6076 6067 0
6083 406 -6074 0
408 -6085 6076 0
-52 -6085 6076 0
-53 -6085 6076 0
-54 -6085 6076 0
-55 -6085 6076 0
-56 -6085 6076 0
-57 -6085 6076 0
6092 -6083 415 0
417 -6094 6085 0
-88 -6094 6085 0
-89 -6094 6085 0
-90 -6094 6085 0
-91 -6094 6085 0
-92 -6094 6085 0
-93 -6094 6085 0
6101 424 -6092 0
-6103 426 6094 0
435 -6112 6103 0
-160 -6112 6103 0
-161 -6112 6103 0
-162 -6112 6103 0
-163 -6112 6103 0
-164 -6112 6103 0
-165 -6112 6103 0
444 -6121 6112 0
-196 6112 -6121 0
-197 6112 -6121 0
-198 6112 -6121 0
-199 6112 -6121 0
-200 6112 -6121 0
-201 6112 -6121 0
453 6121 -6130 0
-232 6121 -6130 0
-233 6121 -6130 0
-234 6121 -6130 0
-235 6121 -6130 0
-236 6121 -6130 0
-237 6121 -6130 0
462 6130 -6139 0
-268 6130 -6139 0
-269 6130 -6139 0
-270 6130 -6139 0
-271 6130 -6139 0
-272 6130 -6139 0
-273 6130 -6139 0
471 -6148 6139 0
-304 -6148 6139 0
-305 -6148 6139 0
-306 -6148 6139 0
-307 -6148 6139 0
-308 -6148 6139 0
-309 -6148 6139 0
480 6148 -6157 0
-340 6148 -6157 0
-341 6148 -6157 0
-342 6148 -6157 0
-343 6148 -6157 0
-344 6148 -6157 0
-345 6148 -6157 0
489 6157 -6166 0
-376 6157 -6166 0
6157 -377 -6166 0
6157 -378 -6166 0
6157 -379 -6166 0
6157 -380 -6166 0
6157 -381 -6166 0
6281 0
6282 0
6283 0
-6284 0
-6497 0
6498 0
-6597 0
-6499 0
6598 0
6500 0
6501 0
6502 0
6503 0
6504 0
6505 0
-6506 397 6497 0
-6508 399 6499 0
6509 400 -6500 0
6510 401 -6501 0
6511 402 -6502 0
6512 403 -6503 0
6513 404 -6504 0
6514 405 -6505 0
-6506 -1 6497 0
6507 -1 -6498 0
-2 -6506 6497 0
-6508 -2 6497 6499 0
-3 -6506 6497 0
-6506 -4 6497 0
-5 -6506 6497 0
-6506 -6 6497 0
-6506 -7 6497 0
-8 -6506 6497 0
-9 -6507 6499 0
-9 6508 -6498 0
-6508 -16 6499 0
-6508 -17 6499 0
-6508 -18 6499 0
-6508 -19 6499 0
-6508 -20 6499 0
-21 -6508 6499 0
-6515 406 6506 0
407 -6516 6507 0
407 6516 -6507 0
-6517 408 6508 0
-37 -6515 6506 0
-37 -6516 6506 6507 0
-38 -6515 6506 0
-6515 -38 6508 0
-38 -6517 6506 6508 0
-39 -6515 6506 0
-40 -6515 6506 0
-41 -6515 6506 0
-42 -6515 6506 0
-43 -6515 6506 0
-44 -6515 6506 0
-6516 -45 6507 0
-6516 -45 6508 0
-45 6517 -6507 0
-46 -6516 6507 0
-46 6516 -6507 -6509 0
-47 -6516 6507 0
-47 6516 -6507 -6510 0
-48 -6516 6507 0
-48 6516 -6507 -6511 0
-49 -6516 6507 0
-49 6516 -6507 -6512 0
-50 -6516 6507 0
-50 6516 -6507 -6513 0
-51 -6516 6507 0
-51 6516 -6507 -6514 0
-52 -6517 6508 0
-53 -6517 6508 0
-54 -6517 6508 0
-55 -6517 6508 0
-6517 -56 6508 0
-57 -6517 6508 0
-6524 6515 415 0
-6525 416 6516 0
-6526 417 6517 0
-73 -6524 6515 0
-6516 -73 6525 0
-73 -6525 6516 6515 0
6515 -74 -6524 0
-74 -6524 6517 0
-74 6515 -6526 6517 0
-75 6515 -6524 0
-76 -6524 6515 0
-77 -6524 6515 0
-78 6515 -6524 0
-79 -6524 6515 0
-80 -6524 6515 0
-6525 -81 6517 0
-6526 6516 6517 -81 0
-82 -6525 6516 0
-83 -6525 6516 0
-84 -6525 6516 0
-85 -6525 6516 0
-86 -6525 6516 0
-87 -6525 6516 0
-6526 6517 -88 0
-89 -6526 6517 0
-90 -6526 6517 0
-91 -6526 6517 0
-92 -6526 6517 0
-93 -6526 6517 0
-6533 424 6524 0
425 -6534 6525 0
-6535 426 6526 0
-109 6524 -6533 0
-109 -6525 6534 0
-109 6524 -6534 6525 0
6524 -110 -6533 0
-6535 -110 6524 6526 0
-111 6524 -6533 0
-112 -6533 6524 0
-113 -6533 6524 0
-114 -6533 6524 0
-115 -6533 6524 0
-116 -6533 6524 0
-117 -6534 6525 0
-117 -6534 6526 0
-117 -6535 6525 6526 0
-118 -6534 6525 0
-119 -6534 6525 0
-120 -6534 6525 0
-121 -6534 6525 0
-122 -6534 6525 0
-6534 6525 -123 0
-124 6526 -6535 0
-125 -6535 6526 0
-126 6526 -6535 0
-127 -6535 6526 0
-128 6526 -6535 0
-129 6526 -6535 0
-6542 6533 433 0
434 -6543 6534 0
-6544 6535 435 0
-145 -6542 6533 0
-145 -6534 6543 0
-145 -6543 6533 6534 0
-146 -6542 6533 0
-6544 -146 6535 6533 0
-147 -6542 6533 0
-148 -6542 6533 0
-149 -6542 6533 0
-150 -6542 6533 0
-151 -6542 6533 0
-152 -6542 6533 0
-153 -6543 6534 0
-153 -6543 6535 0
-153 -6544 6534 6535 0
-154 -6543 6534 0
-155 -6543 6534 0
-156 -6543 6534 0
-157 -6543 6534 0
-158 -6543 6534 0
-159 -6543 6534 0
-160 -6544 6535 0
-161 -6544 6535 0
-6544 6535 -162 0
-163 -6544 6535 0
-164 -6544 6535 0
-165 -6544 6535 0
-6551 442 6542 0
443 6543 -6552 0
-6553 444 6544 0
-181 -6551 6542 0
-181 -6543 6552 0
-181 6543 -6552 6542 0
-182 -6551 6542 0
-182 6544 -6553 6542 0
-183 -6551 6542 0
-184 -6551 6542 0
-185 -6551 6542 0
-186 -6551 6542 0
-187 -6551 6542 0
-188 -6551 6542 0
-189 6543 -6552 0
-189 -6552 6544 0
-189 6544 6543 -6553 0
-190 6543 -6552 0
-191 6543 -6552 0
-192 6543 -6552 0
-193 6543 -6552 0
-194 6543 -6552 0
-195 6543 -6552 0
-196 -6553 6544 0
-197 6544 -6553 0
-198 6544 -6553 0
-199 6544 -6553 0
-200 6544 -6553 0
-6553 6544 -201 0
-6560 451 6551 0
452 -6561 6552 0
-6562 453 6553 0
-217 -6560 6551 0
-217 6561 -6552 0
-217 -6561 6551 6552 0
-218 -6560 6551 0
-218 6553 6551 -6562 0
-219 -6560 6551 0
-220 -6560 6551 0
-221 -6560 6551 0
-222 -6560 6551 0
-223 -6560 6551 0
-224 -6560 6551 0
6552 -225 -6561 0
-6561 -225 6553 0
-225 -6552 6562 0
6552 -225 -6562 6553 0
-226 6552 -6561 0
-227 6552 -6561 0
-228 6552 -6561 0
-229 6552 -6561 0
-230 6552 -6561 0
-231 6552 -6561 0
-232 -6562 6553 0
-233 -6562 6553 0
-6562 6553 -234 0
-235 -6562 6553 0
-236 -6562 6553 0
-237 -6562 6553 0
-6569 6560 460 0
461 6561 -6570 0
-6571 462 6562 0
-253 6560 -6569 0
-253 6570 -6561 0
-253 6560 -6570 6561 0
6560 -254 -6569 0
6560 -254 6562 -6571 0
-255 -6569 6560 0
-256 -6569 6560 0
-257 -6569 6560 0
-258 -6569 6560 0
-259 -6569 6560 0
-260 -6569 6560 0
-261 -6570 6561 0
-261 -6570 6562 0
-261 -6561 6571 0
6561 -261 6562 -6571 0
-262 6561 -6570 0
-263 6561 -6570 0
-264 6561 -6570 0
-265 6561 -6570 0
-266 6561 -6570 0
6561 -6570 -267 0
-6571 6562 -268 0
-269 -6571 6562 0
-270 -6571 6562 0
-271 -6571 6562 0
-272 -6571 6562 0
-273 -6571 6562 0
-6578 6569 469 0
470 6570 -6579 0
471 -6580 6571 0
-6578 -289 6569 0
-289 6570 -6579 6569 0
-290 -6578 6569 0
-6569 -290 -6571 6578 0
6569 -290 -6580 6571 0
-291 -6578 6569 0
-292 -6578 6569 0
-293 -6578 6569 0
-294 -6578 6569 0
-295 -6578 6569 0
-296 -6578 6569 0
6570 -6579 -297 0
-6579 6571 -297 0
6570 -6580 -297 6571 0
-298 6570 -6579 0
-299 6570 -6579 0
-300 6570 -6579 0
-301 6570 -6579 0
-302 6570 -6579 0
-303 6570 -6579 0
-304 -6580 6571 0
-6580 6571 -305 0
-306 -6580 6571 0
-307 -6580 6571 0
-308 -6580 6571 0
-309 -6580 6571 0
-6587 478 6578 0
479 6579 -6588 0
480 6580 -6589 0
-6587 -325 6578 0
-6579 -325 6588 0
-325 6579 -6588 6578 0
-326 6578 -6589 6580 0
-333 6579 -6588 0
6580 -333 -6588 0
-6580 -333 6588 -6579 0
-333 6579 -6589 6580 0
-340 6580 -6589 0
6580 -341 -6589 0
-342 6580 -6589 0
-343 6580 -6589 0
-344 6580 -6589 0
-345 6580 -6589 0
6589 489 -6598 0
-6588 -361 6597 0
6587 -362 6589 -6598 0
-6588 -6589 -369 6597 0
6588 -369 6589 -6598 0
-6595 -6588 -375 6597 0
-376 6589 -6598 0
6589 -377 -6598 0
6589 -378 -6598 0
6589 -379 -6598 0
6589 -380 -6598 0
6589 -381 -6598 0
6605 0
6606 0
6705 0
-6607 0
397 6614 -6605 0
-6616 399 6607 0
6623 406 -6614 0
-6625 408 6616 0
-52 -6625 6616 0
-53 -6625 6616 0
-54 -6625 6616 0
-55 -6625 6616 0
-6625 -56 6616 0
-57 -6625 6616 0
6632 -6623 415 0
-6634 417 6625 0
-6633 6625 -81 0
6641 424 -6632 0
6633 -6642 425 0
-6643 426 6634 0
-6642 -117 6634 0
-124 -6643 6634 0
-125 -6643 6634 0
-126 -6643 6634 0
-127 -6643 6634 0
-128 -6643 6634 0
-129 -6643 6634 0
6650 -6641 433 0
6642 -6651 434 0
-6652 6643 435 0
-6651 -153 6643 0
6659 442 -6650 0
-6660 6651 443 0
-6661 6652 444 0
-6660 -189 6652 0
-196 -6661 6652 0
-197 -6661 6652 0
-198 -6661 6652 0
-199 -6661 6652 0
-200 -6661 6652 0
-6661 6652 -201 0
-6669 6660 452 0
-6670 6661 453 0
-218 -6659 6670 0
-6669 6660 -225 0
-6669 -225 6661 0
-226 -6669 6660 0
-227 -6669 6660 0
-228 -6669 6660 0
-229 -6669 6660 0
-6669 6660 -230 0
-231 -6669 6660 0
-232 6661 -6670 0
-6670 -233 6661 0
6661 -6670 -234 0
-235 6661 -6670 0
-236 6661 -6670 0
-237 6661 -6670 0
6669 461 -6678 0
-6679 462 6670 0
-261 6670 -6678 0
-6679 6670 -268 0
-269 -6679 6670 0
-6679 6670 -270 0
-271 -6679 6670 0
-272 -6679 6670 0
-273 -6679 6670 0
6678 -6687 470 0
-6688 6679 471 0
-6687 6679 -297 0
-304 -6688 6679 0
-6688 6679 -305 0
-306 -6688 6679 0
-307 -6688 6679 0
-308 -6688 6679 0
6687 479 -6696 0
480 6688 -6697 0
6688 -333 -6696 0
488 6696 -6705 0
6697 -369 -6705 0
6821 0
-6822 0
6921 0
6823 0
6824 0
6825 0
6826 0
6827 0
6828 0
6829 0
6830 397 -6821 0
-6831 398 6822 0
6832 399 -6823 0
6833 400 -6824 0
6834 401 -6825 0
6835 402 -6826 0
6836 403 -6827 0
6837 404 -6828 0
6838 405 -6829 0
-6831 -9 6822 0
-6831 -10 6822 0
-6831 -11 6822 0
-6831 -12 6822 0
-6831 -13 6822 0
-14 -6831 6822 0
-15 -6831 6822 0
6839 406 -6830 0
407 -6840 6831 0
6841 408 -6832 0
-6840 -45 6831 0
-46 -6840 6831 0
-47 -6840 6831 0
-48 -6840 6831 0
-49 -6840 6831 0
-50 -6840 6831 0
-51 -6840 6831 0
6848 -6839 415 0
-6849 6840 416 0
6850 417 -6841 0
-6849 6840 -81 0
-82 -6849 6840 0
-83 -6849 6840 0
-84 -6849 6840 0
-6849 6840 -85 0
-86 -6849 6840 0
-87 -6849 6840 0
6857 424 -6848 0
425 -6858 6849 0
-6858 6849 -117 0
-118 -6858 6849 0
-6858 6849 -119 0
-120 -6858 6849 0
-121 -6858 6849 0
-122 -6858 6849 0
-6858 6849 -123 0
6866 -6857 433 0
434 -6867 6858 0
-153 -6867 6858 0
-154 -6867 6858 0
-155 -6867 6858 0
-156 -6867 6858 0
-157 -6867 6858 0
-158 -6867 6858 0
-159 -6867 6858 0
6875 442 -6866 0
443 6867 -6876 0
-181 -6866 6876 0
-189 -6876 6867 0
-190 -6876 6867 0
-191 -6876 6867 0
-192 -6876 6867 0
-193 -6876 6867 0
-194 -6876 6867 0
-195 -6876 6867 0
6884 451 -6875 0
452 6876 -6885 0
-217 -6875 6885 0
-225 6876 -6885 0
-226 -6885 6876 0
-227 -6885 6876 0
-228 -6885 6876 0
-229 -6885 6876 0
-230 -6885 6876 0
-231 -6885 6876 0
461 6885 -6894 0
-6884 -253 6894 0
-261 -6894 6885 0
-262 -6894 6885 0
-263 -6894 6885 0
-264 -6894 6885 0
-265 -6894 6885 0
-266 -6894 6885 0
-267 -6894 6885 0
470 6894 -6903 0
-297 -6903 6894 0
-298 6894 -6903 0
-299 6894 -6903 0
-300 6894 -6903 0
-301 6894 -6903 0
-302 6894 -6903 0
-303 6894 -6903 0
479 6903 -6912 0
6902 -325 6903 -6912 0
-333 6903 -6912 0
-334 6903 -6912 0
-335 6903 -6912 0
-336 6903 -6912 0
-337 6903 -6912 0
-338 6903 -6912 0
-339 6903 -6912 0
6912 488 -6921 0
6912 -369 -6921 0
6912 -370 -6921 0
6912 -371 -6921 0
6912 -372 -6921 0
6912 -373 -6921 0
6912 -374 -6921 0
6912 -375 -6921 0
-6929 0
6930 0
6931 0
-9990 -1 -6281 -6282 0
-3 9990 6284 0
-9990 -9 -6282 -6283 0
10099 -1 6497 0
10099 -2 6499 0
10099 -3 6497 0
10099 -4 6497 0
10099 -5 6497 0
10099 -6 6497 0
10099 -7 6497 0
10099 -8 6497 0
10099 -9 6499 0
-10 -10099 -6498 -6500 0
-11 -10099 -6498 -6501 0
-12 -10099 -6498 -6502 0
-13 -10099 -6498 -6503 0
-14 -10099 -6498 -6504 0
-15 -10099 -6498 -6505 0
10099 -16 6499 0
10099 -17 6499 0
10099 -18 6499 0
10099 -19 6499 0
10099 -20 6499 0
-21 10099 6499 0
-22 -10099 -6500 -6501 0
-23 -10099 -6500 -6502 0
-24 -10099 -6500 -6503 0
-25 -10099 -6500 -6504 0
-26 -10099 -6500 -6505 0
-27 -10099 -6501 -6502 0
-28 -10099 -6501 -6503 0
-29 -10099 -6501 -6504 0
-30 -10099 -6501 -6505 0
-31 -10099 -6502 -6503 0
-32 -10099 -6502 -6504 0
-33 -10099 -6502 -6505 0
-34 -10099 -6503 -6504 0
-35 -10099 -6503 -6505 0
-36 -10099 -6504 -6505 0
-37 10100 6506 0
-38 10100 6506 0
-38 10100 6508 0
-39 10100 6506 0
-40 10100 6506 0
-41 10100 6506 0
-42 10100 6506 0
-43 10100 6506 0
-44 10100 6506 0
-45 10100 6507 0
-45 10100 6508 0
-46 10100 6507 0
-47 10100 6507 0
-48 10100 6507 0
-49 10100 6507 0
-50 10100 6507 0
-51 10100 6507 0
-52 10100 6508 0
-53 10100 6508 0
-54 10100 6508 0
-55 10100 6508 0
10100 -56 6508 0
-57 10100 6508 0
-73 6515 10101 0
-73 6516 10101 0
-74 6515 10101 0
-74 10101 6517 0
-75 6515 10101 0
-76 6515 10101 0
-77 6515 10101 0
-78 6515 10101 0
-79 6515 10101 0
-80 6515 10101 0
6516 10101 -81 0
10101 6517 -81 0
-82 6516 10101 0
-83 6516 10101 0
-84 6516 10101 0
-85 6516 10101 0
-86 6516 10101 0
-87 6516 10101 0
10101 6517 -88 0
-89 10101 6517 0
-90 10101 6517 0
-91 10101 6517 0
-92 10101 6517 0
-93 10101 6517 0
-109 6524 10102 0
-109 10102 6525 0
-110 6524 10102 0
-110 6526 10102 0
-111 6524 10102 0
-112 6524 10102 0
-113 6524 10102 0
-114 6524 10102 0
-115 6524 10102 0
-116 6524 10102 0
-117 10102 6525 0
-117 6526 10102 0
-118 10102 6525 0
-119 10102 6525 0
-120 10102 6525 0
-121 10102 6525 0
-122 10102 6525 0
10102 6525 -123 0
-124 6526 10102 0
-125 6526 10102 0
-126 6526 10102 0
-127 6526 10102 0
-128 6526 10102 0
-129 6526 10102 0
-145 6533 10103 0
-145 10103 6534 0
-146 6533 10103 0
-146 6535 10103 0
-147 6533 10103 0
-148 6533 10103 0
-149 6533 10103 0
-150 6533 10103 0
-151 6533 10103 0
-152 6533 10103 0
-153 10103 6534 0
-153 10103 6535 0
-154 10103 6534 0
-155 10103 6534 0
-156 10103 6534 0
-157 10103 6534 0
-158 10103 6534 0
-159 10103 6534 0
-160 10103 6535 0
-161 10103 6535 0
10103 6535 -162 0
-163 10103 6535 0
-164 10103 6535 0
-165 10103 6535 0
-181 6542 10104 0
-181 6543 10104 0
-182 6542 10104 0
-182 6544 10104 0
-183 6542 10104 0
-184 6542 10104 0
-185 6542 10104 0
-186 6542 10104 0
-187 6542 10104 0
-188 6542 10104 0
-189 6543 10104 0
-189 6544 10104 0
-190 6543 10104 0
-191 6543 10104 0
-192 6543 10104 0
-193 6543 10104 0
-194 6543 10104 0
-195 6543 10104 0
-196 6544 10104 0
-197 6544 10104 0
-198 6544 10104 0
-199 6544 10104 0
-200 6544 10104 0
6544 10104 -201 0
-217 6551 10105 0
-217 6552 10105 0
-218 6551 10105 0
-218 6553 10105 0
-219 6551 10105 0
-220 6551 10105 0
-221 6551 10105 0
-222 6551 10105 0
-223 6551 10105 0
-224 6551 10105 0
6552 -225 10105 0
-225 6553 10105 0
-226 6552 10105 0
-227 6552 10105 0
-228 6552 10105 0
-229 6552 10105 0
-230 6552 10105 0
-231 6552 10105 0
-232 6553 10105 0
-233 6553 10105 0
6553 10105 -234 0
-235 6553 10105 0
-236 6553 10105 0
-237 6553 10105 0
-253 6560 10106 0
-253 6561 10106 0
-254 6560 10106 0
-254 10106 6562 0
-255 6560 10106 0
-256 6560 10106 0
-257 6560 10106 0
-258 6560 10106 0
-259 6560 10106 0
-260 6560 10106 0
6561 -261 10106 0
-261 10106 6562 0
-262 6561 10106 0
-263 6561 10106 0
-264 6561 10106 0
-265 6561 10106 0
-266 6561 10106 0
6561 10106 -267 0
10106 6562 -268 0
-269 10106 6562 0
-270 10106 6562 0
-271 10106 6562 0
-272 10106 6562 0
-273 10106 6562 0
-289 6569 10107 0
-289 6570 10107 0
6569 -290 10107 0
-290 10107 6571 0
-291 6569 10107 0
-292 6569 10107 0
-293 6569 10107 0
-294 6569 10107 0
-295 6569 10107 0
-296 6569 10107 0
6570 10107 -297 0
10107 6571 -297 0
-6571 -10107 -6570 -297 0
-298 6570 10107 0
-299 6570 10107 0
-300 6570 10107 0
-301 6570 10107 0
-302 6570 10107 0
-303 6570 10107 0
-304 10107 6571 0
10107 6571 -305 0
-306 10107 6571 0
-307 10107 6571 0
-308 10107 6571 0
-309 10107 6571 0
10108 -325 6578 0
10108 -325 6579 0
-326 10108 6578 0
-326 10108 6580 0
-327 10108 6578 0
-328 10108 6578 0
-329 10108 6578 0
-330 10108 6578 0
-331 10108 6578 0
-332 10108 6578 0
-333 6579 10108 0
-333 6580 10108 0
-6580 -6579 -10108 -333 0
6579 10108 -334 0
-335 6579 10108 0
-336 6579 10108 0
-337 6579 10108 0
-338 6579 10108 0
-339 6579 10108 0
-340 6580 10108 0
6580 -341 10108 0
-342 6580 10108 0
-343 6580 10108 0
-344 6580 10108 0
-345 6580 10108 0
6588 -361 10109 0
-362 6587 10109 0
10109 -362 6589 0
-363 6587 10109 0
-364 6587 10109 0
-365 6587 10109 0
-366 6587 10109 0
-367 6587 10109 0
-368 6587 10109 0
6588 10109 -369 0
-369 10109 6589 0
6588 10109 -370 0
6588 10109 -371 0
6588 10109 -372 0
6588 10109 -373 0
6588 10109 -374 0
6588 10109 -375 0
6595 10109 -375 0
10110 -10099 0
10111 -10110 0
-10100 10112 -10110 0
-10112 10113 0
-10112 -10101 0
-10100 10111 0
10114 -10111 0
-10101 10113 -10111 0
-10113 10115 0
-10113 -10102 0
10114 -10101 0
10116 -10114 0
-10102 10115 -10114 0
-10115 10117 0
-10115 -10103 0
10116 -10102 0
10118 -10116 0
-10103 10117 -10116 0
-10117 10119 0
-10117 -10104 0
-10103 10118 0
10120 -10118 0
-10104 10119 -10118 0
-10119 10121 0
-10119 -10105 0
-10104 10120 0
10122 -10120 0
-10105 10121 -10120 0
-10121 10123 0
-10121 -10106 0
-10105 10122 0
10124 -10122 0
-10106 10123 -10122 0
-10123 10125 0
-10107 -10123 0
10124 -10106 0
10126 -10124 0
-10107 10125 -10124 0
-10125 10127 0
-10125 -10108 0
10126 -10107 0
-10108 10127 -10126 0
-10127 -10109 0
-10128 -1 -6605 -6606 0
-9 10128 6607 0
-16 10128 6607 0
-17 10128 6607 0
-18 10128 6607 0
-19 10128 6607 0
-20 10128 6607 0
-21 10128 6607 0
-39 -10199 -6833 -6830 0
-40 -10199 -6834 -6830 0
-41 -10199 -6835 -6830 0
-42 -10199 -6836 -6830 0
-43 -10199 -6837 -6830 0
-44 -10199 -6838 -6830 0
10199 -45 6831 0
10233 -4 6929 0
10233 -5 6929 0
10233 -6 6929 0
10233 -7 6929 0
-9 -10233 -6930 -6931 0
