p cnf 10047 2025
8 3 2 -397 1 7 4 5 6 0
-398 14 1 11 13 10 12 15 9 0
-399 18 16 19 9 20 17 2 21 0
26 3 -400 10 25 16 22 23 24 0
-401 22 17 11 30 28 29 27 4 0
-402 23 12 18 33 27 32 31 5 0
-403 24 13 19 35 28 31 34 6 0
-404 25 14 20 34 29 32 7 36 0
-405 26 15 21 35 30 33 8 36 0
531 -37 0
-531 532 0
-38 532 0
-532 533 0
-532 -39 0
-39 533 0
-533 534 0
-40 534 0
-534 535 0
-41 535 0
-535 536 0
-42 536 0
-536 537 0
-43 537 0
-537 538 0
-44 538 0
-538 539 0
-45 -538 0
-539 540 0
-539 -46 0
-540 541 0
-47 -540 0
-541 542 0
-48 -541 0
-542 543 0
-49 -542 0
-543 544 0
-50 -543 0
-544 545 0
-51 -544 0
546 -545 0
-545 -52 0
547 -546 0
-53 -546 0
548 -547 0
-54 -547 0
549 -548 0
-55 -548 0
550 -549 0
-56 -549 0
-57 -550 0
-406 37 38 44 39 43 40 41 42 0
-407 51 37 46 49 47 45 48 50 0
-408 38 52 54 57 45 53 56 55 0
-409 59 39 52 46 60 58 61 62 0
-73 566 0
-566 567 0
-74 567 0
-567 568 0
-568 569 0
-76 569 0
-569 570 0
-77 570 0
-570 571 0
-78 571 0
-571 572 0
-79 572 0
-572 573 0
-80 573 0
-573 574 0
575 -574 0
-574 -82 0
576 -575 0
577 -576 0
578 -577 0
579 -578 0
580 -579 0
-88 -580 0
-415 74 75 79 76 73 80 77 78 0
-73 416 0
-416 85 82 73 81 84 83 86 87 0
-417 89 81 74 88 90 91 92 93 0
-75 418 0
88 -418 94 82 75 95 96 97 98 0
-110 602 0
-602 603 0
-603 604 0
-112 604 0
-604 605 0
-113 605 0
-605 606 0
-114 606 0
-606 607 0
-115 607 0
-607 608 0
-116 608 0
-608 609 0
-117 609 0
-609 -118 0
610 -118 0
611 -610 0
612 -611 0
613 -612 0
614 -613 0
615 -614 0
616 -615 0
-615 -124 0
617 -616 0
-125 -616 0
618 -617 0
-126 -617 0
619 -618 0
-127 -618 0
620 -619 0
-128 -619 0
-129 -620 0
-424 115 110 112 116 109 111 114 113 0
425 -109 0
425 -118 0
119 118 -425 109 122 120 123 117 121 0
129 -426 110 117 124 126 125 128 127 0
-111 427 0
427 -118 0
-124 427 0
118 133 -427 124 134 130 131 111 132 0
-145 636 0
-636 637 0
-146 637 0
-637 638 0
-638 639 0
-148 639 0
-639 640 0
-149 -639 0
-149 640 0
-640 641 0
-150 641 0
-641 642 0
-151 642 0
-642 643 0
-152 643 0
-643 644 0
-153 -643 0
-153 644 0
-644 645 0
-644 -154 0
645 -154 0
-645 646 0
-155 -645 0
-155 646 0
-646 647 0
-156 -646 0
-156 647 0
-647 648 0
-157 -647 0
-157 648 0
-648 649 0
-648 -158 0
649 -158 0
650 -649 0
-159 -649 0
-159 650 0
651 -650 0
-160 -650 0
652 -651 0
653 -652 0
654 -653 0
655 -654 0
656 -655 0
657 -656 0
-166 -656 0
658 -657 0
-167 -657 0
659 -658 0
-168 -658 0
660 -659 0
-169 -659 0
-170 -660 0
-433 147 145 148 146 152 151 149 150 0
-145 434 0
158 157 -434 145 153 155 156 159 154 0
161 -435 146 160 153 165 162 163 164 0
147 -436 154 160 166 169 170 168 167 0
671 -181 0
-671 672 0
-182 672 0
-672 673 0
-183 673 0
-673 674 0
-184 674 0
-674 675 0
-185 675 0
-675 676 0
-186 676 0
-676 677 0
-187 677 0
-677 678 0
-188 678 0
-678 679 0
-189 -678 0
-189 679 0
-679 680 0
-679 -190 0
-680 681 0
-681 682 0
-682 683 0
-683 684 0
-684 685 0
-685 -196 0
442 -182 0
442 -183 0
-442 184 182 181 188 183 187 185 186 0
-443 195 190 181 189 192 191 194 193 0
-444 201 189 196 182 197 198 199 200 0
203 -445 183 190 196 202 204 205 206 0
-217 706 0
-706 707 0
-218 707 0
-707 708 0
-219 -707 0
-708 709 0
-220 709 0
-709 710 0
-221 710 0
-710 711 0
-222 711 0
-711 712 0
-223 712 0
-712 713 0
-224 713 0
-713 714 0
-713 -225 0
714 -225 0
715 -714 0
-226 -714 0
716 -715 0
717 -716 0
718 -717 0
719 -718 0
720 -719 0
721 -720 0
-232 -720 0
722 -721 0
723 -722 0
724 -723 0
725 -724 0
726 -725 0
727 -726 0
-238 -726 0
728 -727 0
-239 -727 0
729 -728 0
-240 -728 0
730 -729 0
-241 -729 0
-242 -730 0
-451 219 220 218 224 217 223 221 222 0
227 229 -452 230 226 228 225 217 231 0
235 234 218 232 225 237 -453 233 236 0
-454 219 232 226 242 238 241 239 240 0
-253 741 0
-741 742 0
-254 742 0
-742 743 0
-255 -742 0
-255 743 0
-743 744 0
-256 744 0
-744 745 0
-257 745 0
-745 746 0
-258 746 0
-746 747 0
-259 747 0
-747 748 0
-260 748 0
-748 749 0
-748 -261 0
-261 749 0
-749 750 0
-749 -262 0
-750 751 0
-751 752 0
-752 753 0
-753 754 0
-754 755 0
-755 756 0
-268 -755 0
-756 757 0
-757 758 0
-758 759 0
-759 760 0
-760 761 0
762 -761 0
-761 -274 0
763 -762 0
-275 -762 0
764 -763 0
-276 -763 0
765 -764 0
-277 -764 0
-278 -765 0
460 -253 0
460 -254 0
-255 460 0
-460 254 259 256 255 253 260 257 258 0
265 264 253 267 -461 262 261 263 266 0
-462 272 268 254 261 269 273 270 271 0
463 -255 0
463 -262 0
463 -268 0
274 -463 262 255 268 278 275 276 277 0
-289 776 0
-776 777 0
-776 -290 0
-290 777 0
-777 778 0
-291 -777 0
-291 778 0
-778 779 0
-292 779 0
-779 780 0
-293 780 0
-780 781 0
-294 781 0
-781 782 0
-295 782 0
-782 783 0
-296 783 0
-783 784 0
-783 -297 0
784 -297 0
785 -784 0
-298 -784 0
786 -785 0
787 -786 0
788 -787 0
789 -788 0
790 -789 0
791 -790 0
-304 -790 0
792 -791 0
793 -792 0
794 -793 0
795 -794 0
796 -795 0
797 -796 0
-310 -796 0
798 -797 0
-311 -797 0
799 -798 0
-312 -798 0
800 -799 0
-313 -799 0
-314 -800 0
469 -289 0
-469 290 289 295 296 291 292 293 294 0
297 303 300 299 301 -470 289 298 302 0
308 297 290 304 305 309 -471 306 307 0
-472 314 298 291 304 310 311 312 313 0
-477 318 309 303 314 296 321 323 324 0
811 -325 0
812 -811 0
-326 -811 0
-326 812 0
813 -812 0
-812 -327 0
-327 813 0
814 -813 0
-328 814 0
815 -814 0
-329 815 0
816 -815 0
-330 816 0
817 -816 0
-331 -816 0
-331 817 0
818 -817 0
-332 818 0
819 -818 0
-333 -818 0
819 -333 0
820 -819 0
-334 -819 0
821 -820 0
-335 -820 0
822 -821 0
-336 -821 0
823 -822 0
-337 -822 0
824 -823 0
-338 -823 0
825 -824 0
-339 -824 0
826 -825 0
-340 -825 0
827 -826 0
-341 -826 0
828 -827 0
-342 -827 0
829 -828 0
-343 -828 0
830 -829 0
-344 -829 0
831 -830 0
-345 -830 0
832 -831 0
-346 -831 0
833 -832 0
-347 -832 0
834 -833 0
-348 -833 0
835 -834 0
-349 -834 0
836 -835 0
-350 -835 0
837 -836 0
838 -837 0
839 -838 0
-353 -838 0
840 -839 0
-354 -839 0
841 -840 0
842 -841 0
-356 -841 0
843 -842 0
-357 -842 0
844 -843 0
-358 -843 0
845 -844 0
-359 -844 0
-360 -845 0
-325 478 0
-326 478 0
-327 478 0
332 -478 325 327 331 328 326 329 330 0
335 333 325 -479 334 338 337 336 339 0
-480 344 326 333 340 341 345 342 343 0
-350 481 0
-481 350 327 334 340 346 349 347 348 0
-485 360 331 338 344 349 353 356 358 0
-486 359 332 339 345 350 354 357 360 0
-361 846 0
-846 847 0
-846 -362 0
-362 847 0
-847 848 0
-847 -363 0
848 -363 0
-848 849 0
-364 849 0
-849 850 0
-365 850 0
-850 851 0
-366 851 0
-851 852 0
-367 852 0
-852 853 0
-368 -852 0
-368 853 0
-853 854 0
-853 -369 0
-369 854 0
-854 855 0
-854 -370 0
-855 856 0
-855 -371 0
-856 857 0
-856 -372 0
-857 858 0
-857 -373 0
859 -858 0
-858 -374 0
860 -859 0
-859 -375 0
861 -860 0
862 -861 0
-861 -377 0
863 -862 0
-862 -378 0
864 -863 0
-863 -379 0
-864 -380 0
-487 362 364 361 363 365 366 367 368 0
-361 488 0
-369 488 0
-488 375 370 374 361 369 373 371 372 0
-489 381 369 362 379 377 380 378 376 0
382 370 -490 363 386 383 384 376 385 0
390 -495 375 368 386 381 393 395 396 0
-1206 0
1207 0
-1208 0
-10 -1217 1206 1208 0
-16 1217 -1207 0
-2385 0
2288 0
400 2297 -2288 0
2306 409 -2297 0
2315 -2306 418 0
2324 427 -2315 0
-2340 2349 452 0
-2349 2358 461 0
-2358 2367 470 0
-2367 479 2376 0
488 -2376 2385 0
2826 0
-2828 0
398 2835 -2826 0
-16 -2836 2828 0
-4005 0
-4006 0
4007 0
490 3998 -4007 0
-361 -3995 4005 0
-361 -3996 4005 0
-362 -3995 4006 0
-362 -3997 4006 0
3998 -382 -4007 0
-383 3998 -4007 0
3998 -384 -4007 0
3998 -385 -4007 0
3998 -386 -4007 0
-4114 0
4016 0
-4115 0
400 4025 -4016 0
-3 4025 -4016 0
4034 409 -4025 0
-39 4034 -4025 0
4043 -4034 418 0
4043 -75 -4034 0
4043 -82 -4034 0
-88 4043 -4034 0
4052 427 -4043 0
-111 4052 -4043 0
4052 -4043 -118 0
4052 -124 -4043 0
4061 436 -4052 0
4061 -147 -4052 0
4061 -154 -4052 0
4061 -4052 -160 0
4070 -4061 445 0
-4061 -183 4070 0
4070 -4061 -190 0
4070 -4061 -196 0
4079 -4070 454 0
-219 4079 -4070 0
4088 -4079 463 0
4088 -255 -4079 0
-4088 4097 472 0
4097 -291 -4088 0
-4097 4106 481 0
-4097 -327 4106 0
489 -4105 4114 0
-4106 490 4115 0
-4106 -363 4115 0
-370 -4106 4115 0
4230 0
4232 0
-10 4239 -4230 -4232 0
5093 0
-5192 0
-5193 0
-5096 0
397 5102 -5093 0
400 -5105 5096 0
5111 406 -5102 0
409 -5114 5105 0
5112 -37 -5102 0
-59 -5114 5105 0
5120 415 -5111 0
-5112 5121 416 0
-5123 5114 418 0
-73 5121 -5111 0
5129 -5120 424 0
-5121 5130 425 0
-5132 427 5123 0
5130 -109 -5120 0
5138 -5129 433 0
-5130 5139 434 0
-5141 5132 436 0
5139 -145 -5129 0
5147 442 -5138 0
-5139 5148 443 0
-5150 5141 445 0
5148 -181 -5138 0
5156 451 -5147 0
5157 -5148 452 0
-5159 5150 454 0
5157 -217 -5147 0
5165 -5156 460 0
5166 -5157 461 0
-5168 5159 463 0
5166 -253 -5156 0
5174 -5165 469 0
-5166 5175 470 0
5175 -289 -5165 0
-5174 478 5183 0
-5175 479 5184 0
5184 -325 -5174 0
-5175 5184 -325 0
-5183 487 5192 0
488 -5184 5193 0
-361 -5183 5193 0
-5957 0
5958 0
-6057 0
5959 0
6058 0
-5960 0
6059 0
5961 0
6060 0
5962 0
6061 0
5963 0
6062 0
5964 0
6063 0
5965 0
6064 0
-5966 397 5957 0
398 5967 -5958 0
399 5968 -5959 0
400 -5969 5960 0
401 5970 -5961 0
402 5971 -5962 0
403 5972 -5963 0
404 5973 -5964 0
405 5974 -5965 0
-1 -5966 5957 0
-1 5967 -5958 0
-2 -5966 5957 0
5968 -2 -5959 0
-3 -5966 5957 0
-5969 -3 5957 5960 0
-4 -5966 5957 0
-5 -5966 5957 0
-6 -5966 5957 0
-7 -5966 5957 0
-8 -5966 5957 0
-9 5967 -5958 -5959 0
-9 5968 -5959 0
-10 -5967 5960 0
-10 5969 -5958 0
-11 5967 -5958 -5961 0
-12 5967 -5958 -5962 0
-13 5967 -5958 -5963 0
-14 5967 -5958 -5964 0
-15 5967 -5958 -5965 0
-16 -5968 5960 0
-16 5969 -5959 0
-17 5968 -5959 -5961 0
-18 5968 -5959 -5962 0
-19 5968 -5959 -5963 0
-20 5968 -5959 -5964 0
-21 5968 -5959 -5965 0
-5969 -22 5960 0
-5969 -23 5960 0
-5969 -24 5960 0
-25 -5969 5960 0
-26 -5969 5960 0
-5975 406 5966 0
407 -5976 5967 0
408 -5977 5968 0
-5978 409 5969 0
5978 409 -5969 0
-37 -5975 5966 0
-37 5976 -5967 0
-37 -5976 5967 5966 0
-5975 -38 5966 0
-38 5977 -5968 0
-38 -5977 5968 5966 0
-5975 -39 5966 0
-39 5978 -5966 0
-39 -5978 5966 5969 0
-40 -5975 5966 0
-41 -5975 5966 0
-42 -5975 5966 0
-43 -5975 5966 0
-44 -5975 5966 0
-45 -5976 5967 0
-45 -5976 5968 0
-45 5977 -5967 0
-46 -5976 5967 0
-5976 -46 5969 0
-46 5978 -5967 0
-46 5978 -5969 0
-47 -5976 5967 0
-48 -5976 5967 0
-49 -5976 5967 0
-50 -5976 5967 0
-51 -5976 5967 0
-5977 -52 5968 0
-5977 -52 5969 0
5978 -52 -5968 0
5978 -52 -5969 0
-53 -5977 5968 0
-54 -5977 5968 0
-55 -5977 5968 0
-56 -5977 5968 0
-57 -5977 5968 0
-58 -5978 5969 0
-58 5978 -5969 -5970 0
-59 -5978 5969 0
-59 5978 -5969 -5971 0
-60 -5978 5969 0
-60 5978 -5969 -5972 0
-61 -5978 5969 0
-61 5978 -5969 -5973 0
-62 -5978 5969 0
-62 5978 -5969 -5974 0
-5984 415 5975 0
416 5976 -5985 0
416 -5976 5985 0
417 -5986 5977 0
-5987 418 5978 0
-73 -5984 5975 0
-73 -5976 5985 0
-73 5976 -5985 5975 0
-74 -5984 5975 0
-74 -5986 5977 5975 0
-75 -5984 5975 0
-75 -5987 5978 5975 0
-76 -5984 5975 0
-77 -5984 5975 0
-78 -5984 5975 0
-79 -5984 5975 0
-80 -5984 5975 0
-81 5976 -5985 0
-81 -5985 5977 0
-81 -5976 5986 0
-81 5976 -5986 5977 0
5976 -82 -5985 0
-82 -5985 5978 0
-5976 -82 5987 0
5976 -82 -5987 5978 0
-83 5976 -5985 0
-84 5976 -5985 0
-85 5976 -5985 0
-86 5976 -5985 0
-87 5976 -5985 0
-88 -5986 5977 0
-88 -5986 5978 0
-89 -5986 5977 0
-90 -5986 5977 0
-91 -5986 5977 0
-92 -5986 5977 0
-93 -5986 5977 0
-94 -5987 5978 0
-95 -5987 5978 0
-96 -5987 5978 0
-97 -5987 5978 0
-98 -5987 5978 0
-5993 5984 424 0
-5994 425 5985 0
425 -5985 5994 0
426 5986 -5995 0
427 5987 -5996 0
-109 -5993 5984 0
-109 -5985 5994 0
-109 5985 5984 -5994 0
-110 -5993 5984 0
-110 -5984 -5986 5993 0
5986 -110 5984 -5995 0
-111 -5993 5984 0
-111 5987 -5996 5984 0
-112 -5993 5984 0
-113 -5993 5984 0
-114 -5993 5984 0
-115 -5993 5984 0
-116 -5993 5984 0
-117 -5994 5985 0
-117 -5994 5986 0
-117 5986 5985 -5995 0
-5994 -118 5985 0
-5994 -118 5987 0
5994 -5987 -118 -5985 0
5985 -118 5987 -5996 0
-119 -5994 5985 0
-120 -5994 5985 0
-121 -5994 5985 0
-122 -5994 5985 0
-123 -5994 5985 0
5986 -124 -5995 0
-124 5987 -5995 0
-124 5986 -5996 5987 0
-125 5986 -5995 0
-126 5986 -5995 0
-127 5986 -5995 0
-128 5986 -5995 0
-129 5986 -5995 0
-130 5987 -5996 0
-131 5987 -5996 0
-132 5987 -5996 0
-133 5987 -5996 0
-134 5987 -5996 0
-6002 5993 433 0
-6003 5994 434 0
435 5995 -6004 0
436 -6005 5996 0
-6002 -145 5993 0
-145 5993 5994 -6003 0
-6002 -146 5993 0
-146 -5995 6004 0
-146 5995 5993 -6004 0
-6002 -147 5993 0
-147 -6005 5996 5993 0
-148 -6002 5993 0
-149 -6002 5993 0
-150 -6002 5993 0
-151 -6002 5993 0
-152 -6002 5993 0
-153 -6003 5994 0
-153 5995 -6003 0
-153 5995 5994 -6004 0
-154 -6003 5994 0
-6003 -154 5996 0
-154 -5994 6003 -5996 0
-154 -6005 5996 5994 0
-155 -6003 5994 0
-156 -6003 5994 0
-157 -6003 5994 0
-6003 5994 -158 0
-159 -6003 5994 0
-6004 5995 -160 0
-6004 -160 5996 0
-5995 -160 6005 0
5995 -6005 -160 5996 0
-161 5995 -6004 0
-162 5995 -6004 0
-163 5995 -6004 0
-164 5995 -6004 0
-165 5995 -6004 0
-166 -6005 5996 0
-167 -6005 5996 0
-168 -6005 5996 0
-169 -6005 5996 0
-170 -6005 5996 0
-6011 442 6002 0
6003 443 -6012 0
6012 -6003 443 0
444 -6013 6004 0
445 -6014 6005 0
-6011 -181 6002 0
-181 -6003 6012 0
-181 6002 6003 -6012 0
-6011 -182 6002 0
-182 -6004 6013 0
-182 6002 6004 -6013 0
-6011 -183 6002 0
-6014 -183 6002 6005 0
-184 -6011 6002 0
-185 -6011 6002 0
-186 -6011 6002 0
-187 -6011 6002 0
-188 -6011 6002 0
-189 6003 -6012 0
-189 -6012 6004 0
-189 -6004 6012 -6003 0
-189 -6003 6013 0
-189 6003 6004 -6013 0
-190 6003 -6012 0
-190 6005 -6012 0
-190 6012 -6005 -6003 0
-190 6005 6003 -6014 0
-191 6003 -6012 0
-6006 -191 -6003 6012 0
-192 6003 -6012 0
-6007 -192 -6003 6012 0
-193 6003 -6012 0
-6008 -193 -6003 6012 0
-194 6003 -6012 0
-6009 -194 -6003 6012 0
-195 6003 -6012 0
-6010 -195 -6003 6012 0
-6013 6004 -196 0
-6013 -196 6005 0
-6004 6014 -196 0
6005 -196 -6014 6004 0
-197 -6013 6004 0
-198 -6013 6004 0
-199 -6013 6004 0
-200 -6013 6004 0
-201 -6013 6004 0
-202 -6014 6005 0
-203 -6014 6005 0
-204 -6014 6005 0
-205 -6014 6005 0
-206 -6014 6005 0
-6020 451 6011 0
-6021 452 6012 0
453 6013 -6022 0
454 6014 -6023 0
-217 -6020 6011 0
-217 -6012 6021 0
-217 6012 6011 -6021 0
-218 -6020 6011 0
-218 6013 -6022 6011 0
-219 -6020 6011 0
-219 6014 -6023 6011 0
-220 -6020 6011 0
-221 -6020 6011 0
-222 -6020 6011 0
-223 -6020 6011 0
-224 -6020 6011 0
-6021 -225 6012 0
-6021 -225 6013 0
-6012 -225 6021 -6013 0
6022 -6012 -225 0
6012 -6022 -225 6013 0
-226 -6021 6012 0
-226 6014 -6021 0
-226 6014 6012 -6023 0
-227 -6021 6012 0
-228 -6021 6012 0
-6021 -229 6012 0
-230 -6021 6012 0
-231 -6021 6012 0
-232 6013 -6022 0
-232 6014 -6022 0
-232 6023 -6013 0
-232 6013 -6023 6014 0
-233 6013 -6022 0
-234 6013 -6022 0
-235 6013 -6022 0
-236 6013 -6022 0
-237 6013 -6022 0
-238 6014 -6023 0
-239 6014 -6023 0
-240 6014 -6023 0
-241 6014 -6023 0
-242 6014 -6023 0
-6029 6020 460 0
-6030 461 6021 0
6030 -6021 461 0
462 6022 -6031 0
463 6023 -6032 0
463 6032 -6023 0
-253 -6029 6020 0
-253 6030 -6021 0
-253 6020 -6030 6021 0
-254 -6029 6020 0
-254 6022 6020 -6031 0
-255 -6029 6020 0
-255 6023 -6032 6020 0
-256 -6029 6020 0
-257 -6029 6020 0
-258 -6029 6020 0
-259 -6029 6020 0
-260 -6029 6020 0
-261 -6030 6021 0
-261 -6030 6022 0
-261 -6021 -6022 6030 0
-261 6022 6021 -6031 0
-262 -6030 6021 0
-6030 -262 6023 0
6030 -262 -6023 -6021 0
6032 -6021 -262 0
6023 -262 6021 -6032 0
-263 -6030 6021 0
-6024 -263 -6021 6030 0
-264 -6030 6021 0
-6025 -264 -6021 6030 0
-6030 6021 -265 0
-6026 -6021 -265 6030 0
-266 -6030 6021 0
-6027 -266 -6021 6030 0
-6030 -267 6021 0
-6028 -6021 -267 6030 0
-268 6022 -6031 0
-268 6023 -6031 0
-268 6032 -6022 0
6022 -268 -6032 6023 0
-269 6022 -6031 0
-270 6022 -6031 0
-271 6022 -6031 0
-272 6022 -6031 0
-273 6022 -6031 0
-274 6023 -6032 0
-275 6023 -6032 0
-276 6023 -6032 0
-277 6023 -6032 0
-278 6023 -6032 0
6029 -6038 469 0
470 -6039 6030 0
470 -6030 6039 0
471 6031 -6040 0
6032 -6041 472 0
477 6037 -6046 0
-289 6029 -6038 0
-289 -6030 6039 0
-289 6029 -6039 6030 0
-290 6029 -6038 0
-6029 -290 -6031 6038 0
-290 6040 -6031 0
6031 -290 -6040 6029 0
-6038 -291 6029 0
-291 -6041 6029 6032 0
-292 6029 -6038 0
-293 6029 -6038 0
-294 6029 -6038 0
-295 6029 -6038 0
-296 6029 -6038 0
-6039 6030 -297 0
6031 -6039 -297 0
-6030 -6031 -297 6039 0
6031 6030 -297 -6040 0
-298 -6039 6030 0
-298 6032 -6039 0
-298 -6030 -6032 6039 0
-298 -6030 6041 0
-298 6032 6030 -6041 0
-299 -6039 6030 0
-6033 -299 -6030 6039 0
-6039 -300 6030 0
-6034 -6030 -300 6039 0
-301 -6039 6030 0
-6035 -301 -6030 6039 0
-302 -6039 6030 0
-6036 -302 -6030 6039 0
-303 -6039 6030 0
-303 -6037 -6030 6039 0
-304 6031 -6040 0
6032 -304 -6040 0
6041 -6031 -304 0
-305 6031 -6040 0
-306 6031 -6040 0
-307 6031 -6040 0
-308 6031 -6040 0
-309 6031 -6040 0
-310 6032 -6041 0
-311 6032 -6041 0
-312 6032 -6041 0
-313 6032 -6041 0
-314 6032 -6041 0
-6047 6038 478 0
-6038 6047 478 0
6039 479 -6048 0
-6039 479 6048 0
6040 480 -6049 0
-6040 480 6049 0
6041 481 -6050 0
6046 486 -6055 0
-6047 6038 -325 0
-6039 6048 -325 0
6039 6038 -6048 -325 0
-6047 -326 6038 0
6040 -326 6038 -6049 0
-6047 -327 6038 0
-327 6038 6041 -6050 0
-328 -6047 6038 0
-329 -6047 6038 0
-330 -6047 6038 0
-331 -6047 6038 0
-6047 -332 6038 0
6046 6038 -6055 -332 0
6039 -333 -6048 0
6040 -333 -6048 0
6039 6040 -333 -6049 0
-334 6039 -6048 0
-334 6041 -6048 0
6039 -334 6041 -6050 0
-335 6039 -6048 0
-336 6039 -6048 0
-337 6039 -6048 0
-338 6039 -6048 0
-339 6039 -6048 0
-340 6040 -6049 0
-340 6041 -6049 0
-340 -6040 6050 0
-340 6041 6040 -6050 0
-341 6040 -6049 0
-342 6040 -6049 0
-343 6040 -6049 0
-344 6040 -6049 0
-345 6040 -6049 0
-346 6041 -6050 0
-347 6041 -6050 0
-348 6041 -6050 0
-349 6041 -6050 0
-350 6041 -6050 0
-6048 488 6057 0
6049 489 -6058 0
490 6050 -6059 0
6055 495 -6064 0
-6048 -361 6057 0
-362 6047 6049 -6058 0
-363 6047 6050 -6059 0
-6048 -6049 -369 6057 0
6048 -369 6049 -6058 0
-6048 -6050 -370 6057 0
6048 6050 -370 -6059 0
-6048 -6051 -371 6057 0
-6048 -6052 -372 6057 0
-6048 -6053 -373 6057 0
-6054 -6048 -374 6057 0
-6055 -375 -6048 6057 0
-376 6049 -6058 0
6050 -376 -6058 0
-377 6049 -6058 0
-378 6049 -6058 0
-379 6049 -6058 0
-380 6049 -6058 0
-381 6049 -6058 0
6055 -381 -6058 0
-382 6050 -6059 0
6050 -383 -6059 0
6050 -384 -6059 0
6050 -385 -6059 0
6050 -386 -6059 0
6055 -386 -6059 0
6055 -390 -6060 0
6055 -393 -6061 0
6055 -395 -6062 0
6055 -396 -6063 0
6065 0
-6164 0
6066 0
6165 0
6067 0
-6068 0
6167 0
6074 397 -6065 0
400 -6077 6068 0
-6074 -3 6068 0
6077 -3 -6065 0
-6075 -10 6068 0
6077 -10 -6066 0
-6076 -16 6068 0
6077 -16 -6067 0
-22 -6077 6068 0
-23 -6077 6068 0
-24 -6077 6068 0
-25 -6077 6068 0
-26 -6077 6068 0
-6083 406 6074 0
6083 406 -6074 0
-6084 407 6075 0
-6085 408 6076 0
-6086 409 6077 0
6086 409 -6077 0
-37 6084 -6074 0
-45 -6084 6075 0
-6084 -46 6075 0
-6084 -46 6077 0
-47 -6084 6075 0
-48 -6084 6075 0
-49 -6084 6075 0
-50 -6084 6075 0
-51 -6084 6075 0
-6085 -52 6077 0
-58 -6086 6077 0
-6086 -59 6077 0
-60 -6086 6077 0
-61 -6086 6077 0
-62 -6086 6077 0
-6092 6083 415 0
6092 415 -6083 0
-6093 6084 416 0
-6094 6085 417 0
-6095 6086 418 0
6095 -6086 418 0
-74 6094 -6083 0
-6092 -75 6086 0
-81 6084 -6093 0
-81 6085 -6093 0
-6093 6084 -82 0
-6093 -82 6086 0
-83 6084 -6093 0
-84 6084 -6093 0
-85 6084 -6093 0
-86 6084 -6093 0
-87 6084 -6093 0
-6094 -88 6086 0
-94 -6095 6086 0
-95 -6095 6086 0
-96 -6095 6086 0
-97 -6095 6086 0
-98 -6095 6086 0
-6101 6092 424 0
6101 -6092 424 0
-6102 6093 425 0
-6103 6094 426 0
-6104 427 6095 0
-111 -6101 6095 0
-117 6093 -6102 0
-117 6094 -6102 0
-6102 6093 -118 0
-6102 6095 -118 0
-119 6093 -6102 0
-120 6093 -6102 0
-121 6093 -6102 0
-122 6093 -6102 0
-123 6093 -6102 0
-6103 6094 -124 0
-6103 -124 6095 0
-125 -6103 6094 0
-126 -6103 6094 0
-127 -6103 6094 0
-128 -6103 6094 0
-129 -6103 6094 0
-130 6095 -6104 0
-131 6095 -6104 0
-132 6095 -6104 0
-133 6095 -6104 0
6095 -134 -6104 0
-6110 6101 433 0
6110 -6101 433 0
-6111 6102 434 0
-6112 6103 435 0
436 -6113 6104 0
-6110 -147 6104 0
-153 -6111 6102 0
6103 -153 -6111 0
-6111 -154 6102 0
-154 6104 -6111 0
-155 -6111 6102 0
-156 -6111 6102 0
-157 -6111 6102 0
-6111 6102 -158 0
-159 -6111 6102 0
-6112 6104 -160 0
-166 -6113 6104 0
-167 -6113 6104 0
-168 -6113 6104 0
-169 -6113 6104 0
-170 -6113 6104 0
-6119 6110 442 0
6119 442 -6110 0
6111 -6120 443 0
6112 -6121 444 0
-6122 6113 445 0
-181 -6110 6120 0
-6119 -183 6113 0
-189 -6120 6111 0
6112 -189 -6120 0
-190 -6120 6111 0
-190 6113 -6120 0
-191 -6120 6111 0
-192 -6120 6111 0
-193 -6120 6111 0
-194 -6120 6111 0
-195 -6120 6111 0
-6121 6113 -196 0
-202 -6122 6113 0
-203 -6122 6113 0
-204 -6122 6113 0
-205 -6122 6113 0
-206 -6122 6113 0
6128 451 -6119 0
6120 -6129 452 0
-6130 453 6121 0
-6131 454 6122 0
-6128 -217 6120 0
-219 -6128 6122 0
6120 -6129 -225 0
6121 -6129 -225 0
-226 -6129 6120 0
6122 -226 -6129 0
-227 -6129 6120 0
-228 -6129 6120 0
-229 -6129 6120 0
-230 -6129 6120 0
-231 -6129 6120 0
-6130 -232 6122 0
-238 6122 -6131 0
-239 6122 -6131 0
-240 6122 -6131 0
-241 6122 -6131 0
-242 6122 -6131 0
6137 -6128 460 0
6129 461 -6138 0
6130 -6139 462 0
-6140 463 6131 0
6128 -253 6129 -6138 0
-255 -6137 6131 0
-261 6129 -6138 0
6130 -261 -6138 0
6129 -262 -6138 0
6131 -262 -6138 0
-263 6129 -6138 0
-264 6129 -6138 0
6129 -6138 -265 0
-266 6129 -6138 0
-267 6129 -6138 0
-6139 -268 6131 0
6131 -6140 -274 0
-275 6131 -6140 0
-276 6131 -6140 0
-277 6131 -6140 0
-278 6131 -6140 0
6146 -6137 469 0
470 6138 -6147 0
471 6139 -6148 0
6140 -6149 472 0
-289 6138 -6146 0
6137 -289 -6147 6138 0
-291 6140 -6146 0
6138 -6147 -297 0
6139 -6147 -297 0
-298 6138 -6147 0
6140 -298 -6147 0
-299 6138 -6147 0
-300 6138 -6147 0
-301 6138 -6147 0
-302 6138 -6147 0
-303 6138 -6147 0
-310 6140 -6149 0
-311 6140 -6149 0
-312 6140 -6149 0
-313 6140 -6149 0
-314 6140 -6149 0
6146 478 -6155 0
-6146 478 6155 0
6147 479 -6156 0
6148 -6157 480 0
6149 481 -6158 0
6146 6147 -325 -6156 0
6147 -333 -6156 0
6148 -333 -6156 0
-6147 -333 6157 0
6147 -334 -6156 0
6149 -334 -6156 0
-334 -6147 6158 0
-335 6147 -6156 0
-336 6147 -6156 0
-337 6147 -6156 0
-338 6147 -6156 0
-339 6147 -6156 0
-6155 487 6164 0
488 6156 -6165 0
490 6158 -6167 0
-361 6155 6156 -6165 0
-6157 -362 -6155 6164 0
-6155 -363 -6158 6164 0
6156 -369 -6165 0
6157 -369 -6165 0
6156 -370 -6165 0
6158 -370 -6165 0
-371 6156 -6165 0
-372 6156 -6165 0
-373 6156 -6165 0
-374 6156 -6165 0
-375 6156 -6165 0
6281 0
-6380 0
-6381 0
6284 0
6290 397 -6281 0
6293 400 -6284 0
6290 -3 -6281 -6284 0
6299 406 -6290 0
6302 409 -6293 0
6299 -39 -6293 -6290 0
6302 -39 -6290 0
6308 415 -6299 0
6311 -6302 418 0
6308 -75 -6302 -6299 0
6317 -6308 424 0
6320 427 -6311 0
-111 6317 -6311 -6308 0
6326 -6317 433 0
6329 -6320 436 0
6326 -147 -6317 -6320 0
6335 442 -6326 0
6338 -6329 445 0
6335 -183 -6329 -6326 0
6344 451 -6335 0
6347 -6338 454 0
-219 6344 -6335 -6338 0
6353 -6344 460 0
6356 -6347 463 0
-255 6353 -6344 -6347 0
6362 -6353 469 0
6362 -291 -6353 -6356 0
-6362 478 6371 0
-6371 487 6380 0
-361 -6371 6381 0
6605 0
-6704 0
-6606 0
6705 0
6608 0
6614 397 -6605 0
6617 400 -6608 0
6614 -3 -6605 -6608 0
-6615 -10 6606 0
6623 406 -6614 0
-6624 407 6615 0
6626 409 -6617 0
6623 -39 -6617 -6614 0
6632 415 -6623 0
-6633 6624 416 0
6635 -6626 418 0
6632 -75 -6623 -6626 0
6641 -6632 424 0
-6642 6633 425 0
6644 427 -6635 0
-111 6641 -6635 -6632 0
-117 -6642 6633 0
-6642 6633 -118 0
-119 -6642 6633 0
-120 -6642 6633 0
-121 -6642 6633 0
-122 -6642 6633 0
-123 -6642 6633 0
6650 -6641 433 0
-6651 434 6642 0
6653 -6644 436 0
6650 -147 -6641 -6644 0
-153 6642 -6651 0
-154 6642 -6651 0
-155 6642 -6651 0
-156 6642 -6651 0
-157 6642 -6651 0
-158 6642 -6651 0
-159 6642 -6651 0
6659 442 -6650 0
-6660 6651 443 0
6662 -6653 445 0
6659 -183 -6653 -6650 0
6668 451 -6659 0
6660 -6669 452 0
6671 -6662 454 0
6668 -219 -6659 -6662 0
6677 -6668 460 0
461 6669 -6678 0
6680 -6671 463 0
-261 6669 -6678 0
-262 6669 -6678 0
-263 6669 -6678 0
-264 6669 -6678 0
-265 6669 -6678 0
-266 6669 -6678 0
-267 6669 -6678 0
6686 -6677 469 0
470 -6687 6678 0
-297 6678 -6687 0
-298 6678 -6687 0
-299 6678 -6687 0
-300 6678 -6687 0
-301 6678 -6687 0
-302 6678 -6687 0
-303 6678 -6687 0
479 6687 -6696 0
-333 6687 -6696 0
-334 6687 -6696 0
-335 6687 -6696 0
-336 6687 -6696 0
-337 6687 -6696 0
-338 6687 -6696 0
-339 6687 -6696 0
-6695 487 6704 0
6696 488 -6705 0
6696 -369 -6705 0
6696 -370 -6705 0
6696 -371 -6705 0
6696 -372 -6705 0
6696 -373 -6705 0
6696 -374 -6705 0
6696 -375 -6705 0
-6713 0
6714 0
6813 0
6715 0
6716 0
-6722 397 6713 0
-6731 406 6722 0
-6740 415 6731 0
-6749 6740 424 0
-6758 6749 433 0
-6767 442 6758 0
-6776 451 6767 0
-6785 6776 460 0
-6794 6785 469 0
-6803 478 6794 0
-325 6794 -6803 0
-326 -6803 6794 0
-327 -6803 6794 0
-328 -6803 6794 0
-329 -6803 6794 0
-330 -6803 6794 0
-331 -6803 6794 0
-332 -6803 6794 0
6804 -369 -6813 0
6805 -369 -6813 0
6804 -370 -6813 0
6806 -370 -6813 0
-361 3995 -8543 3996 0
3995 -8543 -362 3997 0
-3998 8543 -382 0
-3998 8543 -383 0
-3998 8543 -384 0
8543 -3998 -385 0
8543 -3998 -386 0
-1 9726 5957 0
-2 9726 5957 0
9726 -3 5960 0
9726 -4 5957 0
-5 9726 5957 0
-6 9726 5957 0
9726 -7 5957 0
9726 -8 5957 0
-9 -9726 -5958 -5959 0
9726 -10 5960 0
-11 -9726 -5958 -5961 0
-12 -9726 -5958 -5962 0
-13 -9726 -5958 -5963 0
-14 -9726 -5958 -5964 0
-15 -9726 -5958 -5965 0
-16 9726 5960 0
-17 -9726 -5959 -5961 0
-18 -9726 -5959 -5962 0
-19 -9726 -5959 -5963 0
-20 -9726 -5959 -5964 0
-21 -9726 -5959 -5965 0
-22 9726 5960 0
-23 9726 5960 0
-24 9726 5960 0
-25 9726 5960 0
-26 9726 5960 0
-27 -9726 -5961 -5962 0
-28 -9726 -5961 -5963 0
-29 -9726 -5961 -5964 0
-30 -9726 -5961 -5965 0
-31 -9726 -5962 -5963 0
-32 -9726 -5962 -5964 0
-33 -9726 -5962 -5965 0
-34 -9726 -5963 -5964 0
-35 -9726 -5963 -5965 0
-36 -9726 -5964 -5965 0
-37 9727 5966 0
-38 9727 5966 0
-39 9727 5966 0
-40 9727 5966 0
-41 9727 5966 0
-42 9727 5966 0
-43 9727 5966 0
-44 9727 5966 0
-45 9727 5967 0
-45 9727 5968 0
-46 9727 5967 0
-46 9727 5969 0
-47 9727 5967 0
-48 9727 5967 0
-49 9727 5967 0
-50 9727 5967 0
-51 9727 5967 0
9727 -52 5968 0
9727 -52 5969 0
-53 9727 5968 0
-54 9727 5968 0
-55 9727 5968 0
-56 9727 5968 0
-57 9727 5968 0
-58 9727 5969 0
-59 9727 5969 0
-60 9727 5969 0
-61 9727 5969 0
-62 9727 5969 0
-73 9728 5975 0
-73 5976 9728 0
-74 9728 5975 0
-74 9728 5977 0
-75 9728 5975 0
-75 5978 9728 0
-76 9728 5975 0
-77 9728 5975 0
-78 9728 5975 0
-79 9728 5975 0
-80 9728 5975 0
-81 5976 9728 0
-81 9728 5977 0
-82 5976 9728 0
-82 9728 5978 0
-83 5976 9728 0
-84 5976 9728 0
-85 5976 9728 0
-86 5976 9728 0
-87 5976 9728 0
-88 9728 5977 0
-88 9728 5978 0
-89 9728 5977 0
-90 9728 5977 0
-91 9728 5977 0
-92 9728 5977 0
-93 9728 5977 0
-94 9728 5978 0
-95 9728 5978 0
-96 9728 5978 0
-97 9728 5978 0
-98 9728 5978 0
-109 5984 9729 0
-109 5985 9729 0
-110 5984 9729 0
5986 -110 9729 0
-111 5984 9729 0
-111 5987 9729 0
-112 5984 9729 0
-113 5984 9729 0
-114 5984 9729 0
-115 5984 9729 0
-116 5984 9729 0
-117 5985 9729 0
-117 5986 9729 0
5985 -118 9729 0
-118 5987 9729 0
-119 5985 9729 0
-120 5985 9729 0
-121 5985 9729 0
-122 5985 9729 0
-123 5985 9729 0
-124 5986 9729 0
9729 -124 5987 0
-125 5986 9729 0
-126 5986 9729 0
-127 5986 9729 0
-128 5986 9729 0
-129 5986 9729 0
-130 5987 9729 0
-131 5987 9729 0
-132 5987 9729 0
-133 5987 9729 0
-134 5987 9729 0
-145 5993 9730 0
-145 9730 5994 0
-146 5993 9730 0
-146 5995 9730 0
-147 5993 9730 0
-147 9730 5996 0
-148 5993 9730 0
-149 5993 9730 0
-150 5993 9730 0
-151 5993 9730 0
-152 5993 9730 0
-153 9730 5994 0
-153 5995 9730 0
-154 9730 5994 0
-154 9730 5996 0
-155 9730 5994 0
-156 9730 5994 0
-157 9730 5994 0
9730 5994 -158 0
-159 9730 5994 0
5995 9730 -160 0
9730 5996 -160 0
-161 5995 9730 0
-162 5995 9730 0
-163 5995 9730 0
-164 5995 9730 0
-165 5995 9730 0
-166 9730 5996 0
-167 9730 5996 0
-168 9730 5996 0
9730 -169 5996 0
-170 9730 5996 0
-181 6002 9731 0
-181 9731 6003 0
-182 6002 9731 0
-182 9731 6004 0
-183 6002 9731 0
-183 6005 9731 0
-184 6002 9731 0
-185 6002 9731 0
-186 6002 9731 0
-187 6002 9731 0
-188 6002 9731 0
-189 9731 6003 0
-189 9731 6004 0
-190 9731 6003 0
-190 6005 9731 0
-191 9731 6003 0
6006 -191 9731 0
-192 9731 6003 0
6007 -192 9731 0
-193 9731 6003 0
6008 -193 9731 0
-194 9731 6003 0
6009 -194 9731 0
-195 9731 6003 0
6010 -195 9731 0
9731 6004 -196 0
9731 -196 6005 0
-197 9731 6004 0
-198 9731 6004 0
-199 9731 6004 0
-200 9731 6004 0
-201 9731 6004 0
-202 6005 9731 0
-203 6005 9731 0
-204 6005 9731 0
-205 6005 9731 0
-206 6005 9731 0
-217 6011 9732 0
-217 6012 9732 0
-218 6011 9732 0
-218 6013 9732 0
-219 6011 9732 0
-220 6011 9732 0
-221 6011 9732 0
-222 6011 9732 0
-223 6011 9732 0
-224 6011 9732 0
6012 -225 9732 0
6013 -225 9732 0
-226 6012 9732 0
-226 6014 9732 0
-227 6012 9732 0
-228 6012 9732 0
-229 6012 9732 0
-230 6012 9732 0
-231 6012 9732 0
-232 6013 9732 0
-232 6014 9732 0
-233 6013 9732 0
-234 6013 9732 0
-235 6013 9732 0
-236 6013 9732 0
-237 6013 9732 0
-238 6014 9732 0
-239 6014 9732 0
-240 6014 9732 0
-241 6014 9732 0
-242 6014 9732 0
-253 6020 9733 0
-253 9733 6021 0
-254 6020 9733 0
-254 6022 9733 0
-255 6020 9733 0
-256 6020 9733 0
-257 6020 9733 0
-258 6020 9733 0
-259 6020 9733 0
-260 6020 9733 0
-261 9733 6021 0
-261 6022 9733 0
-262 9733 6021 0
6023 -262 9733 0
-263 9733 6021 0
6024 -263 9733 0
-264 9733 6021 0
6025 -264 9733 0
9733 6021 -265 0
6026 9733 -265 0
-266 9733 6021 0
6027 -266 9733 0
-267 9733 6021 0
6028 -267 9733 0
-268 6022 9733 0
-268 6023 9733 0
-269 6022 9733 0
-270 6022 9733 0
-271 6022 9733 0
-272 6022 9733 0
-273 6022 9733 0
9733 -274 6023 0
-275 9733 6023 0
-276 9733 6023 0
-277 9733 6023 0
-278 9733 6023 0
-289 6029 9734 0
-290 6029 9734 0
-290 6031 9734 0
-291 6029 9734 0
-291 6032 9734 0
-292 6029 9734 0
-293 6029 9734 0
-294 6029 9734 0
-295 6029 9734 0
-296 6029 9734 0
-296 6037 9734 0
9734 6030 -297 0
6031 9734 -297 0
-298 9734 6030 0
-298 9734 6032 0
-299 9734 6030 0
6033 -299 9734 0
9734 -300 6030 0
6034 9734 -300 0
-301 9734 6030 0
6035 -301 9734 0
-302 9734 6030 0
6036 -302 9734 0
-303 9734 6030 0
-303 6037 9734 0
9734 -304 6031 0
9734 6032 -304 0
-305 9734 6031 0
-306 9734 6031 0
-307 9734 6031 0
-308 9734 6031 0
-309 9734 6031 0
-309 6037 9734 0
-310 9734 6032 0
-311 9734 6032 0
-312 6032 9734 0
-313 9734 6032 0
-314 9734 6032 0
-314 6037 9734 0
-318 6037 9734 0
-321 6037 9734 0
-323 6037 9734 0
-324 6037 9734 0
9735 6038 -325 0
-326 9735 6038 0
6040 -326 9735 0
-327 6038 9735 0
-328 9735 6038 0
-329 9735 6038 0
-330 9735 6038 0
-331 9735 6038 0
-332 9735 6038 0
6039 9735 -333 0
6040 9735 -333 0
-334 6039 9735 0
-334 6041 9735 0
-335 6039 9735 0
-336 6039 9735 0
-337 6039 9735 0
-338 6039 9735 0
-339 6039 9735 0
-340 6040 9735 0
-340 6041 9735 0
-341 6040 9735 0
-342 6040 9735 0
-343 6040 9735 0
-344 6040 9735 0
-345 6040 9735 0
-346 6041 9735 0
-347 6041 9735 0
-348 6041 9735 0
-349 6041 9735 0
-350 6041 9735 0
-361 9736 6047 0
-361 6048 9736 0
6047 9736 -362 0
9736 6049 -362 0
-363 6047 9736 0
-364 6047 9736 0
-365 6047 9736 0
-366 6047 9736 0
-367 6047 9736 0
-368 6047 9736 0
-369 6048 9736 0
-369 9736 6049 0
6048 9736 -370 0
9736 6050 -370 0
6048 9736 -371 0
6051 9736 -371 0
6048 9736 -372 0
6052 9736 -372 0
6048 9736 -373 0
6053 9736 -373 0
9736 6048 -374 0
6054 9736 -374 0
6048 9736 -375 0
6055 9736 -375 0
-9736 -376 -6050 -6049 0
-9736 -381 -6055 -6049 0
9737 -9726 0
9738 -9737 0
-9727 9739 -9737 0
-9739 9740 0
-9739 -9728 0
-9727 9738 0
9741 -9738 0
-9728 9740 -9738 0
-9740 9742 0
-9740 -9729 0
-9728 9741 0
9743 -9741 0
-9729 9742 -9741 0
-9742 9744 0
-9742 -9730 0
9743 -9729 0
9745 -9743 0
-9730 9744 -9743 0
-9744 9746 0
-9744 -9731 0
9745 -9730 0
9747 -9745 0
-9731 9746 -9745 0
-9746 9748 0
-9746 -9732 0
9747 -9731 0
9749 -9747 0
9748 -9732 -9747 0
-9748 9750 0
-9748 -9733 0
9749 -9732 0
9751 -9749 0
9750 -9733 -9749 0
-9750 9752 0
-9750 -9734 0
9751 -9733 0
9753 -9751 0
9752 -9734 -9751 0
-9752 9754 0
-9752 -9735 0
9753 -9734 0
9754 -9735 -9753 0
-9736 -9754 0
9758 6092 -110 0
-112 9758 6092 0
-113 9758 6092 0
-9758 -6093 -118 -6095 0
-218 6119 9761 0
-220 6119 9761 0
-221 9761 6119 0
-222 9761 6119 0
-223 9761 6119 0
-9761 -226 -6120 -6122 0
6128 -254 9762 0
-256 6128 9762 0
-257 6128 9762 0
-258 6128 9762 0
-259 6128 9762 0
-9762 -262 -6129 -6131 0
-289 -9763 -6138 -6137 0
9763 -298 6140 0
9763 6140 -304 0
10008 -1 6713 0
10008 -2 6713 0
10008 -3 6713 0
10008 -4 6713 0
10008 -5 6713 0
10008 -6 6713 0
10008 -7 6713 0
10008 -8 6713 0
-10 -10008 -6714 -6716 0
-16 -10008 -6715 -6716 0
-37 10009 6722 0
-38 10009 6722 0
-39 10009 6722 0
-40 10009 6722 0
-41 10009 6722 0
-42 10009 6722 0
-43 10009 6722 0
-44 10009 6722 0
-73 10010 6731 0
-74 10010 6731 0
-75 10010 6731 0
-76 10010 6731 0
-77 10010 6731 0
-78 10010 6731 0
-79 10010 6731 0
-80 10010 6731 0
-109 6740 10011 0
-110 6740 10011 0
-111 6740 10011 0
-112 6740 10011 0
-113 6740 10011 0
-114 6740 10011 0
-115 6740 10011 0
-116 6740 10011 0
-145 6749 10012 0
-146 10012 6749 0
-147 10012 6749 0
-148 10012 6749 0
-149 10012 6749 0
-150 10012 6749 0
-151 10012 6749 0
-152 10012 6749 0
-181 6758 10013 0
-182 6758 10013 0
-183 6758 10013 0
-184 6758 10013 0
-185 6758 10013 0
-186 6758 10013 0
-187 6758 10013 0
-188 6758 10013 0
-217 6767 10014 0
-218 6767 10014 0
-219 6767 10014 0
-220 6767 10014 0
-221 6767 10014 0
-222 6767 10014 0
-223 6767 10014 0
-224 6767 10014 0
-253 6776 10015 0
-254 6776 10015 0
-255 6776 10015 0
-256 6776 10015 0
-257 6776 10015 0
-258 6776 10015 0
-259 6776 10015 0
-260 6776 10015 0
-289 6785 10016 0
-290 6785 10016 0
-291 6785 10016 0
-292 6785 10016 0
-293 6785 10016 0
-294 6785 10016 0
-295 6785 10016 0
-296 6785 10016 0
10017 -325 6794 0
-361 6803 10018 0
6803 -362 10018 0
-363 6803 10018 0
-364 6803 10018 0
-365 6803 10018 0
-366 6803 10018 0
-367 6803 10018 0
-368 6803 10018 0
-6805 -10018 -369 -6804 0
-10018 -6806 -370 -6804 0
10019 -10008 0
10020 -10019 0
-10009 10020 0
10023 -10020 0
-10010 10023 0
10025 -10023 0
-10011 10025 0
10027 -10025 0
-10012 10027 0
10029 -10027 0
-10013 10029 0
10031 -10029 0
-10014 10031 0
10033 -10031 0
-10015 10033 0
10035 -10033 0
-10016 10035 0
10036 -10017 -10035 0
-10036 -10018 0
