p cnf 10783 2396
520 -25 0
-26 -520 0
-397 5 2 3 4 7 1 8 6 0
1 9 -398 13 14 11 10 12 15 0
2 9 17 21 19 16 -399 18 20 0
3 24 26 25 16 22 10 23 -400 0
4 27 29 22 11 28 17 -401 30 0
-402 5 31 33 32 18 27 23 12 0
-36 404 0
7 -404 25 36 14 29 34 32 20 0
8 -405 33 21 30 36 26 35 15 0
-51 545 0
-545 546 0
-52 546 0
-546 547 0
-53 547 0
-547 548 0
-54 548 0
-548 549 0
-55 549 0
-549 550 0
-56 550 0
-550 551 0
-57 551 0
-551 552 0
-58 552 0
-552 553 0
-59 553 0
-553 554 0
-60 554 0
-554 555 0
-61 555 0
-555 556 0
-62 -555 0
-62 556 0
-556 557 0
-557 558 0
-64 558 0
-558 559 0
-558 -65 0
-65 559 0
-559 560 0
-559 -66 0
-66 560 0
-560 561 0
-561 562 0
-68 -561 0
-68 562 0
-562 563 0
-69 -562 0
-563 564 0
-563 -70 0
-70 564 0
-564 565 0
-564 -71 0
-565 -72 0
-406 39 38 37 40 41 42 43 44 0
45 46 -407 37 47 48 49 50 51 0
-408 52 38 45 53 54 55 56 57 0
-409 52 46 39 58 59 60 61 62 0
-410 65 47 53 40 63 64 58 66 0
-411 67 48 63 41 59 54 68 69 0
-65 413 0
413 -72 0
72 65 -413 68 50 70 43 56 61 0
71 72 51 -414 44 66 57 62 69 0
585 -92 0
-93 -585 0
-97 590 0
-590 -98 0
594 -101 0
-102 -594 0
597 -104 0
-105 -597 0
598 -105 0
-106 -598 0
599 -106 0
-107 -599 0
-415 76 74 75 73 77 78 79 80 0
83 -419 76 100 89 94 99 101 102 0
-108 422 0
-422 92 108 101 106 104 97 79 86 0
-423 98 80 105 108 93 102 107 87 0
-115 607 0
-607 -116 0
-424 110 109 111 112 113 114 115 116 0
-428 119 112 125 130 135 136 137 138 0
-431 128 133 144 142 137 122 115 140 0
-432 144 116 123 134 138 141 143 129 0
-151 642 0
-642 643 0
-642 -152 0
-152 643 0
-643 644 0
-644 645 0
-645 646 0
-646 647 0
-647 648 0
-648 649 0
-648 -158 0
-158 649 0
-649 650 0
-159 -649 0
-159 650 0
-650 651 0
-651 652 0
-652 653 0
-653 654 0
-654 655 0
-654 -164 0
-164 655 0
-655 656 0
-655 -165 0
-165 656 0
-656 657 0
-657 658 0
-658 659 0
-659 660 0
-659 -169 0
660 -169 0
-660 661 0
-170 -660 0
-170 661 0
-661 662 0
-662 663 0
664 -663 0
-663 -173 0
664 -173 0
665 -664 0
-174 -664 0
-174 665 0
666 -665 0
667 -666 0
-176 -666 0
-176 667 0
668 -667 0
-177 -667 0
668 -177 0
669 -668 0
-178 -668 0
669 -178 0
-179 -669 0
670 -179 0
-180 -670 0
-433 147 146 145 148 149 150 151 152 0
-437 155 148 161 166 171 172 173 174 0
-180 440 0
-440 158 173 151 169 164 178 180 176 0
441 -165 0
-180 441 0
-441 165 152 159 174 177 179 170 180 0
-187 677 0
-677 678 0
-188 -677 0
-678 679 0
-679 680 0
-680 681 0
-681 682 0
-682 683 0
-683 684 0
-684 685 0
-684 -195 0
686 -685 0
687 -686 0
688 -687 0
689 -688 0
690 -689 0
691 -690 0
-201 -690 0
692 -691 0
693 -692 0
694 -693 0
695 -694 0
696 -695 0
-206 -695 0
697 -696 0
698 -697 0
699 -698 0
700 -699 0
-210 -699 0
701 -700 0
702 -701 0
703 -702 0
-213 -702 0
704 -703 0
-215 -704 0
-442 183 182 181 184 185 186 187 188 0
-446 191 184 197 202 207 208 209 210 0
-187 449 0
-209 449 0
-216 449 0
205 -449 187 216 214 200 209 212 194 0
-188 450 0
-201 450 0
-216 450 0
195 -450 188 201 206 210 213 215 216 0
-223 712 0
-712 713 0
-713 714 0
-714 715 0
-715 716 0
-716 717 0
-717 718 0
-718 719 0
-230 719 0
-719 720 0
-720 721 0
-721 722 0
-722 723 0
-723 724 0
-724 725 0
-236 725 0
-725 726 0
-725 -237 0
-726 727 0
-727 728 0
-728 729 0
-729 730 0
-241 730 0
-730 731 0
-731 732 0
-732 733 0
-733 734 0
734 -245 0
735 -734 0
736 -735 0
737 -736 0
-248 737 0
-249 -737 0
738 -249 0
-250 -738 0
-451 217 218 219 220 221 222 223 224 0
-455 227 220 233 238 243 244 245 246 0
-245 458 0
458 -252 0
-458 241 252 223 250 245 236 248 230 0
459 -237 0
459 -252 0
-459 249 224 246 242 251 237 231 252 0
747 -259 0
748 -747 0
-260 -747 0
748 -260 0
749 -748 0
750 -749 0
751 -750 0
752 -751 0
753 -752 0
754 -753 0
-266 -753 0
-266 754 0
755 -754 0
-267 -754 0
-267 755 0
756 -755 0
757 -756 0
758 -757 0
759 -758 0
760 -759 0
-272 -759 0
-272 760 0
761 -760 0
-273 -760 0
-273 761 0
762 -761 0
763 -762 0
764 -763 0
765 -764 0
-277 -764 0
-277 765 0
766 -765 0
-278 -765 0
-278 766 0
767 -766 0
768 -767 0
769 -768 0
-281 -768 0
-281 769 0
770 -769 0
-282 -769 0
-282 770 0
771 -770 0
772 -771 0
-771 -284 0
-284 772 0
773 -772 0
-285 -772 0
-285 773 0
774 -773 0
-286 -773 0
-286 774 0
-287 -774 0
-460 253 260 255 256 257 258 259 254 0
467 -288 0
-467 288 259 284 286 277 281 266 272 0
468 -260 0
468 -288 0
-468 287 288 260 267 282 285 278 273 0
782 -295 0
783 -782 0
-296 -782 0
-296 783 0
784 -783 0
785 -784 0
786 -785 0
787 -786 0
788 -787 0
789 -788 0
-788 -302 0
789 -302 0
790 -789 0
-303 -789 0
-303 790 0
791 -790 0
792 -791 0
793 -792 0
794 -793 0
795 -794 0
-308 -794 0
795 -308 0
796 -795 0
-309 -795 0
-309 796 0
797 -796 0
798 -797 0
799 -798 0
800 -799 0
-799 -313 0
800 -313 0
801 -800 0
-314 -800 0
-314 801 0
802 -801 0
803 -802 0
804 -803 0
-803 -317 0
804 -317 0
805 -804 0
-318 -804 0
-318 805 0
806 -805 0
807 -806 0
-806 -320 0
807 -320 0
808 -807 0
-321 -807 0
-321 808 0
809 -808 0
-322 -808 0
-322 809 0
-323 -809 0
-469 289 290 291 292 293 294 295 296 0
-476 324 295 308 322 313 302 317 320 0
-477 324 323 318 296 303 321 314 309 0
817 -331 0
-332 -817 0
824 -338 0
-824 825 0
-339 -824 0
-825 826 0
-826 827 0
-827 828 0
-828 829 0
-829 830 0
-344 830 0
-830 831 0
-345 -830 0
-831 832 0
-832 833 0
-833 834 0
-834 835 0
835 -349 0
836 -835 0
-350 -835 0
-350 836 0
837 -836 0
838 -837 0
839 -838 0
-838 -353 0
839 -353 0
840 -839 0
-354 -839 0
-354 840 0
841 -840 0
842 -841 0
-841 -356 0
842 -356 0
843 -842 0
844 -843 0
-843 -358 0
844 -358 0
-359 -844 0
-478 325 326 327 328 329 330 331 332 0
344 349 -485 331 360 358 353 356 338 0
-486 359 360 354 332 350 357 339 345 0
-363 848 0
-848 849 0
-849 850 0
-365 850 0
-850 851 0
-366 851 0
-851 852 0
852 -367 0
-852 853 0
-368 -852 0
-368 853 0
-853 854 0
-854 855 0
-370 855 0
-855 856 0
-856 857 0
-372 857 0
-857 858 0
-373 858 0
-858 859 0
-858 -374 0
859 -374 0
-859 860 0
-375 -859 0
-375 860 0
-860 861 0
-376 861 0
-861 862 0
-862 863 0
-378 863 0
-863 864 0
-379 864 0
-864 865 0
-864 -380 0
865 -380 0
-865 866 0
-381 -865 0
-866 867 0
-867 868 0
-383 868 0
-868 869 0
-384 869 0
-869 870 0
-870 871 0
-386 -870 0
-386 871 0
-871 872 0
872 -387 0
-872 873 0
-388 873 0
-873 874 0
875 -874 0
-874 -390 0
875 -390 0
876 -875 0
-391 876 0
877 -876 0
878 -877 0
-393 -877 0
-393 878 0
879 -878 0
880 -879 0
-395 -879 0
880 -395 0
-880 -396 0
-487 364 363 361 362 365 366 367 368 0
-490 382 385 386 370 376 363 383 384 0
389 390 364 -491 377 382 387 371 388 0
-492 392 387 365 383 378 372 393 391 0
-493 394 395 391 373 379 384 388 366 0
-389 494 0
-394 494 0
-396 494 0
-494 385 396 389 392 367 394 380 374 0
396 -495 381 368 375 393 386 390 395 0
-989 0
-990 0
-991 0
-992 0
-994 0
-996 0
-1095 0
-997 0
1096 0
397 -998 989 0
398 -999 990 0
-1000 399 991 0
-1001 400 992 0
402 -1003 994 0
-1005 404 996 0
-1006 405 997 0
-1000 -9 990 991 0
-1001 -10 990 992 0
-16 -1000 991 0
-1001 -16 991 992 0
-17 -1000 991 0
-18 -1000 991 0
-19 -1000 991 0
-20 -1000 991 0
-21 -1000 991 0
-1001 -23 992 0
-24 -1001 992 0
-1005 -25 992 996 0
-33 -1006 994 997 0
-36 -1005 996 0
-36 -1006 996 997 0
-1007 406 998 0
-1009 408 1000 0
-1010 409 1001 0
-1012 411 1003 0
-1014 413 1005 0
-1015 414 1006 0
-38 -1009 998 1000 0
-39 -1010 998 1001 0
-41 -1012 998 1003 0
-44 -1015 998 1006 0
-45 -1009 999 1000 0
-46 -1010 999 1001 0
-48 -1012 999 1003 0
-51 -1015 999 1006 0
-52 -1009 1000 0
-52 -1010 1000 1001 0
-53 -1009 1000 0
-54 -1009 1000 0
-54 -1012 1000 1003 0
-55 -1009 1000 0
-57 -1015 1000 1006 0
-59 -1010 1001 0
-59 -1012 1001 1003 0
-60 -1010 1001 0
-62 -1015 1001 1006 0
-67 -1012 1003 0
-69 -1015 1003 1006 0
-1014 -72 1005 0
-1015 -72 1006 1005 0
-1023 422 1014 0
1023 -1014 422 0
-1024 1015 423 0
-80 -1024 1007 1015 0
-1024 1009 -93 1015 0
1010 -1024 -98 1015 0
1012 -1024 -105 1015 0
-1023 -108 1014 0
-1024 -108 1014 1015 0
-1032 431 1023 0
-1023 1032 431 0
-1033 1024 432 0
-144 1023 -1032 0
-144 -1033 1024 1023 0
-1041 440 1032 0
1041 -1032 440 0
-1042 1033 441 0
-151 1041 -1032 0
-158 1041 -1032 0
-164 1041 -1032 0
-169 1041 -1032 0
-173 1041 -1032 0
-176 1041 -1032 0
-178 1041 -1032 0
-180 1032 -1041 0
-1042 -180 1033 1032 0
-1050 449 1041 0
449 1050 -1041 0
-1051 1042 450 0
-187 -1041 1050 0
-194 1050 -1041 0
-200 1050 -1041 0
-205 1050 -1041 0
-209 1050 -1041 0
-212 1050 -1041 0
-214 1050 -1041 0
-216 1042 1041 -1051 0
458 1050 -1059 0
-1050 1059 458 0
-1060 1051 459 0
-252 1050 -1059 0
-1060 -252 1051 1050 0
1059 467 -1068 0
467 1068 -1059 0
-1069 1060 468 0
-259 1068 -1059 0
-1069 -260 1052 1060 0
-266 -1059 1068 0
-1054 -272 1068 0
-272 -1059 1068 0
-277 -1059 1068 0
-281 -1059 1068 0
-284 -1059 1068 0
-286 1068 -1059 0
1059 -288 -1068 0
1059 -288 1060 -1069 0
476 -1077 1068 0
476 -1068 1077 0
-1078 1069 477 0
-1068 1077 -295 0
-1068 1077 -302 0
-1068 1077 -308 0
-1068 1077 -313 0
-1068 1077 -317 0
-1068 1077 -320 0
-322 -1068 1077 0
-324 -1077 1068 0
-1078 1069 -324 1068 0
485 -1077 1086 0
-1087 1078 486 0
-1077 -331 1086 0
-1071 -338 1086 0
-1077 -338 1086 0
-1077 -344 1086 0
-1077 -349 1086 0
1073 -350 -1087 1078 0
-1077 -353 1086 0
-1077 -356 1086 0
-1077 -358 1086 0
-360 1077 -1087 1078 0
494 -1086 1095 0
1087 495 -1096 0
-1097 0
-1098 0
-1099 0
-1100 0
-1101 0
-1102 0
1104 0
-1203 0
-1105 0
1204 0
397 -1106 1097 0
-1110 401 1101 0
-1111 402 1102 0
1113 404 -1104 0
-1114 405 1105 0
-1110 -11 1098 1101 0
-1111 -12 1098 1102 0
1113 -14 -1104 0
-17 -1110 1099 1101 0
-1111 -18 1099 1102 0
-20 1113 -1104 0
-22 -1110 1100 1101 0
-1111 -23 1100 1102 0
1113 -25 -1104 0
-27 -1110 1101 0
-1111 -27 1101 1102 0
-28 -1110 1101 0
-29 -1110 1101 0
-29 1113 -1104 0
-30 -1110 1101 0
-1111 -31 1102 0
-1111 -32 1102 0
-32 1113 -1104 0
-33 -1111 1102 0
-34 1113 -1104 0
1114 -36 -1104 0
-1119 410 1110 0
413 1122 -1113 0
414 -1123 1114 0
414 1123 -1114 0
-43 1122 -1113 0
-50 1122 -1113 0
-56 1122 -1113 0
-61 1122 -1113 0
-65 1122 -1113 0
-66 -1123 1110 1114 0
-68 1122 -1113 0
-70 1122 -1113 0
-1122 -72 1114 0
1123 -72 -1113 0
-1128 419 1119 0
1131 -1122 422 0
-1132 1123 423 0
1132 423 -1123 0
1131 -79 -1122 0
1131 -86 -1122 0
1131 -92 -1122 0
-1117 -93 1132 0
-97 1131 -1122 0
-1118 -98 1132 0
1131 -101 -1122 0
1131 -104 -1122 0
-1120 -105 1132 0
1131 -106 -1122 0
-108 1131 -1123 -1122 0
-108 1132 -1122 0
-1137 428 1128 0
1140 -1131 431 0
-1141 1132 432 0
1141 432 -1132 0
1140 -115 -1131 0
-1124 1141 -116 0
1140 -122 -1131 0
-128 1140 -1131 0
1140 -133 -1131 0
-137 1140 -1131 0
-140 1140 -1131 0
1140 -142 -1131 0
-144 -1140 1132 0
-1132 -144 1140 -1131 0
1141 -144 -1131 0
-1146 437 1137 0
1140 -1149 440 0
1149 -1140 440 0
-1150 1141 441 0
1150 441 -1141 0
-151 1149 -1140 0
-158 -1140 1149 0
1149 -164 -1140 0
1149 -1140 -169 0
1149 -1140 -173 0
-176 1149 -1140 0
1149 -178 -1140 0
-180 -1149 1141 0
1149 -1140 -1141 -180 0
-180 1150 -1140 0
446 1146 -1155 0
1149 -1158 449 0
1158 -1149 449 0
-1159 1150 450 0
1159 450 -1150 0
-187 -1149 1158 0
-194 -1149 1158 0
-200 -1149 1158 0
-205 -1149 1158 0
-209 -1149 1158 0
-212 -1149 1158 0
-1149 1158 -214 0
-1149 -216 -1150 1158 0
-216 -1149 1159 0
455 1155 -1164 0
1158 -1167 458 0
1167 -1158 458 0
-1168 1159 459 0
1168 459 -1159 0
-223 1167 -1158 0
-1151 -224 1168 0
-230 1167 -1158 0
-1152 -231 1168 0
-236 1167 -1158 0
-1153 -237 1168 0
1167 -241 -1158 0
-1154 -242 1168 0
1167 -1158 -245 0
-1155 -246 1168 0
-248 1167 -1158 0
-250 1167 -1158 0
-1157 -251 1168 0
-1159 -252 1167 -1158 0
-252 -1158 1168 0
-1176 1167 467 0
1176 -1167 467 0
-1177 1168 468 0
1177 468 -1168 0
1176 -1167 -259 0
-1160 -260 1177 0
-1161 -266 1176 0
-266 1176 -1167 0
-1161 -267 1177 0
-272 1176 -1167 0
-1162 -273 1177 0
1176 -1167 -277 0
-1164 1176 -281 0
1176 -281 -1167 0
1176 -284 -1167 0
1176 -1167 -286 0
1168 -1176 -288 0
-1167 -288 -1168 1176 0
-1167 1177 -288 0
1176 -1185 476 0
-1176 1185 476 0
1177 -1186 477 0
1186 477 -1177 0
-1176 1185 -295 0
-1169 -296 1186 0
1186 -296 -1177 0
-1176 1185 -302 0
-303 1186 -1177 0
-1176 1185 -308 0
1186 -309 -1177 0
-1176 1185 -313 0
-1172 -314 1186 0
1186 -314 -1177 0
-1176 1185 -317 0
1186 -318 -1177 0
-1176 1185 -320 0
1186 -321 -1177 0
-322 -1176 1185 0
1186 -323 -1177 0
-1185 1177 -324 0
1185 -324 -1177 -1176 0
1186 -1176 -324 0
-1185 485 1194 0
1186 486 -1195 0
1195 486 -1186 0
-1178 -331 1194 0
-1185 -331 1194 0
-1178 -332 1195 0
-332 1195 -1186 0
-1179 -338 1194 0
-1185 -338 1194 0
-339 1195 -1186 0
-1180 -344 1194 0
-1185 -344 1194 0
-345 1195 -1186 0
-1181 -349 1194 0
-1185 -349 1194 0
1195 -350 -1186 0
-1182 -353 1194 0
-1185 -353 1194 0
1195 -354 -1186 0
-1183 -356 1194 0
-1185 -356 1194 0
-357 1195 -1186 0
-1184 -358 1194 0
-1185 -358 1194 0
1195 -359 -1186 0
-360 -1185 -1186 1194 0
1195 -360 -1185 0
-1194 494 1203 0
495 1195 -1204 0
-1194 -367 1203 0
-1194 -374 1203 0
-1194 -380 1203 0
-385 -1194 1203 0
-389 -1194 1203 0
-392 -1194 1203 0
-394 -1194 1203 0
-1195 -396 -1194 1203 0
-1205 0
-1206 0
-1207 0
-1208 0
-1209 0
-1211 0
1212 0
1311 0
-1213 0
1312 0
-1214 397 1205 0
-1215 398 1206 0
-1216 399 1207 0
400 -1217 1208 0
1221 404 -1212 0
-1222 405 1213 0
-1215 -9 1206 0
-1216 -9 1206 1207 0
-10 -1215 1206 0
-1215 -11 1206 0
-12 -1215 1206 0
-13 -1215 1206 0
-1215 -14 1206 0
-15 -1215 1206 0
-15 -1222 1206 1213 0
-1216 -16 1207 0
-1216 -17 1207 0
-1216 -18 1207 0
-1216 -19 1207 0
-1216 -20 1207 0
-21 -1216 1207 0
-21 -1222 1207 1213 0
1221 -25 -1212 0
-26 -1222 1208 1213 0
-30 -1222 1209 1213 0
-35 -1222 1211 1213 0
-1221 -36 1213 0
1222 -36 -1212 0
-1224 407 1215 0
413 -1230 1221 0
1230 413 -1221 0
414 -1231 1222 0
-43 1214 1221 -1230 0
-44 -1231 1214 1222 0
-50 -1230 1215 1221 0
-51 -1231 1222 1215 0
-57 -1231 1222 1216 0
-61 -1230 1217 1221 0
-1230 -72 1222 0
1231 -72 -1221 0
-1239 422 1230 0
-1240 1231 423 0
1224 -86 -1239 1230 0
-1239 -108 1231 0
1240 -108 -1230 0
-1248 431 1239 0
-1249 1240 432 0
-1248 -144 1239 0
-1248 -144 1240 0
-1257 440 1248 0
-1258 1249 441 0
-1257 -180 1248 0
-1257 -180 1249 0
-1266 449 1257 0
-1267 1258 450 0
1258 -216 -1266 0
1266 -1275 458 0
-1276 1267 459 0
-252 -1275 1267 0
1275 -1284 467 0
-1285 1276 468 0
-1284 1276 -288 0
1284 -1293 476 0
-1294 1285 477 0
1284 -324 -1293 0
1285 -324 -1293 0
485 1293 -1302 0
1294 -1303 486 0
-360 1293 -1302 0
-360 1294 -1302 0
494 1302 -1311 0
495 1303 -1312 0
-396 1303 -1311 0
-1314 0
-1315 0
-1316 0
-1317 0
-1318 0
-1319 0
-1320 0
-1419 0
1321 0
401 -1326 1317 0
-1329 404 1320 0
1330 405 -1321 0
-1329 -14 1314 1320 0
1330 -15 -1321 0
-1329 -20 1315 1320 0
1330 -21 -1321 0
-1329 -25 1316 1320 0
1330 -26 -1321 0
-1329 -29 1317 1320 0
1330 -30 -1321 0
-1329 -32 1318 1320 0
-33 1330 -1321 0
-1329 -34 1319 1320 0
-35 1330 -1321 0
-1329 -36 1320 0
1330 -36 -1321 0
-1335 410 1326 0
-1338 413 1329 0
1339 414 -1330 0
-44 1339 -1330 0
-1323 -50 1338 0
-51 1339 -1330 0
-57 1339 -1330 0
-62 1339 -1330 0
-1326 -65 1338 0
-66 1339 -1330 0
-1327 -68 1338 0
-69 1339 -1330 0
-1328 -70 1338 0
1339 -71 -1330 0
-1338 -72 1329 0
1339 -72 -1330 0
-1344 419 1335 0
-1347 422 1338 0
-1338 1347 422 0
1348 -1339 423 0
-1331 -79 1347 0
-80 1348 -1339 0
-1332 -86 1347 0
-87 1348 -1339 0
-1333 -92 1347 0
1348 -93 -1339 0
-1334 -97 1347 0
1348 -98 -1339 0
-1335 -101 1347 0
-102 1348 -1339 0
-1336 -104 1347 0
1348 -105 -1339 0
-1337 -106 1347 0
-107 1348 -1339 0
-1347 -108 1338 0
-108 -1339 1347 -1338 0
-108 1348 -1339 0
-1353 428 1344 0
-1356 431 1347 0
-1347 1356 431 0
1357 -1348 432 0
-1340 -115 1356 0
1357 -116 -1348 0
-1341 -122 1356 0
-123 1357 -1348 0
-1342 -128 1356 0
1357 -129 -1348 0
-1343 -133 1356 0
-134 1357 -1348 0
-1344 -137 1356 0
-138 1357 -1348 0
-1345 -140 1356 0
-141 1357 -1348 0
-1346 -142 1356 0
-143 1357 -1348 0
-1356 -144 1347 0
-1347 -144 1356 -1348 0
1357 -144 -1348 0
-1362 437 1353 0
-1365 440 1356 0
-1356 1365 440 0
1366 -1357 441 0
-1365 -180 1356 0
-1356 1365 -180 -1357 0
1366 -180 -1357 0
-1371 446 1362 0
-1374 449 1365 0
-1365 1374 449 0
1375 -1366 450 0
-188 1375 -1366 0
-1359 -194 1374 0
1375 -1366 -195 0
-1360 -200 1374 0
-201 1375 -1366 0
-1361 -205 1374 0
1375 -206 -1366 0
-1362 -209 1374 0
-210 1375 -1366 0
-1363 -212 1374 0
-213 1375 -1366 0
-1364 1374 -214 0
-215 1375 -1366 0
-1374 -216 1365 0
-1365 -216 -1366 1374 0
1375 -216 -1366 0
-1380 455 1371 0
-1383 1374 458 0
-1374 1383 458 0
1384 -1375 459 0
-1367 -223 1383 0
1384 -224 -1375 0
-1368 -230 1383 0
1384 -231 -1375 0
-1369 -236 1383 0
-1370 -241 1383 0
1384 -242 -1375 0
-1371 1383 -245 0
1384 -246 -1375 0
-248 -1372 1383 0
1384 -249 -1375 0
-1373 -250 1383 0
1384 -251 -1375 0
-1383 1374 -252 0
-1374 -252 -1375 1383 0
1384 -252 -1375 0
-1392 1383 467 0
-1383 1392 467 0
1393 -1384 468 0
-1376 1392 -259 0
1393 -260 -1384 0
-1377 -266 1392 0
-1378 -272 1392 0
-1379 -277 1392 0
-1392 1380 -281 1383 0
-1381 -284 1392 0
-1382 -286 1392 0
-1392 1383 -288 0
-1383 -288 -1384 1392 0
1393 -1384 -288 0
-1401 1392 476 0
-1392 1401 476 0
1402 -1393 477 0
-1392 1401 -1393 -324 0
-1401 485 1410 0
1411 -1402 486 0
-1394 -331 1410 0
1411 -332 -1402 0
-1395 -338 1410 0
-339 1411 -1402 0
-1396 -344 1410 0
-345 1411 -1402 0
1411 -1402 -350 0
1411 -1402 -354 0
-357 1411 -1402 0
1411 -1402 -359 0
-1401 -360 -1402 1410 0
494 -1410 1419 0
-1411 -396 -1410 1419 0
-1421 0
-1422 0
-1423 0
-1425 0
-1426 0
-1427 0
-1428 0
1527 0
-1430 397 1421 0
-1432 399 1423 0
-1434 401 1425 0
402 -1435 1426 0
-1437 404 1428 0
-1432 -9 1422 1423 0
-1434 -11 1422 1425 0
-1437 -14 1422 1428 0
-1432 -16 1423 0
-1432 -17 1423 0
-1434 -17 1423 1425 0
-18 -1432 1423 0
-19 -1432 1423 0
-1432 -20 1423 0
-1437 -20 1423 1428 0
-1432 -21 1423 0
-1434 -27 1425 0
-28 -1434 1425 0
-29 -1437 1425 1428 0
-32 -1437 1426 1428 0
-34 -1437 1427 1428 0
-1437 -36 1428 0
-1439 406 1430 0
-1441 408 1432 0
-1446 413 1437 0
-43 -1446 1430 1437 0
-56 -1446 1437 1432 0
-65 -1446 1437 1434 0
-68 -1446 1435 1437 0
-1446 -72 1437 0
-1455 1446 422 0
-1455 -79 1439 1446 0
1441 -1455 -92 1446 0
-108 -1455 1446 0
-1464 1455 431 0
-144 -1464 1455 0
-1473 1464 440 0
-1473 -180 1464 0
-1482 1473 449 0
-216 -1482 1473 0
-1491 1482 458 0
1491 -1482 458 0
1482 -252 -1491 0
-1500 1491 467 0
-1500 1491 -288 0
1500 -1509 476 0
-1509 1500 -324 0
1509 485 -1518 0
-360 1509 -1518 0
1518 494 -1527 0
-396 1518 -1527 0
-1532 0
1533 0
-1536 0
1635 0
1537 0
1542 401 -1533 0
-1545 404 1536 0
1546 405 -1537 0
1546 -15 -1537 0
1546 -21 -1537 0
1542 -22 -1533 0
-1545 -25 1532 1536 0
1546 -26 -1537 0
1546 -30 -1533 0
1546 -33 -1537 0
-35 1546 -1537 0
1546 -36 -1537 0
1551 410 -1542 0
413 -1554 1545 0
1555 414 -1546 0
-44 1555 -1546 0
-51 1555 -1546 0
-57 1555 -1546 0
-62 1555 -1546 0
1555 -66 -1546 0
1555 -69 -1546 0
1555 -71 -1546 0
1555 -72 -1546 0
1560 419 -1551 0
-1563 1554 422 0
1564 -1555 423 0
-80 1564 -1555 0
-87 1564 -1555 0
1564 -93 -1555 0
1564 -98 -1555 0
-102 1564 -1555 0
1564 -105 -1555 0
-107 1564 -1555 0
-108 1564 -1555 0
1569 428 -1560 0
-1572 1563 431 0
1573 -1564 432 0
-116 -1564 1573 0
-123 1573 -1564 0
-129 1573 -1564 0
-134 1573 -1564 0
-138 1573 -1564 0
-141 1573 -1564 0
-143 1573 -1564 0
-144 -1572 1563 0
1573 -144 -1564 0
1578 437 -1569 0
-1581 1572 440 0
1582 -1573 441 0
1582 -152 -1573 0
1582 -159 -1573 0
1582 -165 -1573 0
1582 -170 -1573 0
1582 -174 -1573 0
1582 -177 -1573 0
1582 -179 -1573 0
-1581 -180 1572 0
1582 -180 -1573 0
1587 446 -1578 0
-1590 1581 449 0
1591 -1582 450 0
-216 1581 -1590 0
-1599 1590 458 0
1600 -1591 459 0
1590 -252 -1599 0
-1608 1599 467 0
1609 -1600 468 0
-1592 1608 -259 0
-1593 -266 1608 0
-1595 -277 1608 0
-1597 -284 1608 0
-1598 -286 1608 0
1599 -1608 -288 0
1609 -1600 -288 0
1608 -1617 476 0
1617 -1608 476 0
1618 -1609 477 0
-1617 1608 -324 0
1609 -1617 -324 0
1617 485 -1626 0
1627 -1618 486 0
-360 1617 -1626 0
1626 494 -1635 0
-396 1626 -1635 0
-396 1627 -1635 0
1742 0
-1644 0
1743 0
-1653 404 1644 0
-1653 -36 1644 0
-1662 413 1653 0
-1662 -72 1653 0
-1671 1662 422 0
-108 -1671 1662 0
-1680 1671 431 0
1671 -144 -1680 0
-1689 1680 440 0
-1689 -180 1680 0
-1698 1689 449 0
-216 1689 -1698 0
-1707 1698 458 0
1698 -252 -1707 0
-1716 1707 467 0
-1716 1707 -288 0
1716 -1725 476 0
-1725 1716 -324 0
485 1725 -1734 0
1725 -358 -1733 0
-360 1725 -1734 0
493 1733 -1742 0
1734 494 -1743 0
1734 -394 -1742 0
-396 1734 -1743 0
1849 0
-1752 0
-1761 404 1752 0
-1761 -36 1752 0
-1770 413 1761 0
-1770 -72 1761 0
-1779 1770 422 0
-108 -1779 1770 0
-1788 1779 431 0
1779 -144 -1788 0
-1797 1788 440 0
-1797 -180 1788 0
-1806 1797 449 0
-1806 -216 1797 0
-1815 1806 458 0
-1815 -252 1806 0
-1824 1815 467 0
-1824 1815 -288 0
-1833 1824 476 0
-1833 1824 -324 0
1833 485 -1842 0
1833 -356 -1840 0
-360 1833 -1842 0
492 1840 -1849 0
-392 1842 -1849 0
2496 0
-2400 0
-2409 404 2400 0
-2409 -36 2400 0
-2418 413 2409 0
-2418 -72 2409 0
-2427 2418 422 0
-108 -2427 2418 0
-2436 2427 431 0
2427 -144 -2436 0
-2445 2436 440 0
-2445 -180 2436 0
-2454 2445 449 0
-2454 -216 2445 0
-2463 2454 458 0
-2463 -252 2454 0
-2472 2463 467 0
-2472 2463 -288 0
-2481 2472 476 0
-2481 2472 -324 0
2481 -353 -2487 0
-360 2481 -2490 0
491 2487 -2496 0
-389 2490 -2496 0
2819 0
2820 0
-2724 0
-2733 404 2724 0
-2733 -36 2724 0
-2742 413 2733 0
-2742 -72 2733 0
-2751 2742 422 0
-108 -2751 2742 0
-2760 2751 431 0
2751 -144 -2760 0
-2769 2760 440 0
-2769 -180 2760 0
-2778 2769 449 0
-2778 -216 2769 0
-2787 2778 458 0
-2787 -252 2778 0
-2796 2787 467 0
-2796 2787 -288 0
2796 -2805 476 0
-2805 2796 -324 0
485 2805 -2814 0
2805 -349 -2810 0
-360 2805 -2814 0
490 2810 -2819 0
2814 -385 -2819 0
-389 2814 -2820 0
-2826 0
-2827 0
-2828 0
-2829 0
-2830 0
-2831 0
2832 0
2931 0
2833 0
2932 0
2841 404 -2832 0
2842 405 -2833 0
2841 -14 -2832 0
2842 -15 -2833 0
2841 -20 -2832 0
2842 -21 -2833 0
2841 -25 -2832 0
2842 -26 -2833 0
2841 -29 -2832 0
2842 -30 -2833 0
2841 -32 -2832 0
2842 -33 -2833 0
2841 -34 -2832 0
-35 2842 -2833 0
2841 -36 -2832 -2833 0
2842 -36 -2832 0
2850 413 -2841 0
414 2851 -2842 0
2850 -43 -2841 0
-44 2851 -2842 0
2850 -50 -2841 0
-51 2851 -2842 0
-56 2850 -2841 0
-57 2851 -2842 0
2850 -61 -2841 0
-62 2851 -2842 0
-65 2850 -2841 0
-66 2851 -2842 0
2850 -68 -2841 0
-69 2851 -2842 0
2850 -70 -2841 0
-71 2851 -2842 0
2850 -72 -2842 -2841 0
2851 -72 -2841 0
2850 422 -2859 0
2859 422 -2850 0
2860 423 -2851 0
-79 2859 -2850 0
-80 2860 -2851 0
-86 2859 -2850 0
-87 2860 -2851 0
-92 2859 -2850 0
2860 -93 -2851 0
-97 2859 -2850 0
2860 -98 -2851 0
-101 2859 -2850 0
-102 2860 -2851 0
-104 2859 -2850 0
2860 -105 -2851 0
-106 2859 -2850 0
-107 2860 -2851 0
-108 2859 -2851 -2850 0
-108 2860 -2851 0
2868 431 -2859 0
2869 432 -2860 0
2868 -115 -2859 0
2869 -116 -2860 0
2868 -122 -2859 0
-123 2869 -2860 0
2868 -128 -2859 0
-129 2869 -2860 0
-133 2868 -2859 0
2855 2859 -2868 -133 0
-134 2869 -2860 0
2868 -137 -2859 0
-138 2869 -2860 0
2868 -140 -2859 0
-141 2869 -2860 0
2868 -142 -2859 0
-143 2869 -2860 0
2868 -144 -2859 -2860 0
2869 -144 -2860 0
2877 440 -2868 0
2869 -2878 441 0
441 -2869 2878 0
-151 2877 -2868 0
-152 -2869 2878 0
-158 2877 -2868 0
-159 -2869 2878 0
-164 2877 -2868 0
-165 -2869 2878 0
-169 2877 -2868 0
-170 -2869 2878 0
2877 -173 -2868 0
-174 -2869 2878 0
-176 2877 -2868 0
-177 -2869 2878 0
-178 2877 -2868 0
-179 -2869 2878 0
2877 -180 -2869 -2868 0
-180 -2869 2878 0
2886 449 -2877 0
450 2878 -2887 0
2887 450 -2878 0
-187 2886 -2877 0
-188 2887 -2878 0
-194 2886 -2877 0
-195 2887 -2878 0
2871 -195 -2887 2878 0
-200 2886 -2877 0
-201 2887 -2878 0
-205 2886 -2877 0
-206 -2878 2887 0
-209 -2877 2886 0
-210 -2878 2887 0
-212 2886 -2877 0
-213 -2878 2887 0
-214 -2877 2886 0
-215 2887 -2878 0
-216 2886 -2878 -2877 0
-216 2887 -2878 0
458 -2886 2895 0
2896 459 -2887 0
-223 -2886 2895 0
-224 2896 -2887 0
-230 -2886 2895 0
-231 2896 -2887 0
-236 -2886 2895 0
-237 2896 -2887 0
-241 -2886 2895 0
-242 2896 -2887 0
-245 -2886 2895 0
-246 2896 -2887 0
-248 -2886 2895 0
-249 2896 -2887 0
2884 2887 -2896 -249 0
-250 -2886 2895 0
-251 2896 -2887 0
-252 2895 -2886 -2887 0
2896 -252 -2887 0
467 -2895 2904 0
2905 468 -2896 0
-2895 -259 2904 0
-260 2905 -2896 0
-266 -2895 2904 0
-272 -2895 2904 0
-277 -2895 2904 0
-281 -2895 2904 0
-284 -2895 2904 0
-286 -2895 2904 0
-2904 2896 -288 0
-2896 -288 2904 -2895 0
2905 -2895 -288 0
2905 -288 -2896 0
476 -2913 2904 0
-2904 476 2913 0
2914 477 -2905 0
-295 -2904 2913 0
2897 -295 -2913 2904 0
2914 -296 -2905 0
-302 -2904 2913 0
2898 -302 -2913 2904 0
-303 2914 -2905 0
-308 -2904 2913 0
2899 -308 -2913 2904 0
2914 -309 -2905 0
-313 -2904 2913 0
2900 -313 -2913 2904 0
2914 -314 -2905 0
-317 -2904 2913 0
2901 -317 -2913 2904 0
2914 -318 -2905 0
-320 -2904 2913 0
2902 -320 -2913 2904 0
2914 -321 -2905 0
-322 -2904 2913 0
2903 -322 -2913 2904 0
2914 -323 -2905 0
-324 -2904 2913 -2905 0
2914 -324 -2904 0
485 2913 -2922 0
485 -2913 2922 0
486 -2914 2923 0
2906 -331 -2922 2913 0
-332 -2914 2923 0
2907 -338 -2922 2913 0
-339 -2914 2923 0
2908 -344 -2922 2913 0
-345 -2914 2923 0
2909 -349 -2922 2913 0
-350 -2914 2923 0
2910 -353 -2922 2913 0
-354 -2914 2923 0
2911 -356 -2922 2913 0
-357 -2914 2923 0
2912 -358 -2922 2913 0
-359 -2914 2923 0
-360 2913 -2922 0
2914 -360 -2922 0
-360 -2914 2922 -2913 0
2922 494 -2931 0
-367 2915 2922 -2931 0
-374 2916 2922 -2931 0
-380 2917 2922 -2931 0
-385 2918 2922 -2931 0
2919 -389 2922 -2931 0
-390 2919 2923 -2932 0
2920 -392 2922 -2931 0
-393 2920 2923 -2932 0
2921 -394 2922 -2931 0
-395 2921 2923 -2932 0
-396 2922 -2931 0
-3144 0
-3145 0
3147 0
491 -3135 3144 0
-3135 -364 3144 0
-3135 -371 3144 0
-3135 -377 3144 0
-3135 -382 3144 0
-3135 -387 3145 0
-396 3138 -3147 0
-396 3139 -3147 0
3581 0
-3680 0
3589 0
3590 397 -3581 0
-8 3590 -3581 -3589 0
3599 406 -3590 0
-3599 3608 415 0
-3608 3617 424 0
-3617 3626 433 0
-3626 3635 442 0
-3635 3644 451 0
-3644 3653 460 0
-3653 3662 469 0
-3662 3671 478 0
-3671 487 3680 0
3797 0
-3896 0
3798 0
3799 0
-1 3806 -3797 -3798 0
3806 -2 -3797 -3799 0
-3806 3815 406 0
-3815 3824 415 0
-3824 3833 424 0
-3833 3842 433 0
-3842 3851 442 0
-3851 3860 451 0
-3860 3869 460 0
-3869 3878 469 0
-3878 3887 478 0
-3887 487 3896 0
4880 0
-4883 0
4884 0
-5093 0
5100 0
5101 0
-5102 397 5093 0
5109 404 -5100 0
5110 405 -5101 0
5960 0
-5962 0
5964 0
5965 0
6176 0
-6177 0
6180 0
6929 0
-7028 0
-6931 0
6932 0
6933 0
6934 0
6935 0
6936 0
-3 6938 -6929 -6932 0
-4 6938 -6929 -6933 0
-5 6938 -6929 -6934 0
-6 6938 -6929 -6935 0
-7 6938 -6929 -6936 0
-6938 6947 406 0
-6947 6956 415 0
-6956 6965 424 0
-6965 6974 433 0
-6974 6983 442 0
-6983 6992 451 0
-6992 7001 460 0
-7001 7010 469 0
-7010 7019 478 0
-7019 487 7028 0
-7136 0
7143 0
-7131 -7127 -364 7136 0
-396 7134 -7143 0
-396 7135 -7143 0
-7146 0
7148 0
7152 0
7153 0
-7155 398 7146 0
7161 404 -7152 0
7162 405 -7153 0
-7155 -9 7146 0
-7155 -10 7146 0
-7155 -11 7146 0
-7155 -12 7146 0
-7155 -13 7146 0
-7155 -14 7146 0
-7155 -15 7146 0
-7253 0
7260 0
7261 0
-7262 397 7253 0
7269 404 -7260 0
7270 405 -7261 0
-7262 -1 7253 0
-7262 -2 7253 0
-7262 -3 7253 0
-7262 -4 7253 0
-7262 -5 7253 0
-7262 -6 7253 0
-7262 -7 7253 0
-8 -7262 7253 0
-7271 406 7262 0
-7280 415 7271 0
-7289 424 7280 0
-7298 433 7289 0
-7307 442 7298 0
-7316 451 7307 0
-7325 460 7316 0
-7334 469 7325 0
-7343 478 7334 0
-1052 7487 -260 0
1054 -272 -7487 1059 0
1071 -7489 -338 1077 0
7489 -1073 -350 0
-40 -7516 1110 1106 0
-41 -7516 1111 1106 0
-44 -7516 1106 1114 0
7516 -50 -1113 0
-63 -7516 1110 1111 0
7516 -65 -1113 0
-66 -7516 1110 1114 0
7516 -72 -1113 0
-79 7517 -1122 0
-86 7517 -1122 0
-92 7517 -1122 0
-7517 1117 -93 1123 0
-97 7517 -1122 0
-7517 1118 1123 -98 0
-101 7517 -1122 0
-7517 1119 -101 1122 0
7517 -105 -1123 0
-7517 1120 1123 -105 0
-7518 -116 1124 1132 0
-122 7518 -1131 0
-128 7518 -1131 0
7518 -133 -1131 0
-137 7518 -1131 0
-140 7518 -1131 0
-142 7518 -1131 0
-223 7521 -1158 0
-7521 -224 1151 1159 0
-230 7521 -1158 0
1152 -231 -7521 1159 0
-236 7521 -1158 0
1153 -237 1159 -7521 0
7521 -241 -1158 0
1154 -242 -7521 1159 0
7521 -1158 -245 0
1155 -246 -7521 1159 0
-248 7521 -1158 0
7521 -250 -1158 0
1157 -251 -7521 1159 0
7522 -1167 -259 0
7522 -260 -1168 0
1160 -260 1168 -7522 0
7522 -266 -1167 0
1161 -266 1167 -7522 0
1161 -267 -7522 1168 0
7522 -272 -1167 0
7522 -273 -1168 0
1162 -273 1168 -7522 0
7522 -277 -1167 0
7522 -281 -1167 0
1164 1167 -281 -7522 0
1164 -282 1168 -7522 0
7522 -284 -1167 0
7522 -286 -1167 0
7523 -1176 -295 0
-296 1169 1177 -7523 0
7523 -1176 -302 0
7523 -1176 -308 0
1172 -314 -7523 1177 0
7523 -1176 -317 0
7523 -1176 -320 0
1185 -331 1178 -7524 0
-332 7524 -1186 0
1186 -7524 1178 -332 0
7524 -1185 -338 0
1179 -338 -7524 1185 0
-339 7524 -1186 0
1180 -7524 -344 1185 0
-345 7524 -1186 0
1181 -7524 -349 1185 0
-350 7524 -1186 0
1182 -353 -7524 1185 0
-354 7524 -1186 0
1183 -7524 -356 1185 0
-357 7524 -1186 0
1184 -358 -7524 1185 0
7524 -359 -1186 0
-37 -7551 1214 1215 0
-38 -7551 1216 1214 0
-45 -7551 1216 1215 0
7551 -72 -1221 0
7591 -36 -1321 0
-7592 -50 1323 1329 0
-62 7592 -1330 0
-65 -7592 1326 1329 0
-68 -7592 1327 1329 0
-69 7592 -1330 0
-70 -7592 1328 1329 0
7592 -71 -1330 0
7592 -72 -1330 0
-7593 -79 1331 1338 0
-80 -1339 7593 0
1332 -86 -7593 1338 0
-87 -1339 7593 0
1333 -7593 -92 1338 0
-93 -1339 7593 0
1334 -97 -7593 1338 0
-98 -1339 7593 0
-7593 1335 -101 1338 0
-102 -1339 7593 0
-7593 1336 -104 1338 0
-1339 -105 7593 0
-7593 1337 -106 1338 0
-107 -1339 7593 0
7593 -108 -1339 0
1340 -115 -7594 1347 0
7594 -116 -1348 0
-122 -7594 1341 1347 0
-123 7594 -1348 0
1342 -128 -7594 1347 0
-129 7594 -1348 0
1343 -7594 -133 1347 0
-134 7594 -1348 0
-137 -7594 1344 1347 0
-138 7594 -1348 0
1345 -140 -7594 1347 0
-141 7594 -1348 0
-142 -7594 1346 1347 0
-143 7594 -1348 0
7594 -144 -1348 0
7595 -180 -1357 0
-188 7596 -1366 0
1359 -194 -7596 1365 0
7596 -1366 -195 0
1360 -200 -7596 1365 0
-201 7596 -1366 0
1361 -205 -7596 1365 0
7596 -206 -1366 0
-7596 -209 1362 1365 0
-210 7596 -1366 0
1363 -212 -7596 1365 0
-213 7596 -1366 0
1364 -7596 -214 1365 0
-215 7596 -1366 0
-216 7596 -1366 0
1367 -223 -7597 1374 0
7597 -224 -1375 0
1368 -230 -7597 1374 0
7597 -231 -1375 0
1369 -236 -7597 1374 0
7597 -237 -1375 0
1370 -7597 -241 1374 0
7597 -242 -1375 0
1371 -7597 -245 1374 0
7597 -246 -1375 0
-248 1372 -7597 1374 0
7597 -249 -1375 0
1373 -7597 -250 1374 0
7597 -251 -1375 0
7597 -252 -1375 0
-7598 -259 1376 1383 0
7598 -260 -1384 0
1377 -266 -7598 1383 0
7598 -267 -1384 0
1378 -272 -7598 1383 0
7598 -273 -1384 0
1379 -277 -7598 1383 0
7598 -278 -1384 0
1380 -281 -7598 1383 0
7598 -282 -1384 0
1381 -7598 -284 1383 0
-285 7598 -1384 0
1382 -286 -7598 1383 0
-287 7598 -1384 0
7598 -288 -1384 0
7599 -296 -1393 0
-303 7599 -1393 0
7599 -309 -1393 0
7599 -314 -1393 0
7599 -318 -1393 0
7599 -321 -1393 0
7599 -323 -1393 0
-7600 -331 1394 1401 0
-332 7600 -1402 0
1395 -7600 -338 1401 0
-339 7600 -1402 0
1396 -7600 -344 1401 0
-345 7600 -1402 0
7600 -350 -1402 0
7600 -354 -1402 0
-357 7600 -1402 0
7600 -359 -1402 0
7602 -7591 0
7603 -7602 0
7603 -7592 0
7606 -7603 0
7606 -7593 0
7608 -7606 0
7608 -7594 0
7610 -7608 0
-7595 7610 0
7612 -7610 0
-7596 7611 -7610 0
-7611 -7597 0
-7596 7612 0
7614 -7612 0
-7597 7613 -7612 0
-7613 -7598 0
7614 -7597 0
7615 -7598 -7614 0
-7599 -7615 0
7659 -11 -1533 0
7659 -17 -1533 0
7659 -22 -1533 0
7659 -27 -1533 0
7659 -28 -1533 0
7659 -36 -1537 0
-40 7660 -1542 0
-47 7660 -1542 0
-53 7660 -1542 0
-58 7660 -1542 0
-63 7660 -1542 0
-64 7660 -1542 0
7660 -65 -1542 0
7660 -72 -1546 0
-76 -1551 7661 0
-83 -1551 7661 0
-89 -1551 7661 0
-94 -1551 7661 0
7661 -98 -1555 0
-99 -1551 7661 0
-100 -1551 7661 0
7661 -105 -1555 0
-112 -1560 7662 0
-119 -1560 7662 0
-125 -1560 7662 0
-130 -1560 7662 0
-135 -1560 7662 0
-136 -1560 7662 0
7662 -144 -1564 0
-148 -1569 7663 0
7663 -152 -1573 0
-155 -1569 7663 0
7663 -159 -1573 0
-161 -1569 7663 0
7663 -165 -1573 0
-166 -1569 7663 0
7663 -170 -1573 0
-171 -1569 7663 0
-172 -1569 7663 0
7663 -174 -1573 0
7663 -177 -1573 0
-179 7663 -1573 0
-180 7663 -1573 0
-184 -1578 7664 0
-188 7664 -1582 0
-191 -1578 7664 0
-1582 7664 -195 0
-197 -1578 7664 0
-201 -1582 7664 0
-202 -1578 7664 0
-206 -1582 7664 0
-207 -1578 7664 0
-208 -1578 7664 0
-210 -1582 7664 0
-213 -1582 7664 0
-215 -1582 7664 0
-216 -1582 7664 0
-220 -1587 7665 0
7665 -224 -1591 0
-227 -1587 7665 0
-231 -1591 7665 0
-233 -1587 7665 0
-237 -1591 7665 0
-238 -1587 7665 0
-242 -1591 7665 0
-243 -1587 7665 0
-244 -1587 7665 0
-246 -1591 7665 0
7665 -249 -1591 0
-251 -1591 7665 0
-1590 -252 7665 0
-252 -1591 7665 0
-7666 -259 1592 1599 0
7666 -260 -1600 0
1593 -266 -7666 1599 0
7666 -267 -1600 0
7666 -273 -1600 0
1595 -7666 -277 1599 0
7666 -278 -1600 0
7666 -282 -1600 0
1597 -7666 -284 1599 0
-285 7666 -1600 0
1598 -7666 -286 1599 0
-287 7666 -1600 0
-1599 7666 -288 0
7666 -288 -1600 0
-296 7667 -1609 0
-303 7667 -1609 0
-309 7667 -1609 0
-314 7667 -1609 0
-318 7667 -1609 0
-321 7667 -1609 0
-323 7667 -1609 0
7667 -324 -1609 0
-332 -1618 7668 0
-339 -1618 7668 0
-345 -1618 7668 0
7668 -350 -1618 0
7668 -354 -1618 0
-357 -1618 7668 0
-1617 7668 -358 0
7668 -359 -1618 0
-1617 -360 7668 0
-360 -1618 7668 0
-368 -1627 7669 0
7669 -375 -1627 0
-381 -1627 7669 0
-386 -1627 7669 0
7669 -390 -1627 0
7669 -393 -1627 0
7669 -395 -1627 0
-396 7669 -1627 0
7670 -7659 0
7671 -7670 0
7672 -7660 -7670 0
-7672 7673 0
-7661 -7672 0
7671 -7660 0
7674 -7671 0
-7673 7675 0
-7662 -7673 0
-7661 7674 0
7676 -7674 0
-7675 7677 0
-7663 -7675 0
-7662 7676 0
7678 -7676 0
-7677 7679 0
-7664 -7677 0
-7663 7678 0
7680 -7678 0
-7679 7681 0
-7665 -7679 0
-7664 7680 0
7682 -7680 0
-7681 7683 0
-7666 -7681 0
-7665 7682 0
-7666 7683 -7682 0
7685 -7683 0
-7683 -7667 0
7687 -7685 0
-7668 -7685 0
-7669 -7687 0
-8348 -9 2826 2827 0
-10 -8348 2826 2828 0
-11 -8348 2826 2829 0
-12 -8348 2826 2830 0
-13 -8348 2826 2831 0
-14 8348 -2832 0
-15 8348 -2833 0
-8348 -16 2827 2828 0
-17 -8348 2827 2829 0
-18 -8348 2827 2830 0
-19 -8348 2827 2831 0
-20 8348 -2832 0
-21 8348 -2833 0
-22 -8348 2828 2829 0
-23 -8348 2828 2830 0
-8348 -24 2828 2831 0
-25 8348 -2832 0
-26 8348 -2833 0
-27 -8348 2829 2830 0
-28 -8348 2829 2831 0
-29 8348 -2832 0
-30 8348 -2833 0
-31 -8348 2830 2831 0
-32 8348 -2832 0
-33 8348 -2833 0
-34 8348 -2832 0
-35 8348 -2833 0
-36 8348 -2832 0
-43 8349 -2841 0
-44 8349 -2842 0
-50 8349 -2841 0
-51 8349 -2842 0
-56 8349 -2841 0
-57 8349 -2842 0
-61 8349 -2841 0
-62 8349 -2842 0
-65 8349 -2841 0
-66 8349 -2842 0
-68 8349 -2841 0
-69 8349 -2842 0
-70 8349 -2841 0
-71 8349 -2842 0
8349 -72 -2841 0
-79 -2850 8350 0
-80 8350 -2851 0
-86 -2850 8350 0
-87 8350 -2851 0
-92 -2850 8350 0
-93 8350 -2851 0
-97 -2850 8350 0
-98 8350 -2851 0
-101 -2850 8350 0
-102 8350 -2851 0
-104 -2850 8350 0
-105 8350 -2851 0
-106 -2850 8350 0
-107 8350 -2851 0
-108 8350 -2851 0
-115 -2859 8351 0
-116 -2860 8351 0
-122 -2859 8351 0
-123 -2860 8351 0
-128 -2859 8351 0
-129 -2860 8351 0
-2855 -133 8351 0
-133 -2859 8351 0
-134 -2860 8351 0
-137 -2859 8351 0
-138 -2860 8351 0
-140 -2859 8351 0
-141 -2860 8351 0
-142 -2859 8351 0
-143 -2860 8351 0
-144 -2859 8351 0
-144 -2860 8351 0
-151 -2868 8352 0
-152 -2869 8352 0
-158 -2868 8352 0
-159 -2869 8352 0
-164 -2868 8352 0
-165 -2869 8352 0
-169 -2868 8352 0
-170 -2869 8352 0
-173 -2868 8352 0
-174 -2869 8352 0
-176 -2868 8352 0
-177 -2869 8352 0
-178 -2868 8352 0
-179 -2869 8352 0
-180 -2868 8352 0
-180 -2869 8352 0
-187 -2877 8353 0
-188 -2878 8353 0
-194 -2877 8353 0
-2871 -195 8353 0
-2878 -195 8353 0
-200 -2877 8353 0
-201 -2878 8353 0
-205 -2877 8353 0
-206 -2878 8353 0
-209 -2877 8353 0
-210 -2878 8353 0
-212 -2877 8353 0
-213 -2878 8353 0
-214 -2877 8353 0
-215 -2878 8353 0
-216 -2877 8353 0
-216 -2878 8353 0
-223 -2886 8354 0
-224 8354 -2887 0
-230 -2886 8354 0
-231 8354 -2887 0
-236 -2886 8354 0
-237 8354 -2887 0
-241 -2886 8354 0
-242 8354 -2887 0
-245 -2886 8354 0
-246 8354 -2887 0
-248 -2886 8354 0
-2884 -249 8354 0
-249 8354 -2887 0
-250 -2886 8354 0
-251 8354 -2887 0
-252 -2886 8354 0
-252 8354 -2887 0
-2895 -259 8355 0
-260 -2896 8355 0
-266 -2895 8355 0
-267 -2896 8355 0
-272 -2895 8355 0
-273 -2896 8355 0
-277 -2895 8355 0
-278 -2896 8355 0
-281 -2895 8355 0
-282 -2896 8355 0
-284 -2895 8355 0
-285 -2896 8355 0
-286 -2895 8355 0
-287 -2896 8355 0
-2895 -288 8355 0
-288 -2896 8355 0
-2897 -295 8356 0
-295 -2904 8356 0
-296 -2905 8356 0
-2898 -302 8356 0
-302 -2904 8356 0
-303 -2905 8356 0
-2899 -308 8356 0
-308 -2904 8356 0
-309 -2905 8356 0
-2900 -313 8356 0
-313 -2904 8356 0
-314 -2905 8356 0
-2901 -317 8356 0
-317 -2904 8356 0
-318 -2905 8356 0
-2902 -320 8356 0
-320 -2904 8356 0
-321 -2905 8356 0
-2903 -322 8356 0
-322 -2904 8356 0
-323 -2905 8356 0
-2904 -324 8356 0
-324 -2905 8356 0
-2906 -331 8357 0
-2913 -331 8357 0
-332 -2914 8357 0
-2907 -338 8357 0
-2913 -338 8357 0
-339 -2914 8357 0
-2908 -344 8357 0
-344 -2913 8357 0
-345 -2914 8357 0
-2909 -349 8357 0
-2913 -349 8357 0
-350 -2914 8357 0
-2910 -353 8357 0
-2913 -353 8357 0
-354 -2914 8357 0
-2911 -356 8357 0
-2913 -356 8357 0
-357 -2914 8357 0
-2912 -358 8357 0
-2913 -358 8357 0
-359 -2914 8357 0
-360 -2913 8357 0
-360 -2914 8357 0
-2915 -367 8358 0
-367 -2922 8358 0
-368 -2923 8358 0
-2916 -374 8358 0
-374 -2922 8358 0
-375 -2923 8358 0
-2917 -380 8358 0
-380 -2922 8358 0
-381 -2923 8358 0
-2918 8358 -385 0
-2922 8358 -385 0
-386 -2923 8358 0
-2919 -389 8358 0
-2922 -389 8358 0
-2919 -390 8358 0
-390 -2923 8358 0
-2920 -392 8358 0
-392 -2922 8358 0
-2920 -393 8358 0
-393 -2923 8358 0
-2921 8358 -394 0
-2922 -394 8358 0
-2921 -395 8358 0
-395 -2923 8358 0
-2922 -396 8358 0
8359 -8348 0
8360 -8359 0
8361 -8349 -8359 0
8362 -8361 0
-8350 -8361 0
8360 -8349 0
8363 -8360 0
-8350 8362 -8360 0
8364 -8362 0
-8351 -8362 0
-8350 8363 0
8365 -8363 0
-8351 8364 -8363 0
8366 -8364 0
-8352 -8364 0
-8351 8365 0
8367 -8365 0
8366 -8352 -8365 0
8368 -8366 0
-8353 -8366 0
8367 -8352 0
8369 -8367 0
-8353 8368 -8367 0
8370 -8368 0
-8354 -8368 0
8369 -8353 0
8371 -8369 0
-8354 8370 -8369 0
8372 -8370 0
-8355 -8370 0
8371 -8354 0
8373 -8371 0
-8355 8372 -8371 0
8374 -8372 0
-8356 -8372 0
8373 -8355 0
8375 -8373 0
-8356 8374 -8373 0
8376 -8374 0
-8357 -8374 0
8375 -8356 0
-8357 8376 -8375 0
-8358 -8376 0
8457 3135 -371 0
8457 3135 -377 0
8457 3135 -382 0
-8457 -396 -3138 -3139 0
-9503 -25 -4880 -4884 0
-35 9503 4883 0
-39 9609 5102 0
-9609 -72 -5109 -5110 0
-10114 -25 -5960 -5964 0
-33 10114 5962 0
-10114 -36 -5964 -5965 0
-10227 -25 -6176 -6180 0
-30 10227 6177 0
-21 10647 6931 0
-10647 -25 -6932 -6936 0
7127 10692 -364 0
7131 10692 -364 0
-10692 -396 -7134 -7135 0
-15 10717 7146 0
-10717 -25 -7148 -7152 0
-45 10718 7155 0
-46 10718 7155 0
-47 10718 7155 0
-48 10718 7155 0
-49 10718 7155 0
-50 10718 7155 0
-51 10718 7155 0
-10718 -72 -7161 -7162 0
-1 10752 7253 0
-2 10752 7253 0
-3 10752 7253 0
-4 10752 7253 0
-5 10752 7253 0
-6 10752 7253 0
-7 10752 7253 0
-8 10752 7253 0
-37 10753 7262 0
-38 10753 7262 0
-39 10753 7262 0
-40 10753 7262 0
-41 10753 7262 0
-42 10753 7262 0
-43 10753 7262 0
-44 10753 7262 0
-10753 -72 -7269 -7270 0
-73 7271 10754 0
-74 7271 10754 0
-75 7271 10754 0
-76 7271 10754 0
-77 7271 10754 0
-78 7271 10754 0
-79 7271 10754 0
-80 7271 10754 0
-109 7280 10755 0
-110 7280 10755 0
-111 7280 10755 0
-112 7280 10755 0
-113 7280 10755 0
-114 7280 10755 0
-115 7280 10755 0
-116 7280 10755 0
-145 7289 10756 0
-146 7289 10756 0
-147 7289 10756 0
-148 7289 10756 0
-149 7289 10756 0
-150 7289 10756 0
-151 7289 10756 0
-152 7289 10756 0
-181 7298 10757 0
-182 7298 10757 0
-183 7298 10757 0
-184 7298 10757 0
-185 7298 10757 0
-186 7298 10757 0
-187 7298 10757 0
-188 7298 10757 0
-217 7307 10758 0
-218 7307 10758 0
-219 7307 10758 0
-220 7307 10758 0
-221 7307 10758 0
-222 7307 10758 0
-223 7307 10758 0
-224 7307 10758 0
-253 7316 10759 0
-254 7316 10759 0
-255 7316 10759 0
-256 7316 10759 0
-257 7316 10759 0
-258 7316 10759 0
-259 7316 10759 0
-260 7316 10759 0
-289 7325 10760 0
-290 7325 10760 0
-291 7325 10760 0
-292 7325 10760 0
-293 7325 10760 0
-294 7325 10760 0
-295 7325 10760 0
-296 7325 10760 0
-325 7334 10761 0
-326 7334 10761 0
-327 7334 10761 0
-328 7334 10761 0
-329 7334 10761 0
-330 7334 10761 0
-331 7334 10761 0
-332 7334 10761 0
-361 7343 10762 0
-362 7343 10762 0
-363 7343 10762 0
-364 7343 10762 0
-365 7343 10762 0
-366 7343 10762 0
-367 7343 10762 0
-368 7343 10762 0
10763 -10752 0
10764 -10763 0
-10753 -10763 0
10765 -10764 0
-10754 -10764 0
10766 -10765 0
-10755 -10765 0
10767 -10766 0
-10756 -10766 0
10768 -10767 0
-10757 -10767 0
10769 -10768 0
-10758 -10768 0
10770 -10769 0
-10759 -10769 0
10771 -10770 0
-10760 -10770 0
10772 -10771 0
-10761 -10771 0
-10762 -10772 0
