p cnf 8462 34530
-304 0
-305 0
-306 0
-307 0
-308 0
-309 0
-310 0
-311 0
-312 0
304 1 -313 0
304 -1 313 0
-304 1 313 0
-304 -1 -313 0
-314 304 0
-314 1 0
314 -304 -1 0
305 314 -315 0
305 -314 315 0
-305 314 315 0
-305 -314 -315 0
-316 305 0
-316 314 0
316 -305 -314 0
306 316 -317 0
306 -316 317 0
-306 316 317 0
-306 -316 -317 0
-318 306 0
-318 316 0
318 -306 -316 0
307 318 -319 0
307 -318 319 0
-307 318 319 0
-307 -318 -319 0
-320 307 0
-320 318 0
320 -307 -318 0
308 320 -321 0
308 -320 321 0
-308 320 321 0
-308 -320 -321 0
-322 308 0
-322 320 0
322 -308 -320 0
309 322 -323 0
309 -322 323 0
-309 322 323 0
-309 -322 -323 0
-324 309 0
-324 322 0
324 -309 -322 0
310 324 -325 0
310 -324 325 0
-310 324 325 0
-310 -324 -325 0
-326 310 0
-326 324 0
326 -310 -324 0
311 326 -327 0
311 -326 327 0
-311 326 327 0
-311 -326 -327 0
-328 311 0
-328 326 0
328 -311 -326 0
312 328 -329 0
312 -328 329 0
-312 328 329 0
-312 -328 -329 0
-330 312 0
-330 328 0
330 -312 -328 0
-330 0
313 2 -331 0
313 -2 331 0
-313 2 331 0
-313 -2 -331 0
-332 313 0
-332 2 0
332 -313 -2 0
315 332 -333 0
315 -332 333 0
-315 332 333 0
-315 -332 -333 0
-334 315 0
-334 332 0
334 -315 -332 0
317 334 -335 0
317 -334 335 0
-317 334 335 0
-317 -334 -335 0
-336 317 0
-336 334 0
336 -317 -334 0
319 336 -337 0
319 -336 337 0
-319 336 337 0
-319 -336 -337 0
-338 319 0
-338 336 0
338 -319 -336 0
321 338 -339 0
321 -338 339 0
-321 338 339 0
-321 -338 -339 0
-340 321 0
-340 338 0
340 -321 -338 0
323 340 -341 0
323 -340 341 0
-323 340 341 0
-323 -340 -341 0
-342 323 0
-342 340 0
342 -323 -340 0
325 342 -343 0
325 -342 343 0
-325 342 343 0
-325 -342 -343 0
-344 325 0
-344 342 0
344 -325 -342 0
327 344 -345 0
327 -344 345 0
-327 344 345 0
-327 -344 -345 0
-346 327 0
-346 344 0
346 -327 -344 0
329 346 -347 0
329 -346 347 0
-329 346 347 0
-329 -346 -347 0
-348 329 0
-348 346 0
348 -329 -346 0
-348 0
331 3 -349 0
331 -3 349 0
-331 3 349 0
-331 -3 -349 0
-350 331 0
-350 3 0
350 -331 -3 0
333 350 -351 0
333 -350 351 0
-333 350 351 0
-333 -350 -351 0
-352 333 0
-352 350 0
352 -333 -350 0
335 352 -353 0
335 -352 353 0
-335 352 353 0
-335 -352 -353 0
-354 335 0
-354 352 0
354 -335 -352 0
337 354 -355 0
337 -354 355 0
-337 354 355 0
-337 -354 -355 0
-356 337 0
-356 354 0
356 -337 -354 0
339 356 -357 0
339 -356 357 0
-339 356 357 0
-339 -356 -357 0
-358 339 0
-358 356 0
358 -339 -356 0
341 358 -359 0
341 -358 359 0
-341 358 359 0
-341 -358 -359 0
-360 341 0
-360 358 0
360 -341 -358 0
343 360 -361 0
343 -360 361 0
-343 360 361 0
-343 -360 -361 0
-362 343 0
-362 360 0
362 -343 -360 0
345 362 -363 0
345 -362 363 0
-345 362 363 0
-345 -362 -363 0
-364 345 0
-364 362 0
364 -345 -362 0
347 364 -365 0
347 -364 365 0
-347 364 365 0
-347 -364 -365 0
-366 347 0
-366 364 0
366 -347 -364 0
-366 0
349 4 -367 0
349 -4 367 0
-349 4 367 0
-349 -4 -367 0
-368 349 0
-368 4 0
368 -349 -4 0
351 368 -369 0
351 -368 369 0
-351 368 369 0
-351 -368 -369 0
-370 351 0
-370 368 0
370 -351 -368 0
353 370 -371 0
353 -370 371 0
-353 370 371 0
-353 -370 -371 0
-372 353 0
-372 370 0
372 -353 -370 0
355 372 -373 0
355 -372 373 0
-355 372 373 0
-355 -372 -373 0
-374 355 0
-374 372 0
374 -355 -372 0
357 374 -375 0
357 -374 375 0
-357 374 375 0
-357 -374 -375 0
-376 357 0
-376 374 0
376 -357 -374 0
359 376 -377 0
359 -376 377 0
-359 376 377 0
-359 -376 -377 0
-378 359 0
-378 376 0
378 -359 -376 0
361 378 -379 0
361 -378 379 0
-361 378 379 0
-361 -378 -379 0
-380 361 0
-380 378 0
380 -361 -378 0
363 380 -381 0
363 -380 381 0
-363 380 381 0
-363 -380 -381 0
-382 363 0
-382 380 0
382 -363 -380 0
365 382 -383 0
365 -382 383 0
-365 382 383 0
-365 -382 -383 0
-384 365 0
-384 382 0
384 -365 -382 0
-384 0
367 5 -385 0
367 -5 385 0
-367 5 385 0
-367 -5 -385 0
-386 367 0
-386 5 0
386 -367 -5 0
369 386 -387 0
369 -386 387 0
-369 386 387 0
-369 -386 -387 0
-388 369 0
-388 386 0
388 -369 -386 0
371 388 -389 0
371 -388 389 0
-371 388 389 0
-371 -388 -389 0
-390 371 0
-390 388 0
390 -371 -388 0
373 390 -391 0
373 -390 391 0
-373 390 391 0
-373 -390 -391 0
-392 373 0
-392 390 0
392 -373 -390 0
375 392 -393 0
375 -392 393 0
-375 392 393 0
-375 -392 -393 0
-394 375 0
-394 392 0
394 -375 -392 0
377 394 -395 0
377 -394 395 0
-377 394 395 0
-377 -394 -395 0
-396 377 0
-396 394 0
396 -377 -394 0
379 396 -397 0
379 -396 397 0
-379 396 397 0
-379 -396 -397 0
-398 379 0
-398 396 0
398 -379 -396 0
381 398 -399 0
381 -398 399 0
-381 398 399 0
-381 -398 -399 0
-400 381 0
-400 398 0
400 -381 -398 0
383 400 -401 0
383 -400 401 0
-383 400 401 0
-383 -400 -401 0
-402 383 0
-402 400 0
402 -383 -400 0
-402 0
385 6 -403 0
385 -6 403 0
-385 6 403 0
-385 -6 -403 0
-404 385 0
-404 6 0
404 -385 -6 0
387 404 -405 0
387 -404 405 0
-387 404 405 0
-387 -404 -405 0
-406 387 0
-406 404 0
406 -387 -404 0
389 406 -407 0
389 -406 407 0
-389 406 407 0
-389 -406 -407 0
-408 389 0
-408 406 0
408 -389 -406 0
391 408 -409 0
391 -408 409 0
-391 408 409 0
-391 -408 -409 0
-410 391 0
-410 408 0
410 -391 -408 0
393 410 -411 0
393 -410 411 0
-393 410 411 0
-393 -410 -411 0
-412 393 0
-412 410 0
412 -393 -410 0
395 412 -413 0
395 -412 413 0
-395 412 413 0
-395 -412 -413 0
-414 395 0
-414 412 0
414 -395 -412 0
397 414 -415 0
397 -414 415 0
-397 414 415 0
-397 -414 -415 0
-416 397 0
-416 414 0
416 -397 -414 0
399 416 -417 0
399 -416 417 0
-399 416 417 0
-399 -416 -417 0
-418 399 0
-418 416 0
418 -399 -416 0
401 418 -419 0
401 -418 419 0
-401 418 419 0
-401 -418 -419 0
-420 401 0
-420 418 0
420 -401 -418 0
-420 0
403 7 -421 0
403 -7 421 0
-403 7 421 0
-403 -7 -421 0
-422 403 0
-422 7 0
422 -403 -7 0
405 422 -423 0
405 -422 423 0
-405 422 423 0
-405 -422 -423 0
-424 405 0
-424 422 0
424 -405 -422 0
407 424 -425 0
407 -424 425 0
-407 424 425 0
-407 -424 -425 0
-426 407 0
-426 424 0
426 -407 -424 0
409 426 -427 0
409 -426 427 0
-409 426 427 0
-409 -426 -427 0
-428 409 0
-428 426 0
428 -409 -426 0
411 428 -429 0
411 -428 429 0
-411 428 429 0
-411 -428 -429 0
-430 411 0
-430 428 0
430 -411 -428 0
413 430 -431 0
413 -430 431 0
-413 430 431 0
-413 -430 -431 0
-432 413 0
-432 430 0
432 -413 -430 0
415 432 -433 0
415 -432 433 0
-415 432 433 0
-415 -432 -433 0
-434 415 0
-434 432 0
434 -415 -432 0
417 434 -435 0
417 -434 435 0
-417 434 435 0
-417 -434 -435 0
-436 417 0
-436 434 0
436 -417 -434 0
419 436 -437 0
419 -436 437 0
-419 436 437 0
-419 -436 -437 0
-438 419 0
-438 436 0
438 -419 -436 0
-438 0
421 8 -439 0
421 -8 439 0
-421 8 439 0
-421 -8 -439 0
-440 421 0
-440 8 0
440 -421 -8 0
423 440 -441 0
423 -440 441 0
-423 440 441 0
-423 -440 -441 0
-442 423 0
-442 440 0
442 -423 -440 0
425 442 -443 0
425 -442 443 0
-425 442 443 0
-425 -442 -443 0
-444 425 0
-444 442 0
444 -425 -442 0
427 444 -445 0
427 -444 445 0
-427 444 445 0
-427 -444 -445 0
-446 427 0
-446 444 0
446 -427 -444 0
429 446 -447 0
429 -446 447 0
-429 446 447 0
-429 -446 -447 0
-448 429 0
-448 446 0
448 -429 -446 0
431 448 -449 0
431 -448 449 0
-431 448 449 0
-431 -448 -449 0
-450 431 0
-450 448 0
450 -431 -448 0
433 450 -451 0
433 -450 451 0
-433 450 451 0
-433 -450 -451 0
-452 433 0
-452 450 0
452 -433 -450 0
435 452 -453 0
435 -452 453 0
-435 452 453 0
-435 -452 -453 0
-454 435 0
-454 452 0
454 -435 -452 0
437 454 -455 0
437 -454 455 0
-437 454 455 0
-437 -454 -455 0
-456 437 0
-456 454 0
456 -437 -454 0
-456 0
439 9 -457 0
439 -9 457 0
-439 9 457 0
-439 -9 -457 0
-458 439 0
-458 9 0
458 -439 -9 0
441 458 -459 0
441 -458 459 0
-441 458 459 0
-441 -458 -459 0
-460 441 0
-460 458 0
460 -441 -458 0
443 460 -461 0
443 -460 461 0
-443 460 461 0
-443 -460 -461 0
-462 443 0
-462 460 0
462 -443 -460 0
445 462 -463 0
445 -462 463 0
-445 462 463 0
-445 -462 -463 0
-464 445 0
-464 462 0
464 -445 -462 0
447 464 -465 0
447 -464 465 0
-447 464 465 0
-447 -464 -465 0
-466 447 0
-466 464 0
466 -447 -464 0
449 466 -467 0
449 -466 467 0
-449 466 467 0
-449 -466 -467 0
-468 449 0
-468 466 0
468 -449 -466 0
451 468 -469 0
451 -468 469 0
-451 468 469 0
-451 -468 -469 0
-470 451 0
-470 468 0
470 -451 -468 0
453 470 -471 0
453 -470 471 0
-453 470 471 0
-453 -470 -471 0
-472 453 0
-472 470 0
472 -453 -470 0
455 472 -473 0
455 -472 473 0
-455 472 473 0
-455 -472 -473 0
-474 455 0
-474 472 0
474 -455 -472 0
-474 0
457 10 -475 0
457 -10 475 0
-457 10 475 0
-457 -10 -475 0
-476 457 0
-476 10 0
476 -457 -10 0
459 476 -477 0
459 -476 477 0
-459 476 477 0
-459 -476 -477 0
-478 459 0
-478 476 0
478 -459 -476 0
461 478 -479 0
461 -478 479 0
-461 478 479 0
-461 -478 -479 0
-480 461 0
-480 478 0
480 -461 -478 0
463 480 -481 0
463 -480 481 0
-463 480 481 0
-463 -480 -481 0
-482 463 0
-482 480 0
482 -463 -480 0
465 482 -483 0
465 -482 483 0
-465 482 483 0
-465 -482 -483 0
-484 465 0
-484 482 0
484 -465 -482 0
467 484 -485 0
467 -484 485 0
-467 484 485 0
-467 -484 -485 0
-486 467 0
-486 484 0
486 -467 -484 0
469 486 -487 0
469 -486 487 0
-469 486 487 0
-469 -486 -487 0
-488 469 0
-488 486 0
488 -469 -486 0
471 488 -489 0
471 -488 489 0
-471 488 489 0
-471 -488 -489 0
-490 471 0
-490 488 0
490 -471 -488 0
473 490 -491 0
473 -490 491 0
-473 490 491 0
-473 -490 -491 0
-492 473 0
-492 490 0
492 -473 -490 0
-492 0
475 11 -493 0
475 -11 493 0
-475 11 493 0
-475 -11 -493 0
-494 475 0
-494 11 0
494 -475 -11 0
477 494 -495 0
477 -494 495 0
-477 494 495 0
-477 -494 -495 0
-496 477 0
-496 494 0
496 -477 -494 0
479 496 -497 0
479 -496 497 0
-479 496 497 0
-479 -496 -497 0
-498 479 0
-498 496 0
498 -479 -496 0
481 498 -499 0
481 -498 499 0
-481 498 499 0
-481 -498 -499 0
-500 481 0
-500 498 0
500 -481 -498 0
483 500 -501 0
483 -500 501 0
-483 500 501 0
-483 -500 -501 0
-502 483 0
-502 500 0
502 -483 -500 0
485 502 -503 0
485 -502 503 0
-485 502 503 0
-485 -502 -503 0
-504 485 0
-504 502 0
504 -485 -502 0
487 504 -505 0
487 -504 505 0
-487 504 505 0
-487 -504 -505 0
-506 487 0
-506 504 0
506 -487 -504 0
489 506 -507 0
489 -506 507 0
-489 506 507 0
-489 -506 -507 0
-508 489 0
-508 506 0
508 -489 -506 0
491 508 -509 0
491 -508 509 0
-491 508 509 0
-491 -508 -509 0
-510 491 0
-510 508 0
510 -491 -508 0
-510 0
493 12 -511 0
493 -12 511 0
-493 12 511 0
-493 -12 -511 0
-512 493 0
-512 12 0
512 -493 -12 0
495 512 -513 0
495 -512 513 0
-495 512 513 0
-495 -512 -513 0
-514 495 0
-514 512 0
514 -495 -512 0
497 514 -515 0
497 -514 515 0
-497 514 515 0
-497 -514 -515 0
-516 497 0
-516 514 0
516 -497 -514 0
499 516 -517 0
499 -516 517 0
-499 516 517 0
-499 -516 -517 0
-518 499 0
-518 516 0
518 -499 -516 0
501 518 -519 0
501 -518 519 0
-501 518 519 0
-501 -518 -519 0
-520 501 0
-520 518 0
520 -501 -518 0
503 520 -521 0
503 -520 521 0
-503 520 521 0
-503 -520 -521 0
-522 503 0
-522 520 0
522 -503 -520 0
505 522 -523 0
505 -522 523 0
-505 522 523 0
-505 -522 -523 0
-524 505 0
-524 522 0
524 -505 -522 0
507 524 -525 0
507 -524 525 0
-507 524 525 0
-507 -524 -525 0
-526 507 0
-526 524 0
526 -507 -524 0
509 526 -527 0
509 -526 527 0
-509 526 527 0
-509 -526 -527 0
-528 509 0
-528 526 0
528 -509 -526 0
-528 0
511 13 -529 0
511 -13 529 0
-511 13 529 0
-511 -13 -529 0
-530 511 0
-530 13 0
530 -511 -13 0
513 530 -531 0
513 -530 531 0
-513 530 531 0
-513 -530 -531 0
-532 513 0
-532 530 0
532 -513 -530 0
515 532 -533 0
515 -532 533 0
-515 532 533 0
-515 -532 -533 0
-534 515 0
-534 532 0
534 -515 -532 0
517 534 -535 0
517 -534 535 0
-517 534 535 0
-517 -534 -535 0
-536 517 0
-536 534 0
536 -517 -534 0
519 536 -537 0
519 -536 537 0
-519 536 537 0
-519 -536 -537 0
-538 519 0
-538 536 0
538 -519 -536 0
521 538 -539 0
521 -538 539 0
-521 538 539 0
-521 -538 -539 0
-540 521 0
-540 538 0
540 -521 -538 0
523 540 -541 0
523 -540 541 0
-523 540 541 0
-523 -540 -541 0
-542 523 0
-542 540 0
542 -523 -540 0
525 542 -543 0
525 -542 543 0
-525 542 543 0
-525 -542 -543 0
-544 525 0
-544 542 0
544 -525 -542 0
527 544 -545 0
527 -544 545 0
-527 544 545 0
-527 -544 -545 0
-546 527 0
-546 544 0
546 -527 -544 0
-546 0
529 14 -547 0
529 -14 547 0
-529 14 547 0
-529 -14 -547 0
-548 529 0
-548 14 0
548 -529 -14 0
531 548 -549 0
531 -548 549 0
-531 548 549 0
-531 -548 -549 0
-550 531 0
-550 548 0
550 -531 -548 0
533 550 -551 0
533 -550 551 0
-533 550 551 0
-533 -550 -551 0
-552 533 0
-552 550 0
552 -533 -550 0
535 552 -553 0
535 -552 553 0
-535 552 553 0
-535 -552 -553 0
-554 535 0
-554 552 0
554 -535 -552 0
537 554 -555 0
537 -554 555 0
-537 554 555 0
-537 -554 -555 0
-556 537 0
-556 554 0
556 -537 -554 0
539 556 -557 0
539 -556 557 0
-539 556 557 0
-539 -556 -557 0
-558 539 0
-558 556 0
558 -539 -556 0
541 558 -559 0
541 -558 559 0
-541 558 559 0
-541 -558 -559 0
-560 541 0
-560 558 0
560 -541 -558 0
543 560 -561 0
543 -560 561 0
-543 560 561 0
-543 -560 -561 0
-562 543 0
-562 560 0
562 -543 -560 0
545 562 -563 0
545 -562 563 0
-545 562 563 0
-545 -562 -563 0
-564 545 0
-564 562 0
564 -545 -562 0
-564 0
547 15 -565 0
547 -15 565 0
-547 15 565 0
-547 -15 -565 0
-566 547 0
-566 15 0
566 -547 -15 0
549 566 -567 0
549 -566 567 0
-549 566 567 0
-549 -566 -567 0
-568 549 0
-568 566 0
568 -549 -566 0
551 568 -569 0
551 -568 569 0
-551 568 569 0
-551 -568 -569 0
-570 551 0
-570 568 0
570 -551 -568 0
553 570 -571 0
553 -570 571 0
-553 570 571 0
-553 -570 -571 0
-572 553 0
-572 570 0
572 -553 -570 0
555 572 -573 0
555 -572 573 0
-555 572 573 0
-555 -572 -573 0
-574 555 0
-574 572 0
574 -555 -572 0
557 574 -575 0
557 -574 575 0
-557 574 575 0
-557 -574 -575 0
-576 557 0
-576 574 0
576 -557 -574 0
559 576 -577 0
559 -576 577 0
-559 576 577 0
-559 -576 -577 0
-578 559 0
-578 576 0
578 -559 -576 0
561 578 -579 0
561 -578 579 0
-561 578 579 0
-561 -578 -579 0
-580 561 0
-580 578 0
580 -561 -578 0
563 580 -581 0
563 -580 581 0
-563 580 581 0
-563 -580 -581 0
-582 563 0
-582 580 0
582 -563 -580 0
-582 0
565 16 -583 0
565 -16 583 0
-565 16 583 0
-565 -16 -583 0
-584 565 0
-584 16 0
584 -565 -16 0
567 584 -585 0
567 -584 585 0
-567 584 585 0
-567 -584 -585 0
-586 567 0
-586 584 0
586 -567 -584 0
569 586 -587 0
569 -586 587 0
-569 586 587 0
-569 -586 -587 0
-588 569 0
-588 586 0
588 -569 -586 0
571 588 -589 0
571 -588 589 0
-571 588 589 0
-571 -588 -589 0
-590 571 0
-590 588 0
590 -571 -588 0
573 590 -591 0
573 -590 591 0
-573 590 591 0
-573 -590 -591 0
-592 573 0
-592 590 0
592 -573 -590 0
575 592 -593 0
575 -592 593 0
-575 592 593 0
-575 -592 -593 0
-594 575 0
-594 592 0
594 -575 -592 0
577 594 -595 0
577 -594 595 0
-577 594 595 0
-577 -594 -595 0
-596 577 0
-596 594 0
596 -577 -594 0
579 596 -597 0
579 -596 597 0
-579 596 597 0
-579 -596 -597 0
-598 579 0
-598 596 0
598 -579 -596 0
581 598 -599 0
581 -598 599 0
-581 598 599 0
-581 -598 -599 0
-600 581 0
-600 598 0
600 -581 -598 0
-600 0
583 17 -601 0
583 -17 601 0
-583 17 601 0
-583 -17 -601 0
-602 583 0
-602 17 0
602 -583 -17 0
585 602 -603 0
585 -602 603 0
-585 602 603 0
-585 -602 -603 0
-604 585 0
-604 602 0
604 -585 -602 0
587 604 -605 0
587 -604 605 0
-587 604 605 0
-587 -604 -605 0
-606 587 0
-606 604 0
606 -587 -604 0
589 606 -607 0
589 -606 607 0
-589 606 607 0
-589 -606 -607 0
-608 589 0
-608 606 0
608 -589 -606 0
591 608 -609 0
591 -608 609 0
-591 608 609 0
-591 -608 -609 0
-610 591 0
-610 608 0
610 -591 -608 0
593 610 -611 0
593 -610 611 0
-593 610 611 0
-593 -610 -611 0
-612 593 0
-612 610 0
612 -593 -610 0
595 612 -613 0
595 -612 613 0
-595 612 613 0
-595 -612 -613 0
-614 595 0
-614 612 0
614 -595 -612 0
597 614 -615 0
597 -614 615 0
-597 614 615 0
-597 -614 -615 0
-616 597 0
-616 614 0
616 -597 -614 0
599 616 -617 0
599 -616 617 0
-599 616 617 0
-599 -616 -617 0
-618 599 0
-618 616 0
618 -599 -616 0
-618 0
601 18 -619 0
601 -18 619 0
-601 18 619 0
-601 -18 -619 0
-620 601 0
-620 18 0
620 -601 -18 0
603 620 -621 0
603 -620 621 0
-603 620 621 0
-603 -620 -621 0
-622 603 0
-622 620 0
622 -603 -620 0
605 622 -623 0
605 -622 623 0
-605 622 623 0
-605 -622 -623 0
-624 605 0
-624 622 0
624 -605 -622 0
607 624 -625 0
607 -624 625 0
-607 624 625 0
-607 -624 -625 0
-626 607 0
-626 624 0
626 -607 -624 0
609 626 -627 0
609 -626 627 0
-609 626 627 0
-609 -626 -627 0
-628 609 0
-628 626 0
628 -609 -626 0
611 628 -629 0
611 -628 629 0
-611 628 629 0
-611 -628 -629 0
-630 611 0
-630 628 0
630 -611 -628 0
613 630 -631 0
613 -630 631 0
-613 630 631 0
-613 -630 -631 0
-632 613 0
-632 630 0
632 -613 -630 0
615 632 -633 0
615 -632 633 0
-615 632 633 0
-615 -632 -633 0
-634 615 0
-634 632 0
634 -615 -632 0
617 634 -635 0
617 -634 635 0
-617 634 635 0
-617 -634 -635 0
-636 617 0
-636 634 0
636 -617 -634 0
-636 0
619 19 -637 0
619 -19 637 0
-619 19 637 0
-619 -19 -637 0
-638 619 0
-638 19 0
638 -619 -19 0
621 638 -639 0
621 -638 639 0
-621 638 639 0
-621 -638 -639 0
-640 621 0
-640 638 0
640 -621 -638 0
623 640 -641 0
623 -640 641 0
-623 640 641 0
-623 -640 -641 0
-642 623 0
-642 640 0
642 -623 -640 0
625 642 -643 0
625 -642 643 0
-625 642 643 0
-625 -642 -643 0
-644 625 0
-644 642 0
644 -625 -642 0
627 644 -645 0
627 -644 645 0
-627 644 645 0
-627 -644 -645 0
-646 627 0
-646 644 0
646 -627 -644 0
629 646 -647 0
629 -646 647 0
-629 646 647 0
-629 -646 -647 0
-648 629 0
-648 646 0
648 -629 -646 0
631 648 -649 0
631 -648 649 0
-631 648 649 0
-631 -648 -649 0
-650 631 0
-650 648 0
650 -631 -648 0
633 650 -651 0
633 -650 651 0
-633 650 651 0
-633 -650 -651 0
-652 633 0
-652 650 0
652 -633 -650 0
635 652 -653 0
635 -652 653 0
-635 652 653 0
-635 -652 -653 0
-654 635 0
-654 652 0
654 -635 -652 0
-654 0
637 20 -655 0
637 -20 655 0
-637 20 655 0
-637 -20 -655 0
-656 637 0
-656 20 0
656 -637 -20 0
639 656 -657 0
639 -656 657 0
-639 656 657 0
-639 -656 -657 0
-658 639 0
-658 656 0
658 -639 -656 0
641 658 -659 0
641 -658 659 0
-641 658 659 0
-641 -658 -659 0
-660 641 0
-660 658 0
660 -641 -658 0
643 660 -661 0
643 -660 661 0
-643 660 661 0
-643 -660 -661 0
-662 643 0
-662 660 0
662 -643 -660 0
645 662 -663 0
645 -662 663 0
-645 662 663 0
-645 -662 -663 0
-664 645 0
-664 662 0
664 -645 -662 0
647 664 -665 0
647 -664 665 0
-647 664 665 0
-647 -664 -665 0
-666 647 0
-666 664 0
666 -647 -664 0
649 666 -667 0
649 -666 667 0
-649 666 667 0
-649 -666 -667 0
-668 649 0
-668 666 0
668 -649 -666 0
651 668 -669 0
651 -668 669 0
-651 668 669 0
-651 -668 -669 0
-670 651 0
-670 668 0
670 -651 -668 0
653 670 -671 0
653 -670 671 0
-653 670 671 0
-653 -670 -671 0
-672 653 0
-672 670 0
672 -653 -670 0
-672 0
655 21 -673 0
655 -21 673 0
-655 21 673 0
-655 -21 -673 0
-674 655 0
-674 21 0
674 -655 -21 0
657 674 -675 0
657 -674 675 0
-657 674 675 0
-657 -674 -675 0
-676 657 0
-676 674 0
676 -657 -674 0
659 676 -677 0
659 -676 677 0
-659 676 677 0
-659 -676 -677 0
-678 659 0
-678 676 0
678 -659 -676 0
661 678 -679 0
661 -678 679 0
-661 678 679 0
-661 -678 -679 0
-680 661 0
-680 678 0
680 -661 -678 0
663 680 -681 0
663 -680 681 0
-663 680 681 0
-663 -680 -681 0
-682 663 0
-682 680 0
682 -663 -680 0
665 682 -683 0
665 -682 683 0
-665 682 683 0
-665 -682 -683 0
-684 665 0
-684 682 0
684 -665 -682 0
667 684 -685 0
667 -684 685 0
-667 684 685 0
-667 -684 -685 0
-686 667 0
-686 684 0
686 -667 -684 0
669 686 -687 0
669 -686 687 0
-669 686 687 0
-669 -686 -687 0
-688 669 0
-688 686 0
688 -669 -686 0
671 688 -689 0
671 -688 689 0
-671 688 689 0
-671 -688 -689 0
-690 671 0
-690 688 0
690 -671 -688 0
-690 0
673 22 -691 0
673 -22 691 0
-673 22 691 0
-673 -22 -691 0
-692 673 0
-692 22 0
692 -673 -22 0
675 692 -693 0
675 -692 693 0
-675 692 693 0
-675 -692 -693 0
-694 675 0
-694 692 0
694 -675 -692 0
677 694 -695 0
677 -694 695 0
-677 694 695 0
-677 -694 -695 0
-696 677 0
-696 694 0
696 -677 -694 0
679 696 -697 0
679 -696 697 0
-679 696 697 0
-679 -696 -697 0
-698 679 0
-698 696 0
698 -679 -696 0
681 698 -699 0
681 -698 699 0
-681 698 699 0
-681 -698 -699 0
-700 681 0
-700 698 0
700 -681 -698 0
683 700 -701 0
683 -700 701 0
-683 700 701 0
-683 -700 -701 0
-702 683 0
-702 700 0
702 -683 -700 0
685 702 -703 0
685 -702 703 0
-685 702 703 0
-685 -702 -703 0
-704 685 0
-704 702 0
704 -685 -702 0
687 704 -705 0
687 -704 705 0
-687 704 705 0
-687 -704 -705 0
-706 687 0
-706 704 0
706 -687 -704 0
689 706 -707 0
689 -706 707 0
-689 706 707 0
-689 -706 -707 0
-708 689 0
-708 706 0
708 -689 -706 0
-708 0
691 23 -709 0
691 -23 709 0
-691 23 709 0
-691 -23 -709 0
-710 691 0
-710 23 0
710 -691 -23 0
693 710 -711 0
693 -710 711 0
-693 710 711 0
-693 -710 -711 0
-712 693 0
-712 710 0
712 -693 -710 0
695 712 -713 0
695 -712 713 0
-695 712 713 0
-695 -712 -713 0
-714 695 0
-714 712 0
714 -695 -712 0
697 714 -715 0
697 -714 715 0
-697 714 715 0
-697 -714 -715 0
-716 697 0
-716 714 0
716 -697 -714 0
699 716 -717 0
699 -716 717 0
-699 716 717 0
-699 -716 -717 0
-718 699 0
-718 716 0
718 -699 -716 0
701 718 -719 0
701 -718 719 0
-701 718 719 0
-701 -718 -719 0
-720 701 0
-720 718 0
720 -701 -718 0
703 720 -721 0
703 -720 721 0
-703 720 721 0
-703 -720 -721 0
-722 703 0
-722 720 0
722 -703 -720 0
705 722 -723 0
705 -722 723 0
-705 722 723 0
-705 -722 -723 0
-724 705 0
-724 722 0
724 -705 -722 0
707 724 -725 0
707 -724 725 0
-707 724 725 0
-707 -724 -725 0
-726 707 0
-726 724 0
726 -707 -724 0
-726 0
709 24 -727 0
709 -24 727 0
-709 24 727 0
-709 -24 -727 0
-728 709 0
-728 24 0
728 -709 -24 0
711 728 -729 0
711 -728 729 0
-711 728 729 0
-711 -728 -729 0
-730 711 0
-730 728 0
730 -711 -728 0
713 730 -731 0
713 -730 731 0
-713 730 731 0
-713 -730 -731 0
-732 713 0
-732 730 0
732 -713 -730 0
715 732 -733 0
715 -732 733 0
-715 732 733 0
-715 -732 -733 0
-734 715 0
-734 732 0
734 -715 -732 0
717 734 -735 0
717 -734 735 0
-717 734 735 0
-717 -734 -735 0
-736 717 0
-736 734 0
736 -717 -734 0
719 736 -737 0
719 -736 737 0
-719 736 737 0
-719 -736 -737 0
-738 719 0
-738 736 0
738 -719 -736 0
721 738 -739 0
721 -738 739 0
-721 738 739 0
-721 -738 -739 0
-740 721 0
-740 738 0
740 -721 -738 0
723 740 -741 0
723 -740 741 0
-723 740 741 0
-723 -740 -741 0
-742 723 0
-742 740 0
742 -723 -740 0
725 742 -743 0
725 -742 743 0
-725 742 743 0
-725 -742 -743 0
-744 725 0
-744 742 0
744 -725 -742 0
-744 0
727 25 -745 0
727 -25 745 0
-727 25 745 0
-727 -25 -745 0
-746 727 0
-746 25 0
746 -727 -25 0
729 746 -747 0
729 -746 747 0
-729 746 747 0
-729 -746 -747 0
-748 729 0
-748 746 0
748 -729 -746 0
731 748 -749 0
731 -748 749 0
-731 748 749 0
-731 -748 -749 0
-750 731 0
-750 748 0
750 -731 -748 0
733 750 -751 0
733 -750 751 0
-733 750 751 0
-733 -750 -751 0
-752 733 0
-752 750 0
752 -733 -750 0
735 752 -753 0
735 -752 753 0
-735 752 753 0
-735 -752 -753 0
-754 735 0
-754 752 0
754 -735 -752 0
737 754 -755 0
737 -754 755 0
-737 754 755 0
-737 -754 -755 0
-756 737 0
-756 754 0
756 -737 -754 0
739 756 -757 0
739 -756 757 0
-739 756 757 0
-739 -756 -757 0
-758 739 0
-758 756 0
758 -739 -756 0
741 758 -759 0
741 -758 759 0
-741 758 759 0
-741 -758 -759 0
-760 741 0
-760 758 0
760 -741 -758 0
743 760 -761 0
743 -760 761 0
-743 760 761 0
-743 -760 -761 0
-762 743 0
-762 760 0
762 -743 -760 0
-762 0
745 26 -763 0
745 -26 763 0
-745 26 763 0
-745 -26 -763 0
-764 745 0
-764 26 0
764 -745 -26 0
747 764 -765 0
747 -764 765 0
-747 764 765 0
-747 -764 -765 0
-766 747 0
-766 764 0
766 -747 -764 0
749 766 -767 0
749 -766 767 0
-749 766 767 0
-749 -766 -767 0
-768 749 0
-768 766 0
768 -749 -766 0
751 768 -769 0
751 -768 769 0
-751 768 769 0
-751 -768 -769 0
-770 751 0
-770 768 0
770 -751 -768 0
753 770 -771 0
753 -770 771 0
-753 770 771 0
-753 -770 -771 0
-772 753 0
-772 770 0
772 -753 -770 0
755 772 -773 0
755 -772 773 0
-755 772 773 0
-755 -772 -773 0
-774 755 0
-774 772 0
774 -755 -772 0
757 774 -775 0
757 -774 775 0
-757 774 775 0
-757 -774 -775 0
-776 757 0
-776 774 0
776 -757 -774 0
759 776 -777 0
759 -776 777 0
-759 776 777 0
-759 -776 -777 0
-778 759 0
-778 776 0
778 -759 -776 0
761 778 -779 0
761 -778 779 0
-761 778 779 0
-761 -778 -779 0
-780 761 0
-780 778 0
780 -761 -778 0
-780 0
763 27 -781 0
763 -27 781 0
-763 27 781 0
-763 -27 -781 0
-782 763 0
-782 27 0
782 -763 -27 0
765 782 -783 0
765 -782 783 0
-765 782 783 0
-765 -782 -783 0
-784 765 0
-784 782 0
784 -765 -782 0
767 784 -785 0
767 -784 785 0
-767 784 785 0
-767 -784 -785 0
-786 767 0
-786 784 0
786 -767 -784 0
769 786 -787 0
769 -786 787 0
-769 786 787 0
-769 -786 -787 0
-788 769 0
-788 786 0
788 -769 -786 0
771 788 -789 0
771 -788 789 0
-771 788 789 0
-771 -788 -789 0
-790 771 0
-790 788 0
790 -771 -788 0
773 790 -791 0
773 -790 791 0
-773 790 791 0
-773 -790 -791 0
-792 773 0
-792 790 0
792 -773 -790 0
775 792 -793 0
775 -792 793 0
-775 792 793 0
-775 -792 -793 0
-794 775 0
-794 792 0
794 -775 -792 0
777 794 -795 0
777 -794 795 0
-777 794 795 0
-777 -794 -795 0
-796 777 0
-796 794 0
796 -777 -794 0
779 796 -797 0
779 -796 797 0
-779 796 797 0
-779 -796 -797 0
-798 779 0
-798 796 0
798 -779 -796 0
-798 0
781 28 -799 0
781 -28 799 0
-781 28 799 0
-781 -28 -799 0
-800 781 0
-800 28 0
800 -781 -28 0
783 800 -801 0
783 -800 801 0
-783 800 801 0
-783 -800 -801 0
-802 783 0
-802 800 0
802 -783 -800 0
785 802 -803 0
785 -802 803 0
-785 802 803 0
-785 -802 -803 0
-804 785 0
-804 802 0
804 -785 -802 0
787 804 -805 0
787 -804 805 0
-787 804 805 0
-787 -804 -805 0
-806 787 0
-806 804 0
806 -787 -804 0
789 806 -807 0
789 -806 807 0
-789 806 807 0
-789 -806 -807 0
-808 789 0
-808 806 0
808 -789 -806 0
791 808 -809 0
791 -808 809 0
-791 808 809 0
-791 -808 -809 0
-810 791 0
-810 808 0
810 -791 -808 0
793 810 -811 0
793 -810 811 0
-793 810 811 0
-793 -810 -811 0
-812 793 0
-812 810 0
812 -793 -810 0
795 812 -813 0
795 -812 813 0
-795 812 813 0
-795 -812 -813 0
-814 795 0
-814 812 0
814 -795 -812 0
797 814 -815 0
797 -814 815 0
-797 814 815 0
-797 -814 -815 0
-816 797 0
-816 814 0
816 -797 -814 0
-816 0
799 29 -817 0
799 -29 817 0
-799 29 817 0
-799 -29 -817 0
-818 799 0
-818 29 0
818 -799 -29 0
801 818 -819 0
801 -818 819 0
-801 818 819 0
-801 -818 -819 0
-820 801 0
-820 818 0
820 -801 -818 0
803 820 -821 0
803 -820 821 0
-803 820 821 0
-803 -820 -821 0
-822 803 0
-822 820 0
822 -803 -820 0
805 822 -823 0
805 -822 823 0
-805 822 823 0
-805 -822 -823 0
-824 805 0
-824 822 0
824 -805 -822 0
807 824 -825 0
807 -824 825 0
-807 824 825 0
-807 -824 -825 0
-826 807 0
-826 824 0
826 -807 -824 0
809 826 -827 0
809 -826 827 0
-809 826 827 0
-809 -826 -827 0
-828 809 0
-828 826 0
828 -809 -826 0
811 828 -829 0
811 -828 829 0
-811 828 829 0
-811 -828 -829 0
-830 811 0
-830 828 0
830 -811 -828 0
813 830 -831 0
813 -830 831 0
-813 830 831 0
-813 -830 -831 0
-832 813 0
-832 830 0
832 -813 -830 0
815 832 -833 0
815 -832 833 0
-815 832 833 0
-815 -832 -833 0
-834 815 0
-834 832 0
834 -815 -832 0
-834 0
817 30 -835 0
817 -30 835 0
-817 30 835 0
-817 -30 -835 0
-836 817 0
-836 30 0
836 -817 -30 0
819 836 -837 0
819 -836 837 0
-819 836 837 0
-819 -836 -837 0
-838 819 0
-838 836 0
838 -819 -836 0
821 838 -839 0
821 -838 839 0
-821 838 839 0
-821 -838 -839 0
-840 821 0
-840 838 0
840 -821 -838 0
823 840 -841 0
823 -840 841 0
-823 840 841 0
-823 -840 -841 0
-842 823 0
-842 840 0
842 -823 -840 0
825 842 -843 0
825 -842 843 0
-825 842 843 0
-825 -842 -843 0
-844 825 0
-844 842 0
844 -825 -842 0
827 844 -845 0
827 -844 845 0
-827 844 845 0
-827 -844 -845 0
-846 827 0
-846 844 0
846 -827 -844 0
829 846 -847 0
829 -846 847 0
-829 846 847 0
-829 -846 -847 0
-848 829 0
-848 846 0
848 -829 -846 0
831 848 -849 0
831 -848 849 0
-831 848 849 0
-831 -848 -849 0
-850 831 0
-850 848 0
850 -831 -848 0
833 850 -851 0
833 -850 851 0
-833 850 851 0
-833 -850 -851 0
-852 833 0
-852 850 0
852 -833 -850 0
-852 0
835 31 -853 0
835 -31 853 0
-835 31 853 0
-835 -31 -853 0
-854 835 0
-854 31 0
854 -835 -31 0
837 854 -855 0
837 -854 855 0
-837 854 855 0
-837 -854 -855 0
-856 837 0
-856 854 0
856 -837 -854 0
839 856 -857 0
839 -856 857 0
-839 856 857 0
-839 -856 -857 0
-858 839 0
-858 856 0
858 -839 -856 0
841 858 -859 0
841 -858 859 0
-841 858 859 0
-841 -858 -859 0
-860 841 0
-860 858 0
860 -841 -858 0
843 860 -861 0
843 -860 861 0
-843 860 861 0
-843 -860 -861 0
-862 843 0
-862 860 0
862 -843 -860 0
845 862 -863 0
845 -862 863 0
-845 862 863 0
-845 -862 -863 0
-864 845 0
-864 862 0
864 -845 -862 0
847 864 -865 0
847 -864 865 0
-847 864 865 0
-847 -864 -865 0
-866 847 0
-866 864 0
866 -847 -864 0
849 866 -867 0
849 -866 867 0
-849 866 867 0
-849 -866 -867 0
-868 849 0
-868 866 0
868 -849 -866 0
851 868 -869 0
851 -868 869 0
-851 868 869 0
-851 -868 -869 0
-870 851 0
-870 868 0
870 -851 -868 0
-870 0
853 32 -871 0
853 -32 871 0
-853 32 871 0
-853 -32 -871 0
-872 853 0
-872 32 0
872 -853 -32 0
855 872 -873 0
855 -872 873 0
-855 872 873 0
-855 -872 -873 0
-874 855 0
-874 872 0
874 -855 -872 0
857 874 -875 0
857 -874 875 0
-857 874 875 0
-857 -874 -875 0
-876 857 0
-876 874 0
876 -857 -874 0
859 876 -877 0
859 -876 877 0
-859 876 877 0
-859 -876 -877 0
-878 859 0
-878 876 0
878 -859 -876 0
861 878 -879 0
861 -878 879 0
-861 878 879 0
-861 -878 -879 0
-880 861 0
-880 878 0
880 -861 -878 0
863 880 -881 0
863 -880 881 0
-863 880 881 0
-863 -880 -881 0
-882 863 0
-882 880 0
882 -863 -880 0
865 882 -883 0
865 -882 883 0
-865 882 883 0
-865 -882 -883 0
-884 865 0
-884 882 0
884 -865 -882 0
867 884 -885 0
867 -884 885 0
-867 884 885 0
-867 -884 -885 0
-886 867 0
-886 884 0
886 -867 -884 0
869 886 -887 0
869 -886 887 0
-869 886 887 0
-869 -886 -887 0
-888 869 0
-888 886 0
888 -869 -886 0
-888 0
871 33 -889 0
871 -33 889 0
-871 33 889 0
-871 -33 -889 0
-890 871 0
-890 33 0
890 -871 -33 0
873 890 -891 0
873 -890 891 0
-873 890 891 0
-873 -890 -891 0
-892 873 0
-892 890 0
892 -873 -890 0
875 892 -893 0
875 -892 893 0
-875 892 893 0
-875 -892 -893 0
-894 875 0
-894 892 0
894 -875 -892 0
877 894 -895 0
877 -894 895 0
-877 894 895 0
-877 -894 -895 0
-896 877 0
-896 894 0
896 -877 -894 0
879 896 -897 0
879 -896 897 0
-879 896 897 0
-879 -896 -897 0
-898 879 0
-898 896 0
898 -879 -896 0
881 898 -899 0
881 -898 899 0
-881 898 899 0
-881 -898 -899 0
-900 881 0
-900 898 0
900 -881 -898 0
883 900 -901 0
883 -900 901 0
-883 900 901 0
-883 -900 -901 0
-902 883 0
-902 900 0
902 -883 -900 0
885 902 -903 0
885 -902 903 0
-885 902 903 0
-885 -902 -903 0
-904 885 0
-904 902 0
904 -885 -902 0
887 904 -905 0
887 -904 905 0
-887 904 905 0
-887 -904 -905 0
-906 887 0
-906 904 0
906 -887 -904 0
-906 0
889 34 -907 0
889 -34 907 0
-889 34 907 0
-889 -34 -907 0
-908 889 0
-908 34 0
908 -889 -34 0
891 908 -909 0
891 -908 909 0
-891 908 909 0
-891 -908 -909 0
-910 891 0
-910 908 0
910 -891 -908 0
893 910 -911 0
893 -910 911 0
-893 910 911 0
-893 -910 -911 0
-912 893 0
-912 910 0
912 -893 -910 0
895 912 -913 0
895 -912 913 0
-895 912 913 0
-895 -912 -913 0
-914 895 0
-914 912 0
914 -895 -912 0
897 914 -915 0
897 -914 915 0
-897 914 915 0
-897 -914 -915 0
-916 897 0
-916 914 0
916 -897 -914 0
899 916 -917 0
899 -916 917 0
-899 916 917 0
-899 -916 -917 0
-918 899 0
-918 916 0
918 -899 -916 0
901 918 -919 0
901 -918 919 0
-901 918 919 0
-901 -918 -919 0
-920 901 0
-920 918 0
920 -901 -918 0
903 920 -921 0
903 -920 921 0
-903 920 921 0
-903 -920 -921 0
-922 903 0
-922 920 0
922 -903 -920 0
905 922 -923 0
905 -922 923 0
-905 922 923 0
-905 -922 -923 0
-924 905 0
-924 922 0
924 -905 -922 0
-924 0
907 35 -925 0
907 -35 925 0
-907 35 925 0
-907 -35 -925 0
-926 907 0
-926 35 0
926 -907 -35 0
909 926 -927 0
909 -926 927 0
-909 926 927 0
-909 -926 -927 0
-928 909 0
-928 926 0
928 -909 -926 0
911 928 -929 0
911 -928 929 0
-911 928 929 0
-911 -928 -929 0
-930 911 0
-930 928 0
930 -911 -928 0
913 930 -931 0
913 -930 931 0
-913 930 931 0
-913 -930 -931 0
-932 913 0
-932 930 0
932 -913 -930 0
915 932 -933 0
915 -932 933 0
-915 932 933 0
-915 -932 -933 0
-934 915 0
-934 932 0
934 -915 -932 0
917 934 -935 0
917 -934 935 0
-917 934 935 0
-917 -934 -935 0
-936 917 0
-936 934 0
936 -917 -934 0
919 936 -937 0
919 -936 937 0
-919 936 937 0
-919 -936 -937 0
-938 919 0
-938 936 0
938 -919 -936 0
921 938 -939 0
921 -938 939 0
-921 938 939 0
-921 -938 -939 0
-940 921 0
-940 938 0
940 -921 -938 0
923 940 -941 0
923 -940 941 0
-923 940 941 0
-923 -940 -941 0
-942 923 0
-942 940 0
942 -923 -940 0
-942 0
925 36 -943 0
925 -36 943 0
-925 36 943 0
-925 -36 -943 0
-944 925 0
-944 36 0
944 -925 -36 0
927 944 -945 0
927 -944 945 0
-927 944 945 0
-927 -944 -945 0
-946 927 0
-946 944 0
946 -927 -944 0
929 946 -947 0
929 -946 947 0
-929 946 947 0
-929 -946 -947 0
-948 929 0
-948 946 0
948 -929 -946 0
931 948 -949 0
931 -948 949 0
-931 948 949 0
-931 -948 -949 0
-950 931 0
-950 948 0
950 -931 -948 0
933 950 -951 0
933 -950 951 0
-933 950 951 0
-933 -950 -951 0
-952 933 0
-952 950 0
952 -933 -950 0
935 952 -953 0
935 -952 953 0
-935 952 953 0
-935 -952 -953 0
-954 935 0
-954 952 0
954 -935 -952 0
937 954 -955 0
937 -954 955 0
-937 954 955 0
-937 -954 -955 0
-956 937 0
-956 954 0
956 -937 -954 0
939 956 -957 0
939 -956 957 0
-939 956 957 0
-939 -956 -957 0
-958 939 0
-958 956 0
958 -939 -956 0
941 958 -959 0
941 -958 959 0
-941 958 959 0
-941 -958 -959 0
-960 941 0
-960 958 0
960 -941 -958 0
-960 0
943 37 -961 0
943 -37 961 0
-943 37 961 0
-943 -37 -961 0
-962 943 0
-962 37 0
962 -943 -37 0
945 962 -963 0
945 -962 963 0
-945 962 963 0
-945 -962 -963 0
-964 945 0
-964 962 0
964 -945 -962 0
947 964 -965 0
947 -964 965 0
-947 964 965 0
-947 -964 -965 0
-966 947 0
-966 964 0
966 -947 -964 0
949 966 -967 0
949 -966 967 0
-949 966 967 0
-949 -966 -967 0
-968 949 0
-968 966 0
968 -949 -966 0
951 968 -969 0
951 -968 969 0
-951 968 969 0
-951 -968 -969 0
-970 951 0
-970 968 0
970 -951 -968 0
953 970 -971 0
953 -970 971 0
-953 970 971 0
-953 -970 -971 0
-972 953 0
-972 970 0
972 -953 -970 0
955 972 -973 0
955 -972 973 0
-955 972 973 0
-955 -972 -973 0
-974 955 0
-974 972 0
974 -955 -972 0
957 974 -975 0
957 -974 975 0
-957 974 975 0
-957 -974 -975 0
-976 957 0
-976 974 0
976 -957 -974 0
959 976 -977 0
959 -976 977 0
-959 976 977 0
-959 -976 -977 0
-978 959 0
-978 976 0
978 -959 -976 0
-978 0
961 38 -979 0
961 -38 979 0
-961 38 979 0
-961 -38 -979 0
-980 961 0
-980 38 0
980 -961 -38 0
963 980 -981 0
963 -980 981 0
-963 980 981 0
-963 -980 -981 0
-982 963 0
-982 980 0
982 -963 -980 0
965 982 -983 0
965 -982 983 0
-965 982 983 0
-965 -982 -983 0
-984 965 0
-984 982 0
984 -965 -982 0
967 984 -985 0
967 -984 985 0
-967 984 985 0
-967 -984 -985 0
-986 967 0
-986 984 0
986 -967 -984 0
969 986 -987 0
969 -986 987 0
-969 986 987 0
-969 -986 -987 0
-988 969 0
-988 986 0
988 -969 -986 0
971 988 -989 0
971 -988 989 0
-971 988 989 0
-971 -988 -989 0
-990 971 0
-990 988 0
990 -971 -988 0
973 990 -991 0
973 -990 991 0
-973 990 991 0
-973 -990 -991 0
-992 973 0
-992 990 0
992 -973 -990 0
975 992 -993 0
975 -992 993 0
-975 992 993 0
-975 -992 -993 0
-994 975 0
-994 992 0
994 -975 -992 0
977 994 -995 0
977 -994 995 0
-977 994 995 0
-977 -994 -995 0
-996 977 0
-996 994 0
996 -977 -994 0
-996 0
979 39 -997 0
979 -39 997 0
-979 39 997 0
-979 -39 -997 0
-998 979 0
-998 39 0
998 -979 -39 0
981 998 -999 0
981 -998 999 0
-981 998 999 0
-981 -998 -999 0
-1000 981 0
-1000 998 0
1000 -981 -998 0
983 1000 -1001 0
983 -1000 1001 0
-983 1000 1001 0
-983 -1000 -1001 0
-1002 983 0
-1002 1000 0
1002 -983 -1000 0
985 1002 -1003 0
985 -1002 1003 0
-985 1002 1003 0
-985 -1002 -1003 0
-1004 985 0
-1004 1002 0
1004 -985 -1002 0
987 1004 -1005 0
987 -1004 1005 0
-987 1004 1005 0
-987 -1004 -1005 0
-1006 987 0
-1006 1004 0
1006 -987 -1004 0
989 1006 -1007 0
989 -1006 1007 0
-989 1006 1007 0
-989 -1006 -1007 0
-1008 989 0
-1008 1006 0
1008 -989 -1006 0
991 1008 -1009 0
991 -1008 1009 0
-991 1008 1009 0
-991 -1008 -1009 0
-1010 991 0
-1010 1008 0
1010 -991 -1008 0
993 1010 -1011 0
993 -1010 1011 0
-993 1010 1011 0
-993 -1010 -1011 0
-1012 993 0
-1012 1010 0
1012 -993 -1010 0
995 1012 -1013 0
995 -1012 1013 0
-995 1012 1013 0
-995 -1012 -1013 0
-1014 995 0
-1014 1012 0
1014 -995 -1012 0
-1014 0
997 40 -1015 0
997 -40 1015 0
-997 40 1015 0
-997 -40 -1015 0
-1016 997 0
-1016 40 0
1016 -997 -40 0
999 1016 -1017 0
999 -1016 1017 0
-999 1016 1017 0
-999 -1016 -1017 0
-1018 999 0
-1018 1016 0
1018 -999 -1016 0
1001 1018 -1019 0
1001 -1018 1019 0
-1001 1018 1019 0
-1001 -1018 -1019 0
-1020 1001 0
-1020 1018 0
1020 -1001 -1018 0
1003 1020 -1021 0
1003 -1020 1021 0
-1003 1020 1021 0
-1003 -1020 -1021 0
-1022 1003 0
-1022 1020 0
1022 -1003 -1020 0
1005 1022 -1023 0
1005 -1022 1023 0
-1005 1022 1023 0
-1005 -1022 -1023 0
-1024 1005 0
-1024 1022 0
1024 -1005 -1022 0
1007 1024 -1025 0
1007 -1024 1025 0
-1007 1024 1025 0
-1007 -1024 -1025 0
-1026 1007 0
-1026 1024 0
1026 -1007 -1024 0
1009 1026 -1027 0
1009 -1026 1027 0
-1009 1026 1027 0
-1009 -1026 -1027 0
-1028 1009 0
-1028 1026 0
1028 -1009 -1026 0
1011 1028 -1029 0
1011 -1028 1029 0
-1011 1028 1029 0
-1011 -1028 -1029 0
-1030 1011 0
-1030 1028 0
1030 -1011 -1028 0
1013 1030 -1031 0
1013 -1030 1031 0
-1013 1030 1031 0
-1013 -1030 -1031 0
-1032 1013 0
-1032 1030 0
1032 -1013 -1030 0
-1032 0
1015 41 -1033 0
1015 -41 1033 0
-1015 41 1033 0
-1015 -41 -1033 0
-1034 1015 0
-1034 41 0
1034 -1015 -41 0
1017 1034 -1035 0
1017 -1034 1035 0
-1017 1034 1035 0
-1017 -1034 -1035 0
-1036 1017 0
-1036 1034 0
1036 -1017 -1034 0
1019 1036 -1037 0
1019 -1036 1037 0
-1019 1036 1037 0
-1019 -1036 -1037 0
-1038 1019 0
-1038 1036 0
1038 -1019 -1036 0
1021 1038 -1039 0
1021 -1038 1039 0
-1021 1038 1039 0
-1021 -1038 -1039 0
-1040 1021 0
-1040 1038 0
1040 -1021 -1038 0
1023 1040 -1041 0
1023 -1040 1041 0
-1023 1040 1041 0
-1023 -1040 -1041 0
-1042 1023 0
-1042 1040 0
1042 -1023 -1040 0
1025 1042 -1043 0
1025 -1042 1043 0
-1025 1042 1043 0
-1025 -1042 -1043 0
-1044 1025 0
-1044 1042 0
1044 -1025 -1042 0
1027 1044 -1045 0
1027 -1044 1045 0
-1027 1044 1045 0
-1027 -1044 -1045 0
-1046 1027 0
-1046 1044 0
1046 -1027 -1044 0
1029 1046 -1047 0
1029 -1046 1047 0
-1029 1046 1047 0
-1029 -1046 -1047 0
-1048 1029 0
-1048 1046 0
1048 -1029 -1046 0
1031 1048 -1049 0
1031 -1048 1049 0
-1031 1048 1049 0
-1031 -1048 -1049 0
-1050 1031 0
-1050 1048 0
1050 -1031 -1048 0
-1050 0
1033 42 -1051 0
1033 -42 1051 0
-1033 42 1051 0
-1033 -42 -1051 0
-1052 1033 0
-1052 42 0
1052 -1033 -42 0
1035 1052 -1053 0
1035 -1052 1053 0
-1035 1052 1053 0
-1035 -1052 -1053 0
-1054 1035 0
-1054 1052 0
1054 -1035 -1052 0
1037 1054 -1055 0
1037 -1054 1055 0
-1037 1054 1055 0
-1037 -1054 -1055 0
-1056 1037 0
-1056 1054 0
1056 -1037 -1054 0
1039 1056 -1057 0
1039 -1056 1057 0
-1039 1056 1057 0
-1039 -1056 -1057 0
-1058 1039 0
-1058 1056 0
1058 -1039 -1056 0
1041 1058 -1059 0
1041 -1058 1059 0
-1041 1058 1059 0
-1041 -1058 -1059 0
-1060 1041 0
-1060 1058 0
1060 -1041 -1058 0
1043 1060 -1061 0
1043 -1060 1061 0
-1043 1060 1061 0
-1043 -1060 -1061 0
-1062 1043 0
-1062 1060 0
1062 -1043 -1060 0
1045 1062 -1063 0
1045 -1062 1063 0
-1045 1062 1063 0
-1045 -1062 -1063 0
-1064 1045 0
-1064 1062 0
1064 -1045 -1062 0
1047 1064 -1065 0
1047 -1064 1065 0
-1047 1064 1065 0
-1047 -1064 -1065 0
-1066 1047 0
-1066 1064 0
1066 -1047 -1064 0
1049 1066 -1067 0
1049 -1066 1067 0
-1049 1066 1067 0
-1049 -1066 -1067 0
-1068 1049 0
-1068 1066 0
1068 -1049 -1066 0
-1068 0
1051 43 -1069 0
1051 -43 1069 0
-1051 43 1069 0
-1051 -43 -1069 0
-1070 1051 0
-1070 43 0
1070 -1051 -43 0
1053 1070 -1071 0
1053 -1070 1071 0
-1053 1070 1071 0
-1053 -1070 -1071 0
-1072 1053 0
-1072 1070 0
1072 -1053 -1070 0
1055 1072 -1073 0
1055 -1072 1073 0
-1055 1072 1073 0
-1055 -1072 -1073 0
-1074 1055 0
-1074 1072 0
1074 -1055 -1072 0
1057 1074 -1075 0
1057 -1074 1075 0
-1057 1074 1075 0
-1057 -1074 -1075 0
-1076 1057 0
-1076 1074 0
1076 -1057 -1074 0
1059 1076 -1077 0
1059 -1076 1077 0
-1059 1076 1077 0
-1059 -1076 -1077 0
-1078 1059 0
-1078 1076 0
1078 -1059 -1076 0
1061 1078 -1079 0
1061 -1078 1079 0
-1061 1078 1079 0
-1061 -1078 -1079 0
-1080 1061 0
-1080 1078 0
1080 -1061 -1078 0
1063 1080 -1081 0
1063 -1080 1081 0
-1063 1080 1081 0
-1063 -1080 -1081 0
-1082 1063 0
-1082 1080 0
1082 -1063 -1080 0
1065 1082 -1083 0
1065 -1082 1083 0
-1065 1082 1083 0
-1065 -1082 -1083 0
-1084 1065 0
-1084 1082 0
1084 -1065 -1082 0
1067 1084 -1085 0
1067 -1084 1085 0
-1067 1084 1085 0
-1067 -1084 -1085 0
-1086 1067 0
-1086 1084 0
1086 -1067 -1084 0
-1086 0
1069 44 -1087 0
1069 -44 1087 0
-1069 44 1087 0
-1069 -44 -1087 0
-1088 1069 0
-1088 44 0
1088 -1069 -44 0
1071 1088 -1089 0
1071 -1088 1089 0
-1071 1088 1089 0
-1071 -1088 -1089 0
-1090 1071 0
-1090 1088 0
1090 -1071 -1088 0
1073 1090 -1091 0
1073 -1090 1091 0
-1073 1090 1091 0
-1073 -1090 -1091 0
-1092 1073 0
-1092 1090 0
1092 -1073 -1090 0
1075 1092 -1093 0
1075 -1092 1093 0
-1075 1092 1093 0
-1075 -1092 -1093 0
-1094 1075 0
-1094 1092 0
1094 -1075 -1092 0
1077 1094 -1095 0
1077 -1094 1095 0
-1077 1094 1095 0
-1077 -1094 -1095 0
-1096 1077 0
-1096 1094 0
1096 -1077 -1094 0
1079 1096 -1097 0
1079 -1096 1097 0
-1079 1096 1097 0
-1079 -1096 -1097 0
-1098 1079 0
-1098 1096 0
1098 -1079 -1096 0
1081 1098 -1099 0
1081 -1098 1099 0
-1081 1098 1099 0
-1081 -1098 -1099 0
-1100 1081 0
-1100 1098 0
1100 -1081 -1098 0
1083 1100 -1101 0
1083 -1100 1101 0
-1083 1100 1101 0
-1083 -1100 -1101 0
-1102 1083 0
-1102 1100 0
1102 -1083 -1100 0
1085 1102 -1103 0
1085 -1102 1103 0
-1085 1102 1103 0
-1085 -1102 -1103 0
-1104 1085 0
-1104 1102 0
1104 -1085 -1102 0
-1104 0
1087 45 -1105 0
1087 -45 1105 0
-1087 45 1105 0
-1087 -45 -1105 0
-1106 1087 0
-1106 45 0
1106 -1087 -45 0
1089 1106 -1107 0
1089 -1106 1107 0
-1089 1106 1107 0
-1089 -1106 -1107 0
-1108 1089 0
-1108 1106 0
1108 -1089 -1106 0
1091 1108 -1109 0
1091 -1108 1109 0
-1091 1108 1109 0
-1091 -1108 -1109 0
-1110 1091 0
-1110 1108 0
1110 -1091 -1108 0
1093 1110 -1111 0
1093 -1110 1111 0
-1093 1110 1111 0
-1093 -1110 -1111 0
-1112 1093 0
-1112 1110 0
1112 -1093 -1110 0
1095 1112 -1113 0
1095 -1112 1113 0
-1095 1112 1113 0
-1095 -1112 -1113 0
-1114 1095 0
-1114 1112 0
1114 -1095 -1112 0
1097 1114 -1115 0
1097 -1114 1115 0
-1097 1114 1115 0
-1097 -1114 -1115 0
-1116 1097 0
-1116 1114 0
1116 -1097 -1114 0
1099 1116 -1117 0
1099 -1116 1117 0
-1099 1116 1117 0
-1099 -1116 -1117 0
-1118 1099 0
-1118 1116 0
1118 -1099 -1116 0
1101 1118 -1119 0
1101 -1118 1119 0
-1101 1118 1119 0
-1101 -1118 -1119 0
-1120 1101 0
-1120 1118 0
1120 -1101 -1118 0
1103 1120 -1121 0
1103 -1120 1121 0
-1103 1120 1121 0
-1103 -1120 -1121 0
-1122 1103 0
-1122 1120 0
1122 -1103 -1120 0
-1122 0
1105 46 -1123 0
1105 -46 1123 0
-1105 46 1123 0
-1105 -46 -1123 0
-1124 1105 0
-1124 46 0
1124 -1105 -46 0
1107 1124 -1125 0
1107 -1124 1125 0
-1107 1124 1125 0
-1107 -1124 -1125 0
-1126 1107 0
-1126 1124 0
1126 -1107 -1124 0
1109 1126 -1127 0
1109 -1126 1127 0
-1109 1126 1127 0
-1109 -1126 -1127 0
-1128 1109 0
-1128 1126 0
1128 -1109 -1126 0
1111 1128 -1129 0
1111 -1128 1129 0
-1111 1128 1129 0
-1111 -1128 -1129 0
-1130 1111 0
-1130 1128 0
1130 -1111 -1128 0
1113 1130 -1131 0
1113 -1130 1131 0
-1113 1130 1131 0
-1113 -1130 -1131 0
-1132 1113 0
-1132 1130 0
1132 -1113 -1130 0
1115 1132 -1133 0
1115 -1132 1133 0
-1115 1132 1133 0
-1115 -1132 -1133 0
-1134 1115 0
-1134 1132 0
1134 -1115 -1132 0
1117 1134 -1135 0
1117 -1134 1135 0
-1117 1134 1135 0
-1117 -1134 -1135 0
-1136 1117 0
-1136 1134 0
1136 -1117 -1134 0
1119 1136 -1137 0
1119 -1136 1137 0
-1119 1136 1137 0
-1119 -1136 -1137 0
-1138 1119 0
-1138 1136 0
1138 -1119 -1136 0
1121 1138 -1139 0
1121 -1138 1139 0
-1121 1138 1139 0
-1121 -1138 -1139 0
-1140 1121 0
-1140 1138 0
1140 -1121 -1138 0
-1140 0
1123 47 -1141 0
1123 -47 1141 0
-1123 47 1141 0
-1123 -47 -1141 0
-1142 1123 0
-1142 47 0
1142 -1123 -47 0
1125 1142 -1143 0
1125 -1142 1143 0
-1125 1142 1143 0
-1125 -1142 -1143 0
-1144 1125 0
-1144 1142 0
1144 -1125 -1142 0
1127 1144 -1145 0
1127 -1144 1145 0
-1127 1144 1145 0
-1127 -1144 -1145 0
-1146 1127 0
-1146 1144 0
1146 -1127 -1144 0
1129 1146 -1147 0
1129 -1146 1147 0
-1129 1146 1147 0
-1129 -1146 -1147 0
-1148 1129 0
-1148 1146 0
1148 -1129 -1146 0
1131 1148 -1149 0
1131 -1148 1149 0
-1131 1148 1149 0
-1131 -1148 -1149 0
-1150 1131 0
-1150 1148 0
1150 -1131 -1148 0
1133 1150 -1151 0
1133 -1150 1151 0
-1133 1150 1151 0
-1133 -1150 -1151 0
-1152 1133 0
-1152 1150 0
1152 -1133 -1150 0
1135 1152 -1153 0
1135 -1152 1153 0
-1135 1152 1153 0
-1135 -1152 -1153 0
-1154 1135 0
-1154 1152 0
1154 -1135 -1152 0
1137 1154 -1155 0
1137 -1154 1155 0
-1137 1154 1155 0
-1137 -1154 -1155 0
-1156 1137 0
-1156 1154 0
1156 -1137 -1154 0
1139 1156 -1157 0
1139 -1156 1157 0
-1139 1156 1157 0
-1139 -1156 -1157 0
-1158 1139 0
-1158 1156 0
1158 -1139 -1156 0
-1158 0
1141 48 -1159 0
1141 -48 1159 0
-1141 48 1159 0
-1141 -48 -1159 0
-1160 1141 0
-1160 48 0
1160 -1141 -48 0
1143 1160 -1161 0
1143 -1160 1161 0
-1143 1160 1161 0
-1143 -1160 -1161 0
-1162 1143 0
-1162 1160 0
1162 -1143 -1160 0
1145 1162 -1163 0
1145 -1162 1163 0
-1145 1162 1163 0
-1145 -1162 -1163 0
-1164 1145 0
-1164 1162 0
1164 -1145 -1162 0
1147 1164 -1165 0
1147 -1164 1165 0
-1147 1164 1165 0
-1147 -1164 -1165 0
-1166 1147 0
-1166 1164 0
1166 -1147 -1164 0
1149 1166 -1167 0
1149 -1166 1167 0
-1149 1166 1167 0
-1149 -1166 -1167 0
-1168 1149 0
-1168 1166 0
1168 -1149 -1166 0
1151 1168 -1169 0
1151 -1168 1169 0
-1151 1168 1169 0
-1151 -1168 -1169 0
-1170 1151 0
-1170 1168 0
1170 -1151 -1168 0
1153 1170 -1171 0
1153 -1170 1171 0
-1153 1170 1171 0
-1153 -1170 -1171 0
-1172 1153 0
-1172 1170 0
1172 -1153 -1170 0
1155 1172 -1173 0
1155 -1172 1173 0
-1155 1172 1173 0
-1155 -1172 -1173 0
-1174 1155 0
-1174 1172 0
1174 -1155 -1172 0
1157 1174 -1175 0
1157 -1174 1175 0
-1157 1174 1175 0
-1157 -1174 -1175 0
-1176 1157 0
-1176 1174 0
1176 -1157 -1174 0
-1176 0
1159 49 -1177 0
1159 -49 1177 0
-1159 49 1177 0
-1159 -49 -1177 0
-1178 1159 0
-1178 49 0
1178 -1159 -49 0
1161 1178 -1179 0
1161 -1178 1179 0
-1161 1178 1179 0
-1161 -1178 -1179 0
-1180 1161 0
-1180 1178 0
1180 -1161 -1178 0
1163 1180 -1181 0
1163 -1180 1181 0
-1163 1180 1181 0
-1163 -1180 -1181 0
-1182 1163 0
-1182 1180 0
1182 -1163 -1180 0
1165 1182 -1183 0
1165 -1182 1183 0
-1165 1182 1183 0
-1165 -1182 -1183 0
-1184 1165 0
-1184 1182 0
1184 -1165 -1182 0
1167 1184 -1185 0
1167 -1184 1185 0
-1167 1184 1185 0
-1167 -1184 -1185 0
-1186 1167 0
-1186 1184 0
1186 -1167 -1184 0
1169 1186 -1187 0
1169 -1186 1187 0
-1169 1186 1187 0
-1169 -1186 -1187 0
-1188 1169 0
-1188 1186 0
1188 -1169 -1186 0
1171 1188 -1189 0
1171 -1188 1189 0
-1171 1188 1189 0
-1171 -1188 -1189 0
-1190 1171 0
-1190 1188 0
1190 -1171 -1188 0
1173 1190 -1191 0
1173 -1190 1191 0
-1173 1190 1191 0
-1173 -1190 -1191 0
-1192 1173 0
-1192 1190 0
1192 -1173 -1190 0
1175 1192 -1193 0
1175 -1192 1193 0
-1175 1192 1193 0
-1175 -1192 -1193 0
-1194 1175 0
-1194 1192 0
1194 -1175 -1192 0
-1194 0
1177 50 -1195 0
1177 -50 1195 0
-1177 50 1195 0
-1177 -50 -1195 0
-1196 1177 0
-1196 50 0
1196 -1177 -50 0
1179 1196 -1197 0
1179 -1196 1197 0
-1179 1196 1197 0
-1179 -1196 -1197 0
-1198 1179 0
-1198 1196 0
1198 -1179 -1196 0
1181 1198 -1199 0
1181 -1198 1199 0
-1181 1198 1199 0
-1181 -1198 -1199 0
-1200 1181 0
-1200 1198 0
1200 -1181 -1198 0
1183 1200 -1201 0
1183 -1200 1201 0
-1183 1200 1201 0
-1183 -1200 -1201 0
-1202 1183 0
-1202 1200 0
1202 -1183 -1200 0
1185 1202 -1203 0
1185 -1202 1203 0
-1185 1202 1203 0
-1185 -1202 -1203 0
-1204 1185 0
-1204 1202 0
1204 -1185 -1202 0
1187 1204 -1205 0
1187 -1204 1205 0
-1187 1204 1205 0
-1187 -1204 -1205 0
-1206 1187 0
-1206 1204 0
1206 -1187 -1204 0
1189 1206 -1207 0
1189 -1206 1207 0
-1189 1206 1207 0
-1189 -1206 -1207 0
-1208 1189 0
-1208 1206 0
1208 -1189 -1206 0
1191 1208 -1209 0
1191 -1208 1209 0
-1191 1208 1209 0
-1191 -1208 -1209 0
-1210 1191 0
-1210 1208 0
1210 -1191 -1208 0
1193 1210 -1211 0
1193 -1210 1211 0
-1193 1210 1211 0
-1193 -1210 -1211 0
-1212 1193 0
-1212 1210 0
1212 -1193 -1210 0
-1212 0
1195 51 -1213 0
1195 -51 1213 0
-1195 51 1213 0
-1195 -51 -1213 0
-1214 1195 0
-1214 51 0
1214 -1195 -51 0
1197 1214 -1215 0
1197 -1214 1215 0
-1197 1214 1215 0
-1197 -1214 -1215 0
-1216 1197 0
-1216 1214 0
1216 -1197 -1214 0
1199 1216 -1217 0
1199 -1216 1217 0
-1199 1216 1217 0
-1199 -1216 -1217 0
-1218 1199 0
-1218 1216 0
1218 -1199 -1216 0
1201 1218 -1219 0
1201 -1218 1219 0
-1201 1218 1219 0
-1201 -1218 -1219 0
-1220 1201 0
-1220 1218 0
1220 -1201 -1218 0
1203 1220 -1221 0
1203 -1220 1221 0
-1203 1220 1221 0
-1203 -1220 -1221 0
-1222 1203 0
-1222 1220 0
1222 -1203 -1220 0
1205 1222 -1223 0
1205 -1222 1223 0
-1205 1222 1223 0
-1205 -1222 -1223 0
-1224 1205 0
-1224 1222 0
1224 -1205 -1222 0
1207 1224 -1225 0
1207 -1224 1225 0
-1207 1224 1225 0
-1207 -1224 -1225 0
-1226 1207 0
-1226 1224 0
1226 -1207 -1224 0
1209 1226 -1227 0
1209 -1226 1227 0
-1209 1226 1227 0
-1209 -1226 -1227 0
-1228 1209 0
-1228 1226 0
1228 -1209 -1226 0
1211 1228 -1229 0
1211 -1228 1229 0
-1211 1228 1229 0
-1211 -1228 -1229 0
-1230 1211 0
-1230 1228 0
1230 -1211 -1228 0
-1230 0
1213 52 -1231 0
1213 -52 1231 0
-1213 52 1231 0
-1213 -52 -1231 0
-1232 1213 0
-1232 52 0
1232 -1213 -52 0
1215 1232 -1233 0
1215 -1232 1233 0
-1215 1232 1233 0
-1215 -1232 -1233 0
-1234 1215 0
-1234 1232 0
1234 -1215 -1232 0
1217 1234 -1235 0
1217 -1234 1235 0
-1217 1234 1235 0
-1217 -1234 -1235 0
-1236 1217 0
-1236 1234 0
1236 -1217 -1234 0
1219 1236 -1237 0
1219 -1236 1237 0
-1219 1236 1237 0
-1219 -1236 -1237 0
-1238 1219 0
-1238 1236 0
1238 -1219 -1236 0
1221 1238 -1239 0
1221 -1238 1239 0
-1221 1238 1239 0
-1221 -1238 -1239 0
-1240 1221 0
-1240 1238 0
1240 -1221 -1238 0
1223 1240 -1241 0
1223 -1240 1241 0
-1223 1240 1241 0
-1223 -1240 -1241 0
-1242 1223 0
-1242 1240 0
1242 -1223 -1240 0
1225 1242 -1243 0
1225 -1242 1243 0
-1225 1242 1243 0
-1225 -1242 -1243 0
-1244 1225 0
-1244 1242 0
1244 -1225 -1242 0
1227 1244 -1245 0
1227 -1244 1245 0
-1227 1244 1245 0
-1227 -1244 -1245 0
-1246 1227 0
-1246 1244 0
1246 -1227 -1244 0
1229 1246 -1247 0
1229 -1246 1247 0
-1229 1246 1247 0
-1229 -1246 -1247 0
-1248 1229 0
-1248 1246 0
1248 -1229 -1246 0
-1248 0
1231 53 -1249 0
1231 -53 1249 0
-1231 53 1249 0
-1231 -53 -1249 0
-1250 1231 0
-1250 53 0
1250 -1231 -53 0
1233 1250 -1251 0
1233 -1250 1251 0
-1233 1250 1251 0
-1233 -1250 -1251 0
-1252 1233 0
-1252 1250 0
1252 -1233 -1250 0
1235 1252 -1253 0
1235 -1252 1253 0
-1235 1252 1253 0
-1235 -1252 -1253 0
-1254 1235 0
-1254 1252 0
1254 -1235 -1252 0
1237 1254 -1255 0
1237 -1254 1255 0
-1237 1254 1255 0
-1237 -1254 -1255 0
-1256 1237 0
-1256 1254 0
1256 -1237 -1254 0
1239 1256 -1257 0
1239 -1256 1257 0
-1239 1256 1257 0
-1239 -1256 -1257 0
-1258 1239 0
-1258 1256 0
1258 -1239 -1256 0
1241 1258 -1259 0
1241 -1258 1259 0
-1241 1258 1259 0
-1241 -1258 -1259 0
-1260 1241 0
-1260 1258 0
1260 -1241 -1258 0
1243 1260 -1261 0
1243 -1260 1261 0
-1243 1260 1261 0
-1243 -1260 -1261 0
-1262 1243 0
-1262 1260 0
1262 -1243 -1260 0
1245 1262 -1263 0
1245 -1262 1263 0
-1245 1262 1263 0
-1245 -1262 -1263 0
-1264 1245 0
-1264 1262 0
1264 -1245 -1262 0
1247 1264 -1265 0
1247 -1264 1265 0
-1247 1264 1265 0
-1247 -1264 -1265 0
-1266 1247 0
-1266 1264 0
1266 -1247 -1264 0
-1266 0
1249 54 -1267 0
1249 -54 1267 0
-1249 54 1267 0
-1249 -54 -1267 0
-1268 1249 0
-1268 54 0
1268 -1249 -54 0
1251 1268 -1269 0
1251 -1268 1269 0
-1251 1268 1269 0
-1251 -1268 -1269 0
-1270 1251 0
-1270 1268 0
1270 -1251 -1268 0
1253 1270 -1271 0
1253 -1270 1271 0
-1253 1270 1271 0
-1253 -1270 -1271 0
-1272 1253 0
-1272 1270 0
1272 -1253 -1270 0
1255 1272 -1273 0
1255 -1272 1273 0
-1255 1272 1273 0
-1255 -1272 -1273 0
-1274 1255 0
-1274 1272 0
1274 -1255 -1272 0
1257 1274 -1275 0
1257 -1274 1275 0
-1257 1274 1275 0
-1257 -1274 -1275 0
-1276 1257 0
-1276 1274 0
1276 -1257 -1274 0
1259 1276 -1277 0
1259 -1276 1277 0
-1259 1276 1277 0
-1259 -1276 -1277 0
-1278 1259 0
-1278 1276 0
1278 -1259 -1276 0
1261 1278 -1279 0
1261 -1278 1279 0
-1261 1278 1279 0
-1261 -1278 -1279 0
-1280 1261 0
-1280 1278 0
1280 -1261 -1278 0
1263 1280 -1281 0
1263 -1280 1281 0
-1263 1280 1281 0
-1263 -1280 -1281 0
-1282 1263 0
-1282 1280 0
1282 -1263 -1280 0
1265 1282 -1283 0
1265 -1282 1283 0
-1265 1282 1283 0
-1265 -1282 -1283 0
-1284 1265 0
-1284 1282 0
1284 -1265 -1282 0
-1284 0
1267 55 -1285 0
1267 -55 1285 0
-1267 55 1285 0
-1267 -55 -1285 0
-1286 1267 0
-1286 55 0
1286 -1267 -55 0
1269 1286 -1287 0
1269 -1286 1287 0
-1269 1286 1287 0
-1269 -1286 -1287 0
-1288 1269 0
-1288 1286 0
1288 -1269 -1286 0
1271 1288 -1289 0
1271 -1288 1289 0
-1271 1288 1289 0
-1271 -1288 -1289 0
-1290 1271 0
-1290 1288 0
1290 -1271 -1288 0
1273 1290 -1291 0
1273 -1290 1291 0
-1273 1290 1291 0
-1273 -1290 -1291 0
-1292 1273 0
-1292 1290 0
1292 -1273 -1290 0
1275 1292 -1293 0
1275 -1292 1293 0
-1275 1292 1293 0
-1275 -1292 -1293 0
-1294 1275 0
-1294 1292 0
1294 -1275 -1292 0
1277 1294 -1295 0
1277 -1294 1295 0
-1277 1294 1295 0
-1277 -1294 -1295 0
-1296 1277 0
-1296 1294 0
1296 -1277 -1294 0
1279 1296 -1297 0
1279 -1296 1297 0
-1279 1296 1297 0
-1279 -1296 -1297 0
-1298 1279 0
-1298 1296 0
1298 -1279 -1296 0
1281 1298 -1299 0
1281 -1298 1299 0
-1281 1298 1299 0
-1281 -1298 -1299 0
-1300 1281 0
-1300 1298 0
1300 -1281 -1298 0
1283 1300 -1301 0
1283 -1300 1301 0
-1283 1300 1301 0
-1283 -1300 -1301 0
-1302 1283 0
-1302 1300 0
1302 -1283 -1300 0
-1302 0
1285 56 -1303 0
1285 -56 1303 0
-1285 56 1303 0
-1285 -56 -1303 0
-1304 1285 0
-1304 56 0
1304 -1285 -56 0
1287 1304 -1305 0
1287 -1304 1305 0
-1287 1304 1305 0
-1287 -1304 -1305 0
-1306 1287 0
-1306 1304 0
1306 -1287 -1304 0
1289 1306 -1307 0
1289 -1306 1307 0
-1289 1306 1307 0
-1289 -1306 -1307 0
-1308 1289 0
-1308 1306 0
1308 -1289 -1306 0
1291 1308 -1309 0
1291 -1308 1309 0
-1291 1308 1309 0
-1291 -1308 -1309 0
-1310 1291 0
-1310 1308 0
1310 -1291 -1308 0
1293 1310 -1311 0
1293 -1310 1311 0
-1293 1310 1311 0
-1293 -1310 -1311 0
-1312 1293 0
-1312 1310 0
1312 -1293 -1310 0
1295 1312 -1313 0
1295 -1312 1313 0
-1295 1312 1313 0
-1295 -1312 -1313 0
-1314 1295 0
-1314 1312 0
1314 -1295 -1312 0
1297 1314 -1315 0
1297 -1314 1315 0
-1297 1314 1315 0
-1297 -1314 -1315 0
-1316 1297 0
-1316 1314 0
1316 -1297 -1314 0
1299 1316 -1317 0
1299 -1316 1317 0
-1299 1316 1317 0
-1299 -1316 -1317 0
-1318 1299 0
-1318 1316 0
1318 -1299 -1316 0
1301 1318 -1319 0
1301 -1318 1319 0
-1301 1318 1319 0
-1301 -1318 -1319 0
-1320 1301 0
-1320 1318 0
1320 -1301 -1318 0
-1320 0
1303 57 -1321 0
1303 -57 1321 0
-1303 57 1321 0
-1303 -57 -1321 0
-1322 1303 0
-1322 57 0
1322 -1303 -57 0
1305 1322 -1323 0
1305 -1322 1323 0
-1305 1322 1323 0
-1305 -1322 -1323 0
-1324 1305 0
-1324 1322 0
1324 -1305 -1322 0
1307 1324 -1325 0
1307 -1324 1325 0
-1307 1324 1325 0
-1307 -1324 -1325 0
-1326 1307 0
-1326 1324 0
1326 -1307 -1324 0
1309 1326 -1327 0
1309 -1326 1327 0
-1309 1326 1327 0
-1309 -1326 -1327 0
-1328 1309 0
-1328 1326 0
1328 -1309 -1326 0
1311 1328 -1329 0
1311 -1328 1329 0
-1311 1328 1329 0
-1311 -1328 -1329 0
-1330 1311 0
-1330 1328 0
1330 -1311 -1328 0
1313 1330 -1331 0
1313 -1330 1331 0
-1313 1330 1331 0
-1313 -1330 -1331 0
-1332 1313 0
-1332 1330 0
1332 -1313 -1330 0
1315 1332 -1333 0
1315 -1332 1333 0
-1315 1332 1333 0
-1315 -1332 -1333 0
-1334 1315 0
-1334 1332 0
1334 -1315 -1332 0
1317 1334 -1335 0
1317 -1334 1335 0
-1317 1334 1335 0
-1317 -1334 -1335 0
-1336 1317 0
-1336 1334 0
1336 -1317 -1334 0
1319 1336 -1337 0
1319 -1336 1337 0
-1319 1336 1337 0
-1319 -1336 -1337 0
-1338 1319 0
-1338 1336 0
1338 -1319 -1336 0
-1338 0
1321 58 -1339 0
1321 -58 1339 0
-1321 58 1339 0
-1321 -58 -1339 0
-1340 1321 0
-1340 58 0
1340 -1321 -58 0
1323 1340 -1341 0
1323 -1340 1341 0
-1323 1340 1341 0
-1323 -1340 -1341 0
-1342 1323 0
-1342 1340 0
1342 -1323 -1340 0
1325 1342 -1343 0
1325 -1342 1343 0
-1325 1342 1343 0
-1325 -1342 -1343 0
-1344 1325 0
-1344 1342 0
1344 -1325 -1342 0
1327 1344 -1345 0
1327 -1344 1345 0
-1327 1344 1345 0
-1327 -1344 -1345 0
-1346 1327 0
-1346 1344 0
1346 -1327 -1344 0
1329 1346 -1347 0
1329 -1346 1347 0
-1329 1346 1347 0
-1329 -1346 -1347 0
-1348 1329 0
-1348 1346 0
1348 -1329 -1346 0
1331 1348 -1349 0
1331 -1348 1349 0
-1331 1348 1349 0
-1331 -1348 -1349 0
-1350 1331 0
-1350 1348 0
1350 -1331 -1348 0
1333 1350 -1351 0
1333 -1350 1351 0
-1333 1350 1351 0
-1333 -1350 -1351 0
-1352 1333 0
-1352 1350 0
1352 -1333 -1350 0
1335 1352 -1353 0
1335 -1352 1353 0
-1335 1352 1353 0
-1335 -1352 -1353 0
-1354 1335 0
-1354 1352 0
1354 -1335 -1352 0
1337 1354 -1355 0
1337 -1354 1355 0
-1337 1354 1355 0
-1337 -1354 -1355 0
-1356 1337 0
-1356 1354 0
1356 -1337 -1354 0
-1356 0
1339 59 -1357 0
1339 -59 1357 0
-1339 59 1357 0
-1339 -59 -1357 0
-1358 1339 0
-1358 59 0
1358 -1339 -59 0
1341 1358 -1359 0
1341 -1358 1359 0
-1341 1358 1359 0
-1341 -1358 -1359 0
-1360 1341 0
-1360 1358 0
1360 -1341 -1358 0
1343 1360 -1361 0
1343 -1360 1361 0
-1343 1360 1361 0
-1343 -1360 -1361 0
-1362 1343 0
-1362 1360 0
1362 -1343 -1360 0
1345 1362 -1363 0
1345 -1362 1363 0
-1345 1362 1363 0
-1345 -1362 -1363 0
-1364 1345 0
-1364 1362 0
1364 -1345 -1362 0
1347 1364 -1365 0
1347 -1364 1365 0
-1347 1364 1365 0
-1347 -1364 -1365 0
-1366 1347 0
-1366 1364 0
1366 -1347 -1364 0
1349 1366 -1367 0
1349 -1366 1367 0
-1349 1366 1367 0
-1349 -1366 -1367 0
-1368 1349 0
-1368 1366 0
1368 -1349 -1366 0
1351 1368 -1369 0
1351 -1368 1369 0
-1351 1368 1369 0
-1351 -1368 -1369 0
-1370 1351 0
-1370 1368 0
1370 -1351 -1368 0
1353 1370 -1371 0
1353 -1370 1371 0
-1353 1370 1371 0
-1353 -1370 -1371 0
-1372 1353 0
-1372 1370 0
1372 -1353 -1370 0
1355 1372 -1373 0
1355 -1372 1373 0
-1355 1372 1373 0
-1355 -1372 -1373 0
-1374 1355 0
-1374 1372 0
1374 -1355 -1372 0
-1374 0
1357 60 -1375 0
1357 -60 1375 0
-1357 60 1375 0
-1357 -60 -1375 0
-1376 1357 0
-1376 60 0
1376 -1357 -60 0
1359 1376 -1377 0
1359 -1376 1377 0
-1359 1376 1377 0
-1359 -1376 -1377 0
-1378 1359 0
-1378 1376 0
1378 -1359 -1376 0
1361 1378 -1379 0
1361 -1378 1379 0
-1361 1378 1379 0
-1361 -1378 -1379 0
-1380 1361 0
-1380 1378 0
1380 -1361 -1378 0
1363 1380 -1381 0
1363 -1380 1381 0
-1363 1380 1381 0
-1363 -1380 -1381 0
-1382 1363 0
-1382 1380 0
1382 -1363 -1380 0
1365 1382 -1383 0
1365 -1382 1383 0
-1365 1382 1383 0
-1365 -1382 -1383 0
-1384 1365 0
-1384 1382 0
1384 -1365 -1382 0
1367 1384 -1385 0
1367 -1384 1385 0
-1367 1384 1385 0
-1367 -1384 -1385 0
-1386 1367 0
-1386 1384 0
1386 -1367 -1384 0
1369 1386 -1387 0
1369 -1386 1387 0
-1369 1386 1387 0
-1369 -1386 -1387 0
-1388 1369 0
-1388 1386 0
1388 -1369 -1386 0
1371 1388 -1389 0
1371 -1388 1389 0
-1371 1388 1389 0
-1371 -1388 -1389 0
-1390 1371 0
-1390 1388 0
1390 -1371 -1388 0
1373 1390 -1391 0
1373 -1390 1391 0
-1373 1390 1391 0
-1373 -1390 -1391 0
-1392 1373 0
-1392 1390 0
1392 -1373 -1390 0
-1392 0
1375 61 -1393 0
1375 -61 1393 0
-1375 61 1393 0
-1375 -61 -1393 0
-1394 1375 0
-1394 61 0
1394 -1375 -61 0
1377 1394 -1395 0
1377 -1394 1395 0
-1377 1394 1395 0
-1377 -1394 -1395 0
-1396 1377 0
-1396 1394 0
1396 -1377 -1394 0
1379 1396 -1397 0
1379 -1396 1397 0
-1379 1396 1397 0
-1379 -1396 -1397 0
-1398 1379 0
-1398 1396 0
1398 -1379 -1396 0
1381 1398 -1399 0
1381 -1398 1399 0
-1381 1398 1399 0
-1381 -1398 -1399 0
-1400 1381 0
-1400 1398 0
1400 -1381 -1398 0
1383 1400 -1401 0
1383 -1400 1401 0
-1383 1400 1401 0
-1383 -1400 -1401 0
-1402 1383 0
-1402 1400 0
1402 -1383 -1400 0
1385 1402 -1403 0
1385 -1402 1403 0
-1385 1402 1403 0
-1385 -1402 -1403 0
-1404 1385 0
-1404 1402 0
1404 -1385 -1402 0
1387 1404 -1405 0
1387 -1404 1405 0
-1387 1404 1405 0
-1387 -1404 -1405 0
-1406 1387 0
-1406 1404 0
1406 -1387 -1404 0
1389 1406 -1407 0
1389 -1406 1407 0
-1389 1406 1407 0
-1389 -1406 -1407 0
-1408 1389 0
-1408 1406 0
1408 -1389 -1406 0
1391 1408 -1409 0
1391 -1408 1409 0
-1391 1408 1409 0
-1391 -1408 -1409 0
-1410 1391 0
-1410 1408 0
1410 -1391 -1408 0
-1410 0
1393 62 -1411 0
1393 -62 1411 0
-1393 62 1411 0
-1393 -62 -1411 0
-1412 1393 0
-1412 62 0
1412 -1393 -62 0
1395 1412 -1413 0
1395 -1412 1413 0
-1395 1412 1413 0
-1395 -1412 -1413 0
-1414 1395 0
-1414 1412 0
1414 -1395 -1412 0
1397 1414 -1415 0
1397 -1414 1415 0
-1397 1414 1415 0
-1397 -1414 -1415 0
-1416 1397 0
-1416 1414 0
1416 -1397 -1414 0
1399 1416 -1417 0
1399 -1416 1417 0
-1399 1416 1417 0
-1399 -1416 -1417 0
-1418 1399 0
-1418 1416 0
1418 -1399 -1416 0
1401 1418 -1419 0
1401 -1418 1419 0
-1401 1418 1419 0
-1401 -1418 -1419 0
-1420 1401 0
-1420 1418 0
1420 -1401 -1418 0
1403 1420 -1421 0
1403 -1420 1421 0
-1403 1420 1421 0
-1403 -1420 -1421 0
-1422 1403 0
-1422 1420 0
1422 -1403 -1420 0
1405 1422 -1423 0
1405 -1422 1423 0
-1405 1422 1423 0
-1405 -1422 -1423 0
-1424 1405 0
-1424 1422 0
1424 -1405 -1422 0
1407 1424 -1425 0
1407 -1424 1425 0
-1407 1424 1425 0
-1407 -1424 -1425 0
-1426 1407 0
-1426 1424 0
1426 -1407 -1424 0
1409 1426 -1427 0
1409 -1426 1427 0
-1409 1426 1427 0
-1409 -1426 -1427 0
-1428 1409 0
-1428 1426 0
1428 -1409 -1426 0
-1428 0
1411 63 -1429 0
1411 -63 1429 0
-1411 63 1429 0
-1411 -63 -1429 0
-1430 1411 0
-1430 63 0
1430 -1411 -63 0
1413 1430 -1431 0
1413 -1430 1431 0
-1413 1430 1431 0
-1413 -1430 -1431 0
-1432 1413 0
-1432 1430 0
1432 -1413 -1430 0
1415 1432 -1433 0
1415 -1432 1433 0
-1415 1432 1433 0
-1415 -1432 -1433 0
-1434 1415 0
-1434 1432 0
1434 -1415 -1432 0
1417 1434 -1435 0
1417 -1434 1435 0
-1417 1434 1435 0
-1417 -1434 -1435 0
-1436 1417 0
-1436 1434 0
1436 -1417 -1434 0
1419 1436 -1437 0
1419 -1436 1437 0
-1419 1436 1437 0
-1419 -1436 -1437 0
-1438 1419 0
-1438 1436 0
1438 -1419 -1436 0
1421 1438 -1439 0
1421 -1438 1439 0
-1421 1438 1439 0
-1421 -1438 -1439 0
-1440 1421 0
-1440 1438 0
1440 -1421 -1438 0
1423 1440 -1441 0
1423 -1440 1441 0
-1423 1440 1441 0
-1423 -1440 -1441 0
-1442 1423 0
-1442 1440 0
1442 -1423 -1440 0
1425 1442 -1443 0
1425 -1442 1443 0
-1425 1442 1443 0
-1425 -1442 -1443 0
-1444 1425 0
-1444 1442 0
1444 -1425 -1442 0
1427 1444 -1445 0
1427 -1444 1445 0
-1427 1444 1445 0
-1427 -1444 -1445 0
-1446 1427 0
-1446 1444 0
1446 -1427 -1444 0
-1446 0
1429 64 -1447 0
1429 -64 1447 0
-1429 64 1447 0
-1429 -64 -1447 0
-1448 1429 0
-1448 64 0
1448 -1429 -64 0
1431 1448 -1449 0
1431 -1448 1449 0
-1431 1448 1449 0
-1431 -1448 -1449 0
-1450 1431 0
-1450 1448 0
1450 -1431 -1448 0
1433 1450 -1451 0
1433 -1450 1451 0
-1433 1450 1451 0
-1433 -1450 -1451 0
-1452 1433 0
-1452 1450 0
1452 -1433 -1450 0
1435 1452 -1453 0
1435 -1452 1453 0
-1435 1452 1453 0
-1435 -1452 -1453 0
-1454 1435 0
-1454 1452 0
1454 -1435 -1452 0
1437 1454 -1455 0
1437 -1454 1455 0
-1437 1454 1455 0
-1437 -1454 -1455 0
-1456 1437 0
-1456 1454 0
1456 -1437 -1454 0
1439 1456 -1457 0
1439 -1456 1457 0
-1439 1456 1457 0
-1439 -1456 -1457 0
-1458 1439 0
-1458 1456 0
1458 -1439 -1456 0
1441 1458 -1459 0
1441 -1458 1459 0
-1441 1458 1459 0
-1441 -1458 -1459 0
-1460 1441 0
-1460 1458 0
1460 -1441 -1458 0
1443 1460 -1461 0
1443 -1460 1461 0
-1443 1460 1461 0
-1443 -1460 -1461 0
-1462 1443 0
-1462 1460 0
1462 -1443 -1460 0
1445 1462 -1463 0
1445 -1462 1463 0
-1445 1462 1463 0
-1445 -1462 -1463 0
-1464 1445 0
-1464 1462 0
1464 -1445 -1462 0
-1464 0
1447 65 -1465 0
1447 -65 1465 0
-1447 65 1465 0
-1447 -65 -1465 0
-1466 1447 0
-1466 65 0
1466 -1447 -65 0
1449 1466 -1467 0
1449 -1466 1467 0
-1449 1466 1467 0
-1449 -1466 -1467 0
-1468 1449 0
-1468 1466 0
1468 -1449 -1466 0
1451 1468 -1469 0
1451 -1468 1469 0
-1451 1468 1469 0
-1451 -1468 -1469 0
-1470 1451 0
-1470 1468 0
1470 -1451 -1468 0
1453 1470 -1471 0
1453 -1470 1471 0
-1453 1470 1471 0
-1453 -1470 -1471 0
-1472 1453 0
-1472 1470 0
1472 -1453 -1470 0
1455 1472 -1473 0
1455 -1472 1473 0
-1455 1472 1473 0
-1455 -1472 -1473 0
-1474 1455 0
-1474 1472 0
1474 -1455 -1472 0
1457 1474 -1475 0
1457 -1474 1475 0
-1457 1474 1475 0
-1457 -1474 -1475 0
-1476 1457 0
-1476 1474 0
1476 -1457 -1474 0
1459 1476 -1477 0
1459 -1476 1477 0
-1459 1476 1477 0
-1459 -1476 -1477 0
-1478 1459 0
-1478 1476 0
1478 -1459 -1476 0
1461 1478 -1479 0
1461 -1478 1479 0
-1461 1478 1479 0
-1461 -1478 -1479 0
-1480 1461 0
-1480 1478 0
1480 -1461 -1478 0
1463 1480 -1481 0
1463 -1480 1481 0
-1463 1480 1481 0
-1463 -1480 -1481 0
-1482 1463 0
-1482 1480 0
1482 -1463 -1480 0
-1482 0
1465 66 -1483 0
1465 -66 1483 0
-1465 66 1483 0
-1465 -66 -1483 0
-1484 1465 0
-1484 66 0
1484 -1465 -66 0
1467 1484 -1485 0
1467 -1484 1485 0
-1467 1484 1485 0
-1467 -1484 -1485 0
-1486 1467 0
-1486 1484 0
1486 -1467 -1484 0
1469 1486 -1487 0
1469 -1486 1487 0
-1469 1486 1487 0
-1469 -1486 -1487 0
-1488 1469 0
-1488 1486 0
1488 -1469 -1486 0
1471 1488 -1489 0
1471 -1488 1489 0
-1471 1488 1489 0
-1471 -1488 -1489 0
-1490 1471 0
-1490 1488 0
1490 -1471 -1488 0
1473 1490 -1491 0
1473 -1490 1491 0
-1473 1490 1491 0
-1473 -1490 -1491 0
-1492 1473 0
-1492 1490 0
1492 -1473 -1490 0
1475 1492 -1493 0
1475 -1492 1493 0
-1475 1492 1493 0
-1475 -1492 -1493 0
-1494 1475 0
-1494 1492 0
1494 -1475 -1492 0
1477 1494 -1495 0
1477 -1494 1495 0
-1477 1494 1495 0
-1477 -1494 -1495 0
-1496 1477 0
-1496 1494 0
1496 -1477 -1494 0
1479 1496 -1497 0
1479 -1496 1497 0
-1479 1496 1497 0
-1479 -1496 -1497 0
-1498 1479 0
-1498 1496 0
1498 -1479 -1496 0
1481 1498 -1499 0
1481 -1498 1499 0
-1481 1498 1499 0
-1481 -1498 -1499 0
-1500 1481 0
-1500 1498 0
1500 -1481 -1498 0
-1500 0
1483 67 -1501 0
1483 -67 1501 0
-1483 67 1501 0
-1483 -67 -1501 0
-1502 1483 0
-1502 67 0
1502 -1483 -67 0
1485 1502 -1503 0
1485 -1502 1503 0
-1485 1502 1503 0
-1485 -1502 -1503 0
-1504 1485 0
-1504 1502 0
1504 -1485 -1502 0
1487 1504 -1505 0
1487 -1504 1505 0
-1487 1504 1505 0
-1487 -1504 -1505 0
-1506 1487 0
-1506 1504 0
1506 -1487 -1504 0
1489 1506 -1507 0
1489 -1506 1507 0
-1489 1506 1507 0
-1489 -1506 -1507 0
-1508 1489 0
-1508 1506 0
1508 -1489 -1506 0
1491 1508 -1509 0
1491 -1508 1509 0
-1491 1508 1509 0
-1491 -1508 -1509 0
-1510 1491 0
-1510 1508 0
1510 -1491 -1508 0
1493 1510 -1511 0
1493 -1510 1511 0
-1493 1510 1511 0
-1493 -1510 -1511 0
-1512 1493 0
-1512 1510 0
1512 -1493 -1510 0
1495 1512 -1513 0
1495 -1512 1513 0
-1495 1512 1513 0
-1495 -1512 -1513 0
-1514 1495 0
-1514 1512 0
1514 -1495 -1512 0
1497 1514 -1515 0
1497 -1514 1515 0
-1497 1514 1515 0
-1497 -1514 -1515 0
-1516 1497 0
-1516 1514 0
1516 -1497 -1514 0
1499 1516 -1517 0
1499 -1516 1517 0
-1499 1516 1517 0
-1499 -1516 -1517 0
-1518 1499 0
-1518 1516 0
1518 -1499 -1516 0
-1518 0
1501 68 -1519 0
1501 -68 1519 0
-1501 68 1519 0
-1501 -68 -1519 0
-1520 1501 0
-1520 68 0
1520 -1501 -68 0
1503 1520 -1521 0
1503 -1520 1521 0
-1503 1520 1521 0
-1503 -1520 -1521 0
-1522 1503 0
-1522 1520 0
1522 -1503 -1520 0
1505 1522 -1523 0
1505 -1522 1523 0
-1505 1522 1523 0
-1505 -1522 -1523 0
-1524 1505 0
-1524 1522 0
1524 -1505 -1522 0
1507 1524 -1525 0
1507 -1524 1525 0
-1507 1524 1525 0
-1507 -1524 -1525 0
-1526 1507 0
-1526 1524 0
1526 -1507 -1524 0
1509 1526 -1527 0
1509 -1526 1527 0
-1509 1526 1527 0
-1509 -1526 -1527 0
-1528 1509 0
-1528 1526 0
1528 -1509 -1526 0
1511 1528 -1529 0
1511 -1528 1529 0
-1511 1528 1529 0
-1511 -1528 -1529 0
-1530 1511 0
-1530 1528 0
1530 -1511 -1528 0
1513 1530 -1531 0
1513 -1530 1531 0
-1513 1530 1531 0
-1513 -1530 -1531 0
-1532 1513 0
-1532 1530 0
1532 -1513 -1530 0
1515 1532 -1533 0
1515 -1532 1533 0
-1515 1532 1533 0
-1515 -1532 -1533 0
-1534 1515 0
-1534 1532 0
1534 -1515 -1532 0
1517 1534 -1535 0
1517 -1534 1535 0
-1517 1534 1535 0
-1517 -1534 -1535 0
-1536 1517 0
-1536 1534 0
1536 -1517 -1534 0
-1536 0
1519 69 -1537 0
1519 -69 1537 0
-1519 69 1537 0
-1519 -69 -1537 0
-1538 1519 0
-1538 69 0
1538 -1519 -69 0
1521 1538 -1539 0
1521 -1538 1539 0
-1521 1538 1539 0
-1521 -1538 -1539 0
-1540 1521 0
-1540 1538 0
1540 -1521 -1538 0
1523 1540 -1541 0
1523 -1540 1541 0
-1523 1540 1541 0
-1523 -1540 -1541 0
-1542 1523 0
-1542 1540 0
1542 -1523 -1540 0
1525 1542 -1543 0
1525 -1542 1543 0
-1525 1542 1543 0
-1525 -1542 -1543 0
-1544 1525 0
-1544 1542 0
1544 -1525 -1542 0
1527 1544 -1545 0
1527 -1544 1545 0
-1527 1544 1545 0
-1527 -1544 -1545 0
-1546 1527 0
-1546 1544 0
1546 -1527 -1544 0
1529 1546 -1547 0
1529 -1546 1547 0
-1529 1546 1547 0
-1529 -1546 -1547 0
-1548 1529 0
-1548 1546 0
1548 -1529 -1546 0
1531 1548 -1549 0
1531 -1548 1549 0
-1531 1548 1549 0
-1531 -1548 -1549 0
-1550 1531 0
-1550 1548 0
1550 -1531 -1548 0
1533 1550 -1551 0
1533 -1550 1551 0
-1533 1550 1551 0
-1533 -1550 -1551 0
-1552 1533 0
-1552 1550 0
1552 -1533 -1550 0
1535 1552 -1553 0
1535 -1552 1553 0
-1535 1552 1553 0
-1535 -1552 -1553 0
-1554 1535 0
-1554 1552 0
1554 -1535 -1552 0
-1554 0
1537 70 -1555 0
1537 -70 1555 0
-1537 70 1555 0
-1537 -70 -1555 0
-1556 1537 0
-1556 70 0
1556 -1537 -70 0
1539 1556 -1557 0
1539 -1556 1557 0
-1539 1556 1557 0
-1539 -1556 -1557 0
-1558 1539 0
-1558 1556 0
1558 -1539 -1556 0
1541 1558 -1559 0
1541 -1558 1559 0
-1541 1558 1559 0
-1541 -1558 -1559 0
-1560 1541 0
-1560 1558 0
1560 -1541 -1558 0
1543 1560 -1561 0
1543 -1560 1561 0
-1543 1560 1561 0
-1543 -1560 -1561 0
-1562 1543 0
-1562 1560 0
1562 -1543 -1560 0
1545 1562 -1563 0
1545 -1562 1563 0
-1545 1562 1563 0
-1545 -1562 -1563 0
-1564 1545 0
-1564 1562 0
1564 -1545 -1562 0
1547 1564 -1565 0
1547 -1564 1565 0
-1547 1564 1565 0
-1547 -1564 -1565 0
-1566 1547 0
-1566 1564 0
1566 -1547 -1564 0
1549 1566 -1567 0
1549 -1566 1567 0
-1549 1566 1567 0
-1549 -1566 -1567 0
-1568 1549 0
-1568 1566 0
1568 -1549 -1566 0
1551 1568 -1569 0
1551 -1568 1569 0
-1551 1568 1569 0
-1551 -1568 -1569 0
-1570 1551 0
-1570 1568 0
1570 -1551 -1568 0
1553 1570 -1571 0
1553 -1570 1571 0
-1553 1570 1571 0
-1553 -1570 -1571 0
-1572 1553 0
-1572 1570 0
1572 -1553 -1570 0
-1572 0
1555 71 -1573 0
1555 -71 1573 0
-1555 71 1573 0
-1555 -71 -1573 0
-1574 1555 0
-1574 71 0
1574 -1555 -71 0
1557 1574 -1575 0
1557 -1574 1575 0
-1557 1574 1575 0
-1557 -1574 -1575 0
-1576 1557 0
-1576 1574 0
1576 -1557 -1574 0
1559 1576 -1577 0
1559 -1576 1577 0
-1559 1576 1577 0
-1559 -1576 -1577 0
-1578 1559 0
-1578 1576 0
1578 -1559 -1576 0
1561 1578 -1579 0
1561 -1578 1579 0
-1561 1578 1579 0
-1561 -1578 -1579 0
-1580 1561 0
-1580 1578 0
1580 -1561 -1578 0
1563 1580 -1581 0
1563 -1580 1581 0
-1563 1580 1581 0
-1563 -1580 -1581 0
-1582 1563 0
-1582 1580 0
1582 -1563 -1580 0
1565 1582 -1583 0
1565 -1582 1583 0
-1565 1582 1583 0
-1565 -1582 -1583 0
-1584 1565 0
-1584 1582 0
1584 -1565 -1582 0
1567 1584 -1585 0
1567 -1584 1585 0
-1567 1584 1585 0
-1567 -1584 -1585 0
-1586 1567 0
-1586 1584 0
1586 -1567 -1584 0
1569 1586 -1587 0
1569 -1586 1587 0
-1569 1586 1587 0
-1569 -1586 -1587 0
-1588 1569 0
-1588 1586 0
1588 -1569 -1586 0
1571 1588 -1589 0
1571 -1588 1589 0
-1571 1588 1589 0
-1571 -1588 -1589 0
-1590 1571 0
-1590 1588 0
1590 -1571 -1588 0
-1590 0
1573 72 -1591 0
1573 -72 1591 0
-1573 72 1591 0
-1573 -72 -1591 0
-1592 1573 0
-1592 72 0
1592 -1573 -72 0
1575 1592 -1593 0
1575 -1592 1593 0
-1575 1592 1593 0
-1575 -1592 -1593 0
-1594 1575 0
-1594 1592 0
1594 -1575 -1592 0
1577 1594 -1595 0
1577 -1594 1595 0
-1577 1594 1595 0
-1577 -1594 -1595 0
-1596 1577 0
-1596 1594 0
1596 -1577 -1594 0
1579 1596 -1597 0
1579 -1596 1597 0
-1579 1596 1597 0
-1579 -1596 -1597 0
-1598 1579 0
-1598 1596 0
1598 -1579 -1596 0
1581 1598 -1599 0
1581 -1598 1599 0
-1581 1598 1599 0
-1581 -1598 -1599 0
-1600 1581 0
-1600 1598 0
1600 -1581 -1598 0
1583 1600 -1601 0
1583 -1600 1601 0
-1583 1600 1601 0
-1583 -1600 -1601 0
-1602 1583 0
-1602 1600 0
1602 -1583 -1600 0
1585 1602 -1603 0
1585 -1602 1603 0
-1585 1602 1603 0
-1585 -1602 -1603 0
-1604 1585 0
-1604 1602 0
1604 -1585 -1602 0
1587 1604 -1605 0
1587 -1604 1605 0
-1587 1604 1605 0
-1587 -1604 -1605 0
-1606 1587 0
-1606 1604 0
1606 -1587 -1604 0
1589 1606 -1607 0
1589 -1606 1607 0
-1589 1606 1607 0
-1589 -1606 -1607 0
-1608 1589 0
-1608 1606 0
1608 -1589 -1606 0
-1608 0
1591 73 -1609 0
1591 -73 1609 0
-1591 73 1609 0
-1591 -73 -1609 0
-1610 1591 0
-1610 73 0
1610 -1591 -73 0
1593 1610 -1611 0
1593 -1610 1611 0
-1593 1610 1611 0
-1593 -1610 -1611 0
-1612 1593 0
-1612 1610 0
1612 -1593 -1610 0
1595 1612 -1613 0
1595 -1612 1613 0
-1595 1612 1613 0
-1595 -1612 -1613 0
-1614 1595 0
-1614 1612 0
1614 -1595 -1612 0
1597 1614 -1615 0
1597 -1614 1615 0
-1597 1614 1615 0
-1597 -1614 -1615 0
-1616 1597 0
-1616 1614 0
1616 -1597 -1614 0
1599 1616 -1617 0
1599 -1616 1617 0
-1599 1616 1617 0
-1599 -1616 -1617 0
-1618 1599 0
-1618 1616 0
1618 -1599 -1616 0
1601 1618 -1619 0
1601 -1618 1619 0
-1601 1618 1619 0
-1601 -1618 -1619 0
-1620 1601 0
-1620 1618 0
1620 -1601 -1618 0
1603 1620 -1621 0
1603 -1620 1621 0
-1603 1620 1621 0
-1603 -1620 -1621 0
-1622 1603 0
-1622 1620 0
1622 -1603 -1620 0
1605 1622 -1623 0
1605 -1622 1623 0
-1605 1622 1623 0
-1605 -1622 -1623 0
-1624 1605 0
-1624 1622 0
1624 -1605 -1622 0
1607 1624 -1625 0
1607 -1624 1625 0
-1607 1624 1625 0
-1607 -1624 -1625 0
-1626 1607 0
-1626 1624 0
1626 -1607 -1624 0
-1626 0
1609 74 -1627 0
1609 -74 1627 0
-1609 74 1627 0
-1609 -74 -1627 0
-1628 1609 0
-1628 74 0
1628 -1609 -74 0
1611 1628 -1629 0
1611 -1628 1629 0
-1611 1628 1629 0
-1611 -1628 -1629 0
-1630 1611 0
-1630 1628 0
1630 -1611 -1628 0
1613 1630 -1631 0
1613 -1630 1631 0
-1613 1630 1631 0
-1613 -1630 -1631 0
-1632 1613 0
-1632 1630 0
1632 -1613 -1630 0
1615 1632 -1633 0
1615 -1632 1633 0
-1615 1632 1633 0
-1615 -1632 -1633 0
-1634 1615 0
-1634 1632 0
1634 -1615 -1632 0
1617 1634 -1635 0
1617 -1634 1635 0
-1617 1634 1635 0
-1617 -1634 -1635 0
-1636 1617 0
-1636 1634 0
1636 -1617 -1634 0
1619 1636 -1637 0
1619 -1636 1637 0
-1619 1636 1637 0
-1619 -1636 -1637 0
-1638 1619 0
-1638 1636 0
1638 -1619 -1636 0
1621 1638 -1639 0
1621 -1638 1639 0
-1621 1638 1639 0
-1621 -1638 -1639 0
-1640 1621 0
-1640 1638 0
1640 -1621 -1638 0
1623 1640 -1641 0
1623 -1640 1641 0
-1623 1640 1641 0
-1623 -1640 -1641 0
-1642 1623 0
-1642 1640 0
1642 -1623 -1640 0
1625 1642 -1643 0
1625 -1642 1643 0
-1625 1642 1643 0
-1625 -1642 -1643 0
-1644 1625 0
-1644 1642 0
1644 -1625 -1642 0
-1644 0
1627 75 -1645 0
1627 -75 1645 0
-1627 75 1645 0
-1627 -75 -1645 0
-1646 1627 0
-1646 75 0
1646 -1627 -75 0
1629 1646 -1647 0
1629 -1646 1647 0
-1629 1646 1647 0
-1629 -1646 -1647 0
-1648 1629 0
-1648 1646 0
1648 -1629 -1646 0
1631 1648 -1649 0
1631 -1648 1649 0
-1631 1648 1649 0
-1631 -1648 -1649 0
-1650 1631 0
-1650 1648 0
1650 -1631 -1648 0
1633 1650 -1651 0
1633 -1650 1651 0
-1633 1650 1651 0
-1633 -1650 -1651 0
-1652 1633 0
-1652 1650 0
1652 -1633 -1650 0
1635 1652 -1653 0
1635 -1652 1653 0
-1635 1652 1653 0
-1635 -1652 -1653 0
-1654 1635 0
-1654 1652 0
1654 -1635 -1652 0
1637 1654 -1655 0
1637 -1654 1655 0
-1637 1654 1655 0
-1637 -1654 -1655 0
-1656 1637 0
-1656 1654 0
1656 -1637 -1654 0
1639 1656 -1657 0
1639 -1656 1657 0
-1639 1656 1657 0
-1639 -1656 -1657 0
-1658 1639 0
-1658 1656 0
1658 -1639 -1656 0
1641 1658 -1659 0
1641 -1658 1659 0
-1641 1658 1659 0
-1641 -1658 -1659 0
-1660 1641 0
-1660 1658 0
1660 -1641 -1658 0
1643 1660 -1661 0
1643 -1660 1661 0
-1643 1660 1661 0
-1643 -1660 -1661 0
-1662 1643 0
-1662 1660 0
1662 -1643 -1660 0
-1662 0
1645 76 -1663 0
1645 -76 1663 0
-1645 76 1663 0
-1645 -76 -1663 0
-1664 1645 0
-1664 76 0
1664 -1645 -76 0
1647 1664 -1665 0
1647 -1664 1665 0
-1647 1664 1665 0
-1647 -1664 -1665 0
-1666 1647 0
-1666 1664 0
1666 -1647 -1664 0
1649 1666 -1667 0
1649 -1666 1667 0
-1649 1666 1667 0
-1649 -1666 -1667 0
-1668 1649 0
-1668 1666 0
1668 -1649 -1666 0
1651 1668 -1669 0
1651 -1668 1669 0
-1651 1668 1669 0
-1651 -1668 -1669 0
-1670 1651 0
-1670 1668 0
1670 -1651 -1668 0
1653 1670 -1671 0
1653 -1670 1671 0
-1653 1670 1671 0
-1653 -1670 -1671 0
-1672 1653 0
-1672 1670 0
1672 -1653 -1670 0
1655 1672 -1673 0
1655 -1672 1673 0
-1655 1672 1673 0
-1655 -1672 -1673 0
-1674 1655 0
-1674 1672 0
1674 -1655 -1672 0
1657 1674 -1675 0
1657 -1674 1675 0
-1657 1674 1675 0
-1657 -1674 -1675 0
-1676 1657 0
-1676 1674 0
1676 -1657 -1674 0
1659 1676 -1677 0
1659 -1676 1677 0
-1659 1676 1677 0
-1659 -1676 -1677 0
-1678 1659 0
-1678 1676 0
1678 -1659 -1676 0
1661 1678 -1679 0
1661 -1678 1679 0
-1661 1678 1679 0
-1661 -1678 -1679 0
-1680 1661 0
-1680 1678 0
1680 -1661 -1678 0
-1680 0
1663 77 -1681 0
1663 -77 1681 0
-1663 77 1681 0
-1663 -77 -1681 0
-1682 1663 0
-1682 77 0
1682 -1663 -77 0
1665 1682 -1683 0
1665 -1682 1683 0
-1665 1682 1683 0
-1665 -1682 -1683 0
-1684 1665 0
-1684 1682 0
1684 -1665 -1682 0
1667 1684 -1685 0
1667 -1684 1685 0
-1667 1684 1685 0
-1667 -1684 -1685 0
-1686 1667 0
-1686 1684 0
1686 -1667 -1684 0
1669 1686 -1687 0
1669 -1686 1687 0
-1669 1686 1687 0
-1669 -1686 -1687 0
-1688 1669 0
-1688 1686 0
1688 -1669 -1686 0
1671 1688 -1689 0
1671 -1688 1689 0
-1671 1688 1689 0
-1671 -1688 -1689 0
-1690 1671 0
-1690 1688 0
1690 -1671 -1688 0
1673 1690 -1691 0
1673 -1690 1691 0
-1673 1690 1691 0
-1673 -1690 -1691 0
-1692 1673 0
-1692 1690 0
1692 -1673 -1690 0
1675 1692 -1693 0
1675 -1692 1693 0
-1675 1692 1693 0
-1675 -1692 -1693 0
-1694 1675 0
-1694 1692 0
1694 -1675 -1692 0
1677 1694 -1695 0
1677 -1694 1695 0
-1677 1694 1695 0
-1677 -1694 -1695 0
-1696 1677 0
-1696 1694 0
1696 -1677 -1694 0
1679 1696 -1697 0
1679 -1696 1697 0
-1679 1696 1697 0
-1679 -1696 -1697 0
-1698 1679 0
-1698 1696 0
1698 -1679 -1696 0
-1698 0
1681 78 -1699 0
1681 -78 1699 0
-1681 78 1699 0
-1681 -78 -1699 0
-1700 1681 0
-1700 78 0
1700 -1681 -78 0
1683 1700 -1701 0
1683 -1700 1701 0
-1683 1700 1701 0
-1683 -1700 -1701 0
-1702 1683 0
-1702 1700 0
1702 -1683 -1700 0
1685 1702 -1703 0
1685 -1702 1703 0
-1685 1702 1703 0
-1685 -1702 -1703 0
-1704 1685 0
-1704 1702 0
1704 -1685 -1702 0
1687 1704 -1705 0
1687 -1704 1705 0
-1687 1704 1705 0
-1687 -1704 -1705 0
-1706 1687 0
-1706 1704 0
1706 -1687 -1704 0
1689 1706 -1707 0
1689 -1706 1707 0
-1689 1706 1707 0
-1689 -1706 -1707 0
-1708 1689 0
-1708 1706 0
1708 -1689 -1706 0
1691 1708 -1709 0
1691 -1708 1709 0
-1691 1708 1709 0
-1691 -1708 -1709 0
-1710 1691 0
-1710 1708 0
1710 -1691 -1708 0
1693 1710 -1711 0
1693 -1710 1711 0
-1693 1710 1711 0
-1693 -1710 -1711 0
-1712 1693 0
-1712 1710 0
1712 -1693 -1710 0
1695 1712 -1713 0
1695 -1712 1713 0
-1695 1712 1713 0
-1695 -1712 -1713 0
-1714 1695 0
-1714 1712 0
1714 -1695 -1712 0
1697 1714 -1715 0
1697 -1714 1715 0
-1697 1714 1715 0
-1697 -1714 -1715 0
-1716 1697 0
-1716 1714 0
1716 -1697 -1714 0
-1716 0
1699 79 -1717 0
1699 -79 1717 0
-1699 79 1717 0
-1699 -79 -1717 0
-1718 1699 0
-1718 79 0
1718 -1699 -79 0
1701 1718 -1719 0
1701 -1718 1719 0
-1701 1718 1719 0
-1701 -1718 -1719 0
-1720 1701 0
-1720 1718 0
1720 -1701 -1718 0
1703 1720 -1721 0
1703 -1720 1721 0
-1703 1720 1721 0
-1703 -1720 -1721 0
-1722 1703 0
-1722 1720 0
1722 -1703 -1720 0
1705 1722 -1723 0
1705 -1722 1723 0
-1705 1722 1723 0
-1705 -1722 -1723 0
-1724 1705 0
-1724 1722 0
1724 -1705 -1722 0
1707 1724 -1725 0
1707 -1724 1725 0
-1707 1724 1725 0
-1707 -1724 -1725 0
-1726 1707 0
-1726 1724 0
1726 -1707 -1724 0
1709 1726 -1727 0
1709 -1726 1727 0
-1709 1726 1727 0
-1709 -1726 -1727 0
-1728 1709 0
-1728 1726 0
1728 -1709 -1726 0
1711 1728 -1729 0
1711 -1728 1729 0
-1711 1728 1729 0
-1711 -1728 -1729 0
-1730 1711 0
-1730 1728 0
1730 -1711 -1728 0
1713 1730 -1731 0
1713 -1730 1731 0
-1713 1730 1731 0
-1713 -1730 -1731 0
-1732 1713 0
-1732 1730 0
1732 -1713 -1730 0
1715 1732 -1733 0
1715 -1732 1733 0
-1715 1732 1733 0
-1715 -1732 -1733 0
-1734 1715 0
-1734 1732 0
1734 -1715 -1732 0
-1734 0
1717 80 -1735 0
1717 -80 1735 0
-1717 80 1735 0
-1717 -80 -1735 0
-1736 1717 0
-1736 80 0
1736 -1717 -80 0
1719 1736 -1737 0
1719 -1736 1737 0
-1719 1736 1737 0
-1719 -1736 -1737 0
-1738 1719 0
-1738 1736 0
1738 -1719 -1736 0
1721 1738 -1739 0
1721 -1738 1739 0
-1721 1738 1739 0
-1721 -1738 -1739 0
-1740 1721 0
-1740 1738 0
1740 -1721 -1738 0
1723 1740 -1741 0
1723 -1740 1741 0
-1723 1740 1741 0
-1723 -1740 -1741 0
-1742 1723 0
-1742 1740 0
1742 -1723 -1740 0
1725 1742 -1743 0
1725 -1742 1743 0
-1725 1742 1743 0
-1725 -1742 -1743 0
-1744 1725 0
-1744 1742 0
1744 -1725 -1742 0
1727 1744 -1745 0
1727 -1744 1745 0
-1727 1744 1745 0
-1727 -1744 -1745 0
-1746 1727 0
-1746 1744 0
1746 -1727 -1744 0
1729 1746 -1747 0
1729 -1746 1747 0
-1729 1746 1747 0
-1729 -1746 -1747 0
-1748 1729 0
-1748 1746 0
1748 -1729 -1746 0
1731 1748 -1749 0
1731 -1748 1749 0
-1731 1748 1749 0
-1731 -1748 -1749 0
-1750 1731 0
-1750 1748 0
1750 -1731 -1748 0
1733 1750 -1751 0
1733 -1750 1751 0
-1733 1750 1751 0
-1733 -1750 -1751 0
-1752 1733 0
-1752 1750 0
1752 -1733 -1750 0
-1752 0
1735 81 -1753 0
1735 -81 1753 0
-1735 81 1753 0
-1735 -81 -1753 0
-1754 1735 0
-1754 81 0
1754 -1735 -81 0
1737 1754 -1755 0
1737 -1754 1755 0
-1737 1754 1755 0
-1737 -1754 -1755 0
-1756 1737 0
-1756 1754 0
1756 -1737 -1754 0
1739 1756 -1757 0
1739 -1756 1757 0
-1739 1756 1757 0
-1739 -1756 -1757 0
-1758 1739 0
-1758 1756 0
1758 -1739 -1756 0
1741 1758 -1759 0
1741 -1758 1759 0
-1741 1758 1759 0
-1741 -1758 -1759 0
-1760 1741 0
-1760 1758 0
1760 -1741 -1758 0
1743 1760 -1761 0
1743 -1760 1761 0
-1743 1760 1761 0
-1743 -1760 -1761 0
-1762 1743 0
-1762 1760 0
1762 -1743 -1760 0
1745 1762 -1763 0
1745 -1762 1763 0
-1745 1762 1763 0
-1745 -1762 -1763 0
-1764 1745 0
-1764 1762 0
1764 -1745 -1762 0
1747 1764 -1765 0
1747 -1764 1765 0
-1747 1764 1765 0
-1747 -1764 -1765 0
-1766 1747 0
-1766 1764 0
1766 -1747 -1764 0
1749 1766 -1767 0
1749 -1766 1767 0
-1749 1766 1767 0
-1749 -1766 -1767 0
-1768 1749 0
-1768 1766 0
1768 -1749 -1766 0
1751 1768 -1769 0
1751 -1768 1769 0
-1751 1768 1769 0
-1751 -1768 -1769 0
-1770 1751 0
-1770 1768 0
1770 -1751 -1768 0
-1770 0
1753 82 -1771 0
1753 -82 1771 0
-1753 82 1771 0
-1753 -82 -1771 0
-1772 1753 0
-1772 82 0
1772 -1753 -82 0
1755 1772 -1773 0
1755 -1772 1773 0
-1755 1772 1773 0
-1755 -1772 -1773 0
-1774 1755 0
-1774 1772 0
1774 -1755 -1772 0
1757 1774 -1775 0
1757 -1774 1775 0
-1757 1774 1775 0
-1757 -1774 -1775 0
-1776 1757 0
-1776 1774 0
1776 -1757 -1774 0
1759 1776 -1777 0
1759 -1776 1777 0
-1759 1776 1777 0
-1759 -1776 -1777 0
-1778 1759 0
-1778 1776 0
1778 -1759 -1776 0
1761 1778 -1779 0
1761 -1778 1779 0
-1761 1778 1779 0
-1761 -1778 -1779 0
-1780 1761 0
-1780 1778 0
1780 -1761 -1778 0
1763 1780 -1781 0
1763 -1780 1781 0
-1763 1780 1781 0
-1763 -1780 -1781 0
-1782 1763 0
-1782 1780 0
1782 -1763 -1780 0
1765 1782 -1783 0
1765 -1782 1783 0
-1765 1782 1783 0
-1765 -1782 -1783 0
-1784 1765 0
-1784 1782 0
1784 -1765 -1782 0
1767 1784 -1785 0
1767 -1784 1785 0
-1767 1784 1785 0
-1767 -1784 -1785 0
-1786 1767 0
-1786 1784 0
1786 -1767 -1784 0
1769 1786 -1787 0
1769 -1786 1787 0
-1769 1786 1787 0
-1769 -1786 -1787 0
-1788 1769 0
-1788 1786 0
1788 -1769 -1786 0
-1788 0
1771 83 -1789 0
1771 -83 1789 0
-1771 83 1789 0
-1771 -83 -1789 0
-1790 1771 0
-1790 83 0
1790 -1771 -83 0
1773 1790 -1791 0
1773 -1790 1791 0
-1773 1790 1791 0
-1773 -1790 -1791 0
-1792 1773 0
-1792 1790 0
1792 -1773 -1790 0
1775 1792 -1793 0
1775 -1792 1793 0
-1775 1792 1793 0
-1775 -1792 -1793 0
-1794 1775 0
-1794 1792 0
1794 -1775 -1792 0
1777 1794 -1795 0
1777 -1794 1795 0
-1777 1794 1795 0
-1777 -1794 -1795 0
-1796 1777 0
-1796 1794 0
1796 -1777 -1794 0
1779 1796 -1797 0
1779 -1796 1797 0
-1779 1796 1797 0
-1779 -1796 -1797 0
-1798 1779 0
-1798 1796 0
1798 -1779 -1796 0
1781 1798 -1799 0
1781 -1798 1799 0
-1781 1798 1799 0
-1781 -1798 -1799 0
-1800 1781 0
-1800 1798 0
1800 -1781 -1798 0
1783 1800 -1801 0
1783 -1800 1801 0
-1783 1800 1801 0
-1783 -1800 -1801 0
-1802 1783 0
-1802 1800 0
1802 -1783 -1800 0
1785 1802 -1803 0
1785 -1802 1803 0
-1785 1802 1803 0
-1785 -1802 -1803 0
-1804 1785 0
-1804 1802 0
1804 -1785 -1802 0
1787 1804 -1805 0
1787 -1804 1805 0
-1787 1804 1805 0
-1787 -1804 -1805 0
-1806 1787 0
-1806 1804 0
1806 -1787 -1804 0
-1806 0
1789 84 -1807 0
1789 -84 1807 0
-1789 84 1807 0
-1789 -84 -1807 0
-1808 1789 0
-1808 84 0
1808 -1789 -84 0
1791 1808 -1809 0
1791 -1808 1809 0
-1791 1808 1809 0
-1791 -1808 -1809 0
-1810 1791 0
-1810 1808 0
1810 -1791 -1808 0
1793 1810 -1811 0
1793 -1810 1811 0
-1793 1810 1811 0
-1793 -1810 -1811 0
-1812 1793 0
-1812 1810 0
1812 -1793 -1810 0
1795 1812 -1813 0
1795 -1812 1813 0
-1795 1812 1813 0
-1795 -1812 -1813 0
-1814 1795 0
-1814 1812 0
1814 -1795 -1812 0
1797 1814 -1815 0
1797 -1814 1815 0
-1797 1814 1815 0
-1797 -1814 -1815 0
-1816 1797 0
-1816 1814 0
1816 -1797 -1814 0
1799 1816 -1817 0
1799 -1816 1817 0
-1799 1816 1817 0
-1799 -1816 -1817 0
-1818 1799 0
-1818 1816 0
1818 -1799 -1816 0
1801 1818 -1819 0
1801 -1818 1819 0
-1801 1818 1819 0
-1801 -1818 -1819 0
-1820 1801 0
-1820 1818 0
1820 -1801 -1818 0
1803 1820 -1821 0
1803 -1820 1821 0
-1803 1820 1821 0
-1803 -1820 -1821 0
-1822 1803 0
-1822 1820 0
1822 -1803 -1820 0
1805 1822 -1823 0
1805 -1822 1823 0
-1805 1822 1823 0
-1805 -1822 -1823 0
-1824 1805 0
-1824 1822 0
1824 -1805 -1822 0
-1824 0
1807 85 -1825 0
1807 -85 1825 0
-1807 85 1825 0
-1807 -85 -1825 0
-1826 1807 0
-1826 85 0
1826 -1807 -85 0
1809 1826 -1827 0
1809 -1826 1827 0
-1809 1826 1827 0
-1809 -1826 -1827 0
-1828 1809 0
-1828 1826 0
1828 -1809 -1826 0
1811 1828 -1829 0
1811 -1828 1829 0
-1811 1828 1829 0
-1811 -1828 -1829 0
-1830 1811 0
-1830 1828 0
1830 -1811 -1828 0
1813 1830 -1831 0
1813 -1830 1831 0
-1813 1830 1831 0
-1813 -1830 -1831 0
-1832 1813 0
-1832 1830 0
1832 -1813 -1830 0
1815 1832 -1833 0
1815 -1832 1833 0
-1815 1832 1833 0
-1815 -1832 -1833 0
-1834 1815 0
-1834 1832 0
1834 -1815 -1832 0
1817 1834 -1835 0
1817 -1834 1835 0
-1817 1834 1835 0
-1817 -1834 -1835 0
-1836 1817 0
-1836 1834 0
1836 -1817 -1834 0
1819 1836 -1837 0
1819 -1836 1837 0
-1819 1836 1837 0
-1819 -1836 -1837 0
-1838 1819 0
-1838 1836 0
1838 -1819 -1836 0
1821 1838 -1839 0
1821 -1838 1839 0
-1821 1838 1839 0
-1821 -1838 -1839 0
-1840 1821 0
-1840 1838 0
1840 -1821 -1838 0
1823 1840 -1841 0
1823 -1840 1841 0
-1823 1840 1841 0
-1823 -1840 -1841 0
-1842 1823 0
-1842 1840 0
1842 -1823 -1840 0
-1842 0
1825 86 -1843 0
1825 -86 1843 0
-1825 86 1843 0
-1825 -86 -1843 0
-1844 1825 0
-1844 86 0
1844 -1825 -86 0
1827 1844 -1845 0
1827 -1844 1845 0
-1827 1844 1845 0
-1827 -1844 -1845 0
-1846 1827 0
-1846 1844 0
1846 -1827 -1844 0
1829 1846 -1847 0
1829 -1846 1847 0
-1829 1846 1847 0
-1829 -1846 -1847 0
-1848 1829 0
-1848 1846 0
1848 -1829 -1846 0
1831 1848 -1849 0
1831 -1848 1849 0
-1831 1848 1849 0
-1831 -1848 -1849 0
-1850 1831 0
-1850 1848 0
1850 -1831 -1848 0
1833 1850 -1851 0
1833 -1850 1851 0
-1833 1850 1851 0
-1833 -1850 -1851 0
-1852 1833 0
-1852 1850 0
1852 -1833 -1850 0
1835 1852 -1853 0
1835 -1852 1853 0
-1835 1852 1853 0
-1835 -1852 -1853 0
-1854 1835 0
-1854 1852 0
1854 -1835 -1852 0
1837 1854 -1855 0
1837 -1854 1855 0
-1837 1854 1855 0
-1837 -1854 -1855 0
-1856 1837 0
-1856 1854 0
1856 -1837 -1854 0
1839 1856 -1857 0
1839 -1856 1857 0
-1839 1856 1857 0
-1839 -1856 -1857 0
-1858 1839 0
-1858 1856 0
1858 -1839 -1856 0
1841 1858 -1859 0
1841 -1858 1859 0
-1841 1858 1859 0
-1841 -1858 -1859 0
-1860 1841 0
-1860 1858 0
1860 -1841 -1858 0
-1860 0
1843 87 -1861 0
1843 -87 1861 0
-1843 87 1861 0
-1843 -87 -1861 0
-1862 1843 0
-1862 87 0
1862 -1843 -87 0
1845 1862 -1863 0
1845 -1862 1863 0
-1845 1862 1863 0
-1845 -1862 -1863 0
-1864 1845 0
-1864 1862 0
1864 -1845 -1862 0
1847 1864 -1865 0
1847 -1864 1865 0
-1847 1864 1865 0
-1847 -1864 -1865 0
-1866 1847 0
-1866 1864 0
1866 -1847 -1864 0
1849 1866 -1867 0
1849 -1866 1867 0
-1849 1866 1867 0
-1849 -1866 -1867 0
-1868 1849 0
-1868 1866 0
1868 -1849 -1866 0
1851 1868 -1869 0
1851 -1868 1869 0
-1851 1868 1869 0
-1851 -1868 -1869 0
-1870 1851 0
-1870 1868 0
1870 -1851 -1868 0
1853 1870 -1871 0
1853 -1870 1871 0
-1853 1870 1871 0
-1853 -1870 -1871 0
-1872 1853 0
-1872 1870 0
1872 -1853 -1870 0
1855 1872 -1873 0
1855 -1872 1873 0
-1855 1872 1873 0
-1855 -1872 -1873 0
-1874 1855 0
-1874 1872 0
1874 -1855 -1872 0
1857 1874 -1875 0
1857 -1874 1875 0
-1857 1874 1875 0
-1857 -1874 -1875 0
-1876 1857 0
-1876 1874 0
1876 -1857 -1874 0
1859 1876 -1877 0
1859 -1876 1877 0
-1859 1876 1877 0
-1859 -1876 -1877 0
-1878 1859 0
-1878 1876 0
1878 -1859 -1876 0
-1878 0
1861 88 -1879 0
1861 -88 1879 0
-1861 88 1879 0
-1861 -88 -1879 0
-1880 1861 0
-1880 88 0
1880 -1861 -88 0
1863 1880 -1881 0
1863 -1880 1881 0
-1863 1880 1881 0
-1863 -1880 -1881 0
-1882 1863 0
-1882 1880 0
1882 -1863 -1880 0
1865 1882 -1883 0
1865 -1882 1883 0
-1865 1882 1883 0
-1865 -1882 -1883 0
-1884 1865 0
-1884 1882 0
1884 -1865 -1882 0
1867 1884 -1885 0
1867 -1884 1885 0
-1867 1884 1885 0
-1867 -1884 -1885 0
-1886 1867 0
-1886 1884 0
1886 -1867 -1884 0
1869 1886 -1887 0
1869 -1886 1887 0
-1869 1886 1887 0
-1869 -1886 -1887 0
-1888 1869 0
-1888 1886 0
1888 -1869 -1886 0
1871 1888 -1889 0
1871 -1888 1889 0
-1871 1888 1889 0
-1871 -1888 -1889 0
-1890 1871 0
-1890 1888 0
1890 -1871 -1888 0
1873 1890 -1891 0
1873 -1890 1891 0
-1873 1890 1891 0
-1873 -1890 -1891 0
-1892 1873 0
-1892 1890 0
1892 -1873 -1890 0
1875 1892 -1893 0
1875 -1892 1893 0
-1875 1892 1893 0
-1875 -1892 -1893 0
-1894 1875 0
-1894 1892 0
1894 -1875 -1892 0
1877 1894 -1895 0
1877 -1894 1895 0
-1877 1894 1895 0
-1877 -1894 -1895 0
-1896 1877 0
-1896 1894 0
1896 -1877 -1894 0
-1896 0
1879 89 -1897 0
1879 -89 1897 0
-1879 89 1897 0
-1879 -89 -1897 0
-1898 1879 0
-1898 89 0
1898 -1879 -89 0
1881 1898 -1899 0
1881 -1898 1899 0
-1881 1898 1899 0
-1881 -1898 -1899 0
-1900 1881 0
-1900 1898 0
1900 -1881 -1898 0
1883 1900 -1901 0
1883 -1900 1901 0
-1883 1900 1901 0
-1883 -1900 -1901 0
-1902 1883 0
-1902 1900 0
1902 -1883 -1900 0
1885 1902 -1903 0
1885 -1902 1903 0
-1885 1902 1903 0
-1885 -1902 -1903 0
-1904 1885 0
-1904 1902 0
1904 -1885 -1902 0
1887 1904 -1905 0
1887 -1904 1905 0
-1887 1904 1905 0
-1887 -1904 -1905 0
-1906 1887 0
-1906 1904 0
1906 -1887 -1904 0
1889 1906 -1907 0
1889 -1906 1907 0
-1889 1906 1907 0
-1889 -1906 -1907 0
-1908 1889 0
-1908 1906 0
1908 -1889 -1906 0
1891 1908 -1909 0
1891 -1908 1909 0
-1891 1908 1909 0
-1891 -1908 -1909 0
-1910 1891 0
-1910 1908 0
1910 -1891 -1908 0
1893 1910 -1911 0
1893 -1910 1911 0
-1893 1910 1911 0
-1893 -1910 -1911 0
-1912 1893 0
-1912 1910 0
1912 -1893 -1910 0
1895 1912 -1913 0
1895 -1912 1913 0
-1895 1912 1913 0
-1895 -1912 -1913 0
-1914 1895 0
-1914 1912 0
1914 -1895 -1912 0
-1914 0
1897 90 -1915 0
1897 -90 1915 0
-1897 90 1915 0
-1897 -90 -1915 0
-1916 1897 0
-1916 90 0
1916 -1897 -90 0
1899 1916 -1917 0
1899 -1916 1917 0
-1899 1916 1917 0
-1899 -1916 -1917 0
-1918 1899 0
-1918 1916 0
1918 -1899 -1916 0
1901 1918 -1919 0
1901 -1918 1919 0
-1901 1918 1919 0
-1901 -1918 -1919 0
-1920 1901 0
-1920 1918 0
1920 -1901 -1918 0
1903 1920 -1921 0
1903 -1920 1921 0
-1903 1920 1921 0
-1903 -1920 -1921 0
-1922 1903 0
-1922 1920 0
1922 -1903 -1920 0
1905 1922 -1923 0
1905 -1922 1923 0
-1905 1922 1923 0
-1905 -1922 -1923 0
-1924 1905 0
-1924 1922 0
1924 -1905 -1922 0
1907 1924 -1925 0
1907 -1924 1925 0
-1907 1924 1925 0
-1907 -1924 -1925 0
-1926 1907 0
-1926 1924 0
1926 -1907 -1924 0
1909 1926 -1927 0
1909 -1926 1927 0
-1909 1926 1927 0
-1909 -1926 -1927 0
-1928 1909 0
-1928 1926 0
1928 -1909 -1926 0
1911 1928 -1929 0
1911 -1928 1929 0
-1911 1928 1929 0
-1911 -1928 -1929 0
-1930 1911 0
-1930 1928 0
1930 -1911 -1928 0
1913 1930 -1931 0
1913 -1930 1931 0
-1913 1930 1931 0
-1913 -1930 -1931 0
-1932 1913 0
-1932 1930 0
1932 -1913 -1930 0
-1932 0
1915 91 -1933 0
1915 -91 1933 0
-1915 91 1933 0
-1915 -91 -1933 0
-1934 1915 0
-1934 91 0
1934 -1915 -91 0
1917 1934 -1935 0
1917 -1934 1935 0
-1917 1934 1935 0
-1917 -1934 -1935 0
-1936 1917 0
-1936 1934 0
1936 -1917 -1934 0
1919 1936 -1937 0
1919 -1936 1937 0
-1919 1936 1937 0
-1919 -1936 -1937 0
-1938 1919 0
-1938 1936 0
1938 -1919 -1936 0
1921 1938 -1939 0
1921 -1938 1939 0
-1921 1938 1939 0
-1921 -1938 -1939 0
-1940 1921 0
-1940 1938 0
1940 -1921 -1938 0
1923 1940 -1941 0
1923 -1940 1941 0
-1923 1940 1941 0
-1923 -1940 -1941 0
-1942 1923 0
-1942 1940 0
1942 -1923 -1940 0
1925 1942 -1943 0
1925 -1942 1943 0
-1925 1942 1943 0
-1925 -1942 -1943 0
-1944 1925 0
-1944 1942 0
1944 -1925 -1942 0
1927 1944 -1945 0
1927 -1944 1945 0
-1927 1944 1945 0
-1927 -1944 -1945 0
-1946 1927 0
-1946 1944 0
1946 -1927 -1944 0
1929 1946 -1947 0
1929 -1946 1947 0
-1929 1946 1947 0
-1929 -1946 -1947 0
-1948 1929 0
-1948 1946 0
1948 -1929 -1946 0
1931 1948 -1949 0
1931 -1948 1949 0
-1931 1948 1949 0
-1931 -1948 -1949 0
-1950 1931 0
-1950 1948 0
1950 -1931 -1948 0
-1950 0
1933 92 -1951 0
1933 -92 1951 0
-1933 92 1951 0
-1933 -92 -1951 0
-1952 1933 0
-1952 92 0
1952 -1933 -92 0
1935 1952 -1953 0
1935 -1952 1953 0
-1935 1952 1953 0
-1935 -1952 -1953 0
-1954 1935 0
-1954 1952 0
1954 -1935 -1952 0
1937 1954 -1955 0
1937 -1954 1955 0
-1937 1954 1955 0
-1937 -1954 -1955 0
-1956 1937 0
-1956 1954 0
1956 -1937 -1954 0
1939 1956 -1957 0
1939 -1956 1957 0
-1939 1956 1957 0
-1939 -1956 -1957 0
-1958 1939 0
-1958 1956 0
1958 -1939 -1956 0
1941 1958 -1959 0
1941 -1958 1959 0
-1941 1958 1959 0
-1941 -1958 -1959 0
-1960 1941 0
-1960 1958 0
1960 -1941 -1958 0
1943 1960 -1961 0
1943 -1960 1961 0
-1943 1960 1961 0
-1943 -1960 -1961 0
-1962 1943 0
-1962 1960 0
1962 -1943 -1960 0
1945 1962 -1963 0
1945 -1962 1963 0
-1945 1962 1963 0
-1945 -1962 -1963 0
-1964 1945 0
-1964 1962 0
1964 -1945 -1962 0
1947 1964 -1965 0
1947 -1964 1965 0
-1947 1964 1965 0
-1947 -1964 -1965 0
-1966 1947 0
-1966 1964 0
1966 -1947 -1964 0
1949 1966 -1967 0
1949 -1966 1967 0
-1949 1966 1967 0
-1949 -1966 -1967 0
-1968 1949 0
-1968 1966 0
1968 -1949 -1966 0
-1968 0
1951 93 -1969 0
1951 -93 1969 0
-1951 93 1969 0
-1951 -93 -1969 0
-1970 1951 0
-1970 93 0
1970 -1951 -93 0
1953 1970 -1971 0
1953 -1970 1971 0
-1953 1970 1971 0
-1953 -1970 -1971 0
-1972 1953 0
-1972 1970 0
1972 -1953 -1970 0
1955 1972 -1973 0
1955 -1972 1973 0
-1955 1972 1973 0
-1955 -1972 -1973 0
-1974 1955 0
-1974 1972 0
1974 -1955 -1972 0
1957 1974 -1975 0
1957 -1974 1975 0
-1957 1974 1975 0
-1957 -1974 -1975 0
-1976 1957 0
-1976 1974 0
1976 -1957 -1974 0
1959 1976 -1977 0
1959 -1976 1977 0
-1959 1976 1977 0
-1959 -1976 -1977 0
-1978 1959 0
-1978 1976 0
1978 -1959 -1976 0
1961 1978 -1979 0
1961 -1978 1979 0
-1961 1978 1979 0
-1961 -1978 -1979 0
-1980 1961 0
-1980 1978 0
1980 -1961 -1978 0
1963 1980 -1981 0
1963 -1980 1981 0
-1963 1980 1981 0
-1963 -1980 -1981 0
-1982 1963 0
-1982 1980 0
1982 -1963 -1980 0
1965 1982 -1983 0
1965 -1982 1983 0
-1965 1982 1983 0
-1965 -1982 -1983 0
-1984 1965 0
-1984 1982 0
1984 -1965 -1982 0
1967 1984 -1985 0
1967 -1984 1985 0
-1967 1984 1985 0
-1967 -1984 -1985 0
-1986 1967 0
-1986 1984 0
1986 -1967 -1984 0
-1986 0
1969 94 -1987 0
1969 -94 1987 0
-1969 94 1987 0
-1969 -94 -1987 0
-1988 1969 0
-1988 94 0
1988 -1969 -94 0
1971 1988 -1989 0
1971 -1988 1989 0
-1971 1988 1989 0
-1971 -1988 -1989 0
-1990 1971 0
-1990 1988 0
1990 -1971 -1988 0
1973 1990 -1991 0
1973 -1990 1991 0
-1973 1990 1991 0
-1973 -1990 -1991 0
-1992 1973 0
-1992 1990 0
1992 -1973 -1990 0
1975 1992 -1993 0
1975 -1992 1993 0
-1975 1992 1993 0
-1975 -1992 -1993 0
-1994 1975 0
-1994 1992 0
1994 -1975 -1992 0
1977 1994 -1995 0
1977 -1994 1995 0
-1977 1994 1995 0
-1977 -1994 -1995 0
-1996 1977 0
-1996 1994 0
1996 -1977 -1994 0
1979 1996 -1997 0
1979 -1996 1997 0
-1979 1996 1997 0
-1979 -1996 -1997 0
-1998 1979 0
-1998 1996 0
1998 -1979 -1996 0
1981 1998 -1999 0
1981 -1998 1999 0
-1981 1998 1999 0
-1981 -1998 -1999 0
-2000 1981 0
-2000 1998 0
2000 -1981 -1998 0
1983 2000 -2001 0
1983 -2000 2001 0
-1983 2000 2001 0
-1983 -2000 -2001 0
-2002 1983 0
-2002 2000 0
2002 -1983 -2000 0
1985 2002 -2003 0
1985 -2002 2003 0
-1985 2002 2003 0
-1985 -2002 -2003 0
-2004 1985 0
-2004 2002 0
2004 -1985 -2002 0
-2004 0
1987 95 -2005 0
1987 -95 2005 0
-1987 95 2005 0
-1987 -95 -2005 0
-2006 1987 0
-2006 95 0
2006 -1987 -95 0
1989 2006 -2007 0
1989 -2006 2007 0
-1989 2006 2007 0
-1989 -2006 -2007 0
-2008 1989 0
-2008 2006 0
2008 -1989 -2006 0
1991 2008 -2009 0
1991 -2008 2009 0
-1991 2008 2009 0
-1991 -2008 -2009 0
-2010 1991 0
-2010 2008 0
2010 -1991 -2008 0
1993 2010 -2011 0
1993 -2010 2011 0
-1993 2010 2011 0
-1993 -2010 -2011 0
-2012 1993 0
-2012 2010 0
2012 -1993 -2010 0
1995 2012 -2013 0
1995 -2012 2013 0
-1995 2012 2013 0
-1995 -2012 -2013 0
-2014 1995 0
-2014 2012 0
2014 -1995 -2012 0
1997 2014 -2015 0
1997 -2014 2015 0
-1997 2014 2015 0
-1997 -2014 -2015 0
-2016 1997 0
-2016 2014 0
2016 -1997 -2014 0
1999 2016 -2017 0
1999 -2016 2017 0
-1999 2016 2017 0
-1999 -2016 -2017 0
-2018 1999 0
-2018 2016 0
2018 -1999 -2016 0
2001 2018 -2019 0
2001 -2018 2019 0
-2001 2018 2019 0
-2001 -2018 -2019 0
-2020 2001 0
-2020 2018 0
2020 -2001 -2018 0
2003 2020 -2021 0
2003 -2020 2021 0
-2003 2020 2021 0
-2003 -2020 -2021 0
-2022 2003 0
-2022 2020 0
2022 -2003 -2020 0
-2022 0
2005 96 -2023 0
2005 -96 2023 0
-2005 96 2023 0
-2005 -96 -2023 0
-2024 2005 0
-2024 96 0
2024 -2005 -96 0
2007 2024 -2025 0
2007 -2024 2025 0
-2007 2024 2025 0
-2007 -2024 -2025 0
-2026 2007 0
-2026 2024 0
2026 -2007 -2024 0
2009 2026 -2027 0
2009 -2026 2027 0
-2009 2026 2027 0
-2009 -2026 -2027 0
-2028 2009 0
-2028 2026 0
2028 -2009 -2026 0
2011 2028 -2029 0
2011 -2028 2029 0
-2011 2028 2029 0
-2011 -2028 -2029 0
-2030 2011 0
-2030 2028 0
2030 -2011 -2028 0
2013 2030 -2031 0
2013 -2030 2031 0
-2013 2030 2031 0
-2013 -2030 -2031 0
-2032 2013 0
-2032 2030 0
2032 -2013 -2030 0
2015 2032 -2033 0
2015 -2032 2033 0
-2015 2032 2033 0
-2015 -2032 -2033 0
-2034 2015 0
-2034 2032 0
2034 -2015 -2032 0
2017 2034 -2035 0
2017 -2034 2035 0
-2017 2034 2035 0
-2017 -2034 -2035 0
-2036 2017 0
-2036 2034 0
2036 -2017 -2034 0
2019 2036 -2037 0
2019 -2036 2037 0
-2019 2036 2037 0
-2019 -2036 -2037 0
-2038 2019 0
-2038 2036 0
2038 -2019 -2036 0
2021 2038 -2039 0
2021 -2038 2039 0
-2021 2038 2039 0
-2021 -2038 -2039 0
-2040 2021 0
-2040 2038 0
2040 -2021 -2038 0
-2040 0
2023 97 -2041 0
2023 -97 2041 0
-2023 97 2041 0
-2023 -97 -2041 0
-2042 2023 0
-2042 97 0
2042 -2023 -97 0
2025 2042 -2043 0
2025 -2042 2043 0
-2025 2042 2043 0
-2025 -2042 -2043 0
-2044 2025 0
-2044 2042 0
2044 -2025 -2042 0
2027 2044 -2045 0
2027 -2044 2045 0
-2027 2044 2045 0
-2027 -2044 -2045 0
-2046 2027 0
-2046 2044 0
2046 -2027 -2044 0
2029 2046 -2047 0
2029 -2046 2047 0
-2029 2046 2047 0
-2029 -2046 -2047 0
-2048 2029 0
-2048 2046 0
2048 -2029 -2046 0
2031 2048 -2049 0
2031 -2048 2049 0
-2031 2048 2049 0
-2031 -2048 -2049 0
-2050 2031 0
-2050 2048 0
2050 -2031 -2048 0
2033 2050 -2051 0
2033 -2050 2051 0
-2033 2050 2051 0
-2033 -2050 -2051 0
-2052 2033 0
-2052 2050 0
2052 -2033 -2050 0
2035 2052 -2053 0
2035 -2052 2053 0
-2035 2052 2053 0
-2035 -2052 -2053 0
-2054 2035 0
-2054 2052 0
2054 -2035 -2052 0
2037 2054 -2055 0
2037 -2054 2055 0
-2037 2054 2055 0
-2037 -2054 -2055 0
-2056 2037 0
-2056 2054 0
2056 -2037 -2054 0
2039 2056 -2057 0
2039 -2056 2057 0
-2039 2056 2057 0
-2039 -2056 -2057 0
-2058 2039 0
-2058 2056 0
2058 -2039 -2056 0
-2058 0
2041 98 -2059 0
2041 -98 2059 0
-2041 98 2059 0
-2041 -98 -2059 0
-2060 2041 0
-2060 98 0
2060 -2041 -98 0
2043 2060 -2061 0
2043 -2060 2061 0
-2043 2060 2061 0
-2043 -2060 -2061 0
-2062 2043 0
-2062 2060 0
2062 -2043 -2060 0
2045 2062 -2063 0
2045 -2062 2063 0
-2045 2062 2063 0
-2045 -2062 -2063 0
-2064 2045 0
-2064 2062 0
2064 -2045 -2062 0
2047 2064 -2065 0
2047 -2064 2065 0
-2047 2064 2065 0
-2047 -2064 -2065 0
-2066 2047 0
-2066 2064 0
2066 -2047 -2064 0
2049 2066 -2067 0
2049 -2066 2067 0
-2049 2066 2067 0
-2049 -2066 -2067 0
-2068 2049 0
-2068 2066 0
2068 -2049 -2066 0
2051 2068 -2069 0
2051 -2068 2069 0
-2051 2068 2069 0
-2051 -2068 -2069 0
-2070 2051 0
-2070 2068 0
2070 -2051 -2068 0
2053 2070 -2071 0
2053 -2070 2071 0
-2053 2070 2071 0
-2053 -2070 -2071 0
-2072 2053 0
-2072 2070 0
2072 -2053 -2070 0
2055 2072 -2073 0
2055 -2072 2073 0
-2055 2072 2073 0
-2055 -2072 -2073 0
-2074 2055 0
-2074 2072 0
2074 -2055 -2072 0
2057 2074 -2075 0
2057 -2074 2075 0
-2057 2074 2075 0
-2057 -2074 -2075 0
-2076 2057 0
-2076 2074 0
2076 -2057 -2074 0
-2076 0
2059 99 -2077 0
2059 -99 2077 0
-2059 99 2077 0
-2059 -99 -2077 0
-2078 2059 0
-2078 99 0
2078 -2059 -99 0
2061 2078 -2079 0
2061 -2078 2079 0
-2061 2078 2079 0
-2061 -2078 -2079 0
-2080 2061 0
-2080 2078 0
2080 -2061 -2078 0
2063 2080 -2081 0
2063 -2080 2081 0
-2063 2080 2081 0
-2063 -2080 -2081 0
-2082 2063 0
-2082 2080 0
2082 -2063 -2080 0
2065 2082 -2083 0
2065 -2082 2083 0
-2065 2082 2083 0
-2065 -2082 -2083 0
-2084 2065 0
-2084 2082 0
2084 -2065 -2082 0
2067 2084 -2085 0
2067 -2084 2085 0
-2067 2084 2085 0
-2067 -2084 -2085 0
-2086 2067 0
-2086 2084 0
2086 -2067 -2084 0
2069 2086 -2087 0
2069 -2086 2087 0
-2069 2086 2087 0
-2069 -2086 -2087 0
-2088 2069 0
-2088 2086 0
2088 -2069 -2086 0
2071 2088 -2089 0
2071 -2088 2089 0
-2071 2088 2089 0
-2071 -2088 -2089 0
-2090 2071 0
-2090 2088 0
2090 -2071 -2088 0
2073 2090 -2091 0
2073 -2090 2091 0
-2073 2090 2091 0
-2073 -2090 -2091 0
-2092 2073 0
-2092 2090 0
2092 -2073 -2090 0
2075 2092 -2093 0
2075 -2092 2093 0
-2075 2092 2093 0
-2075 -2092 -2093 0
-2094 2075 0
-2094 2092 0
2094 -2075 -2092 0
-2094 0
2077 100 -2095 0
2077 -100 2095 0
-2077 100 2095 0
-2077 -100 -2095 0
-2096 2077 0
-2096 100 0
2096 -2077 -100 0
2079 2096 -2097 0
2079 -2096 2097 0
-2079 2096 2097 0
-2079 -2096 -2097 0
-2098 2079 0
-2098 2096 0
2098 -2079 -2096 0
2081 2098 -2099 0
2081 -2098 2099 0
-2081 2098 2099 0
-2081 -2098 -2099 0
-2100 2081 0
-2100 2098 0
2100 -2081 -2098 0
2083 2100 -2101 0
2083 -2100 2101 0
-2083 2100 2101 0
-2083 -2100 -2101 0
-2102 2083 0
-2102 2100 0
2102 -2083 -2100 0
2085 2102 -2103 0
2085 -2102 2103 0
-2085 2102 2103 0
-2085 -2102 -2103 0
-2104 2085 0
-2104 2102 0
2104 -2085 -2102 0
2087 2104 -2105 0
2087 -2104 2105 0
-2087 2104 2105 0
-2087 -2104 -2105 0
-2106 2087 0
-2106 2104 0
2106 -2087 -2104 0
2089 2106 -2107 0
2089 -2106 2107 0
-2089 2106 2107 0
-2089 -2106 -2107 0
-2108 2089 0
-2108 2106 0
2108 -2089 -2106 0
2091 2108 -2109 0
2091 -2108 2109 0
-2091 2108 2109 0
-2091 -2108 -2109 0
-2110 2091 0
-2110 2108 0
2110 -2091 -2108 0
2093 2110 -2111 0
2093 -2110 2111 0
-2093 2110 2111 0
-2093 -2110 -2111 0
-2112 2093 0
-2112 2110 0
2112 -2093 -2110 0
-2112 0
2095 101 -2113 0
2095 -101 2113 0
-2095 101 2113 0
-2095 -101 -2113 0
-2114 2095 0
-2114 101 0
2114 -2095 -101 0
2097 2114 -2115 0
2097 -2114 2115 0
-2097 2114 2115 0
-2097 -2114 -2115 0
-2116 2097 0
-2116 2114 0
2116 -2097 -2114 0
2099 2116 -2117 0
2099 -2116 2117 0
-2099 2116 2117 0
-2099 -2116 -2117 0
-2118 2099 0
-2118 2116 0
2118 -2099 -2116 0
2101 2118 -2119 0
2101 -2118 2119 0
-2101 2118 2119 0
-2101 -2118 -2119 0
-2120 2101 0
-2120 2118 0
2120 -2101 -2118 0
2103 2120 -2121 0
2103 -2120 2121 0
-2103 2120 2121 0
-2103 -2120 -2121 0
-2122 2103 0
-2122 2120 0
2122 -2103 -2120 0
2105 2122 -2123 0
2105 -2122 2123 0
-2105 2122 2123 0
-2105 -2122 -2123 0
-2124 2105 0
-2124 2122 0
2124 -2105 -2122 0
2107 2124 -2125 0
2107 -2124 2125 0
-2107 2124 2125 0
-2107 -2124 -2125 0
-2126 2107 0
-2126 2124 0
2126 -2107 -2124 0
2109 2126 -2127 0
2109 -2126 2127 0
-2109 2126 2127 0
-2109 -2126 -2127 0
-2128 2109 0
-2128 2126 0
2128 -2109 -2126 0
2111 2128 -2129 0
2111 -2128 2129 0
-2111 2128 2129 0
-2111 -2128 -2129 0
-2130 2111 0
-2130 2128 0
2130 -2111 -2128 0
-2130 0
2113 102 -2131 0
2113 -102 2131 0
-2113 102 2131 0
-2113 -102 -2131 0
-2132 2113 0
-2132 102 0
2132 -2113 -102 0
2115 2132 -2133 0
2115 -2132 2133 0
-2115 2132 2133 0
-2115 -2132 -2133 0
-2134 2115 0
-2134 2132 0
2134 -2115 -2132 0
2117 2134 -2135 0
2117 -2134 2135 0
-2117 2134 2135 0
-2117 -2134 -2135 0
-2136 2117 0
-2136 2134 0
2136 -2117 -2134 0
2119 2136 -2137 0
2119 -2136 2137 0
-2119 2136 2137 0
-2119 -2136 -2137 0
-2138 2119 0
-2138 2136 0
2138 -2119 -2136 0
2121 2138 -2139 0
2121 -2138 2139 0
-2121 2138 2139 0
-2121 -2138 -2139 0
-2140 2121 0
-2140 2138 0
2140 -2121 -2138 0
2123 2140 -2141 0
2123 -2140 2141 0
-2123 2140 2141 0
-2123 -2140 -2141 0
-2142 2123 0
-2142 2140 0
2142 -2123 -2140 0
2125 2142 -2143 0
2125 -2142 2143 0
-2125 2142 2143 0
-2125 -2142 -2143 0
-2144 2125 0
-2144 2142 0
2144 -2125 -2142 0
2127 2144 -2145 0
2127 -2144 2145 0
-2127 2144 2145 0
-2127 -2144 -2145 0
-2146 2127 0
-2146 2144 0
2146 -2127 -2144 0
2129 2146 -2147 0
2129 -2146 2147 0
-2129 2146 2147 0
-2129 -2146 -2147 0
-2148 2129 0
-2148 2146 0
2148 -2129 -2146 0
-2148 0
2131 103 -2149 0
2131 -103 2149 0
-2131 103 2149 0
-2131 -103 -2149 0
-2150 2131 0
-2150 103 0
2150 -2131 -103 0
2133 2150 -2151 0
2133 -2150 2151 0
-2133 2150 2151 0
-2133 -2150 -2151 0
-2152 2133 0
-2152 2150 0
2152 -2133 -2150 0
2135 2152 -2153 0
2135 -2152 2153 0
-2135 2152 2153 0
-2135 -2152 -2153 0
-2154 2135 0
-2154 2152 0
2154 -2135 -2152 0
2137 2154 -2155 0
2137 -2154 2155 0
-2137 2154 2155 0
-2137 -2154 -2155 0
-2156 2137 0
-2156 2154 0
2156 -2137 -2154 0
2139 2156 -2157 0
2139 -2156 2157 0
-2139 2156 2157 0
-2139 -2156 -2157 0
-2158 2139 0
-2158 2156 0
2158 -2139 -2156 0
2141 2158 -2159 0
2141 -2158 2159 0
-2141 2158 2159 0
-2141 -2158 -2159 0
-2160 2141 0
-2160 2158 0
2160 -2141 -2158 0
2143 2160 -2161 0
2143 -2160 2161 0
-2143 2160 2161 0
-2143 -2160 -2161 0
-2162 2143 0
-2162 2160 0
2162 -2143 -2160 0
2145 2162 -2163 0
2145 -2162 2163 0
-2145 2162 2163 0
-2145 -2162 -2163 0
-2164 2145 0
-2164 2162 0
2164 -2145 -2162 0
2147 2164 -2165 0
2147 -2164 2165 0
-2147 2164 2165 0
-2147 -2164 -2165 0
-2166 2147 0
-2166 2164 0
2166 -2147 -2164 0
-2166 0
2149 104 -2167 0
2149 -104 2167 0
-2149 104 2167 0
-2149 -104 -2167 0
-2168 2149 0
-2168 104 0
2168 -2149 -104 0
2151 2168 -2169 0
2151 -2168 2169 0
-2151 2168 2169 0
-2151 -2168 -2169 0
-2170 2151 0
-2170 2168 0
2170 -2151 -2168 0
2153 2170 -2171 0
2153 -2170 2171 0
-2153 2170 2171 0
-2153 -2170 -2171 0
-2172 2153 0
-2172 2170 0
2172 -2153 -2170 0
2155 2172 -2173 0
2155 -2172 2173 0
-2155 2172 2173 0
-2155 -2172 -2173 0
-2174 2155 0
-2174 2172 0
2174 -2155 -2172 0
2157 2174 -2175 0
2157 -2174 2175 0
-2157 2174 2175 0
-2157 -2174 -2175 0
-2176 2157 0
-2176 2174 0
2176 -2157 -2174 0
2159 2176 -2177 0
2159 -2176 2177 0
-2159 2176 2177 0
-2159 -2176 -2177 0
-2178 2159 0
-2178 2176 0
2178 -2159 -2176 0
2161 2178 -2179 0
2161 -2178 2179 0
-2161 2178 2179 0
-2161 -2178 -2179 0
-2180 2161 0
-2180 2178 0
2180 -2161 -2178 0
2163 2180 -2181 0
2163 -2180 2181 0
-2163 2180 2181 0
-2163 -2180 -2181 0
-2182 2163 0
-2182 2180 0
2182 -2163 -2180 0
2165 2182 -2183 0
2165 -2182 2183 0
-2165 2182 2183 0
-2165 -2182 -2183 0
-2184 2165 0
-2184 2182 0
2184 -2165 -2182 0
-2184 0
2167 105 -2185 0
2167 -105 2185 0
-2167 105 2185 0
-2167 -105 -2185 0
-2186 2167 0
-2186 105 0
2186 -2167 -105 0
2169 2186 -2187 0
2169 -2186 2187 0
-2169 2186 2187 0
-2169 -2186 -2187 0
-2188 2169 0
-2188 2186 0
2188 -2169 -2186 0
2171 2188 -2189 0
2171 -2188 2189 0
-2171 2188 2189 0
-2171 -2188 -2189 0
-2190 2171 0
-2190 2188 0
2190 -2171 -2188 0
2173 2190 -2191 0
2173 -2190 2191 0
-2173 2190 2191 0
-2173 -2190 -2191 0
-2192 2173 0
-2192 2190 0
2192 -2173 -2190 0
2175 2192 -2193 0
2175 -2192 2193 0
-2175 2192 2193 0
-2175 -2192 -2193 0
-2194 2175 0
-2194 2192 0
2194 -2175 -2192 0
2177 2194 -2195 0
2177 -2194 2195 0
-2177 2194 2195 0
-2177 -2194 -2195 0
-2196 2177 0
-2196 2194 0
2196 -2177 -2194 0
2179 2196 -2197 0
2179 -2196 2197 0
-2179 2196 2197 0
-2179 -2196 -2197 0
-2198 2179 0
-2198 2196 0
2198 -2179 -2196 0
2181 2198 -2199 0
2181 -2198 2199 0
-2181 2198 2199 0
-2181 -2198 -2199 0
-2200 2181 0
-2200 2198 0
2200 -2181 -2198 0
2183 2200 -2201 0
2183 -2200 2201 0
-2183 2200 2201 0
-2183 -2200 -2201 0
-2202 2183 0
-2202 2200 0
2202 -2183 -2200 0
-2202 0
2185 106 -2203 0
2185 -106 2203 0
-2185 106 2203 0
-2185 -106 -2203 0
-2204 2185 0
-2204 106 0
2204 -2185 -106 0
2187 2204 -2205 0
2187 -2204 2205 0
-2187 2204 2205 0
-2187 -2204 -2205 0
-2206 2187 0
-2206 2204 0
2206 -2187 -2204 0
2189 2206 -2207 0
2189 -2206 2207 0
-2189 2206 2207 0
-2189 -2206 -2207 0
-2208 2189 0
-2208 2206 0
2208 -2189 -2206 0
2191 2208 -2209 0
2191 -2208 2209 0
-2191 2208 2209 0
-2191 -2208 -2209 0
-2210 2191 0
-2210 2208 0
2210 -2191 -2208 0
2193 2210 -2211 0
2193 -2210 2211 0
-2193 2210 2211 0
-2193 -2210 -2211 0
-2212 2193 0
-2212 2210 0
2212 -2193 -2210 0
2195 2212 -2213 0
2195 -2212 2213 0
-2195 2212 2213 0
-2195 -2212 -2213 0
-2214 2195 0
-2214 2212 0
2214 -2195 -2212 0
2197 2214 -2215 0
2197 -2214 2215 0
-2197 2214 2215 0
-2197 -2214 -2215 0
-2216 2197 0
-2216 2214 0
2216 -2197 -2214 0
2199 2216 -2217 0
2199 -2216 2217 0
-2199 2216 2217 0
-2199 -2216 -2217 0
-2218 2199 0
-2218 2216 0
2218 -2199 -2216 0
2201 2218 -2219 0
2201 -2218 2219 0
-2201 2218 2219 0
-2201 -2218 -2219 0
-2220 2201 0
-2220 2218 0
2220 -2201 -2218 0
-2220 0
2203 107 -2221 0
2203 -107 2221 0
-2203 107 2221 0
-2203 -107 -2221 0
-2222 2203 0
-2222 107 0
2222 -2203 -107 0
2205 2222 -2223 0
2205 -2222 2223 0
-2205 2222 2223 0
-2205 -2222 -2223 0
-2224 2205 0
-2224 2222 0
2224 -2205 -2222 0
2207 2224 -2225 0
2207 -2224 2225 0
-2207 2224 2225 0
-2207 -2224 -2225 0
-2226 2207 0
-2226 2224 0
2226 -2207 -2224 0
2209 2226 -2227 0
2209 -2226 2227 0
-2209 2226 2227 0
-2209 -2226 -2227 0
-2228 2209 0
-2228 2226 0
2228 -2209 -2226 0
2211 2228 -2229 0
2211 -2228 2229 0
-2211 2228 2229 0
-2211 -2228 -2229 0
-2230 2211 0
-2230 2228 0
2230 -2211 -2228 0
2213 2230 -2231 0
2213 -2230 2231 0
-2213 2230 2231 0
-2213 -2230 -2231 0
-2232 2213 0
-2232 2230 0
2232 -2213 -2230 0
2215 2232 -2233 0
2215 -2232 2233 0
-2215 2232 2233 0
-2215 -2232 -2233 0
-2234 2215 0
-2234 2232 0
2234 -2215 -2232 0
2217 2234 -2235 0
2217 -2234 2235 0
-2217 2234 2235 0
-2217 -2234 -2235 0
-2236 2217 0
-2236 2234 0
2236 -2217 -2234 0
2219 2236 -2237 0
2219 -2236 2237 0
-2219 2236 2237 0
-2219 -2236 -2237 0
-2238 2219 0
-2238 2236 0
2238 -2219 -2236 0
-2238 0
2221 108 -2239 0
2221 -108 2239 0
-2221 108 2239 0
-2221 -108 -2239 0
-2240 2221 0
-2240 108 0
2240 -2221 -108 0
2223 2240 -2241 0
2223 -2240 2241 0
-2223 2240 2241 0
-2223 -2240 -2241 0
-2242 2223 0
-2242 2240 0
2242 -2223 -2240 0
2225 2242 -2243 0
2225 -2242 2243 0
-2225 2242 2243 0
-2225 -2242 -2243 0
-2244 2225 0
-2244 2242 0
2244 -2225 -2242 0
2227 2244 -2245 0
2227 -2244 2245 0
-2227 2244 2245 0
-2227 -2244 -2245 0
-2246 2227 0
-2246 2244 0
2246 -2227 -2244 0
2229 2246 -2247 0
2229 -2246 2247 0
-2229 2246 2247 0
-2229 -2246 -2247 0
-2248 2229 0
-2248 2246 0
2248 -2229 -2246 0
2231 2248 -2249 0
2231 -2248 2249 0
-2231 2248 2249 0
-2231 -2248 -2249 0
-2250 2231 0
-2250 2248 0
2250 -2231 -2248 0
2233 2250 -2251 0
2233 -2250 2251 0
-2233 2250 2251 0
-2233 -2250 -2251 0
-2252 2233 0
-2252 2250 0
2252 -2233 -2250 0
2235 2252 -2253 0
2235 -2252 2253 0
-2235 2252 2253 0
-2235 -2252 -2253 0
-2254 2235 0
-2254 2252 0
2254 -2235 -2252 0
2237 2254 -2255 0
2237 -2254 2255 0
-2237 2254 2255 0
-2237 -2254 -2255 0
-2256 2237 0
-2256 2254 0
2256 -2237 -2254 0
-2256 0
2239 109 -2257 0
2239 -109 2257 0
-2239 109 2257 0
-2239 -109 -2257 0
-2258 2239 0
-2258 109 0
2258 -2239 -109 0
2241 2258 -2259 0
2241 -2258 2259 0
-2241 2258 2259 0
-2241 -2258 -2259 0
-2260 2241 0
-2260 2258 0
2260 -2241 -2258 0
2243 2260 -2261 0
2243 -2260 2261 0
-2243 2260 2261 0
-2243 -2260 -2261 0
-2262 2243 0
-2262 2260 0
2262 -2243 -2260 0
2245 2262 -2263 0
2245 -2262 2263 0
-2245 2262 2263 0
-2245 -2262 -2263 0
-2264 2245 0
-2264 2262 0
2264 -2245 -2262 0
2247 2264 -2265 0
2247 -2264 2265 0
-2247 2264 2265 0
-2247 -2264 -2265 0
-2266 2247 0
-2266 2264 0
2266 -2247 -2264 0
2249 2266 -2267 0
2249 -2266 2267 0
-2249 2266 2267 0
-2249 -2266 -2267 0
-2268 2249 0
-2268 2266 0
2268 -2249 -2266 0
2251 2268 -2269 0
2251 -2268 2269 0
-2251 2268 2269 0
-2251 -2268 -2269 0
-2270 2251 0
-2270 2268 0
2270 -2251 -2268 0
2253 2270 -2271 0
2253 -2270 2271 0
-2253 2270 2271 0
-2253 -2270 -2271 0
-2272 2253 0
-2272 2270 0
2272 -2253 -2270 0
2255 2272 -2273 0
2255 -2272 2273 0
-2255 2272 2273 0
-2255 -2272 -2273 0
-2274 2255 0
-2274 2272 0
2274 -2255 -2272 0
-2274 0
2257 110 -2275 0
2257 -110 2275 0
-2257 110 2275 0
-2257 -110 -2275 0
-2276 2257 0
-2276 110 0
2276 -2257 -110 0
2259 2276 -2277 0
2259 -2276 2277 0
-2259 2276 2277 0
-2259 -2276 -2277 0
-2278 2259 0
-2278 2276 0
2278 -2259 -2276 0
2261 2278 -2279 0
2261 -2278 2279 0
-2261 2278 2279 0
-2261 -2278 -2279 0
-2280 2261 0
-2280 2278 0
2280 -2261 -2278 0
2263 2280 -2281 0
2263 -2280 2281 0
-2263 2280 2281 0
-2263 -2280 -2281 0
-2282 2263 0
-2282 2280 0
2282 -2263 -2280 0
2265 2282 -2283 0
2265 -2282 2283 0
-2265 2282 2283 0
-2265 -2282 -2283 0
-2284 2265 0
-2284 2282 0
2284 -2265 -2282 0
2267 2284 -2285 0
2267 -2284 2285 0
-2267 2284 2285 0
-2267 -2284 -2285 0
-2286 2267 0
-2286 2284 0
2286 -2267 -2284 0
2269 2286 -2287 0
2269 -2286 2287 0
-2269 2286 2287 0
-2269 -2286 -2287 0
-2288 2269 0
-2288 2286 0
2288 -2269 -2286 0
2271 2288 -2289 0
2271 -2288 2289 0
-2271 2288 2289 0
-2271 -2288 -2289 0
-2290 2271 0
-2290 2288 0
2290 -2271 -2288 0
2273 2290 -2291 0
2273 -2290 2291 0
-2273 2290 2291 0
-2273 -2290 -2291 0
-2292 2273 0
-2292 2290 0
2292 -2273 -2290 0
-2292 0
2275 111 -2293 0
2275 -111 2293 0
-2275 111 2293 0
-2275 -111 -2293 0
-2294 2275 0
-2294 111 0
2294 -2275 -111 0
2277 2294 -2295 0
2277 -2294 2295 0
-2277 2294 2295 0
-2277 -2294 -2295 0
-2296 2277 0
-2296 2294 0
2296 -2277 -2294 0
2279 2296 -2297 0
2279 -2296 2297 0
-2279 2296 2297 0
-2279 -2296 -2297 0
-2298 2279 0
-2298 2296 0
2298 -2279 -2296 0
2281 2298 -2299 0
2281 -2298 2299 0
-2281 2298 2299 0
-2281 -2298 -2299 0
-2300 2281 0
-2300 2298 0
2300 -2281 -2298 0
2283 2300 -2301 0
2283 -2300 2301 0
-2283 2300 2301 0
-2283 -2300 -2301 0
-2302 2283 0
-2302 2300 0
2302 -2283 -2300 0
2285 2302 -2303 0
2285 -2302 2303 0
-2285 2302 2303 0
-2285 -2302 -2303 0
-2304 2285 0
-2304 2302 0
2304 -2285 -2302 0
2287 2304 -2305 0
2287 -2304 2305 0
-2287 2304 2305 0
-2287 -2304 -2305 0
-2306 2287 0
-2306 2304 0
2306 -2287 -2304 0
2289 2306 -2307 0
2289 -2306 2307 0
-2289 2306 2307 0
-2289 -2306 -2307 0
-2308 2289 0
-2308 2306 0
2308 -2289 -2306 0
2291 2308 -2309 0
2291 -2308 2309 0
-2291 2308 2309 0
-2291 -2308 -2309 0
-2310 2291 0
-2310 2308 0
2310 -2291 -2308 0
-2310 0
2293 112 -2311 0
2293 -112 2311 0
-2293 112 2311 0
-2293 -112 -2311 0
-2312 2293 0
-2312 112 0
2312 -2293 -112 0
2295 2312 -2313 0
2295 -2312 2313 0
-2295 2312 2313 0
-2295 -2312 -2313 0
-2314 2295 0
-2314 2312 0
2314 -2295 -2312 0
2297 2314 -2315 0
2297 -2314 2315 0
-2297 2314 2315 0
-2297 -2314 -2315 0
-2316 2297 0
-2316 2314 0
2316 -2297 -2314 0
2299 2316 -2317 0
2299 -2316 2317 0
-2299 2316 2317 0
-2299 -2316 -2317 0
-2318 2299 0
-2318 2316 0
2318 -2299 -2316 0
2301 2318 -2319 0
2301 -2318 2319 0
-2301 2318 2319 0
-2301 -2318 -2319 0
-2320 2301 0
-2320 2318 0
2320 -2301 -2318 0
2303 2320 -2321 0
2303 -2320 2321 0
-2303 2320 2321 0
-2303 -2320 -2321 0
-2322 2303 0
-2322 2320 0
2322 -2303 -2320 0
2305 2322 -2323 0
2305 -2322 2323 0
-2305 2322 2323 0
-2305 -2322 -2323 0
-2324 2305 0
-2324 2322 0
2324 -2305 -2322 0
2307 2324 -2325 0
2307 -2324 2325 0
-2307 2324 2325 0
-2307 -2324 -2325 0
-2326 2307 0
-2326 2324 0
2326 -2307 -2324 0
2309 2326 -2327 0
2309 -2326 2327 0
-2309 2326 2327 0
-2309 -2326 -2327 0
-2328 2309 0
-2328 2326 0
2328 -2309 -2326 0
-2328 0
2311 113 -2329 0
2311 -113 2329 0
-2311 113 2329 0
-2311 -113 -2329 0
-2330 2311 0
-2330 113 0
2330 -2311 -113 0
2313 2330 -2331 0
2313 -2330 2331 0
-2313 2330 2331 0
-2313 -2330 -2331 0
-2332 2313 0
-2332 2330 0
2332 -2313 -2330 0
2315 2332 -2333 0
2315 -2332 2333 0
-2315 2332 2333 0
-2315 -2332 -2333 0
-2334 2315 0
-2334 2332 0
2334 -2315 -2332 0
2317 2334 -2335 0
2317 -2334 2335 0
-2317 2334 2335 0
-2317 -2334 -2335 0
-2336 2317 0
-2336 2334 0
2336 -2317 -2334 0
2319 2336 -2337 0
2319 -2336 2337 0
-2319 2336 2337 0
-2319 -2336 -2337 0
-2338 2319 0
-2338 2336 0
2338 -2319 -2336 0
2321 2338 -2339 0
2321 -2338 2339 0
-2321 2338 2339 0
-2321 -2338 -2339 0
-2340 2321 0
-2340 2338 0
2340 -2321 -2338 0
2323 2340 -2341 0
2323 -2340 2341 0
-2323 2340 2341 0
-2323 -2340 -2341 0
-2342 2323 0
-2342 2340 0
2342 -2323 -2340 0
2325 2342 -2343 0
2325 -2342 2343 0
-2325 2342 2343 0
-2325 -2342 -2343 0
-2344 2325 0
-2344 2342 0
2344 -2325 -2342 0
2327 2344 -2345 0
2327 -2344 2345 0
-2327 2344 2345 0
-2327 -2344 -2345 0
-2346 2327 0
-2346 2344 0
2346 -2327 -2344 0
-2346 0
2329 114 -2347 0
2329 -114 2347 0
-2329 114 2347 0
-2329 -114 -2347 0
-2348 2329 0
-2348 114 0
2348 -2329 -114 0
2331 2348 -2349 0
2331 -2348 2349 0
-2331 2348 2349 0
-2331 -2348 -2349 0
-2350 2331 0
-2350 2348 0
2350 -2331 -2348 0
2333 2350 -2351 0
2333 -2350 2351 0
-2333 2350 2351 0
-2333 -2350 -2351 0
-2352 2333 0
-2352 2350 0
2352 -2333 -2350 0
2335 2352 -2353 0
2335 -2352 2353 0
-2335 2352 2353 0
-2335 -2352 -2353 0
-2354 2335 0
-2354 2352 0
2354 -2335 -2352 0
2337 2354 -2355 0
2337 -2354 2355 0
-2337 2354 2355 0
-2337 -2354 -2355 0
-2356 2337 0
-2356 2354 0
2356 -2337 -2354 0
2339 2356 -2357 0
2339 -2356 2357 0
-2339 2356 2357 0
-2339 -2356 -2357 0
-2358 2339 0
-2358 2356 0
2358 -2339 -2356 0
2341 2358 -2359 0
2341 -2358 2359 0
-2341 2358 2359 0
-2341 -2358 -2359 0
-2360 2341 0
-2360 2358 0
2360 -2341 -2358 0
2343 2360 -2361 0
2343 -2360 2361 0
-2343 2360 2361 0
-2343 -2360 -2361 0
-2362 2343 0
-2362 2360 0
2362 -2343 -2360 0
2345 2362 -2363 0
2345 -2362 2363 0
-2345 2362 2363 0
-2345 -2362 -2363 0
-2364 2345 0
-2364 2362 0
2364 -2345 -2362 0
-2364 0
2347 115 -2365 0
2347 -115 2365 0
-2347 115 2365 0
-2347 -115 -2365 0
-2366 2347 0
-2366 115 0
2366 -2347 -115 0
2349 2366 -2367 0
2349 -2366 2367 0
-2349 2366 2367 0
-2349 -2366 -2367 0
-2368 2349 0
-2368 2366 0
2368 -2349 -2366 0
2351 2368 -2369 0
2351 -2368 2369 0
-2351 2368 2369 0
-2351 -2368 -2369 0
-2370 2351 0
-2370 2368 0
2370 -2351 -2368 0
2353 2370 -2371 0
2353 -2370 2371 0
-2353 2370 2371 0
-2353 -2370 -2371 0
-2372 2353 0
-2372 2370 0
2372 -2353 -2370 0
2355 2372 -2373 0
2355 -2372 2373 0
-2355 2372 2373 0
-2355 -2372 -2373 0
-2374 2355 0
-2374 2372 0
2374 -2355 -2372 0
2357 2374 -2375 0
2357 -2374 2375 0
-2357 2374 2375 0
-2357 -2374 -2375 0
-2376 2357 0
-2376 2374 0
2376 -2357 -2374 0
2359 2376 -2377 0
2359 -2376 2377 0
-2359 2376 2377 0
-2359 -2376 -2377 0
-2378 2359 0
-2378 2376 0
2378 -2359 -2376 0
2361 2378 -2379 0
2361 -2378 2379 0
-2361 2378 2379 0
-2361 -2378 -2379 0
-2380 2361 0
-2380 2378 0
2380 -2361 -2378 0
2363 2380 -2381 0
2363 -2380 2381 0
-2363 2380 2381 0
-2363 -2380 -2381 0
-2382 2363 0
-2382 2380 0
2382 -2363 -2380 0
-2382 0
2365 116 -2383 0
2365 -116 2383 0
-2365 116 2383 0
-2365 -116 -2383 0
-2384 2365 0
-2384 116 0
2384 -2365 -116 0
2367 2384 -2385 0
2367 -2384 2385 0
-2367 2384 2385 0
-2367 -2384 -2385 0
-2386 2367 0
-2386 2384 0
2386 -2367 -2384 0
2369 2386 -2387 0
2369 -2386 2387 0
-2369 2386 2387 0
-2369 -2386 -2387 0
-2388 2369 0
-2388 2386 0
2388 -2369 -2386 0
2371 2388 -2389 0
2371 -2388 2389 0
-2371 2388 2389 0
-2371 -2388 -2389 0
-2390 2371 0
-2390 2388 0
2390 -2371 -2388 0
2373 2390 -2391 0
2373 -2390 2391 0
-2373 2390 2391 0
-2373 -2390 -2391 0
-2392 2373 0
-2392 2390 0
2392 -2373 -2390 0
2375 2392 -2393 0
2375 -2392 2393 0
-2375 2392 2393 0
-2375 -2392 -2393 0
-2394 2375 0
-2394 2392 0
2394 -2375 -2392 0
2377 2394 -2395 0
2377 -2394 2395 0
-2377 2394 2395 0
-2377 -2394 -2395 0
-2396 2377 0
-2396 2394 0
2396 -2377 -2394 0
2379 2396 -2397 0
2379 -2396 2397 0
-2379 2396 2397 0
-2379 -2396 -2397 0
-2398 2379 0
-2398 2396 0
2398 -2379 -2396 0
2381 2398 -2399 0
2381 -2398 2399 0
-2381 2398 2399 0
-2381 -2398 -2399 0
-2400 2381 0
-2400 2398 0
2400 -2381 -2398 0
-2400 0
2383 117 -2401 0
2383 -117 2401 0
-2383 117 2401 0
-2383 -117 -2401 0
-2402 2383 0
-2402 117 0
2402 -2383 -117 0
2385 2402 -2403 0
2385 -2402 2403 0
-2385 2402 2403 0
-2385 -2402 -2403 0
-2404 2385 0
-2404 2402 0
2404 -2385 -2402 0
2387 2404 -2405 0
2387 -2404 2405 0
-2387 2404 2405 0
-2387 -2404 -2405 0
-2406 2387 0
-2406 2404 0
2406 -2387 -2404 0
2389 2406 -2407 0
2389 -2406 2407 0
-2389 2406 2407 0
-2389 -2406 -2407 0
-2408 2389 0
-2408 2406 0
2408 -2389 -2406 0
2391 2408 -2409 0
2391 -2408 2409 0
-2391 2408 2409 0
-2391 -2408 -2409 0
-2410 2391 0
-2410 2408 0
2410 -2391 -2408 0
2393 2410 -2411 0
2393 -2410 2411 0
-2393 2410 2411 0
-2393 -2410 -2411 0
-2412 2393 0
-2412 2410 0
2412 -2393 -2410 0
2395 2412 -2413 0
2395 -2412 2413 0
-2395 2412 2413 0
-2395 -2412 -2413 0
-2414 2395 0
-2414 2412 0
2414 -2395 -2412 0
2397 2414 -2415 0
2397 -2414 2415 0
-2397 2414 2415 0
-2397 -2414 -2415 0
-2416 2397 0
-2416 2414 0
2416 -2397 -2414 0
2399 2416 -2417 0
2399 -2416 2417 0
-2399 2416 2417 0
-2399 -2416 -2417 0
-2418 2399 0
-2418 2416 0
2418 -2399 -2416 0
-2418 0
2401 118 -2419 0
2401 -118 2419 0
-2401 118 2419 0
-2401 -118 -2419 0
-2420 2401 0
-2420 118 0
2420 -2401 -118 0
2403 2420 -2421 0
2403 -2420 2421 0
-2403 2420 2421 0
-2403 -2420 -2421 0
-2422 2403 0
-2422 2420 0
2422 -2403 -2420 0
2405 2422 -2423 0
2405 -2422 2423 0
-2405 2422 2423 0
-2405 -2422 -2423 0
-2424 2405 0
-2424 2422 0
2424 -2405 -2422 0
2407 2424 -2425 0
2407 -2424 2425 0
-2407 2424 2425 0
-2407 -2424 -2425 0
-2426 2407 0
-2426 2424 0
2426 -2407 -2424 0
2409 2426 -2427 0
2409 -2426 2427 0
-2409 2426 2427 0
-2409 -2426 -2427 0
-2428 2409 0
-2428 2426 0
2428 -2409 -2426 0
2411 2428 -2429 0
2411 -2428 2429 0
-2411 2428 2429 0
-2411 -2428 -2429 0
-2430 2411 0
-2430 2428 0
2430 -2411 -2428 0
2413 2430 -2431 0
2413 -2430 2431 0
-2413 2430 2431 0
-2413 -2430 -2431 0
-2432 2413 0
-2432 2430 0
2432 -2413 -2430 0
2415 2432 -2433 0
2415 -2432 2433 0
-2415 2432 2433 0
-2415 -2432 -2433 0
-2434 2415 0
-2434 2432 0
2434 -2415 -2432 0
2417 2434 -2435 0
2417 -2434 2435 0
-2417 2434 2435 0
-2417 -2434 -2435 0
-2436 2417 0
-2436 2434 0
2436 -2417 -2434 0
-2436 0
2419 119 -2437 0
2419 -119 2437 0
-2419 119 2437 0
-2419 -119 -2437 0
-2438 2419 0
-2438 119 0
2438 -2419 -119 0
2421 2438 -2439 0
2421 -2438 2439 0
-2421 2438 2439 0
-2421 -2438 -2439 0
-2440 2421 0
-2440 2438 0
2440 -2421 -2438 0
2423 2440 -2441 0
2423 -2440 2441 0
-2423 2440 2441 0
-2423 -2440 -2441 0
-2442 2423 0
-2442 2440 0
2442 -2423 -2440 0
2425 2442 -2443 0
2425 -2442 2443 0
-2425 2442 2443 0
-2425 -2442 -2443 0
-2444 2425 0
-2444 2442 0
2444 -2425 -2442 0
2427 2444 -2445 0
2427 -2444 2445 0
-2427 2444 2445 0
-2427 -2444 -2445 0
-2446 2427 0
-2446 2444 0
2446 -2427 -2444 0
2429 2446 -2447 0
2429 -2446 2447 0
-2429 2446 2447 0
-2429 -2446 -2447 0
-2448 2429 0
-2448 2446 0
2448 -2429 -2446 0
2431 2448 -2449 0
2431 -2448 2449 0
-2431 2448 2449 0
-2431 -2448 -2449 0
-2450 2431 0
-2450 2448 0
2450 -2431 -2448 0
2433 2450 -2451 0
2433 -2450 2451 0
-2433 2450 2451 0
-2433 -2450 -2451 0
-2452 2433 0
-2452 2450 0
2452 -2433 -2450 0
2435 2452 -2453 0
2435 -2452 2453 0
-2435 2452 2453 0
-2435 -2452 -2453 0
-2454 2435 0
-2454 2452 0
2454 -2435 -2452 0
-2454 0
2437 120 -2455 0
2437 -120 2455 0
-2437 120 2455 0
-2437 -120 -2455 0
-2456 2437 0
-2456 120 0
2456 -2437 -120 0
2439 2456 -2457 0
2439 -2456 2457 0
-2439 2456 2457 0
-2439 -2456 -2457 0
-2458 2439 0
-2458 2456 0
2458 -2439 -2456 0
2441 2458 -2459 0
2441 -2458 2459 0
-2441 2458 2459 0
-2441 -2458 -2459 0
-2460 2441 0
-2460 2458 0
2460 -2441 -2458 0
2443 2460 -2461 0
2443 -2460 2461 0
-2443 2460 2461 0
-2443 -2460 -2461 0
-2462 2443 0
-2462 2460 0
2462 -2443 -2460 0
2445 2462 -2463 0
2445 -2462 2463 0
-2445 2462 2463 0
-2445 -2462 -2463 0
-2464 2445 0
-2464 2462 0
2464 -2445 -2462 0
2447 2464 -2465 0
2447 -2464 2465 0
-2447 2464 2465 0
-2447 -2464 -2465 0
-2466 2447 0
-2466 2464 0
2466 -2447 -2464 0
2449 2466 -2467 0
2449 -2466 2467 0
-2449 2466 2467 0
-2449 -2466 -2467 0
-2468 2449 0
-2468 2466 0
2468 -2449 -2466 0
2451 2468 -2469 0
2451 -2468 2469 0
-2451 2468 2469 0
-2451 -2468 -2469 0
-2470 2451 0
-2470 2468 0
2470 -2451 -2468 0
2453 2470 -2471 0
2453 -2470 2471 0
-2453 2470 2471 0
-2453 -2470 -2471 0
-2472 2453 0
-2472 2470 0
2472 -2453 -2470 0
-2472 0
2455 121 -2473 0
2455 -121 2473 0
-2455 121 2473 0
-2455 -121 -2473 0
-2474 2455 0
-2474 121 0
2474 -2455 -121 0
2457 2474 -2475 0
2457 -2474 2475 0
-2457 2474 2475 0
-2457 -2474 -2475 0
-2476 2457 0
-2476 2474 0
2476 -2457 -2474 0
2459 2476 -2477 0
2459 -2476 2477 0
-2459 2476 2477 0
-2459 -2476 -2477 0
-2478 2459 0
-2478 2476 0
2478 -2459 -2476 0
2461 2478 -2479 0
2461 -2478 2479 0
-2461 2478 2479 0
-2461 -2478 -2479 0
-2480 2461 0
-2480 2478 0
2480 -2461 -2478 0
2463 2480 -2481 0
2463 -2480 2481 0
-2463 2480 2481 0
-2463 -2480 -2481 0
-2482 2463 0
-2482 2480 0
2482 -2463 -2480 0
2465 2482 -2483 0
2465 -2482 2483 0
-2465 2482 2483 0
-2465 -2482 -2483 0
-2484 2465 0
-2484 2482 0
2484 -2465 -2482 0
2467 2484 -2485 0
2467 -2484 2485 0
-2467 2484 2485 0
-2467 -2484 -2485 0
-2486 2467 0
-2486 2484 0
2486 -2467 -2484 0
2469 2486 -2487 0
2469 -2486 2487 0
-2469 2486 2487 0
-2469 -2486 -2487 0
-2488 2469 0
-2488 2486 0
2488 -2469 -2486 0
2471 2488 -2489 0
2471 -2488 2489 0
-2471 2488 2489 0
-2471 -2488 -2489 0
-2490 2471 0
-2490 2488 0
2490 -2471 -2488 0
-2490 0
2473 122 -2491 0
2473 -122 2491 0
-2473 122 2491 0
-2473 -122 -2491 0
-2492 2473 0
-2492 122 0
2492 -2473 -122 0
2475 2492 -2493 0
2475 -2492 2493 0
-2475 2492 2493 0
-2475 -2492 -2493 0
-2494 2475 0
-2494 2492 0
2494 -2475 -2492 0
2477 2494 -2495 0
2477 -2494 2495 0
-2477 2494 2495 0
-2477 -2494 -2495 0
-2496 2477 0
-2496 2494 0
2496 -2477 -2494 0
2479 2496 -2497 0
2479 -2496 2497 0
-2479 2496 2497 0
-2479 -2496 -2497 0
-2498 2479 0
-2498 2496 0
2498 -2479 -2496 0
2481 2498 -2499 0
2481 -2498 2499 0
-2481 2498 2499 0
-2481 -2498 -2499 0
-2500 2481 0
-2500 2498 0
2500 -2481 -2498 0
2483 2500 -2501 0
2483 -2500 2501 0
-2483 2500 2501 0
-2483 -2500 -2501 0
-2502 2483 0
-2502 2500 0
2502 -2483 -2500 0
2485 2502 -2503 0
2485 -2502 2503 0
-2485 2502 2503 0
-2485 -2502 -2503 0
-2504 2485 0
-2504 2502 0
2504 -2485 -2502 0
2487 2504 -2505 0
2487 -2504 2505 0
-2487 2504 2505 0
-2487 -2504 -2505 0
-2506 2487 0
-2506 2504 0
2506 -2487 -2504 0
2489 2506 -2507 0
2489 -2506 2507 0
-2489 2506 2507 0
-2489 -2506 -2507 0
-2508 2489 0
-2508 2506 0
2508 -2489 -2506 0
-2508 0
2491 123 -2509 0
2491 -123 2509 0
-2491 123 2509 0
-2491 -123 -2509 0
-2510 2491 0
-2510 123 0
2510 -2491 -123 0
2493 2510 -2511 0
2493 -2510 2511 0
-2493 2510 2511 0
-2493 -2510 -2511 0
-2512 2493 0
-2512 2510 0
2512 -2493 -2510 0
2495 2512 -2513 0
2495 -2512 2513 0
-2495 2512 2513 0
-2495 -2512 -2513 0
-2514 2495 0
-2514 2512 0
2514 -2495 -2512 0
2497 2514 -2515 0
2497 -2514 2515 0
-2497 2514 2515 0
-2497 -2514 -2515 0
-2516 2497 0
-2516 2514 0
2516 -2497 -2514 0
2499 2516 -2517 0
2499 -2516 2517 0
-2499 2516 2517 0
-2499 -2516 -2517 0
-2518 2499 0
-2518 2516 0
2518 -2499 -2516 0
2501 2518 -2519 0
2501 -2518 2519 0
-2501 2518 2519 0
-2501 -2518 -2519 0
-2520 2501 0
-2520 2518 0
2520 -2501 -2518 0
2503 2520 -2521 0
2503 -2520 2521 0
-2503 2520 2521 0
-2503 -2520 -2521 0
-2522 2503 0
-2522 2520 0
2522 -2503 -2520 0
2505 2522 -2523 0
2505 -2522 2523 0
-2505 2522 2523 0
-2505 -2522 -2523 0
-2524 2505 0
-2524 2522 0
2524 -2505 -2522 0
2507 2524 -2525 0
2507 -2524 2525 0
-2507 2524 2525 0
-2507 -2524 -2525 0
-2526 2507 0
-2526 2524 0
2526 -2507 -2524 0
-2526 0
2509 124 -2527 0
2509 -124 2527 0
-2509 124 2527 0
-2509 -124 -2527 0
-2528 2509 0
-2528 124 0
2528 -2509 -124 0
2511 2528 -2529 0
2511 -2528 2529 0
-2511 2528 2529 0
-2511 -2528 -2529 0
-2530 2511 0
-2530 2528 0
2530 -2511 -2528 0
2513 2530 -2531 0
2513 -2530 2531 0
-2513 2530 2531 0
-2513 -2530 -2531 0
-2532 2513 0
-2532 2530 0
2532 -2513 -2530 0
2515 2532 -2533 0
2515 -2532 2533 0
-2515 2532 2533 0
-2515 -2532 -2533 0
-2534 2515 0
-2534 2532 0
2534 -2515 -2532 0
2517 2534 -2535 0
2517 -2534 2535 0
-2517 2534 2535 0
-2517 -2534 -2535 0
-2536 2517 0
-2536 2534 0
2536 -2517 -2534 0
2519 2536 -2537 0
2519 -2536 2537 0
-2519 2536 2537 0
-2519 -2536 -2537 0
-2538 2519 0
-2538 2536 0
2538 -2519 -2536 0
2521 2538 -2539 0
2521 -2538 2539 0
-2521 2538 2539 0
-2521 -2538 -2539 0
-2540 2521 0
-2540 2538 0
2540 -2521 -2538 0
2523 2540 -2541 0
2523 -2540 2541 0
-2523 2540 2541 0
-2523 -2540 -2541 0
-2542 2523 0
-2542 2540 0
2542 -2523 -2540 0
2525 2542 -2543 0
2525 -2542 2543 0
-2525 2542 2543 0
-2525 -2542 -2543 0
-2544 2525 0
-2544 2542 0
2544 -2525 -2542 0
-2544 0
2527 125 -2545 0
2527 -125 2545 0
-2527 125 2545 0
-2527 -125 -2545 0
-2546 2527 0
-2546 125 0
2546 -2527 -125 0
2529 2546 -2547 0
2529 -2546 2547 0
-2529 2546 2547 0
-2529 -2546 -2547 0
-2548 2529 0
-2548 2546 0
2548 -2529 -2546 0
2531 2548 -2549 0
2531 -2548 2549 0
-2531 2548 2549 0
-2531 -2548 -2549 0
-2550 2531 0
-2550 2548 0
2550 -2531 -2548 0
2533 2550 -2551 0
2533 -2550 2551 0
-2533 2550 2551 0
-2533 -2550 -2551 0
-2552 2533 0
-2552 2550 0
2552 -2533 -2550 0
2535 2552 -2553 0
2535 -2552 2553 0
-2535 2552 2553 0
-2535 -2552 -2553 0
-2554 2535 0
-2554 2552 0
2554 -2535 -2552 0
2537 2554 -2555 0
2537 -2554 2555 0
-2537 2554 2555 0
-2537 -2554 -2555 0
-2556 2537 0
-2556 2554 0
2556 -2537 -2554 0
2539 2556 -2557 0
2539 -2556 2557 0
-2539 2556 2557 0
-2539 -2556 -2557 0
-2558 2539 0
-2558 2556 0
2558 -2539 -2556 0
2541 2558 -2559 0
2541 -2558 2559 0
-2541 2558 2559 0
-2541 -2558 -2559 0
-2560 2541 0
-2560 2558 0
2560 -2541 -2558 0
2543 2560 -2561 0
2543 -2560 2561 0
-2543 2560 2561 0
-2543 -2560 -2561 0
-2562 2543 0
-2562 2560 0
2562 -2543 -2560 0
-2562 0
2545 126 -2563 0
2545 -126 2563 0
-2545 126 2563 0
-2545 -126 -2563 0
-2564 2545 0
-2564 126 0
2564 -2545 -126 0
2547 2564 -2565 0
2547 -2564 2565 0
-2547 2564 2565 0
-2547 -2564 -2565 0
-2566 2547 0
-2566 2564 0
2566 -2547 -2564 0
2549 2566 -2567 0
2549 -2566 2567 0
-2549 2566 2567 0
-2549 -2566 -2567 0
-2568 2549 0
-2568 2566 0
2568 -2549 -2566 0
2551 2568 -2569 0
2551 -2568 2569 0
-2551 2568 2569 0
-2551 -2568 -2569 0
-2570 2551 0
-2570 2568 0
2570 -2551 -2568 0
2553 2570 -2571 0
2553 -2570 2571 0
-2553 2570 2571 0
-2553 -2570 -2571 0
-2572 2553 0
-2572 2570 0
2572 -2553 -2570 0
2555 2572 -2573 0
2555 -2572 2573 0
-2555 2572 2573 0
-2555 -2572 -2573 0
-2574 2555 0
-2574 2572 0
2574 -2555 -2572 0
2557 2574 -2575 0
2557 -2574 2575 0
-2557 2574 2575 0
-2557 -2574 -2575 0
-2576 2557 0
-2576 2574 0
2576 -2557 -2574 0
2559 2576 -2577 0
2559 -2576 2577 0
-2559 2576 2577 0
-2559 -2576 -2577 0
-2578 2559 0
-2578 2576 0
2578 -2559 -2576 0
2561 2578 -2579 0
2561 -2578 2579 0
-2561 2578 2579 0
-2561 -2578 -2579 0
-2580 2561 0
-2580 2578 0
2580 -2561 -2578 0
-2580 0
2563 127 -2581 0
2563 -127 2581 0
-2563 127 2581 0
-2563 -127 -2581 0
-2582 2563 0
-2582 127 0
2582 -2563 -127 0
2565 2582 -2583 0
2565 -2582 2583 0
-2565 2582 2583 0
-2565 -2582 -2583 0
-2584 2565 0
-2584 2582 0
2584 -2565 -2582 0
2567 2584 -2585 0
2567 -2584 2585 0
-2567 2584 2585 0
-2567 -2584 -2585 0
-2586 2567 0
-2586 2584 0
2586 -2567 -2584 0
2569 2586 -2587 0
2569 -2586 2587 0
-2569 2586 2587 0
-2569 -2586 -2587 0
-2588 2569 0
-2588 2586 0
2588 -2569 -2586 0
2571 2588 -2589 0
2571 -2588 2589 0
-2571 2588 2589 0
-2571 -2588 -2589 0
-2590 2571 0
-2590 2588 0
2590 -2571 -2588 0
2573 2590 -2591 0
2573 -2590 2591 0
-2573 2590 2591 0
-2573 -2590 -2591 0
-2592 2573 0
-2592 2590 0
2592 -2573 -2590 0
2575 2592 -2593 0
2575 -2592 2593 0
-2575 2592 2593 0
-2575 -2592 -2593 0
-2594 2575 0
-2594 2592 0
2594 -2575 -2592 0
2577 2594 -2595 0
2577 -2594 2595 0
-2577 2594 2595 0
-2577 -2594 -2595 0
-2596 2577 0
-2596 2594 0
2596 -2577 -2594 0
2579 2596 -2597 0
2579 -2596 2597 0
-2579 2596 2597 0
-2579 -2596 -2597 0
-2598 2579 0
-2598 2596 0
2598 -2579 -2596 0
-2598 0
2581 128 -2599 0
2581 -128 2599 0
-2581 128 2599 0
-2581 -128 -2599 0
-2600 2581 0
-2600 128 0
2600 -2581 -128 0
2583 2600 -2601 0
2583 -2600 2601 0
-2583 2600 2601 0
-2583 -2600 -2601 0
-2602 2583 0
-2602 2600 0
2602 -2583 -2600 0
2585 2602 -2603 0
2585 -2602 2603 0
-2585 2602 2603 0
-2585 -2602 -2603 0
-2604 2585 0
-2604 2602 0
2604 -2585 -2602 0
2587 2604 -2605 0
2587 -2604 2605 0
-2587 2604 2605 0
-2587 -2604 -2605 0
-2606 2587 0
-2606 2604 0
2606 -2587 -2604 0
2589 2606 -2607 0
2589 -2606 2607 0
-2589 2606 2607 0
-2589 -2606 -2607 0
-2608 2589 0
-2608 2606 0
2608 -2589 -2606 0
2591 2608 -2609 0
2591 -2608 2609 0
-2591 2608 2609 0
-2591 -2608 -2609 0
-2610 2591 0
-2610 2608 0
2610 -2591 -2608 0
2593 2610 -2611 0
2593 -2610 2611 0
-2593 2610 2611 0
-2593 -2610 -2611 0
-2612 2593 0
-2612 2610 0
2612 -2593 -2610 0
2595 2612 -2613 0
2595 -2612 2613 0
-2595 2612 2613 0
-2595 -2612 -2613 0
-2614 2595 0
-2614 2612 0
2614 -2595 -2612 0
2597 2614 -2615 0
2597 -2614 2615 0
-2597 2614 2615 0
-2597 -2614 -2615 0
-2616 2597 0
-2616 2614 0
2616 -2597 -2614 0
-2616 0
2599 129 -2617 0
2599 -129 2617 0
-2599 129 2617 0
-2599 -129 -2617 0
-2618 2599 0
-2618 129 0
2618 -2599 -129 0
2601 2618 -2619 0
2601 -2618 2619 0
-2601 2618 2619 0
-2601 -2618 -2619 0
-2620 2601 0
-2620 2618 0
2620 -2601 -2618 0
2603 2620 -2621 0
2603 -2620 2621 0
-2603 2620 2621 0
-2603 -2620 -2621 0
-2622 2603 0
-2622 2620 0
2622 -2603 -2620 0
2605 2622 -2623 0
2605 -2622 2623 0
-2605 2622 2623 0
-2605 -2622 -2623 0
-2624 2605 0
-2624 2622 0
2624 -2605 -2622 0
2607 2624 -2625 0
2607 -2624 2625 0
-2607 2624 2625 0
-2607 -2624 -2625 0
-2626 2607 0
-2626 2624 0
2626 -2607 -2624 0
2609 2626 -2627 0
2609 -2626 2627 0
-2609 2626 2627 0
-2609 -2626 -2627 0
-2628 2609 0
-2628 2626 0
2628 -2609 -2626 0
2611 2628 -2629 0
2611 -2628 2629 0
-2611 2628 2629 0
-2611 -2628 -2629 0
-2630 2611 0
-2630 2628 0
2630 -2611 -2628 0
2613 2630 -2631 0
2613 -2630 2631 0
-2613 2630 2631 0
-2613 -2630 -2631 0
-2632 2613 0
-2632 2630 0
2632 -2613 -2630 0
2615 2632 -2633 0
2615 -2632 2633 0
-2615 2632 2633 0
-2615 -2632 -2633 0
-2634 2615 0
-2634 2632 0
2634 -2615 -2632 0
-2634 0
2617 130 -2635 0
2617 -130 2635 0
-2617 130 2635 0
-2617 -130 -2635 0
-2636 2617 0
-2636 130 0
2636 -2617 -130 0
2619 2636 -2637 0
2619 -2636 2637 0
-2619 2636 2637 0
-2619 -2636 -2637 0
-2638 2619 0
-2638 2636 0
2638 -2619 -2636 0
2621 2638 -2639 0
2621 -2638 2639 0
-2621 2638 2639 0
-2621 -2638 -2639 0
-2640 2621 0
-2640 2638 0
2640 -2621 -2638 0
2623 2640 -2641 0
2623 -2640 2641 0
-2623 2640 2641 0
-2623 -2640 -2641 0
-2642 2623 0
-2642 2640 0
2642 -2623 -2640 0
2625 2642 -2643 0
2625 -2642 2643 0
-2625 2642 2643 0
-2625 -2642 -2643 0
-2644 2625 0
-2644 2642 0
2644 -2625 -2642 0
2627 2644 -2645 0
2627 -2644 2645 0
-2627 2644 2645 0
-2627 -2644 -2645 0
-2646 2627 0
-2646 2644 0
2646 -2627 -2644 0
2629 2646 -2647 0
2629 -2646 2647 0
-2629 2646 2647 0
-2629 -2646 -2647 0
-2648 2629 0
-2648 2646 0
2648 -2629 -2646 0
2631 2648 -2649 0
2631 -2648 2649 0
-2631 2648 2649 0
-2631 -2648 -2649 0
-2650 2631 0
-2650 2648 0
2650 -2631 -2648 0
2633 2650 -2651 0
2633 -2650 2651 0
-2633 2650 2651 0
-2633 -2650 -2651 0
-2652 2633 0
-2652 2650 0
2652 -2633 -2650 0
-2652 0
2635 131 -2653 0
2635 -131 2653 0
-2635 131 2653 0
-2635 -131 -2653 0
-2654 2635 0
-2654 131 0
2654 -2635 -131 0
2637 2654 -2655 0
2637 -2654 2655 0
-2637 2654 2655 0
-2637 -2654 -2655 0
-2656 2637 0
-2656 2654 0
2656 -2637 -2654 0
2639 2656 -2657 0
2639 -2656 2657 0
-2639 2656 2657 0
-2639 -2656 -2657 0
-2658 2639 0
-2658 2656 0
2658 -2639 -2656 0
2641 2658 -2659 0
2641 -2658 2659 0
-2641 2658 2659 0
-2641 -2658 -2659 0
-2660 2641 0
-2660 2658 0
2660 -2641 -2658 0
2643 2660 -2661 0
2643 -2660 2661 0
-2643 2660 2661 0
-2643 -2660 -2661 0
-2662 2643 0
-2662 2660 0
2662 -2643 -2660 0
2645 2662 -2663 0
2645 -2662 2663 0
-2645 2662 2663 0
-2645 -2662 -2663 0
-2664 2645 0
-2664 2662 0
2664 -2645 -2662 0
2647 2664 -2665 0
2647 -2664 2665 0
-2647 2664 2665 0
-2647 -2664 -2665 0
-2666 2647 0
-2666 2664 0
2666 -2647 -2664 0
2649 2666 -2667 0
2649 -2666 2667 0
-2649 2666 2667 0
-2649 -2666 -2667 0
-2668 2649 0
-2668 2666 0
2668 -2649 -2666 0
2651 2668 -2669 0
2651 -2668 2669 0
-2651 2668 2669 0
-2651 -2668 -2669 0
-2670 2651 0
-2670 2668 0
2670 -2651 -2668 0
-2670 0
2653 132 -2671 0
2653 -132 2671 0
-2653 132 2671 0
-2653 -132 -2671 0
-2672 2653 0
-2672 132 0
2672 -2653 -132 0
2655 2672 -2673 0
2655 -2672 2673 0
-2655 2672 2673 0
-2655 -2672 -2673 0
-2674 2655 0
-2674 2672 0
2674 -2655 -2672 0
2657 2674 -2675 0
2657 -2674 2675 0
-2657 2674 2675 0
-2657 -2674 -2675 0
-2676 2657 0
-2676 2674 0
2676 -2657 -2674 0
2659 2676 -2677 0
2659 -2676 2677 0
-2659 2676 2677 0
-2659 -2676 -2677 0
-2678 2659 0
-2678 2676 0
2678 -2659 -2676 0
2661 2678 -2679 0
2661 -2678 2679 0
-2661 2678 2679 0
-2661 -2678 -2679 0
-2680 2661 0
-2680 2678 0
2680 -2661 -2678 0
2663 2680 -2681 0
2663 -2680 2681 0
-2663 2680 2681 0
-2663 -2680 -2681 0
-2682 2663 0
-2682 2680 0
2682 -2663 -2680 0
2665 2682 -2683 0
2665 -2682 2683 0
-2665 2682 2683 0
-2665 -2682 -2683 0
-2684 2665 0
-2684 2682 0
2684 -2665 -2682 0
2667 2684 -2685 0
2667 -2684 2685 0
-2667 2684 2685 0
-2667 -2684 -2685 0
-2686 2667 0
-2686 2684 0
2686 -2667 -2684 0
2669 2686 -2687 0
2669 -2686 2687 0
-2669 2686 2687 0
-2669 -2686 -2687 0
-2688 2669 0
-2688 2686 0
2688 -2669 -2686 0
-2688 0
2671 133 -2689 0
2671 -133 2689 0
-2671 133 2689 0
-2671 -133 -2689 0
-2690 2671 0
-2690 133 0
2690 -2671 -133 0
2673 2690 -2691 0
2673 -2690 2691 0
-2673 2690 2691 0
-2673 -2690 -2691 0
-2692 2673 0
-2692 2690 0
2692 -2673 -2690 0
2675 2692 -2693 0
2675 -2692 2693 0
-2675 2692 2693 0
-2675 -2692 -2693 0
-2694 2675 0
-2694 2692 0
2694 -2675 -2692 0
2677 2694 -2695 0
2677 -2694 2695 0
-2677 2694 2695 0
-2677 -2694 -2695 0
-2696 2677 0
-2696 2694 0
2696 -2677 -2694 0
2679 2696 -2697 0
2679 -2696 2697 0
-2679 2696 2697 0
-2679 -2696 -2697 0
-2698 2679 0
-2698 2696 0
2698 -2679 -2696 0
2681 2698 -2699 0
2681 -2698 2699 0
-2681 2698 2699 0
-2681 -2698 -2699 0
-2700 2681 0
-2700 2698 0
2700 -2681 -2698 0
2683 2700 -2701 0
2683 -2700 2701 0
-2683 2700 2701 0
-2683 -2700 -2701 0
-2702 2683 0
-2702 2700 0
2702 -2683 -2700 0
2685 2702 -2703 0
2685 -2702 2703 0
-2685 2702 2703 0
-2685 -2702 -2703 0
-2704 2685 0
-2704 2702 0
2704 -2685 -2702 0
2687 2704 -2705 0
2687 -2704 2705 0
-2687 2704 2705 0
-2687 -2704 -2705 0
-2706 2687 0
-2706 2704 0
2706 -2687 -2704 0
-2706 0
2689 134 -2707 0
2689 -134 2707 0
-2689 134 2707 0
-2689 -134 -2707 0
-2708 2689 0
-2708 134 0
2708 -2689 -134 0
2691 2708 -2709 0
2691 -2708 2709 0
-2691 2708 2709 0
-2691 -2708 -2709 0
-2710 2691 0
-2710 2708 0
2710 -2691 -2708 0
2693 2710 -2711 0
2693 -2710 2711 0
-2693 2710 2711 0
-2693 -2710 -2711 0
-2712 2693 0
-2712 2710 0
2712 -2693 -2710 0
2695 2712 -2713 0
2695 -2712 2713 0
-2695 2712 2713 0
-2695 -2712 -2713 0
-2714 2695 0
-2714 2712 0
2714 -2695 -2712 0
2697 2714 -2715 0
2697 -2714 2715 0
-2697 2714 2715 0
-2697 -2714 -2715 0
-2716 2697 0
-2716 2714 0
2716 -2697 -2714 0
2699 2716 -2717 0
2699 -2716 2717 0
-2699 2716 2717 0
-2699 -2716 -2717 0
-2718 2699 0
-2718 2716 0
2718 -2699 -2716 0
2701 2718 -2719 0
2701 -2718 2719 0
-2701 2718 2719 0
-2701 -2718 -2719 0
-2720 2701 0
-2720 2718 0
2720 -2701 -2718 0
2703 2720 -2721 0
2703 -2720 2721 0
-2703 2720 2721 0
-2703 -2720 -2721 0
-2722 2703 0
-2722 2720 0
2722 -2703 -2720 0
2705 2722 -2723 0
2705 -2722 2723 0
-2705 2722 2723 0
-2705 -2722 -2723 0
-2724 2705 0
-2724 2722 0
2724 -2705 -2722 0
-2724 0
2707 135 -2725 0
2707 -135 2725 0
-2707 135 2725 0
-2707 -135 -2725 0
-2726 2707 0
-2726 135 0
2726 -2707 -135 0
2709 2726 -2727 0
2709 -2726 2727 0
-2709 2726 2727 0
-2709 -2726 -2727 0
-2728 2709 0
-2728 2726 0
2728 -2709 -2726 0
2711 2728 -2729 0
2711 -2728 2729 0
-2711 2728 2729 0
-2711 -2728 -2729 0
-2730 2711 0
-2730 2728 0
2730 -2711 -2728 0
2713 2730 -2731 0
2713 -2730 2731 0
-2713 2730 2731 0
-2713 -2730 -2731 0
-2732 2713 0
-2732 2730 0
2732 -2713 -2730 0
2715 2732 -2733 0
2715 -2732 2733 0
-2715 2732 2733 0
-2715 -2732 -2733 0
-2734 2715 0
-2734 2732 0
2734 -2715 -2732 0
2717 2734 -2735 0
2717 -2734 2735 0
-2717 2734 2735 0
-2717 -2734 -2735 0
-2736 2717 0
-2736 2734 0
2736 -2717 -2734 0
2719 2736 -2737 0
2719 -2736 2737 0
-2719 2736 2737 0
-2719 -2736 -2737 0
-2738 2719 0
-2738 2736 0
2738 -2719 -2736 0
2721 2738 -2739 0
2721 -2738 2739 0
-2721 2738 2739 0
-2721 -2738 -2739 0
-2740 2721 0
-2740 2738 0
2740 -2721 -2738 0
2723 2740 -2741 0
2723 -2740 2741 0
-2723 2740 2741 0
-2723 -2740 -2741 0
-2742 2723 0
-2742 2740 0
2742 -2723 -2740 0
-2742 0
2725 136 -2743 0
2725 -136 2743 0
-2725 136 2743 0
-2725 -136 -2743 0
-2744 2725 0
-2744 136 0
2744 -2725 -136 0
2727 2744 -2745 0
2727 -2744 2745 0
-2727 2744 2745 0
-2727 -2744 -2745 0
-2746 2727 0
-2746 2744 0
2746 -2727 -2744 0
2729 2746 -2747 0
2729 -2746 2747 0
-2729 2746 2747 0
-2729 -2746 -2747 0
-2748 2729 0
-2748 2746 0
2748 -2729 -2746 0
2731 2748 -2749 0
2731 -2748 2749 0
-2731 2748 2749 0
-2731 -2748 -2749 0
-2750 2731 0
-2750 2748 0
2750 -2731 -2748 0
2733 2750 -2751 0
2733 -2750 2751 0
-2733 2750 2751 0
-2733 -2750 -2751 0
-2752 2733 0
-2752 2750 0
2752 -2733 -2750 0
2735 2752 -2753 0
2735 -2752 2753 0
-2735 2752 2753 0
-2735 -2752 -2753 0
-2754 2735 0
-2754 2752 0
2754 -2735 -2752 0
2737 2754 -2755 0
2737 -2754 2755 0
-2737 2754 2755 0
-2737 -2754 -2755 0
-2756 2737 0
-2756 2754 0
2756 -2737 -2754 0
2739 2756 -2757 0
2739 -2756 2757 0
-2739 2756 2757 0
-2739 -2756 -2757 0
-2758 2739 0
-2758 2756 0
2758 -2739 -2756 0
2741 2758 -2759 0
2741 -2758 2759 0
-2741 2758 2759 0
-2741 -2758 -2759 0
-2760 2741 0
-2760 2758 0
2760 -2741 -2758 0
-2760 0
2743 137 -2761 0
2743 -137 2761 0
-2743 137 2761 0
-2743 -137 -2761 0
-2762 2743 0
-2762 137 0
2762 -2743 -137 0
2745 2762 -2763 0
2745 -2762 2763 0
-2745 2762 2763 0
-2745 -2762 -2763 0
-2764 2745 0
-2764 2762 0
2764 -2745 -2762 0
2747 2764 -2765 0
2747 -2764 2765 0
-2747 2764 2765 0
-2747 -2764 -2765 0
-2766 2747 0
-2766 2764 0
2766 -2747 -2764 0
2749 2766 -2767 0
2749 -2766 2767 0
-2749 2766 2767 0
-2749 -2766 -2767 0
-2768 2749 0
-2768 2766 0
2768 -2749 -2766 0
2751 2768 -2769 0
2751 -2768 2769 0
-2751 2768 2769 0
-2751 -2768 -2769 0
-2770 2751 0
-2770 2768 0
2770 -2751 -2768 0
2753 2770 -2771 0
2753 -2770 2771 0
-2753 2770 2771 0
-2753 -2770 -2771 0
-2772 2753 0
-2772 2770 0
2772 -2753 -2770 0
2755 2772 -2773 0
2755 -2772 2773 0
-2755 2772 2773 0
-2755 -2772 -2773 0
-2774 2755 0
-2774 2772 0
2774 -2755 -2772 0
2757 2774 -2775 0
2757 -2774 2775 0
-2757 2774 2775 0
-2757 -2774 -2775 0
-2776 2757 0
-2776 2774 0
2776 -2757 -2774 0
2759 2776 -2777 0
2759 -2776 2777 0
-2759 2776 2777 0
-2759 -2776 -2777 0
-2778 2759 0
-2778 2776 0
2778 -2759 -2776 0
-2778 0
2761 138 -2779 0
2761 -138 2779 0
-2761 138 2779 0
-2761 -138 -2779 0
-2780 2761 0
-2780 138 0
2780 -2761 -138 0
2763 2780 -2781 0
2763 -2780 2781 0
-2763 2780 2781 0
-2763 -2780 -2781 0
-2782 2763 0
-2782 2780 0
2782 -2763 -2780 0
2765 2782 -2783 0
2765 -2782 2783 0
-2765 2782 2783 0
-2765 -2782 -2783 0
-2784 2765 0
-2784 2782 0
2784 -2765 -2782 0
2767 2784 -2785 0
2767 -2784 2785 0
-2767 2784 2785 0
-2767 -2784 -2785 0
-2786 2767 0
-2786 2784 0
2786 -2767 -2784 0
2769 2786 -2787 0
2769 -2786 2787 0
-2769 2786 2787 0
-2769 -2786 -2787 0
-2788 2769 0
-2788 2786 0
2788 -2769 -2786 0
2771 2788 -2789 0
2771 -2788 2789 0
-2771 2788 2789 0
-2771 -2788 -2789 0
-2790 2771 0
-2790 2788 0
2790 -2771 -2788 0
2773 2790 -2791 0
2773 -2790 2791 0
-2773 2790 2791 0
-2773 -2790 -2791 0
-2792 2773 0
-2792 2790 0
2792 -2773 -2790 0
2775 2792 -2793 0
2775 -2792 2793 0
-2775 2792 2793 0
-2775 -2792 -2793 0
-2794 2775 0
-2794 2792 0
2794 -2775 -2792 0
2777 2794 -2795 0
2777 -2794 2795 0
-2777 2794 2795 0
-2777 -2794 -2795 0
-2796 2777 0
-2796 2794 0
2796 -2777 -2794 0
-2796 0
2779 139 -2797 0
2779 -139 2797 0
-2779 139 2797 0
-2779 -139 -2797 0
-2798 2779 0
-2798 139 0
2798 -2779 -139 0
2781 2798 -2799 0
2781 -2798 2799 0
-2781 2798 2799 0
-2781 -2798 -2799 0
-2800 2781 0
-2800 2798 0
2800 -2781 -2798 0
2783 2800 -2801 0
2783 -2800 2801 0
-2783 2800 2801 0
-2783 -2800 -2801 0
-2802 2783 0
-2802 2800 0
2802 -2783 -2800 0
2785 2802 -2803 0
2785 -2802 2803 0
-2785 2802 2803 0
-2785 -2802 -2803 0
-2804 2785 0
-2804 2802 0
2804 -2785 -2802 0
2787 2804 -2805 0
2787 -2804 2805 0
-2787 2804 2805 0
-2787 -2804 -2805 0
-2806 2787 0
-2806 2804 0
2806 -2787 -2804 0
2789 2806 -2807 0
2789 -2806 2807 0
-2789 2806 2807 0
-2789 -2806 -2807 0
-2808 2789 0
-2808 2806 0
2808 -2789 -2806 0
2791 2808 -2809 0
2791 -2808 2809 0
-2791 2808 2809 0
-2791 -2808 -2809 0
-2810 2791 0
-2810 2808 0
2810 -2791 -2808 0
2793 2810 -2811 0
2793 -2810 2811 0
-2793 2810 2811 0
-2793 -2810 -2811 0
-2812 2793 0
-2812 2810 0
2812 -2793 -2810 0
2795 2812 -2813 0
2795 -2812 2813 0
-2795 2812 2813 0
-2795 -2812 -2813 0
-2814 2795 0
-2814 2812 0
2814 -2795 -2812 0
-2814 0
2797 140 -2815 0
2797 -140 2815 0
-2797 140 2815 0
-2797 -140 -2815 0
-2816 2797 0
-2816 140 0
2816 -2797 -140 0
2799 2816 -2817 0
2799 -2816 2817 0
-2799 2816 2817 0
-2799 -2816 -2817 0
-2818 2799 0
-2818 2816 0
2818 -2799 -2816 0
2801 2818 -2819 0
2801 -2818 2819 0
-2801 2818 2819 0
-2801 -2818 -2819 0
-2820 2801 0
-2820 2818 0
2820 -2801 -2818 0
2803 2820 -2821 0
2803 -2820 2821 0
-2803 2820 2821 0
-2803 -2820 -2821 0
-2822 2803 0
-2822 2820 0
2822 -2803 -2820 0
2805 2822 -2823 0
2805 -2822 2823 0
-2805 2822 2823 0
-2805 -2822 -2823 0
-2824 2805 0
-2824 2822 0
2824 -2805 -2822 0
2807 2824 -2825 0
2807 -2824 2825 0
-2807 2824 2825 0
-2807 -2824 -2825 0
-2826 2807 0
-2826 2824 0
2826 -2807 -2824 0
2809 2826 -2827 0
2809 -2826 2827 0
-2809 2826 2827 0
-2809 -2826 -2827 0
-2828 2809 0
-2828 2826 0
2828 -2809 -2826 0
2811 2828 -2829 0
2811 -2828 2829 0
-2811 2828 2829 0
-2811 -2828 -2829 0
-2830 2811 0
-2830 2828 0
2830 -2811 -2828 0
2813 2830 -2831 0
2813 -2830 2831 0
-2813 2830 2831 0
-2813 -2830 -2831 0
-2832 2813 0
-2832 2830 0
2832 -2813 -2830 0
-2832 0
2815 141 -2833 0
2815 -141 2833 0
-2815 141 2833 0
-2815 -141 -2833 0
-2834 2815 0
-2834 141 0
2834 -2815 -141 0
2817 2834 -2835 0
2817 -2834 2835 0
-2817 2834 2835 0
-2817 -2834 -2835 0
-2836 2817 0
-2836 2834 0
2836 -2817 -2834 0
2819 2836 -2837 0
2819 -2836 2837 0
-2819 2836 2837 0
-2819 -2836 -2837 0
-2838 2819 0
-2838 2836 0
2838 -2819 -2836 0
2821 2838 -2839 0
2821 -2838 2839 0
-2821 2838 2839 0
-2821 -2838 -2839 0
-2840 2821 0
-2840 2838 0
2840 -2821 -2838 0
2823 2840 -2841 0
2823 -2840 2841 0
-2823 2840 2841 0
-2823 -2840 -2841 0
-2842 2823 0
-2842 2840 0
2842 -2823 -2840 0
2825 2842 -2843 0
2825 -2842 2843 0
-2825 2842 2843 0
-2825 -2842 -2843 0
-2844 2825 0
-2844 2842 0
2844 -2825 -2842 0
2827 2844 -2845 0
2827 -2844 2845 0
-2827 2844 2845 0
-2827 -2844 -2845 0
-2846 2827 0
-2846 2844 0
2846 -2827 -2844 0
2829 2846 -2847 0
2829 -2846 2847 0
-2829 2846 2847 0
-2829 -2846 -2847 0
-2848 2829 0
-2848 2846 0
2848 -2829 -2846 0
2831 2848 -2849 0
2831 -2848 2849 0
-2831 2848 2849 0
-2831 -2848 -2849 0
-2850 2831 0
-2850 2848 0
2850 -2831 -2848 0
-2850 0
2833 142 -2851 0
2833 -142 2851 0
-2833 142 2851 0
-2833 -142 -2851 0
-2852 2833 0
-2852 142 0
2852 -2833 -142 0
2835 2852 -2853 0
2835 -2852 2853 0
-2835 2852 2853 0
-2835 -2852 -2853 0
-2854 2835 0
-2854 2852 0
2854 -2835 -2852 0
2837 2854 -2855 0
2837 -2854 2855 0
-2837 2854 2855 0
-2837 -2854 -2855 0
-2856 2837 0
-2856 2854 0
2856 -2837 -2854 0
2839 2856 -2857 0
2839 -2856 2857 0
-2839 2856 2857 0
-2839 -2856 -2857 0
-2858 2839 0
-2858 2856 0
2858 -2839 -2856 0
2841 2858 -2859 0
2841 -2858 2859 0
-2841 2858 2859 0
-2841 -2858 -2859 0
-2860 2841 0
-2860 2858 0
2860 -2841 -2858 0
2843 2860 -2861 0
2843 -2860 2861 0
-2843 2860 2861 0
-2843 -2860 -2861 0
-2862 2843 0
-2862 2860 0
2862 -2843 -2860 0
2845 2862 -2863 0
2845 -2862 2863 0
-2845 2862 2863 0
-2845 -2862 -2863 0
-2864 2845 0
-2864 2862 0
2864 -2845 -2862 0
2847 2864 -2865 0
2847 -2864 2865 0
-2847 2864 2865 0
-2847 -2864 -2865 0
-2866 2847 0
-2866 2864 0
2866 -2847 -2864 0
2849 2866 -2867 0
2849 -2866 2867 0
-2849 2866 2867 0
-2849 -2866 -2867 0
-2868 2849 0
-2868 2866 0
2868 -2849 -2866 0
-2868 0
2851 143 -2869 0
2851 -143 2869 0
-2851 143 2869 0
-2851 -143 -2869 0
-2870 2851 0
-2870 143 0
2870 -2851 -143 0
2853 2870 -2871 0
2853 -2870 2871 0
-2853 2870 2871 0
-2853 -2870 -2871 0
-2872 2853 0
-2872 2870 0
2872 -2853 -2870 0
2855 2872 -2873 0
2855 -2872 2873 0
-2855 2872 2873 0
-2855 -2872 -2873 0
-2874 2855 0
-2874 2872 0
2874 -2855 -2872 0
2857 2874 -2875 0
2857 -2874 2875 0
-2857 2874 2875 0
-2857 -2874 -2875 0
-2876 2857 0
-2876 2874 0
2876 -2857 -2874 0
2859 2876 -2877 0
2859 -2876 2877 0
-2859 2876 2877 0
-2859 -2876 -2877 0
-2878 2859 0
-2878 2876 0
2878 -2859 -2876 0
2861 2878 -2879 0
2861 -2878 2879 0
-2861 2878 2879 0
-2861 -2878 -2879 0
-2880 2861 0
-2880 2878 0
2880 -2861 -2878 0
2863 2880 -2881 0
2863 -2880 2881 0
-2863 2880 2881 0
-2863 -2880 -2881 0
-2882 2863 0
-2882 2880 0
2882 -2863 -2880 0
2865 2882 -2883 0
2865 -2882 2883 0
-2865 2882 2883 0
-2865 -2882 -2883 0
-2884 2865 0
-2884 2882 0
2884 -2865 -2882 0
2867 2884 -2885 0
2867 -2884 2885 0
-2867 2884 2885 0
-2867 -2884 -2885 0
-2886 2867 0
-2886 2884 0
2886 -2867 -2884 0
-2886 0
2869 144 -2887 0
2869 -144 2887 0
-2869 144 2887 0
-2869 -144 -2887 0
-2888 2869 0
-2888 144 0
2888 -2869 -144 0
2871 2888 -2889 0
2871 -2888 2889 0
-2871 2888 2889 0
-2871 -2888 -2889 0
-2890 2871 0
-2890 2888 0
2890 -2871 -2888 0
2873 2890 -2891 0
2873 -2890 2891 0
-2873 2890 2891 0
-2873 -2890 -2891 0
-2892 2873 0
-2892 2890 0
2892 -2873 -2890 0
2875 2892 -2893 0
2875 -2892 2893 0
-2875 2892 2893 0
-2875 -2892 -2893 0
-2894 2875 0
-2894 2892 0
2894 -2875 -2892 0
2877 2894 -2895 0
2877 -2894 2895 0
-2877 2894 2895 0
-2877 -2894 -2895 0
-2896 2877 0
-2896 2894 0
2896 -2877 -2894 0
2879 2896 -2897 0
2879 -2896 2897 0
-2879 2896 2897 0
-2879 -2896 -2897 0
-2898 2879 0
-2898 2896 0
2898 -2879 -2896 0
2881 2898 -2899 0
2881 -2898 2899 0
-2881 2898 2899 0
-2881 -2898 -2899 0
-2900 2881 0
-2900 2898 0
2900 -2881 -2898 0
2883 2900 -2901 0
2883 -2900 2901 0
-2883 2900 2901 0
-2883 -2900 -2901 0
-2902 2883 0
-2902 2900 0
2902 -2883 -2900 0
2885 2902 -2903 0
2885 -2902 2903 0
-2885 2902 2903 0
-2885 -2902 -2903 0
-2904 2885 0
-2904 2902 0
2904 -2885 -2902 0
-2904 0
2887 145 -2905 0
2887 -145 2905 0
-2887 145 2905 0
-2887 -145 -2905 0
-2906 2887 0
-2906 145 0
2906 -2887 -145 0
2889 2906 -2907 0
2889 -2906 2907 0
-2889 2906 2907 0
-2889 -2906 -2907 0
-2908 2889 0
-2908 2906 0
2908 -2889 -2906 0
2891 2908 -2909 0
2891 -2908 2909 0
-2891 2908 2909 0
-2891 -2908 -2909 0
-2910 2891 0
-2910 2908 0
2910 -2891 -2908 0
2893 2910 -2911 0
2893 -2910 2911 0
-2893 2910 2911 0
-2893 -2910 -2911 0
-2912 2893 0
-2912 2910 0
2912 -2893 -2910 0
2895 2912 -2913 0
2895 -2912 2913 0
-2895 2912 2913 0
-2895 -2912 -2913 0
-2914 2895 0
-2914 2912 0
2914 -2895 -2912 0
2897 2914 -2915 0
2897 -2914 2915 0
-2897 2914 2915 0
-2897 -2914 -2915 0
-2916 2897 0
-2916 2914 0
2916 -2897 -2914 0
2899 2916 -2917 0
2899 -2916 2917 0
-2899 2916 2917 0
-2899 -2916 -2917 0
-2918 2899 0
-2918 2916 0
2918 -2899 -2916 0
2901 2918 -2919 0
2901 -2918 2919 0
-2901 2918 2919 0
-2901 -2918 -2919 0
-2920 2901 0
-2920 2918 0
2920 -2901 -2918 0
2903 2920 -2921 0
2903 -2920 2921 0
-2903 2920 2921 0
-2903 -2920 -2921 0
-2922 2903 0
-2922 2920 0
2922 -2903 -2920 0
-2922 0
2905 146 -2923 0
2905 -146 2923 0
-2905 146 2923 0
-2905 -146 -2923 0
-2924 2905 0
-2924 146 0
2924 -2905 -146 0
2907 2924 -2925 0
2907 -2924 2925 0
-2907 2924 2925 0
-2907 -2924 -2925 0
-2926 2907 0
-2926 2924 0
2926 -2907 -2924 0
2909 2926 -2927 0
2909 -2926 2927 0
-2909 2926 2927 0
-2909 -2926 -2927 0
-2928 2909 0
-2928 2926 0
2928 -2909 -2926 0
2911 2928 -2929 0
2911 -2928 2929 0
-2911 2928 2929 0
-2911 -2928 -2929 0
-2930 2911 0
-2930 2928 0
2930 -2911 -2928 0
2913 2930 -2931 0
2913 -2930 2931 0
-2913 2930 2931 0
-2913 -2930 -2931 0
-2932 2913 0
-2932 2930 0
2932 -2913 -2930 0
2915 2932 -2933 0
2915 -2932 2933 0
-2915 2932 2933 0
-2915 -2932 -2933 0
-2934 2915 0
-2934 2932 0
2934 -2915 -2932 0
2917 2934 -2935 0
2917 -2934 2935 0
-2917 2934 2935 0
-2917 -2934 -2935 0
-2936 2917 0
-2936 2934 0
2936 -2917 -2934 0
2919 2936 -2937 0
2919 -2936 2937 0
-2919 2936 2937 0
-2919 -2936 -2937 0
-2938 2919 0
-2938 2936 0
2938 -2919 -2936 0
2921 2938 -2939 0
2921 -2938 2939 0
-2921 2938 2939 0
-2921 -2938 -2939 0
-2940 2921 0
-2940 2938 0
2940 -2921 -2938 0
-2940 0
2923 147 -2941 0
2923 -147 2941 0
-2923 147 2941 0
-2923 -147 -2941 0
-2942 2923 0
-2942 147 0
2942 -2923 -147 0
2925 2942 -2943 0
2925 -2942 2943 0
-2925 2942 2943 0
-2925 -2942 -2943 0
-2944 2925 0
-2944 2942 0
2944 -2925 -2942 0
2927 2944 -2945 0
2927 -2944 2945 0
-2927 2944 2945 0
-2927 -2944 -2945 0
-2946 2927 0
-2946 2944 0
2946 -2927 -2944 0
2929 2946 -2947 0
2929 -2946 2947 0
-2929 2946 2947 0
-2929 -2946 -2947 0
-2948 2929 0
-2948 2946 0
2948 -2929 -2946 0
2931 2948 -2949 0
2931 -2948 2949 0
-2931 2948 2949 0
-2931 -2948 -2949 0
-2950 2931 0
-2950 2948 0
2950 -2931 -2948 0
2933 2950 -2951 0
2933 -2950 2951 0
-2933 2950 2951 0
-2933 -2950 -2951 0
-2952 2933 0
-2952 2950 0
2952 -2933 -2950 0
2935 2952 -2953 0
2935 -2952 2953 0
-2935 2952 2953 0
-2935 -2952 -2953 0
-2954 2935 0
-2954 2952 0
2954 -2935 -2952 0
2937 2954 -2955 0
2937 -2954 2955 0
-2937 2954 2955 0
-2937 -2954 -2955 0
-2956 2937 0
-2956 2954 0
2956 -2937 -2954 0
2939 2956 -2957 0
2939 -2956 2957 0
-2939 2956 2957 0
-2939 -2956 -2957 0
-2958 2939 0
-2958 2956 0
2958 -2939 -2956 0
-2958 0
2941 148 -2959 0
2941 -148 2959 0
-2941 148 2959 0
-2941 -148 -2959 0
-2960 2941 0
-2960 148 0
2960 -2941 -148 0
2943 2960 -2961 0
2943 -2960 2961 0
-2943 2960 2961 0
-2943 -2960 -2961 0
-2962 2943 0
-2962 2960 0
2962 -2943 -2960 0
2945 2962 -2963 0
2945 -2962 2963 0
-2945 2962 2963 0
-2945 -2962 -2963 0
-2964 2945 0
-2964 2962 0
2964 -2945 -2962 0
2947 2964 -2965 0
2947 -2964 2965 0
-2947 2964 2965 0
-2947 -2964 -2965 0
-2966 2947 0
-2966 2964 0
2966 -2947 -2964 0
2949 2966 -2967 0
2949 -2966 2967 0
-2949 2966 2967 0
-2949 -2966 -2967 0
-2968 2949 0
-2968 2966 0
2968 -2949 -2966 0
2951 2968 -2969 0
2951 -2968 2969 0
-2951 2968 2969 0
-2951 -2968 -2969 0
-2970 2951 0
-2970 2968 0
2970 -2951 -2968 0
2953 2970 -2971 0
2953 -2970 2971 0
-2953 2970 2971 0
-2953 -2970 -2971 0
-2972 2953 0
-2972 2970 0
2972 -2953 -2970 0
2955 2972 -2973 0
2955 -2972 2973 0
-2955 2972 2973 0
-2955 -2972 -2973 0
-2974 2955 0
-2974 2972 0
2974 -2955 -2972 0
2957 2974 -2975 0
2957 -2974 2975 0
-2957 2974 2975 0
-2957 -2974 -2975 0
-2976 2957 0
-2976 2974 0
2976 -2957 -2974 0
-2976 0
2959 149 -2977 0
2959 -149 2977 0
-2959 149 2977 0
-2959 -149 -2977 0
-2978 2959 0
-2978 149 0
2978 -2959 -149 0
2961 2978 -2979 0
2961 -2978 2979 0
-2961 2978 2979 0
-2961 -2978 -2979 0
-2980 2961 0
-2980 2978 0
2980 -2961 -2978 0
2963 2980 -2981 0
2963 -2980 2981 0
-2963 2980 2981 0
-2963 -2980 -2981 0
-2982 2963 0
-2982 2980 0
2982 -2963 -2980 0
2965 2982 -2983 0
2965 -2982 2983 0
-2965 2982 2983 0
-2965 -2982 -2983 0
-2984 2965 0
-2984 2982 0
2984 -2965 -2982 0
2967 2984 -2985 0
2967 -2984 2985 0
-2967 2984 2985 0
-2967 -2984 -2985 0
-2986 2967 0
-2986 2984 0
2986 -2967 -2984 0
2969 2986 -2987 0
2969 -2986 2987 0
-2969 2986 2987 0
-2969 -2986 -2987 0
-2988 2969 0
-2988 2986 0
2988 -2969 -2986 0
2971 2988 -2989 0
2971 -2988 2989 0
-2971 2988 2989 0
-2971 -2988 -2989 0
-2990 2971 0
-2990 2988 0
2990 -2971 -2988 0
2973 2990 -2991 0
2973 -2990 2991 0
-2973 2990 2991 0
-2973 -2990 -2991 0
-2992 2973 0
-2992 2990 0
2992 -2973 -2990 0
2975 2992 -2993 0
2975 -2992 2993 0
-2975 2992 2993 0
-2975 -2992 -2993 0
-2994 2975 0
-2994 2992 0
2994 -2975 -2992 0
-2994 0
2977 150 -2995 0
2977 -150 2995 0
-2977 150 2995 0
-2977 -150 -2995 0
-2996 2977 0
-2996 150 0
2996 -2977 -150 0
2979 2996 -2997 0
2979 -2996 2997 0
-2979 2996 2997 0
-2979 -2996 -2997 0
-2998 2979 0
-2998 2996 0
2998 -2979 -2996 0
2981 2998 -2999 0
2981 -2998 2999 0
-2981 2998 2999 0
-2981 -2998 -2999 0
-3000 2981 0
-3000 2998 0
3000 -2981 -2998 0
2983 3000 -3001 0
2983 -3000 3001 0
-2983 3000 3001 0
-2983 -3000 -3001 0
-3002 2983 0
-3002 3000 0
3002 -2983 -3000 0
2985 3002 -3003 0
2985 -3002 3003 0
-2985 3002 3003 0
-2985 -3002 -3003 0
-3004 2985 0
-3004 3002 0
3004 -2985 -3002 0
2987 3004 -3005 0
2987 -3004 3005 0
-2987 3004 3005 0
-2987 -3004 -3005 0
-3006 2987 0
-3006 3004 0
3006 -2987 -3004 0
2989 3006 -3007 0
2989 -3006 3007 0
-2989 3006 3007 0
-2989 -3006 -3007 0
-3008 2989 0
-3008 3006 0
3008 -2989 -3006 0
2991 3008 -3009 0
2991 -3008 3009 0
-2991 3008 3009 0
-2991 -3008 -3009 0
-3010 2991 0
-3010 3008 0
3010 -2991 -3008 0
2993 3010 -3011 0
2993 -3010 3011 0
-2993 3010 3011 0
-2993 -3010 -3011 0
-3012 2993 0
-3012 3010 0
3012 -2993 -3010 0
-3012 0
2995 151 -3013 0
2995 -151 3013 0
-2995 151 3013 0
-2995 -151 -3013 0
-3014 2995 0
-3014 151 0
3014 -2995 -151 0
2997 3014 -3015 0
2997 -3014 3015 0
-2997 3014 3015 0
-2997 -3014 -3015 0
-3016 2997 0
-3016 3014 0
3016 -2997 -3014 0
2999 3016 -3017 0
2999 -3016 3017 0
-2999 3016 3017 0
-2999 -3016 -3017 0
-3018 2999 0
-3018 3016 0
3018 -2999 -3016 0
3001 3018 -3019 0
3001 -3018 3019 0
-3001 3018 3019 0
-3001 -3018 -3019 0
-3020 3001 0
-3020 3018 0
3020 -3001 -3018 0
3003 3020 -3021 0
3003 -3020 3021 0
-3003 3020 3021 0
-3003 -3020 -3021 0
-3022 3003 0
-3022 3020 0
3022 -3003 -3020 0
3005 3022 -3023 0
3005 -3022 3023 0
-3005 3022 3023 0
-3005 -3022 -3023 0
-3024 3005 0
-3024 3022 0
3024 -3005 -3022 0
3007 3024 -3025 0
3007 -3024 3025 0
-3007 3024 3025 0
-3007 -3024 -3025 0
-3026 3007 0
-3026 3024 0
3026 -3007 -3024 0
3009 3026 -3027 0
3009 -3026 3027 0
-3009 3026 3027 0
-3009 -3026 -3027 0
-3028 3009 0
-3028 3026 0
3028 -3009 -3026 0
3011 3028 -3029 0
3011 -3028 3029 0
-3011 3028 3029 0
-3011 -3028 -3029 0
-3030 3011 0
-3030 3028 0
3030 -3011 -3028 0
-3030 0
3013 152 -3031 0
3013 -152 3031 0
-3013 152 3031 0
-3013 -152 -3031 0
-3032 3013 0
-3032 152 0
3032 -3013 -152 0
3015 3032 -3033 0
3015 -3032 3033 0
-3015 3032 3033 0
-3015 -3032 -3033 0
-3034 3015 0
-3034 3032 0
3034 -3015 -3032 0
3017 3034 -3035 0
3017 -3034 3035 0
-3017 3034 3035 0
-3017 -3034 -3035 0
-3036 3017 0
-3036 3034 0
3036 -3017 -3034 0
3019 3036 -3037 0
3019 -3036 3037 0
-3019 3036 3037 0
-3019 -3036 -3037 0
-3038 3019 0
-3038 3036 0
3038 -3019 -3036 0
3021 3038 -3039 0
3021 -3038 3039 0
-3021 3038 3039 0
-3021 -3038 -3039 0
-3040 3021 0
-3040 3038 0
3040 -3021 -3038 0
3023 3040 -3041 0
3023 -3040 3041 0
-3023 3040 3041 0
-3023 -3040 -3041 0
-3042 3023 0
-3042 3040 0
3042 -3023 -3040 0
3025 3042 -3043 0
3025 -3042 3043 0
-3025 3042 3043 0
-3025 -3042 -3043 0
-3044 3025 0
-3044 3042 0
3044 -3025 -3042 0
3027 3044 -3045 0
3027 -3044 3045 0
-3027 3044 3045 0
-3027 -3044 -3045 0
-3046 3027 0
-3046 3044 0
3046 -3027 -3044 0
3029 3046 -3047 0
3029 -3046 3047 0
-3029 3046 3047 0
-3029 -3046 -3047 0
-3048 3029 0
-3048 3046 0
3048 -3029 -3046 0
-3048 0
3031 153 -3049 0
3031 -153 3049 0
-3031 153 3049 0
-3031 -153 -3049 0
-3050 3031 0
-3050 153 0
3050 -3031 -153 0
3033 3050 -3051 0
3033 -3050 3051 0
-3033 3050 3051 0
-3033 -3050 -3051 0
-3052 3033 0
-3052 3050 0
3052 -3033 -3050 0
3035 3052 -3053 0
3035 -3052 3053 0
-3035 3052 3053 0
-3035 -3052 -3053 0
-3054 3035 0
-3054 3052 0
3054 -3035 -3052 0
3037 3054 -3055 0
3037 -3054 3055 0
-3037 3054 3055 0
-3037 -3054 -3055 0
-3056 3037 0
-3056 3054 0
3056 -3037 -3054 0
3039 3056 -3057 0
3039 -3056 3057 0
-3039 3056 3057 0
-3039 -3056 -3057 0
-3058 3039 0
-3058 3056 0
3058 -3039 -3056 0
3041 3058 -3059 0
3041 -3058 3059 0
-3041 3058 3059 0
-3041 -3058 -3059 0
-3060 3041 0
-3060 3058 0
3060 -3041 -3058 0
3043 3060 -3061 0
3043 -3060 3061 0
-3043 3060 3061 0
-3043 -3060 -3061 0
-3062 3043 0
-3062 3060 0
3062 -3043 -3060 0
3045 3062 -3063 0
3045 -3062 3063 0
-3045 3062 3063 0
-3045 -3062 -3063 0
-3064 3045 0
-3064 3062 0
3064 -3045 -3062 0
3047 3064 -3065 0
3047 -3064 3065 0
-3047 3064 3065 0
-3047 -3064 -3065 0
-3066 3047 0
-3066 3064 0
3066 -3047 -3064 0
-3066 0
3049 154 -3067 0
3049 -154 3067 0
-3049 154 3067 0
-3049 -154 -3067 0
-3068 3049 0
-3068 154 0
3068 -3049 -154 0
3051 3068 -3069 0
3051 -3068 3069 0
-3051 3068 3069 0
-3051 -3068 -3069 0
-3070 3051 0
-3070 3068 0
3070 -3051 -3068 0
3053 3070 -3071 0
3053 -3070 3071 0
-3053 3070 3071 0
-3053 -3070 -3071 0
-3072 3053 0
-3072 3070 0
3072 -3053 -3070 0
3055 3072 -3073 0
3055 -3072 3073 0
-3055 3072 3073 0
-3055 -3072 -3073 0
-3074 3055 0
-3074 3072 0
3074 -3055 -3072 0
3057 3074 -3075 0
3057 -3074 3075 0
-3057 3074 3075 0
-3057 -3074 -3075 0
-3076 3057 0
-3076 3074 0
3076 -3057 -3074 0
3059 3076 -3077 0
3059 -3076 3077 0
-3059 3076 3077 0
-3059 -3076 -3077 0
-3078 3059 0
-3078 3076 0
3078 -3059 -3076 0
3061 3078 -3079 0
3061 -3078 3079 0
-3061 3078 3079 0
-3061 -3078 -3079 0
-3080 3061 0
-3080 3078 0
3080 -3061 -3078 0
3063 3080 -3081 0
3063 -3080 3081 0
-3063 3080 3081 0
-3063 -3080 -3081 0
-3082 3063 0
-3082 3080 0
3082 -3063 -3080 0
3065 3082 -3083 0
3065 -3082 3083 0
-3065 3082 3083 0
-3065 -3082 -3083 0
-3084 3065 0
-3084 3082 0
3084 -3065 -3082 0
-3084 0
3067 155 -3085 0
3067 -155 3085 0
-3067 155 3085 0
-3067 -155 -3085 0
-3086 3067 0
-3086 155 0
3086 -3067 -155 0
3069 3086 -3087 0
3069 -3086 3087 0
-3069 3086 3087 0
-3069 -3086 -3087 0
-3088 3069 0
-3088 3086 0
3088 -3069 -3086 0
3071 3088 -3089 0
3071 -3088 3089 0
-3071 3088 3089 0
-3071 -3088 -3089 0
-3090 3071 0
-3090 3088 0
3090 -3071 -3088 0
3073 3090 -3091 0
3073 -3090 3091 0
-3073 3090 3091 0
-3073 -3090 -3091 0
-3092 3073 0
-3092 3090 0
3092 -3073 -3090 0
3075 3092 -3093 0
3075 -3092 3093 0
-3075 3092 3093 0
-3075 -3092 -3093 0
-3094 3075 0
-3094 3092 0
3094 -3075 -3092 0
3077 3094 -3095 0
3077 -3094 3095 0
-3077 3094 3095 0
-3077 -3094 -3095 0
-3096 3077 0
-3096 3094 0
3096 -3077 -3094 0
3079 3096 -3097 0
3079 -3096 3097 0
-3079 3096 3097 0
-3079 -3096 -3097 0
-3098 3079 0
-3098 3096 0
3098 -3079 -3096 0
3081 3098 -3099 0
3081 -3098 3099 0
-3081 3098 3099 0
-3081 -3098 -3099 0
-3100 3081 0
-3100 3098 0
3100 -3081 -3098 0
3083 3100 -3101 0
3083 -3100 3101 0
-3083 3100 3101 0
-3083 -3100 -3101 0
-3102 3083 0
-3102 3100 0
3102 -3083 -3100 0
-3102 0
3085 156 -3103 0
3085 -156 3103 0
-3085 156 3103 0
-3085 -156 -3103 0
-3104 3085 0
-3104 156 0
3104 -3085 -156 0
3087 3104 -3105 0
3087 -3104 3105 0
-3087 3104 3105 0
-3087 -3104 -3105 0
-3106 3087 0
-3106 3104 0
3106 -3087 -3104 0
3089 3106 -3107 0
3089 -3106 3107 0
-3089 3106 3107 0
-3089 -3106 -3107 0
-3108 3089 0
-3108 3106 0
3108 -3089 -3106 0
3091 3108 -3109 0
3091 -3108 3109 0
-3091 3108 3109 0
-3091 -3108 -3109 0
-3110 3091 0
-3110 3108 0
3110 -3091 -3108 0
3093 3110 -3111 0
3093 -3110 3111 0
-3093 3110 3111 0
-3093 -3110 -3111 0
-3112 3093 0
-3112 3110 0
3112 -3093 -3110 0
3095 3112 -3113 0
3095 -3112 3113 0
-3095 3112 3113 0
-3095 -3112 -3113 0
-3114 3095 0
-3114 3112 0
3114 -3095 -3112 0
3097 3114 -3115 0
3097 -3114 3115 0
-3097 3114 3115 0
-3097 -3114 -3115 0
-3116 3097 0
-3116 3114 0
3116 -3097 -3114 0
3099 3116 -3117 0
3099 -3116 3117 0
-3099 3116 3117 0
-3099 -3116 -3117 0
-3118 3099 0
-3118 3116 0
3118 -3099 -3116 0
3101 3118 -3119 0
3101 -3118 3119 0
-3101 3118 3119 0
-3101 -3118 -3119 0
-3120 3101 0
-3120 3118 0
3120 -3101 -3118 0
-3120 0
3103 157 -3121 0
3103 -157 3121 0
-3103 157 3121 0
-3103 -157 -3121 0
-3122 3103 0
-3122 157 0
3122 -3103 -157 0
3105 3122 -3123 0
3105 -3122 3123 0
-3105 3122 3123 0
-3105 -3122 -3123 0
-3124 3105 0
-3124 3122 0
3124 -3105 -3122 0
3107 3124 -3125 0
3107 -3124 3125 0
-3107 3124 3125 0
-3107 -3124 -3125 0
-3126 3107 0
-3126 3124 0
3126 -3107 -3124 0
3109 3126 -3127 0
3109 -3126 3127 0
-3109 3126 3127 0
-3109 -3126 -3127 0
-3128 3109 0
-3128 3126 0
3128 -3109 -3126 0
3111 3128 -3129 0
3111 -3128 3129 0
-3111 3128 3129 0
-3111 -3128 -3129 0
-3130 3111 0
-3130 3128 0
3130 -3111 -3128 0
3113 3130 -3131 0
3113 -3130 3131 0
-3113 3130 3131 0
-3113 -3130 -3131 0
-3132 3113 0
-3132 3130 0
3132 -3113 -3130 0
3115 3132 -3133 0
3115 -3132 3133 0
-3115 3132 3133 0
-3115 -3132 -3133 0
-3134 3115 0
-3134 3132 0
3134 -3115 -3132 0
3117 3134 -3135 0
3117 -3134 3135 0
-3117 3134 3135 0
-3117 -3134 -3135 0
-3136 3117 0
-3136 3134 0
3136 -3117 -3134 0
3119 3136 -3137 0
3119 -3136 3137 0
-3119 3136 3137 0
-3119 -3136 -3137 0
-3138 3119 0
-3138 3136 0
3138 -3119 -3136 0
-3138 0
3121 158 -3139 0
3121 -158 3139 0
-3121 158 3139 0
-3121 -158 -3139 0
-3140 3121 0
-3140 158 0
3140 -3121 -158 0
3123 3140 -3141 0
3123 -3140 3141 0
-3123 3140 3141 0
-3123 -3140 -3141 0
-3142 3123 0
-3142 3140 0
3142 -3123 -3140 0
3125 3142 -3143 0
3125 -3142 3143 0
-3125 3142 3143 0
-3125 -3142 -3143 0
-3144 3125 0
-3144 3142 0
3144 -3125 -3142 0
3127 3144 -3145 0
3127 -3144 3145 0
-3127 3144 3145 0
-3127 -3144 -3145 0
-3146 3127 0
-3146 3144 0
3146 -3127 -3144 0
3129 3146 -3147 0
3129 -3146 3147 0
-3129 3146 3147 0
-3129 -3146 -3147 0
-3148 3129 0
-3148 3146 0
3148 -3129 -3146 0
3131 3148 -3149 0
3131 -3148 3149 0
-3131 3148 3149 0
-3131 -3148 -3149 0
-3150 3131 0
-3150 3148 0
3150 -3131 -3148 0
3133 3150 -3151 0
3133 -3150 3151 0
-3133 3150 3151 0
-3133 -3150 -3151 0
-3152 3133 0
-3152 3150 0
3152 -3133 -3150 0
3135 3152 -3153 0
3135 -3152 3153 0
-3135 3152 3153 0
-3135 -3152 -3153 0
-3154 3135 0
-3154 3152 0
3154 -3135 -3152 0
3137 3154 -3155 0
3137 -3154 3155 0
-3137 3154 3155 0
-3137 -3154 -3155 0
-3156 3137 0
-3156 3154 0
3156 -3137 -3154 0
-3156 0
3139 159 -3157 0
3139 -159 3157 0
-3139 159 3157 0
-3139 -159 -3157 0
-3158 3139 0
-3158 159 0
3158 -3139 -159 0
3141 3158 -3159 0
3141 -3158 3159 0
-3141 3158 3159 0
-3141 -3158 -3159 0
-3160 3141 0
-3160 3158 0
3160 -3141 -3158 0
3143 3160 -3161 0
3143 -3160 3161 0
-3143 3160 3161 0
-3143 -3160 -3161 0
-3162 3143 0
-3162 3160 0
3162 -3143 -3160 0
3145 3162 -3163 0
3145 -3162 3163 0
-3145 3162 3163 0
-3145 -3162 -3163 0
-3164 3145 0
-3164 3162 0
3164 -3145 -3162 0
3147 3164 -3165 0
3147 -3164 3165 0
-3147 3164 3165 0
-3147 -3164 -3165 0
-3166 3147 0
-3166 3164 0
3166 -3147 -3164 0
3149 3166 -3167 0
3149 -3166 3167 0
-3149 3166 3167 0
-3149 -3166 -3167 0
-3168 3149 0
-3168 3166 0
3168 -3149 -3166 0
3151 3168 -3169 0
3151 -3168 3169 0
-3151 3168 3169 0
-3151 -3168 -3169 0
-3170 3151 0
-3170 3168 0
3170 -3151 -3168 0
3153 3170 -3171 0
3153 -3170 3171 0
-3153 3170 3171 0
-3153 -3170 -3171 0
-3172 3153 0
-3172 3170 0
3172 -3153 -3170 0
3155 3172 -3173 0
3155 -3172 3173 0
-3155 3172 3173 0
-3155 -3172 -3173 0
-3174 3155 0
-3174 3172 0
3174 -3155 -3172 0
-3174 0
3157 160 -3175 0
3157 -160 3175 0
-3157 160 3175 0
-3157 -160 -3175 0
-3176 3157 0
-3176 160 0
3176 -3157 -160 0
3159 3176 -3177 0
3159 -3176 3177 0
-3159 3176 3177 0
-3159 -3176 -3177 0
-3178 3159 0
-3178 3176 0
3178 -3159 -3176 0
3161 3178 -3179 0
3161 -3178 3179 0
-3161 3178 3179 0
-3161 -3178 -3179 0
-3180 3161 0
-3180 3178 0
3180 -3161 -3178 0
3163 3180 -3181 0
3163 -3180 3181 0
-3163 3180 3181 0
-3163 -3180 -3181 0
-3182 3163 0
-3182 3180 0
3182 -3163 -3180 0
3165 3182 -3183 0
3165 -3182 3183 0
-3165 3182 3183 0
-3165 -3182 -3183 0
-3184 3165 0
-3184 3182 0
3184 -3165 -3182 0
3167 3184 -3185 0
3167 -3184 3185 0
-3167 3184 3185 0
-3167 -3184 -3185 0
-3186 3167 0
-3186 3184 0
3186 -3167 -3184 0
3169 3186 -3187 0
3169 -3186 3187 0
-3169 3186 3187 0
-3169 -3186 -3187 0
-3188 3169 0
-3188 3186 0
3188 -3169 -3186 0
3171 3188 -3189 0
3171 -3188 3189 0
-3171 3188 3189 0
-3171 -3188 -3189 0
-3190 3171 0
-3190 3188 0
3190 -3171 -3188 0
3173 3190 -3191 0
3173 -3190 3191 0
-3173 3190 3191 0
-3173 -3190 -3191 0
-3192 3173 0
-3192 3190 0
3192 -3173 -3190 0
-3192 0
3175 161 -3193 0
3175 -161 3193 0
-3175 161 3193 0
-3175 -161 -3193 0
-3194 3175 0
-3194 161 0
3194 -3175 -161 0
3177 3194 -3195 0
3177 -3194 3195 0
-3177 3194 3195 0
-3177 -3194 -3195 0
-3196 3177 0
-3196 3194 0
3196 -3177 -3194 0
3179 3196 -3197 0
3179 -3196 3197 0
-3179 3196 3197 0
-3179 -3196 -3197 0
-3198 3179 0
-3198 3196 0
3198 -3179 -3196 0
3181 3198 -3199 0
3181 -3198 3199 0
-3181 3198 3199 0
-3181 -3198 -3199 0
-3200 3181 0
-3200 3198 0
3200 -3181 -3198 0
3183 3200 -3201 0
3183 -3200 3201 0
-3183 3200 3201 0
-3183 -3200 -3201 0
-3202 3183 0
-3202 3200 0
3202 -3183 -3200 0
3185 3202 -3203 0
3185 -3202 3203 0
-3185 3202 3203 0
-3185 -3202 -3203 0
-3204 3185 0
-3204 3202 0
3204 -3185 -3202 0
3187 3204 -3205 0
3187 -3204 3205 0
-3187 3204 3205 0
-3187 -3204 -3205 0
-3206 3187 0
-3206 3204 0
3206 -3187 -3204 0
3189 3206 -3207 0
3189 -3206 3207 0
-3189 3206 3207 0
-3189 -3206 -3207 0
-3208 3189 0
-3208 3206 0
3208 -3189 -3206 0
3191 3208 -3209 0
3191 -3208 3209 0
-3191 3208 3209 0
-3191 -3208 -3209 0
-3210 3191 0
-3210 3208 0
3210 -3191 -3208 0
-3210 0
3193 162 -3211 0
3193 -162 3211 0
-3193 162 3211 0
-3193 -162 -3211 0
-3212 3193 0
-3212 162 0
3212 -3193 -162 0
3195 3212 -3213 0
3195 -3212 3213 0
-3195 3212 3213 0
-3195 -3212 -3213 0
-3214 3195 0
-3214 3212 0
3214 -3195 -3212 0
3197 3214 -3215 0
3197 -3214 3215 0
-3197 3214 3215 0
-3197 -3214 -3215 0
-3216 3197 0
-3216 3214 0
3216 -3197 -3214 0
3199 3216 -3217 0
3199 -3216 3217 0
-3199 3216 3217 0
-3199 -3216 -3217 0
-3218 3199 0
-3218 3216 0
3218 -3199 -3216 0
3201 3218 -3219 0
3201 -3218 3219 0
-3201 3218 3219 0
-3201 -3218 -3219 0
-3220 3201 0
-3220 3218 0
3220 -3201 -3218 0
3203 3220 -3221 0
3203 -3220 3221 0
-3203 3220 3221 0
-3203 -3220 -3221 0
-3222 3203 0
-3222 3220 0
3222 -3203 -3220 0
3205 3222 -3223 0
3205 -3222 3223 0
-3205 3222 3223 0
-3205 -3222 -3223 0
-3224 3205 0
-3224 3222 0
3224 -3205 -3222 0
3207 3224 -3225 0
3207 -3224 3225 0
-3207 3224 3225 0
-3207 -3224 -3225 0
-3226 3207 0
-3226 3224 0
3226 -3207 -3224 0
3209 3226 -3227 0
3209 -3226 3227 0
-3209 3226 3227 0
-3209 -3226 -3227 0
-3228 3209 0
-3228 3226 0
3228 -3209 -3226 0
-3228 0
3211 163 -3229 0
3211 -163 3229 0
-3211 163 3229 0
-3211 -163 -3229 0
-3230 3211 0
-3230 163 0
3230 -3211 -163 0
3213 3230 -3231 0
3213 -3230 3231 0
-3213 3230 3231 0
-3213 -3230 -3231 0
-3232 3213 0
-3232 3230 0
3232 -3213 -3230 0
3215 3232 -3233 0
3215 -3232 3233 0
-3215 3232 3233 0
-3215 -3232 -3233 0
-3234 3215 0
-3234 3232 0
3234 -3215 -3232 0
3217 3234 -3235 0
3217 -3234 3235 0
-3217 3234 3235 0
-3217 -3234 -3235 0
-3236 3217 0
-3236 3234 0
3236 -3217 -3234 0
3219 3236 -3237 0
3219 -3236 3237 0
-3219 3236 3237 0
-3219 -3236 -3237 0
-3238 3219 0
-3238 3236 0
3238 -3219 -3236 0
3221 3238 -3239 0
3221 -3238 3239 0
-3221 3238 3239 0
-3221 -3238 -3239 0
-3240 3221 0
-3240 3238 0
3240 -3221 -3238 0
3223 3240 -3241 0
3223 -3240 3241 0
-3223 3240 3241 0
-3223 -3240 -3241 0
-3242 3223 0
-3242 3240 0
3242 -3223 -3240 0
3225 3242 -3243 0
3225 -3242 3243 0
-3225 3242 3243 0
-3225 -3242 -3243 0
-3244 3225 0
-3244 3242 0
3244 -3225 -3242 0
3227 3244 -3245 0
3227 -3244 3245 0
-3227 3244 3245 0
-3227 -3244 -3245 0
-3246 3227 0
-3246 3244 0
3246 -3227 -3244 0
-3246 0
3229 164 -3247 0
3229 -164 3247 0
-3229 164 3247 0
-3229 -164 -3247 0
-3248 3229 0
-3248 164 0
3248 -3229 -164 0
3231 3248 -3249 0
3231 -3248 3249 0
-3231 3248 3249 0
-3231 -3248 -3249 0
-3250 3231 0
-3250 3248 0
3250 -3231 -3248 0
3233 3250 -3251 0
3233 -3250 3251 0
-3233 3250 3251 0
-3233 -3250 -3251 0
-3252 3233 0
-3252 3250 0
3252 -3233 -3250 0
3235 3252 -3253 0
3235 -3252 3253 0
-3235 3252 3253 0
-3235 -3252 -3253 0
-3254 3235 0
-3254 3252 0
3254 -3235 -3252 0
3237 3254 -3255 0
3237 -3254 3255 0
-3237 3254 3255 0
-3237 -3254 -3255 0
-3256 3237 0
-3256 3254 0
3256 -3237 -3254 0
3239 3256 -3257 0
3239 -3256 3257 0
-3239 3256 3257 0
-3239 -3256 -3257 0
-3258 3239 0
-3258 3256 0
3258 -3239 -3256 0
3241 3258 -3259 0
3241 -3258 3259 0
-3241 3258 3259 0
-3241 -3258 -3259 0
-3260 3241 0
-3260 3258 0
3260 -3241 -3258 0
3243 3260 -3261 0
3243 -3260 3261 0
-3243 3260 3261 0
-3243 -3260 -3261 0
-3262 3243 0
-3262 3260 0
3262 -3243 -3260 0
3245 3262 -3263 0
3245 -3262 3263 0
-3245 3262 3263 0
-3245 -3262 -3263 0
-3264 3245 0
-3264 3262 0
3264 -3245 -3262 0
-3264 0
3247 165 -3265 0
3247 -165 3265 0
-3247 165 3265 0
-3247 -165 -3265 0
-3266 3247 0
-3266 165 0
3266 -3247 -165 0
3249 3266 -3267 0
3249 -3266 3267 0
-3249 3266 3267 0
-3249 -3266 -3267 0
-3268 3249 0
-3268 3266 0
3268 -3249 -3266 0
3251 3268 -3269 0
3251 -3268 3269 0
-3251 3268 3269 0
-3251 -3268 -3269 0
-3270 3251 0
-3270 3268 0
3270 -3251 -3268 0
3253 3270 -3271 0
3253 -3270 3271 0
-3253 3270 3271 0
-3253 -3270 -3271 0
-3272 3253 0
-3272 3270 0
3272 -3253 -3270 0
3255 3272 -3273 0
3255 -3272 3273 0
-3255 3272 3273 0
-3255 -3272 -3273 0
-3274 3255 0
-3274 3272 0
3274 -3255 -3272 0
3257 3274 -3275 0
3257 -3274 3275 0
-3257 3274 3275 0
-3257 -3274 -3275 0
-3276 3257 0
-3276 3274 0
3276 -3257 -3274 0
3259 3276 -3277 0
3259 -3276 3277 0
-3259 3276 3277 0
-3259 -3276 -3277 0
-3278 3259 0
-3278 3276 0
3278 -3259 -3276 0
3261 3278 -3279 0
3261 -3278 3279 0
-3261 3278 3279 0
-3261 -3278 -3279 0
-3280 3261 0
-3280 3278 0
3280 -3261 -3278 0
3263 3280 -3281 0
3263 -3280 3281 0
-3263 3280 3281 0
-3263 -3280 -3281 0
-3282 3263 0
-3282 3280 0
3282 -3263 -3280 0
-3282 0
3265 166 -3283 0
3265 -166 3283 0
-3265 166 3283 0
-3265 -166 -3283 0
-3284 3265 0
-3284 166 0
3284 -3265 -166 0
3267 3284 -3285 0
3267 -3284 3285 0
-3267 3284 3285 0
-3267 -3284 -3285 0
-3286 3267 0
-3286 3284 0
3286 -3267 -3284 0
3269 3286 -3287 0
3269 -3286 3287 0
-3269 3286 3287 0
-3269 -3286 -3287 0
-3288 3269 0
-3288 3286 0
3288 -3269 -3286 0
3271 3288 -3289 0
3271 -3288 3289 0
-3271 3288 3289 0
-3271 -3288 -3289 0
-3290 3271 0
-3290 3288 0
3290 -3271 -3288 0
3273 3290 -3291 0
3273 -3290 3291 0
-3273 3290 3291 0
-3273 -3290 -3291 0
-3292 3273 0
-3292 3290 0
3292 -3273 -3290 0
3275 3292 -3293 0
3275 -3292 3293 0
-3275 3292 3293 0
-3275 -3292 -3293 0
-3294 3275 0
-3294 3292 0
3294 -3275 -3292 0
3277 3294 -3295 0
3277 -3294 3295 0
-3277 3294 3295 0
-3277 -3294 -3295 0
-3296 3277 0
-3296 3294 0
3296 -3277 -3294 0
3279 3296 -3297 0
3279 -3296 3297 0
-3279 3296 3297 0
-3279 -3296 -3297 0
-3298 3279 0
-3298 3296 0
3298 -3279 -3296 0
3281 3298 -3299 0
3281 -3298 3299 0
-3281 3298 3299 0
-3281 -3298 -3299 0
-3300 3281 0
-3300 3298 0
3300 -3281 -3298 0
-3300 0
3283 167 -3301 0
3283 -167 3301 0
-3283 167 3301 0
-3283 -167 -3301 0
-3302 3283 0
-3302 167 0
3302 -3283 -167 0
3285 3302 -3303 0
3285 -3302 3303 0
-3285 3302 3303 0
-3285 -3302 -3303 0
-3304 3285 0
-3304 3302 0
3304 -3285 -3302 0
3287 3304 -3305 0
3287 -3304 3305 0
-3287 3304 3305 0
-3287 -3304 -3305 0
-3306 3287 0
-3306 3304 0
3306 -3287 -3304 0
3289 3306 -3307 0
3289 -3306 3307 0
-3289 3306 3307 0
-3289 -3306 -3307 0
-3308 3289 0
-3308 3306 0
3308 -3289 -3306 0
3291 3308 -3309 0
3291 -3308 3309 0
-3291 3308 3309 0
-3291 -3308 -3309 0
-3310 3291 0
-3310 3308 0
3310 -3291 -3308 0
3293 3310 -3311 0
3293 -3310 3311 0
-3293 3310 3311 0
-3293 -3310 -3311 0
-3312 3293 0
-3312 3310 0
3312 -3293 -3310 0
3295 3312 -3313 0
3295 -3312 3313 0
-3295 3312 3313 0
-3295 -3312 -3313 0
-3314 3295 0
-3314 3312 0
3314 -3295 -3312 0
3297 3314 -3315 0
3297 -3314 3315 0
-3297 3314 3315 0
-3297 -3314 -3315 0
-3316 3297 0
-3316 3314 0
3316 -3297 -3314 0
3299 3316 -3317 0
3299 -3316 3317 0
-3299 3316 3317 0
-3299 -3316 -3317 0
-3318 3299 0
-3318 3316 0
3318 -3299 -3316 0
-3318 0
3301 168 -3319 0
3301 -168 3319 0
-3301 168 3319 0
-3301 -168 -3319 0
-3320 3301 0
-3320 168 0
3320 -3301 -168 0
3303 3320 -3321 0
3303 -3320 3321 0
-3303 3320 3321 0
-3303 -3320 -3321 0
-3322 3303 0
-3322 3320 0
3322 -3303 -3320 0
3305 3322 -3323 0
3305 -3322 3323 0
-3305 3322 3323 0
-3305 -3322 -3323 0
-3324 3305 0
-3324 3322 0
3324 -3305 -3322 0
3307 3324 -3325 0
3307 -3324 3325 0
-3307 3324 3325 0
-3307 -3324 -3325 0
-3326 3307 0
-3326 3324 0
3326 -3307 -3324 0
3309 3326 -3327 0
3309 -3326 3327 0
-3309 3326 3327 0
-3309 -3326 -3327 0
-3328 3309 0
-3328 3326 0
3328 -3309 -3326 0
3311 3328 -3329 0
3311 -3328 3329 0
-3311 3328 3329 0
-3311 -3328 -3329 0
-3330 3311 0
-3330 3328 0
3330 -3311 -3328 0
3313 3330 -3331 0
3313 -3330 3331 0
-3313 3330 3331 0
-3313 -3330 -3331 0
-3332 3313 0
-3332 3330 0
3332 -3313 -3330 0
3315 3332 -3333 0
3315 -3332 3333 0
-3315 3332 3333 0
-3315 -3332 -3333 0
-3334 3315 0
-3334 3332 0
3334 -3315 -3332 0
3317 3334 -3335 0
3317 -3334 3335 0
-3317 3334 3335 0
-3317 -3334 -3335 0
-3336 3317 0
-3336 3334 0
3336 -3317 -3334 0
-3336 0
3319 169 -3337 0
3319 -169 3337 0
-3319 169 3337 0
-3319 -169 -3337 0
-3338 3319 0
-3338 169 0
3338 -3319 -169 0
3321 3338 -3339 0
3321 -3338 3339 0
-3321 3338 3339 0
-3321 -3338 -3339 0
-3340 3321 0
-3340 3338 0
3340 -3321 -3338 0
3323 3340 -3341 0
3323 -3340 3341 0
-3323 3340 3341 0
-3323 -3340 -3341 0
-3342 3323 0
-3342 3340 0
3342 -3323 -3340 0
3325 3342 -3343 0
3325 -3342 3343 0
-3325 3342 3343 0
-3325 -3342 -3343 0
-3344 3325 0
-3344 3342 0
3344 -3325 -3342 0
3327 3344 -3345 0
3327 -3344 3345 0
-3327 3344 3345 0
-3327 -3344 -3345 0
-3346 3327 0
-3346 3344 0
3346 -3327 -3344 0
3329 3346 -3347 0
3329 -3346 3347 0
-3329 3346 3347 0
-3329 -3346 -3347 0
-3348 3329 0
-3348 3346 0
3348 -3329 -3346 0
3331 3348 -3349 0
3331 -3348 3349 0
-3331 3348 3349 0
-3331 -3348 -3349 0
-3350 3331 0
-3350 3348 0
3350 -3331 -3348 0
3333 3350 -3351 0
3333 -3350 3351 0
-3333 3350 3351 0
-3333 -3350 -3351 0
-3352 3333 0
-3352 3350 0
3352 -3333 -3350 0
3335 3352 -3353 0
3335 -3352 3353 0
-3335 3352 3353 0
-3335 -3352 -3353 0
-3354 3335 0
-3354 3352 0
3354 -3335 -3352 0
-3354 0
3337 170 -3355 0
3337 -170 3355 0
-3337 170 3355 0
-3337 -170 -3355 0
-3356 3337 0
-3356 170 0
3356 -3337 -170 0
3339 3356 -3357 0
3339 -3356 3357 0
-3339 3356 3357 0
-3339 -3356 -3357 0
-3358 3339 0
-3358 3356 0
3358 -3339 -3356 0
3341 3358 -3359 0
3341 -3358 3359 0
-3341 3358 3359 0
-3341 -3358 -3359 0
-3360 3341 0
-3360 3358 0
3360 -3341 -3358 0
3343 3360 -3361 0
3343 -3360 3361 0
-3343 3360 3361 0
-3343 -3360 -3361 0
-3362 3343 0
-3362 3360 0
3362 -3343 -3360 0
3345 3362 -3363 0
3345 -3362 3363 0
-3345 3362 3363 0
-3345 -3362 -3363 0
-3364 3345 0
-3364 3362 0
3364 -3345 -3362 0
3347 3364 -3365 0
3347 -3364 3365 0
-3347 3364 3365 0
-3347 -3364 -3365 0
-3366 3347 0
-3366 3364 0
3366 -3347 -3364 0
3349 3366 -3367 0
3349 -3366 3367 0
-3349 3366 3367 0
-3349 -3366 -3367 0
-3368 3349 0
-3368 3366 0
3368 -3349 -3366 0
3351 3368 -3369 0
3351 -3368 3369 0
-3351 3368 3369 0
-3351 -3368 -3369 0
-3370 3351 0
-3370 3368 0
3370 -3351 -3368 0
3353 3370 -3371 0
3353 -3370 3371 0
-3353 3370 3371 0
-3353 -3370 -3371 0
-3372 3353 0
-3372 3370 0
3372 -3353 -3370 0
-3372 0
3355 171 -3373 0
3355 -171 3373 0
-3355 171 3373 0
-3355 -171 -3373 0
-3374 3355 0
-3374 171 0
3374 -3355 -171 0
3357 3374 -3375 0
3357 -3374 3375 0
-3357 3374 3375 0
-3357 -3374 -3375 0
-3376 3357 0
-3376 3374 0
3376 -3357 -3374 0
3359 3376 -3377 0
3359 -3376 3377 0
-3359 3376 3377 0
-3359 -3376 -3377 0
-3378 3359 0
-3378 3376 0
3378 -3359 -3376 0
3361 3378 -3379 0
3361 -3378 3379 0
-3361 3378 3379 0
-3361 -3378 -3379 0
-3380 3361 0
-3380 3378 0
3380 -3361 -3378 0
3363 3380 -3381 0
3363 -3380 3381 0
-3363 3380 3381 0
-3363 -3380 -3381 0
-3382 3363 0
-3382 3380 0
3382 -3363 -3380 0
3365 3382 -3383 0
3365 -3382 3383 0
-3365 3382 3383 0
-3365 -3382 -3383 0
-3384 3365 0
-3384 3382 0
3384 -3365 -3382 0
3367 3384 -3385 0
3367 -3384 3385 0
-3367 3384 3385 0
-3367 -3384 -3385 0
-3386 3367 0
-3386 3384 0
3386 -3367 -3384 0
3369 3386 -3387 0
3369 -3386 3387 0
-3369 3386 3387 0
-3369 -3386 -3387 0
-3388 3369 0
-3388 3386 0
3388 -3369 -3386 0
3371 3388 -3389 0
3371 -3388 3389 0
-3371 3388 3389 0
-3371 -3388 -3389 0
-3390 3371 0
-3390 3388 0
3390 -3371 -3388 0
-3390 0
3373 172 -3391 0
3373 -172 3391 0
-3373 172 3391 0
-3373 -172 -3391 0
-3392 3373 0
-3392 172 0
3392 -3373 -172 0
3375 3392 -3393 0
3375 -3392 3393 0
-3375 3392 3393 0
-3375 -3392 -3393 0
-3394 3375 0
-3394 3392 0
3394 -3375 -3392 0
3377 3394 -3395 0
3377 -3394 3395 0
-3377 3394 3395 0
-3377 -3394 -3395 0
-3396 3377 0
-3396 3394 0
3396 -3377 -3394 0
3379 3396 -3397 0
3379 -3396 3397 0
-3379 3396 3397 0
-3379 -3396 -3397 0
-3398 3379 0
-3398 3396 0
3398 -3379 -3396 0
3381 3398 -3399 0
3381 -3398 3399 0
-3381 3398 3399 0
-3381 -3398 -3399 0
-3400 3381 0
-3400 3398 0
3400 -3381 -3398 0
3383 3400 -3401 0
3383 -3400 3401 0
-3383 3400 3401 0
-3383 -3400 -3401 0
-3402 3383 0
-3402 3400 0
3402 -3383 -3400 0
3385 3402 -3403 0
3385 -3402 3403 0
-3385 3402 3403 0
-3385 -3402 -3403 0
-3404 3385 0
-3404 3402 0
3404 -3385 -3402 0
3387 3404 -3405 0
3387 -3404 3405 0
-3387 3404 3405 0
-3387 -3404 -3405 0
-3406 3387 0
-3406 3404 0
3406 -3387 -3404 0
3389 3406 -3407 0
3389 -3406 3407 0
-3389 3406 3407 0
-3389 -3406 -3407 0
-3408 3389 0
-3408 3406 0
3408 -3389 -3406 0
-3408 0
3391 173 -3409 0
3391 -173 3409 0
-3391 173 3409 0
-3391 -173 -3409 0
-3410 3391 0
-3410 173 0
3410 -3391 -173 0
3393 3410 -3411 0
3393 -3410 3411 0
-3393 3410 3411 0
-3393 -3410 -3411 0
-3412 3393 0
-3412 3410 0
3412 -3393 -3410 0
3395 3412 -3413 0
3395 -3412 3413 0
-3395 3412 3413 0
-3395 -3412 -3413 0
-3414 3395 0
-3414 3412 0
3414 -3395 -3412 0
3397 3414 -3415 0
3397 -3414 3415 0
-3397 3414 3415 0
-3397 -3414 -3415 0
-3416 3397 0
-3416 3414 0
3416 -3397 -3414 0
3399 3416 -3417 0
3399 -3416 3417 0
-3399 3416 3417 0
-3399 -3416 -3417 0
-3418 3399 0
-3418 3416 0
3418 -3399 -3416 0
3401 3418 -3419 0
3401 -3418 3419 0
-3401 3418 3419 0
-3401 -3418 -3419 0
-3420 3401 0
-3420 3418 0
3420 -3401 -3418 0
3403 3420 -3421 0
3403 -3420 3421 0
-3403 3420 3421 0
-3403 -3420 -3421 0
-3422 3403 0
-3422 3420 0
3422 -3403 -3420 0
3405 3422 -3423 0
3405 -3422 3423 0
-3405 3422 3423 0
-3405 -3422 -3423 0
-3424 3405 0
-3424 3422 0
3424 -3405 -3422 0
3407 3424 -3425 0
3407 -3424 3425 0
-3407 3424 3425 0
-3407 -3424 -3425 0
-3426 3407 0
-3426 3424 0
3426 -3407 -3424 0
-3426 0
3409 174 -3427 0
3409 -174 3427 0
-3409 174 3427 0
-3409 -174 -3427 0
-3428 3409 0
-3428 174 0
3428 -3409 -174 0
3411 3428 -3429 0
3411 -3428 3429 0
-3411 3428 3429 0
-3411 -3428 -3429 0
-3430 3411 0
-3430 3428 0
3430 -3411 -3428 0
3413 3430 -3431 0
3413 -3430 3431 0
-3413 3430 3431 0
-3413 -3430 -3431 0
-3432 3413 0
-3432 3430 0
3432 -3413 -3430 0
3415 3432 -3433 0
3415 -3432 3433 0
-3415 3432 3433 0
-3415 -3432 -3433 0
-3434 3415 0
-3434 3432 0
3434 -3415 -3432 0
3417 3434 -3435 0
3417 -3434 3435 0
-3417 3434 3435 0
-3417 -3434 -3435 0
-3436 3417 0
-3436 3434 0
3436 -3417 -3434 0
3419 3436 -3437 0
3419 -3436 3437 0
-3419 3436 3437 0
-3419 -3436 -3437 0
-3438 3419 0
-3438 3436 0
3438 -3419 -3436 0
3421 3438 -3439 0
3421 -3438 3439 0
-3421 3438 3439 0
-3421 -3438 -3439 0
-3440 3421 0
-3440 3438 0
3440 -3421 -3438 0
3423 3440 -3441 0
3423 -3440 3441 0
-3423 3440 3441 0
-3423 -3440 -3441 0
-3442 3423 0
-3442 3440 0
3442 -3423 -3440 0
3425 3442 -3443 0
3425 -3442 3443 0
-3425 3442 3443 0
-3425 -3442 -3443 0
-3444 3425 0
-3444 3442 0
3444 -3425 -3442 0
-3444 0
3427 175 -3445 0
3427 -175 3445 0
-3427 175 3445 0
-3427 -175 -3445 0
-3446 3427 0
-3446 175 0
3446 -3427 -175 0
3429 3446 -3447 0
3429 -3446 3447 0
-3429 3446 3447 0
-3429 -3446 -3447 0
-3448 3429 0
-3448 3446 0
3448 -3429 -3446 0
3431 3448 -3449 0
3431 -3448 3449 0
-3431 3448 3449 0
-3431 -3448 -3449 0
-3450 3431 0
-3450 3448 0
3450 -3431 -3448 0
3433 3450 -3451 0
3433 -3450 3451 0
-3433 3450 3451 0
-3433 -3450 -3451 0
-3452 3433 0
-3452 3450 0
3452 -3433 -3450 0
3435 3452 -3453 0
3435 -3452 3453 0
-3435 3452 3453 0
-3435 -3452 -3453 0
-3454 3435 0
-3454 3452 0
3454 -3435 -3452 0
3437 3454 -3455 0
3437 -3454 3455 0
-3437 3454 3455 0
-3437 -3454 -3455 0
-3456 3437 0
-3456 3454 0
3456 -3437 -3454 0
3439 3456 -3457 0
3439 -3456 3457 0
-3439 3456 3457 0
-3439 -3456 -3457 0
-3458 3439 0
-3458 3456 0
3458 -3439 -3456 0
3441 3458 -3459 0
3441 -3458 3459 0
-3441 3458 3459 0
-3441 -3458 -3459 0
-3460 3441 0
-3460 3458 0
3460 -3441 -3458 0
3443 3460 -3461 0
3443 -3460 3461 0
-3443 3460 3461 0
-3443 -3460 -3461 0
-3462 3443 0
-3462 3460 0
3462 -3443 -3460 0
-3462 0
3445 176 -3463 0
3445 -176 3463 0
-3445 176 3463 0
-3445 -176 -3463 0
-3464 3445 0
-3464 176 0
3464 -3445 -176 0
3447 3464 -3465 0
3447 -3464 3465 0
-3447 3464 3465 0
-3447 -3464 -3465 0
-3466 3447 0
-3466 3464 0
3466 -3447 -3464 0
3449 3466 -3467 0
3449 -3466 3467 0
-3449 3466 3467 0
-3449 -3466 -3467 0
-3468 3449 0
-3468 3466 0
3468 -3449 -3466 0
3451 3468 -3469 0
3451 -3468 3469 0
-3451 3468 3469 0
-3451 -3468 -3469 0
-3470 3451 0
-3470 3468 0
3470 -3451 -3468 0
3453 3470 -3471 0
3453 -3470 3471 0
-3453 3470 3471 0
-3453 -3470 -3471 0
-3472 3453 0
-3472 3470 0
3472 -3453 -3470 0
3455 3472 -3473 0
3455 -3472 3473 0
-3455 3472 3473 0
-3455 -3472 -3473 0
-3474 3455 0
-3474 3472 0
3474 -3455 -3472 0
3457 3474 -3475 0
3457 -3474 3475 0
-3457 3474 3475 0
-3457 -3474 -3475 0
-3476 3457 0
-3476 3474 0
3476 -3457 -3474 0
3459 3476 -3477 0
3459 -3476 3477 0
-3459 3476 3477 0
-3459 -3476 -3477 0
-3478 3459 0
-3478 3476 0
3478 -3459 -3476 0
3461 3478 -3479 0
3461 -3478 3479 0
-3461 3478 3479 0
-3461 -3478 -3479 0
-3480 3461 0
-3480 3478 0
3480 -3461 -3478 0
-3480 0
3463 177 -3481 0
3463 -177 3481 0
-3463 177 3481 0
-3463 -177 -3481 0
-3482 3463 0
-3482 177 0
3482 -3463 -177 0
3465 3482 -3483 0
3465 -3482 3483 0
-3465 3482 3483 0
-3465 -3482 -3483 0
-3484 3465 0
-3484 3482 0
3484 -3465 -3482 0
3467 3484 -3485 0
3467 -3484 3485 0
-3467 3484 3485 0
-3467 -3484 -3485 0
-3486 3467 0
-3486 3484 0
3486 -3467 -3484 0
3469 3486 -3487 0
3469 -3486 3487 0
-3469 3486 3487 0
-3469 -3486 -3487 0
-3488 3469 0
-3488 3486 0
3488 -3469 -3486 0
3471 3488 -3489 0
3471 -3488 3489 0
-3471 3488 3489 0
-3471 -3488 -3489 0
-3490 3471 0
-3490 3488 0
3490 -3471 -3488 0
3473 3490 -3491 0
3473 -3490 3491 0
-3473 3490 3491 0
-3473 -3490 -3491 0
-3492 3473 0
-3492 3490 0
3492 -3473 -3490 0
3475 3492 -3493 0
3475 -3492 3493 0
-3475 3492 3493 0
-3475 -3492 -3493 0
-3494 3475 0
-3494 3492 0
3494 -3475 -3492 0
3477 3494 -3495 0
3477 -3494 3495 0
-3477 3494 3495 0
-3477 -3494 -3495 0
-3496 3477 0
-3496 3494 0
3496 -3477 -3494 0
3479 3496 -3497 0
3479 -3496 3497 0
-3479 3496 3497 0
-3479 -3496 -3497 0
-3498 3479 0
-3498 3496 0
3498 -3479 -3496 0
-3498 0
3481 178 -3499 0
3481 -178 3499 0
-3481 178 3499 0
-3481 -178 -3499 0
-3500 3481 0
-3500 178 0
3500 -3481 -178 0
3483 3500 -3501 0
3483 -3500 3501 0
-3483 3500 3501 0
-3483 -3500 -3501 0
-3502 3483 0
-3502 3500 0
3502 -3483 -3500 0
3485 3502 -3503 0
3485 -3502 3503 0
-3485 3502 3503 0
-3485 -3502 -3503 0
-3504 3485 0
-3504 3502 0
3504 -3485 -3502 0
3487 3504 -3505 0
3487 -3504 3505 0
-3487 3504 3505 0
-3487 -3504 -3505 0
-3506 3487 0
-3506 3504 0
3506 -3487 -3504 0
3489 3506 -3507 0
3489 -3506 3507 0
-3489 3506 3507 0
-3489 -3506 -3507 0
-3508 3489 0
-3508 3506 0
3508 -3489 -3506 0
3491 3508 -3509 0
3491 -3508 3509 0
-3491 3508 3509 0
-3491 -3508 -3509 0
-3510 3491 0
-3510 3508 0
3510 -3491 -3508 0
3493 3510 -3511 0
3493 -3510 3511 0
-3493 3510 3511 0
-3493 -3510 -3511 0
-3512 3493 0
-3512 3510 0
3512 -3493 -3510 0
3495 3512 -3513 0
3495 -3512 3513 0
-3495 3512 3513 0
-3495 -3512 -3513 0
-3514 3495 0
-3514 3512 0
3514 -3495 -3512 0
3497 3514 -3515 0
3497 -3514 3515 0
-3497 3514 3515 0
-3497 -3514 -3515 0
-3516 3497 0
-3516 3514 0
3516 -3497 -3514 0
-3516 0
3499 179 -3517 0
3499 -179 3517 0
-3499 179 3517 0
-3499 -179 -3517 0
-3518 3499 0
-3518 179 0
3518 -3499 -179 0
3501 3518 -3519 0
3501 -3518 3519 0
-3501 3518 3519 0
-3501 -3518 -3519 0
-3520 3501 0
-3520 3518 0
3520 -3501 -3518 0
3503 3520 -3521 0
3503 -3520 3521 0
-3503 3520 3521 0
-3503 -3520 -3521 0
-3522 3503 0
-3522 3520 0
3522 -3503 -3520 0
3505 3522 -3523 0
3505 -3522 3523 0
-3505 3522 3523 0
-3505 -3522 -3523 0
-3524 3505 0
-3524 3522 0
3524 -3505 -3522 0
3507 3524 -3525 0
3507 -3524 3525 0
-3507 3524 3525 0
-3507 -3524 -3525 0
-3526 3507 0
-3526 3524 0
3526 -3507 -3524 0
3509 3526 -3527 0
3509 -3526 3527 0
-3509 3526 3527 0
-3509 -3526 -3527 0
-3528 3509 0
-3528 3526 0
3528 -3509 -3526 0
3511 3528 -3529 0
3511 -3528 3529 0
-3511 3528 3529 0
-3511 -3528 -3529 0
-3530 3511 0
-3530 3528 0
3530 -3511 -3528 0
3513 3530 -3531 0
3513 -3530 3531 0
-3513 3530 3531 0
-3513 -3530 -3531 0
-3532 3513 0
-3532 3530 0
3532 -3513 -3530 0
3515 3532 -3533 0
3515 -3532 3533 0
-3515 3532 3533 0
-3515 -3532 -3533 0
-3534 3515 0
-3534 3532 0
3534 -3515 -3532 0
-3534 0
3517 180 -3535 0
3517 -180 3535 0
-3517 180 3535 0
-3517 -180 -3535 0
-3536 3517 0
-3536 180 0
3536 -3517 -180 0
3519 3536 -3537 0
3519 -3536 3537 0
-3519 3536 3537 0
-3519 -3536 -3537 0
-3538 3519 0
-3538 3536 0
3538 -3519 -3536 0
3521 3538 -3539 0
3521 -3538 3539 0
-3521 3538 3539 0
-3521 -3538 -3539 0
-3540 3521 0
-3540 3538 0
3540 -3521 -3538 0
3523 3540 -3541 0
3523 -3540 3541 0
-3523 3540 3541 0
-3523 -3540 -3541 0
-3542 3523 0
-3542 3540 0
3542 -3523 -3540 0
3525 3542 -3543 0
3525 -3542 3543 0
-3525 3542 3543 0
-3525 -3542 -3543 0
-3544 3525 0
-3544 3542 0
3544 -3525 -3542 0
3527 3544 -3545 0
3527 -3544 3545 0
-3527 3544 3545 0
-3527 -3544 -3545 0
-3546 3527 0
-3546 3544 0
3546 -3527 -3544 0
3529 3546 -3547 0
3529 -3546 3547 0
-3529 3546 3547 0
-3529 -3546 -3547 0
-3548 3529 0
-3548 3546 0
3548 -3529 -3546 0
3531 3548 -3549 0
3531 -3548 3549 0
-3531 3548 3549 0
-3531 -3548 -3549 0
-3550 3531 0
-3550 3548 0
3550 -3531 -3548 0
3533 3550 -3551 0
3533 -3550 3551 0
-3533 3550 3551 0
-3533 -3550 -3551 0
-3552 3533 0
-3552 3550 0
3552 -3533 -3550 0
-3552 0
3535 181 -3553 0
3535 -181 3553 0
-3535 181 3553 0
-3535 -181 -3553 0
-3554 3535 0
-3554 181 0
3554 -3535 -181 0
3537 3554 -3555 0
3537 -3554 3555 0
-3537 3554 3555 0
-3537 -3554 -3555 0
-3556 3537 0
-3556 3554 0
3556 -3537 -3554 0
3539 3556 -3557 0
3539 -3556 3557 0
-3539 3556 3557 0
-3539 -3556 -3557 0
-3558 3539 0
-3558 3556 0
3558 -3539 -3556 0
3541 3558 -3559 0
3541 -3558 3559 0
-3541 3558 3559 0
-3541 -3558 -3559 0
-3560 3541 0
-3560 3558 0
3560 -3541 -3558 0
3543 3560 -3561 0
3543 -3560 3561 0
-3543 3560 3561 0
-3543 -3560 -3561 0
-3562 3543 0
-3562 3560 0
3562 -3543 -3560 0
3545 3562 -3563 0
3545 -3562 3563 0
-3545 3562 3563 0
-3545 -3562 -3563 0
-3564 3545 0
-3564 3562 0
3564 -3545 -3562 0
3547 3564 -3565 0
3547 -3564 3565 0
-3547 3564 3565 0
-3547 -3564 -3565 0
-3566 3547 0
-3566 3564 0
3566 -3547 -3564 0
3549 3566 -3567 0
3549 -3566 3567 0
-3549 3566 3567 0
-3549 -3566 -3567 0
-3568 3549 0
-3568 3566 0
3568 -3549 -3566 0
3551 3568 -3569 0
3551 -3568 3569 0
-3551 3568 3569 0
-3551 -3568 -3569 0
-3570 3551 0
-3570 3568 0
3570 -3551 -3568 0
-3570 0
3553 182 -3571 0
3553 -182 3571 0
-3553 182 3571 0
-3553 -182 -3571 0
-3572 3553 0
-3572 182 0
3572 -3553 -182 0
3555 3572 -3573 0
3555 -3572 3573 0
-3555 3572 3573 0
-3555 -3572 -3573 0
-3574 3555 0
-3574 3572 0
3574 -3555 -3572 0
3557 3574 -3575 0
3557 -3574 3575 0
-3557 3574 3575 0
-3557 -3574 -3575 0
-3576 3557 0
-3576 3574 0
3576 -3557 -3574 0
3559 3576 -3577 0
3559 -3576 3577 0
-3559 3576 3577 0
-3559 -3576 -3577 0
-3578 3559 0
-3578 3576 0
3578 -3559 -3576 0
3561 3578 -3579 0
3561 -3578 3579 0
-3561 3578 3579 0
-3561 -3578 -3579 0
-3580 3561 0
-3580 3578 0
3580 -3561 -3578 0
3563 3580 -3581 0
3563 -3580 3581 0
-3563 3580 3581 0
-3563 -3580 -3581 0
-3582 3563 0
-3582 3580 0
3582 -3563 -3580 0
3565 3582 -3583 0
3565 -3582 3583 0
-3565 3582 3583 0
-3565 -3582 -3583 0
-3584 3565 0
-3584 3582 0
3584 -3565 -3582 0
3567 3584 -3585 0
3567 -3584 3585 0
-3567 3584 3585 0
-3567 -3584 -3585 0
-3586 3567 0
-3586 3584 0
3586 -3567 -3584 0
3569 3586 -3587 0
3569 -3586 3587 0
-3569 3586 3587 0
-3569 -3586 -3587 0
-3588 3569 0
-3588 3586 0
3588 -3569 -3586 0
-3588 0
3571 183 -3589 0
3571 -183 3589 0
-3571 183 3589 0
-3571 -183 -3589 0
-3590 3571 0
-3590 183 0
3590 -3571 -183 0
3573 3590 -3591 0
3573 -3590 3591 0
-3573 3590 3591 0
-3573 -3590 -3591 0
-3592 3573 0
-3592 3590 0
3592 -3573 -3590 0
3575 3592 -3593 0
3575 -3592 3593 0
-3575 3592 3593 0
-3575 -3592 -3593 0
-3594 3575 0
-3594 3592 0
3594 -3575 -3592 0
3577 3594 -3595 0
3577 -3594 3595 0
-3577 3594 3595 0
-3577 -3594 -3595 0
-3596 3577 0
-3596 3594 0
3596 -3577 -3594 0
3579 3596 -3597 0
3579 -3596 3597 0
-3579 3596 3597 0
-3579 -3596 -3597 0
-3598 3579 0
-3598 3596 0
3598 -3579 -3596 0
3581 3598 -3599 0
3581 -3598 3599 0
-3581 3598 3599 0
-3581 -3598 -3599 0
-3600 3581 0
-3600 3598 0
3600 -3581 -3598 0
3583 3600 -3601 0
3583 -3600 3601 0
-3583 3600 3601 0
-3583 -3600 -3601 0
-3602 3583 0
-3602 3600 0
3602 -3583 -3600 0
3585 3602 -3603 0
3585 -3602 3603 0
-3585 3602 3603 0
-3585 -3602 -3603 0
-3604 3585 0
-3604 3602 0
3604 -3585 -3602 0
3587 3604 -3605 0
3587 -3604 3605 0
-3587 3604 3605 0
-3587 -3604 -3605 0
-3606 3587 0
-3606 3604 0
3606 -3587 -3604 0
-3606 0
3589 184 -3607 0
3589 -184 3607 0
-3589 184 3607 0
-3589 -184 -3607 0
-3608 3589 0
-3608 184 0
3608 -3589 -184 0
3591 3608 -3609 0
3591 -3608 3609 0
-3591 3608 3609 0
-3591 -3608 -3609 0
-3610 3591 0
-3610 3608 0
3610 -3591 -3608 0
3593 3610 -3611 0
3593 -3610 3611 0
-3593 3610 3611 0
-3593 -3610 -3611 0
-3612 3593 0
-3612 3610 0
3612 -3593 -3610 0
3595 3612 -3613 0
3595 -3612 3613 0
-3595 3612 3613 0
-3595 -3612 -3613 0
-3614 3595 0
-3614 3612 0
3614 -3595 -3612 0
3597 3614 -3615 0
3597 -3614 3615 0
-3597 3614 3615 0
-3597 -3614 -3615 0
-3616 3597 0
-3616 3614 0
3616 -3597 -3614 0
3599 3616 -3617 0
3599 -3616 3617 0
-3599 3616 3617 0
-3599 -3616 -3617 0
-3618 3599 0
-3618 3616 0
3618 -3599 -3616 0
3601 3618 -3619 0
3601 -3618 3619 0
-3601 3618 3619 0
-3601 -3618 -3619 0
-3620 3601 0
-3620 3618 0
3620 -3601 -3618 0
3603 3620 -3621 0
3603 -3620 3621 0
-3603 3620 3621 0
-3603 -3620 -3621 0
-3622 3603 0
-3622 3620 0
3622 -3603 -3620 0
3605 3622 -3623 0
3605 -3622 3623 0
-3605 3622 3623 0
-3605 -3622 -3623 0
-3624 3605 0
-3624 3622 0
3624 -3605 -3622 0
-3624 0
3607 185 -3625 0
3607 -185 3625 0
-3607 185 3625 0
-3607 -185 -3625 0
-3626 3607 0
-3626 185 0
3626 -3607 -185 0
3609 3626 -3627 0
3609 -3626 3627 0
-3609 3626 3627 0
-3609 -3626 -3627 0
-3628 3609 0
-3628 3626 0
3628 -3609 -3626 0
3611 3628 -3629 0
3611 -3628 3629 0
-3611 3628 3629 0
-3611 -3628 -3629 0
-3630 3611 0
-3630 3628 0
3630 -3611 -3628 0
3613 3630 -3631 0
3613 -3630 3631 0
-3613 3630 3631 0
-3613 -3630 -3631 0
-3632 3613 0
-3632 3630 0
3632 -3613 -3630 0
3615 3632 -3633 0
3615 -3632 3633 0
-3615 3632 3633 0
-3615 -3632 -3633 0
-3634 3615 0
-3634 3632 0
3634 -3615 -3632 0
3617 3634 -3635 0
3617 -3634 3635 0
-3617 3634 3635 0
-3617 -3634 -3635 0
-3636 3617 0
-3636 3634 0
3636 -3617 -3634 0
3619 3636 -3637 0
3619 -3636 3637 0
-3619 3636 3637 0
-3619 -3636 -3637 0
-3638 3619 0
-3638 3636 0
3638 -3619 -3636 0
3621 3638 -3639 0
3621 -3638 3639 0
-3621 3638 3639 0
-3621 -3638 -3639 0
-3640 3621 0
-3640 3638 0
3640 -3621 -3638 0
3623 3640 -3641 0
3623 -3640 3641 0
-3623 3640 3641 0
-3623 -3640 -3641 0
-3642 3623 0
-3642 3640 0
3642 -3623 -3640 0
-3642 0
3625 186 -3643 0
3625 -186 3643 0
-3625 186 3643 0
-3625 -186 -3643 0
-3644 3625 0
-3644 186 0
3644 -3625 -186 0
3627 3644 -3645 0
3627 -3644 3645 0
-3627 3644 3645 0
-3627 -3644 -3645 0
-3646 3627 0
-3646 3644 0
3646 -3627 -3644 0
3629 3646 -3647 0
3629 -3646 3647 0
-3629 3646 3647 0
-3629 -3646 -3647 0
-3648 3629 0
-3648 3646 0
3648 -3629 -3646 0
3631 3648 -3649 0
3631 -3648 3649 0
-3631 3648 3649 0
-3631 -3648 -3649 0
-3650 3631 0
-3650 3648 0
3650 -3631 -3648 0
3633 3650 -3651 0
3633 -3650 3651 0
-3633 3650 3651 0
-3633 -3650 -3651 0
-3652 3633 0
-3652 3650 0
3652 -3633 -3650 0
3635 3652 -3653 0
3635 -3652 3653 0
-3635 3652 3653 0
-3635 -3652 -3653 0
-3654 3635 0
-3654 3652 0
3654 -3635 -3652 0
3637 3654 -3655 0
3637 -3654 3655 0
-3637 3654 3655 0
-3637 -3654 -3655 0
-3656 3637 0
-3656 3654 0
3656 -3637 -3654 0
3639 3656 -3657 0
3639 -3656 3657 0
-3639 3656 3657 0
-3639 -3656 -3657 0
-3658 3639 0
-3658 3656 0
3658 -3639 -3656 0
3641 3658 -3659 0
3641 -3658 3659 0
-3641 3658 3659 0
-3641 -3658 -3659 0
-3660 3641 0
-3660 3658 0
3660 -3641 -3658 0
-3660 0
3643 187 -3661 0
3643 -187 3661 0
-3643 187 3661 0
-3643 -187 -3661 0
-3662 3643 0
-3662 187 0
3662 -3643 -187 0
3645 3662 -3663 0
3645 -3662 3663 0
-3645 3662 3663 0
-3645 -3662 -3663 0
-3664 3645 0
-3664 3662 0
3664 -3645 -3662 0
3647 3664 -3665 0
3647 -3664 3665 0
-3647 3664 3665 0
-3647 -3664 -3665 0
-3666 3647 0
-3666 3664 0
3666 -3647 -3664 0
3649 3666 -3667 0
3649 -3666 3667 0
-3649 3666 3667 0
-3649 -3666 -3667 0
-3668 3649 0
-3668 3666 0
3668 -3649 -3666 0
3651 3668 -3669 0
3651 -3668 3669 0
-3651 3668 3669 0
-3651 -3668 -3669 0
-3670 3651 0
-3670 3668 0
3670 -3651 -3668 0
3653 3670 -3671 0
3653 -3670 3671 0
-3653 3670 3671 0
-3653 -3670 -3671 0
-3672 3653 0
-3672 3670 0
3672 -3653 -3670 0
3655 3672 -3673 0
3655 -3672 3673 0
-3655 3672 3673 0
-3655 -3672 -3673 0
-3674 3655 0
-3674 3672 0
3674 -3655 -3672 0
3657 3674 -3675 0
3657 -3674 3675 0
-3657 3674 3675 0
-3657 -3674 -3675 0
-3676 3657 0
-3676 3674 0
3676 -3657 -3674 0
3659 3676 -3677 0
3659 -3676 3677 0
-3659 3676 3677 0
-3659 -3676 -3677 0
-3678 3659 0
-3678 3676 0
3678 -3659 -3676 0
-3678 0
3661 188 -3679 0
3661 -188 3679 0
-3661 188 3679 0
-3661 -188 -3679 0
-3680 3661 0
-3680 188 0
3680 -3661 -188 0
3663 3680 -3681 0
3663 -3680 3681 0
-3663 3680 3681 0
-3663 -3680 -3681 0
-3682 3663 0
-3682 3680 0
3682 -3663 -3680 0
3665 3682 -3683 0
3665 -3682 3683 0
-3665 3682 3683 0
-3665 -3682 -3683 0
-3684 3665 0
-3684 3682 0
3684 -3665 -3682 0
3667 3684 -3685 0
3667 -3684 3685 0
-3667 3684 3685 0
-3667 -3684 -3685 0
-3686 3667 0
-3686 3684 0
3686 -3667 -3684 0
3669 3686 -3687 0
3669 -3686 3687 0
-3669 3686 3687 0
-3669 -3686 -3687 0
-3688 3669 0
-3688 3686 0
3688 -3669 -3686 0
3671 3688 -3689 0
3671 -3688 3689 0
-3671 3688 3689 0
-3671 -3688 -3689 0
-3690 3671 0
-3690 3688 0
3690 -3671 -3688 0
3673 3690 -3691 0
3673 -3690 3691 0
-3673 3690 3691 0
-3673 -3690 -3691 0
-3692 3673 0
-3692 3690 0
3692 -3673 -3690 0
3675 3692 -3693 0
3675 -3692 3693 0
-3675 3692 3693 0
-3675 -3692 -3693 0
-3694 3675 0
-3694 3692 0
3694 -3675 -3692 0
3677 3694 -3695 0
3677 -3694 3695 0
-3677 3694 3695 0
-3677 -3694 -3695 0
-3696 3677 0
-3696 3694 0
3696 -3677 -3694 0
-3696 0
3679 189 -3697 0
3679 -189 3697 0
-3679 189 3697 0
-3679 -189 -3697 0
-3698 3679 0
-3698 189 0
3698 -3679 -189 0
3681 3698 -3699 0
3681 -3698 3699 0
-3681 3698 3699 0
-3681 -3698 -3699 0
-3700 3681 0
-3700 3698 0
3700 -3681 -3698 0
3683 3700 -3701 0
3683 -3700 3701 0
-3683 3700 3701 0
-3683 -3700 -3701 0
-3702 3683 0
-3702 3700 0
3702 -3683 -3700 0
3685 3702 -3703 0
3685 -3702 3703 0
-3685 3702 3703 0
-3685 -3702 -3703 0
-3704 3685 0
-3704 3702 0
3704 -3685 -3702 0
3687 3704 -3705 0
3687 -3704 3705 0
-3687 3704 3705 0
-3687 -3704 -3705 0
-3706 3687 0
-3706 3704 0
3706 -3687 -3704 0
3689 3706 -3707 0
3689 -3706 3707 0
-3689 3706 3707 0
-3689 -3706 -3707 0
-3708 3689 0
-3708 3706 0
3708 -3689 -3706 0
3691 3708 -3709 0
3691 -3708 3709 0
-3691 3708 3709 0
-3691 -3708 -3709 0
-3710 3691 0
-3710 3708 0
3710 -3691 -3708 0
3693 3710 -3711 0
3693 -3710 3711 0
-3693 3710 3711 0
-3693 -3710 -3711 0
-3712 3693 0
-3712 3710 0
3712 -3693 -3710 0
3695 3712 -3713 0
3695 -3712 3713 0
-3695 3712 3713 0
-3695 -3712 -3713 0
-3714 3695 0
-3714 3712 0
3714 -3695 -3712 0
-3714 0
3697 190 -3715 0
3697 -190 3715 0
-3697 190 3715 0
-3697 -190 -3715 0
-3716 3697 0
-3716 190 0
3716 -3697 -190 0
3699 3716 -3717 0
3699 -3716 3717 0
-3699 3716 3717 0
-3699 -3716 -3717 0
-3718 3699 0
-3718 3716 0
3718 -3699 -3716 0
3701 3718 -3719 0
3701 -3718 3719 0
-3701 3718 3719 0
-3701 -3718 -3719 0
-3720 3701 0
-3720 3718 0
3720 -3701 -3718 0
3703 3720 -3721 0
3703 -3720 3721 0
-3703 3720 3721 0
-3703 -3720 -3721 0
-3722 3703 0
-3722 3720 0
3722 -3703 -3720 0
3705 3722 -3723 0
3705 -3722 3723 0
-3705 3722 3723 0
-3705 -3722 -3723 0
-3724 3705 0
-3724 3722 0
3724 -3705 -3722 0
3707 3724 -3725 0
3707 -3724 3725 0
-3707 3724 3725 0
-3707 -3724 -3725 0
-3726 3707 0
-3726 3724 0
3726 -3707 -3724 0
3709 3726 -3727 0
3709 -3726 3727 0
-3709 3726 3727 0
-3709 -3726 -3727 0
-3728 3709 0
-3728 3726 0
3728 -3709 -3726 0
3711 3728 -3729 0
3711 -3728 3729 0
-3711 3728 3729 0
-3711 -3728 -3729 0
-3730 3711 0
-3730 3728 0
3730 -3711 -3728 0
3713 3730 -3731 0
3713 -3730 3731 0
-3713 3730 3731 0
-3713 -3730 -3731 0
-3732 3713 0
-3732 3730 0
3732 -3713 -3730 0
-3732 0
3715 191 -3733 0
3715 -191 3733 0
-3715 191 3733 0
-3715 -191 -3733 0
-3734 3715 0
-3734 191 0
3734 -3715 -191 0
3717 3734 -3735 0
3717 -3734 3735 0
-3717 3734 3735 0
-3717 -3734 -3735 0
-3736 3717 0
-3736 3734 0
3736 -3717 -3734 0
3719 3736 -3737 0
3719 -3736 3737 0
-3719 3736 3737 0
-3719 -3736 -3737 0
-3738 3719 0
-3738 3736 0
3738 -3719 -3736 0
3721 3738 -3739 0
3721 -3738 3739 0
-3721 3738 3739 0
-3721 -3738 -3739 0
-3740 3721 0
-3740 3738 0
3740 -3721 -3738 0
3723 3740 -3741 0
3723 -3740 3741 0
-3723 3740 3741 0
-3723 -3740 -3741 0
-3742 3723 0
-3742 3740 0
3742 -3723 -3740 0
3725 3742 -3743 0
3725 -3742 3743 0
-3725 3742 3743 0
-3725 -3742 -3743 0
-3744 3725 0
-3744 3742 0
3744 -3725 -3742 0
3727 3744 -3745 0
3727 -3744 3745 0
-3727 3744 3745 0
-3727 -3744 -3745 0
-3746 3727 0
-3746 3744 0
3746 -3727 -3744 0
3729 3746 -3747 0
3729 -3746 3747 0
-3729 3746 3747 0
-3729 -3746 -3747 0
-3748 3729 0
-3748 3746 0
3748 -3729 -3746 0
3731 3748 -3749 0
3731 -3748 3749 0
-3731 3748 3749 0
-3731 -3748 -3749 0
-3750 3731 0
-3750 3748 0
3750 -3731 -3748 0
-3750 0
3733 192 -3751 0
3733 -192 3751 0
-3733 192 3751 0
-3733 -192 -3751 0
-3752 3733 0
-3752 192 0
3752 -3733 -192 0
3735 3752 -3753 0
3735 -3752 3753 0
-3735 3752 3753 0
-3735 -3752 -3753 0
-3754 3735 0
-3754 3752 0
3754 -3735 -3752 0
3737 3754 -3755 0
3737 -3754 3755 0
-3737 3754 3755 0
-3737 -3754 -3755 0
-3756 3737 0
-3756 3754 0
3756 -3737 -3754 0
3739 3756 -3757 0
3739 -3756 3757 0
-3739 3756 3757 0
-3739 -3756 -3757 0
-3758 3739 0
-3758 3756 0
3758 -3739 -3756 0
3741 3758 -3759 0
3741 -3758 3759 0
-3741 3758 3759 0
-3741 -3758 -3759 0
-3760 3741 0
-3760 3758 0
3760 -3741 -3758 0
3743 3760 -3761 0
3743 -3760 3761 0
-3743 3760 3761 0
-3743 -3760 -3761 0
-3762 3743 0
-3762 3760 0
3762 -3743 -3760 0
3745 3762 -3763 0
3745 -3762 3763 0
-3745 3762 3763 0
-3745 -3762 -3763 0
-3764 3745 0
-3764 3762 0
3764 -3745 -3762 0
3747 3764 -3765 0
3747 -3764 3765 0
-3747 3764 3765 0
-3747 -3764 -3765 0
-3766 3747 0
-3766 3764 0
3766 -3747 -3764 0
3749 3766 -3767 0
3749 -3766 3767 0
-3749 3766 3767 0
-3749 -3766 -3767 0
-3768 3749 0
-3768 3766 0
3768 -3749 -3766 0
-3768 0
3751 193 -3769 0
3751 -193 3769 0
-3751 193 3769 0
-3751 -193 -3769 0
-3770 3751 0
-3770 193 0
3770 -3751 -193 0
3753 3770 -3771 0
3753 -3770 3771 0
-3753 3770 3771 0
-3753 -3770 -3771 0
-3772 3753 0
-3772 3770 0
3772 -3753 -3770 0
3755 3772 -3773 0
3755 -3772 3773 0
-3755 3772 3773 0
-3755 -3772 -3773 0
-3774 3755 0
-3774 3772 0
3774 -3755 -3772 0
3757 3774 -3775 0
3757 -3774 3775 0
-3757 3774 3775 0
-3757 -3774 -3775 0
-3776 3757 0
-3776 3774 0
3776 -3757 -3774 0
3759 3776 -3777 0
3759 -3776 3777 0
-3759 3776 3777 0
-3759 -3776 -3777 0
-3778 3759 0
-3778 3776 0
3778 -3759 -3776 0
3761 3778 -3779 0
3761 -3778 3779 0
-3761 3778 3779 0
-3761 -3778 -3779 0
-3780 3761 0
-3780 3778 0
3780 -3761 -3778 0
3763 3780 -3781 0
3763 -3780 3781 0
-3763 3780 3781 0
-3763 -3780 -3781 0
-3782 3763 0
-3782 3780 0
3782 -3763 -3780 0
3765 3782 -3783 0
3765 -3782 3783 0
-3765 3782 3783 0
-3765 -3782 -3783 0
-3784 3765 0
-3784 3782 0
3784 -3765 -3782 0
3767 3784 -3785 0
3767 -3784 3785 0
-3767 3784 3785 0
-3767 -3784 -3785 0
-3786 3767 0
-3786 3784 0
3786 -3767 -3784 0
-3786 0
3769 194 -3787 0
3769 -194 3787 0
-3769 194 3787 0
-3769 -194 -3787 0
-3788 3769 0
-3788 194 0
3788 -3769 -194 0
3771 3788 -3789 0
3771 -3788 3789 0
-3771 3788 3789 0
-3771 -3788 -3789 0
-3790 3771 0
-3790 3788 0
3790 -3771 -3788 0
3773 3790 -3791 0
3773 -3790 3791 0
-3773 3790 3791 0
-3773 -3790 -3791 0
-3792 3773 0
-3792 3790 0
3792 -3773 -3790 0
3775 3792 -3793 0
3775 -3792 3793 0
-3775 3792 3793 0
-3775 -3792 -3793 0
-3794 3775 0
-3794 3792 0
3794 -3775 -3792 0
3777 3794 -3795 0
3777 -3794 3795 0
-3777 3794 3795 0
-3777 -3794 -3795 0
-3796 3777 0
-3796 3794 0
3796 -3777 -3794 0
3779 3796 -3797 0
3779 -3796 3797 0
-3779 3796 3797 0
-3779 -3796 -3797 0
-3798 3779 0
-3798 3796 0
3798 -3779 -3796 0
3781 3798 -3799 0
3781 -3798 3799 0
-3781 3798 3799 0
-3781 -3798 -3799 0
-3800 3781 0
-3800 3798 0
3800 -3781 -3798 0
3783 3800 -3801 0
3783 -3800 3801 0
-3783 3800 3801 0
-3783 -3800 -3801 0
-3802 3783 0
-3802 3800 0
3802 -3783 -3800 0
3785 3802 -3803 0
3785 -3802 3803 0
-3785 3802 3803 0
-3785 -3802 -3803 0
-3804 3785 0
-3804 3802 0
3804 -3785 -3802 0
-3804 0
3787 195 -3805 0
3787 -195 3805 0
-3787 195 3805 0
-3787 -195 -3805 0
-3806 3787 0
-3806 195 0
3806 -3787 -195 0
3789 3806 -3807 0
3789 -3806 3807 0
-3789 3806 3807 0
-3789 -3806 -3807 0
-3808 3789 0
-3808 3806 0
3808 -3789 -3806 0
3791 3808 -3809 0
3791 -3808 3809 0
-3791 3808 3809 0
-3791 -3808 -3809 0
-3810 3791 0
-3810 3808 0
3810 -3791 -3808 0
3793 3810 -3811 0
3793 -3810 3811 0
-3793 3810 3811 0
-3793 -3810 -3811 0
-3812 3793 0
-3812 3810 0
3812 -3793 -3810 0
3795 3812 -3813 0
3795 -3812 3813 0
-3795 3812 3813 0
-3795 -3812 -3813 0
-3814 3795 0
-3814 3812 0
3814 -3795 -3812 0
3797 3814 -3815 0
3797 -3814 3815 0
-3797 3814 3815 0
-3797 -3814 -3815 0
-3816 3797 0
-3816 3814 0
3816 -3797 -3814 0
3799 3816 -3817 0
3799 -3816 3817 0
-3799 3816 3817 0
-3799 -3816 -3817 0
-3818 3799 0
-3818 3816 0
3818 -3799 -3816 0
3801 3818 -3819 0
3801 -3818 3819 0
-3801 3818 3819 0
-3801 -3818 -3819 0
-3820 3801 0
-3820 3818 0
3820 -3801 -3818 0
3803 3820 -3821 0
3803 -3820 3821 0
-3803 3820 3821 0
-3803 -3820 -3821 0
-3822 3803 0
-3822 3820 0
3822 -3803 -3820 0
-3822 0
3805 196 -3823 0
3805 -196 3823 0
-3805 196 3823 0
-3805 -196 -3823 0
-3824 3805 0
-3824 196 0
3824 -3805 -196 0
3807 3824 -3825 0
3807 -3824 3825 0
-3807 3824 3825 0
-3807 -3824 -3825 0
-3826 3807 0
-3826 3824 0
3826 -3807 -3824 0
3809 3826 -3827 0
3809 -3826 3827 0
-3809 3826 3827 0
-3809 -3826 -3827 0
-3828 3809 0
-3828 3826 0
3828 -3809 -3826 0
3811 3828 -3829 0
3811 -3828 3829 0
-3811 3828 3829 0
-3811 -3828 -3829 0
-3830 3811 0
-3830 3828 0
3830 -3811 -3828 0
3813 3830 -3831 0
3813 -3830 3831 0
-3813 3830 3831 0
-3813 -3830 -3831 0
-3832 3813 0
-3832 3830 0
3832 -3813 -3830 0
3815 3832 -3833 0
3815 -3832 3833 0
-3815 3832 3833 0
-3815 -3832 -3833 0
-3834 3815 0
-3834 3832 0
3834 -3815 -3832 0
3817 3834 -3835 0
3817 -3834 3835 0
-3817 3834 3835 0
-3817 -3834 -3835 0
-3836 3817 0
-3836 3834 0
3836 -3817 -3834 0
3819 3836 -3837 0
3819 -3836 3837 0
-3819 3836 3837 0
-3819 -3836 -3837 0
-3838 3819 0
-3838 3836 0
3838 -3819 -3836 0
3821 3838 -3839 0
3821 -3838 3839 0
-3821 3838 3839 0
-3821 -3838 -3839 0
-3840 3821 0
-3840 3838 0
3840 -3821 -3838 0
-3840 0
3823 197 -3841 0
3823 -197 3841 0
-3823 197 3841 0
-3823 -197 -3841 0
-3842 3823 0
-3842 197 0
3842 -3823 -197 0
3825 3842 -3843 0
3825 -3842 3843 0
-3825 3842 3843 0
-3825 -3842 -3843 0
-3844 3825 0
-3844 3842 0
3844 -3825 -3842 0
3827 3844 -3845 0
3827 -3844 3845 0
-3827 3844 3845 0
-3827 -3844 -3845 0
-3846 3827 0
-3846 3844 0
3846 -3827 -3844 0
3829 3846 -3847 0
3829 -3846 3847 0
-3829 3846 3847 0
-3829 -3846 -3847 0
-3848 3829 0
-3848 3846 0
3848 -3829 -3846 0
3831 3848 -3849 0
3831 -3848 3849 0
-3831 3848 3849 0
-3831 -3848 -3849 0
-3850 3831 0
-3850 3848 0
3850 -3831 -3848 0
3833 3850 -3851 0
3833 -3850 3851 0
-3833 3850 3851 0
-3833 -3850 -3851 0
-3852 3833 0
-3852 3850 0
3852 -3833 -3850 0
3835 3852 -3853 0
3835 -3852 3853 0
-3835 3852 3853 0
-3835 -3852 -3853 0
-3854 3835 0
-3854 3852 0
3854 -3835 -3852 0
3837 3854 -3855 0
3837 -3854 3855 0
-3837 3854 3855 0
-3837 -3854 -3855 0
-3856 3837 0
-3856 3854 0
3856 -3837 -3854 0
3839 3856 -3857 0
3839 -3856 3857 0
-3839 3856 3857 0
-3839 -3856 -3857 0
-3858 3839 0
-3858 3856 0
3858 -3839 -3856 0
-3858 0
3841 198 -3859 0
3841 -198 3859 0
-3841 198 3859 0
-3841 -198 -3859 0
-3860 3841 0
-3860 198 0
3860 -3841 -198 0
3843 3860 -3861 0
3843 -3860 3861 0
-3843 3860 3861 0
-3843 -3860 -3861 0
-3862 3843 0
-3862 3860 0
3862 -3843 -3860 0
3845 3862 -3863 0
3845 -3862 3863 0
-3845 3862 3863 0
-3845 -3862 -3863 0
-3864 3845 0
-3864 3862 0
3864 -3845 -3862 0
3847 3864 -3865 0
3847 -3864 3865 0
-3847 3864 3865 0
-3847 -3864 -3865 0
-3866 3847 0
-3866 3864 0
3866 -3847 -3864 0
3849 3866 -3867 0
3849 -3866 3867 0
-3849 3866 3867 0
-3849 -3866 -3867 0
-3868 3849 0
-3868 3866 0
3868 -3849 -3866 0
3851 3868 -3869 0
3851 -3868 3869 0
-3851 3868 3869 0
-3851 -3868 -3869 0
-3870 3851 0
-3870 3868 0
3870 -3851 -3868 0
3853 3870 -3871 0
3853 -3870 3871 0
-3853 3870 3871 0
-3853 -3870 -3871 0
-3872 3853 0
-3872 3870 0
3872 -3853 -3870 0
3855 3872 -3873 0
3855 -3872 3873 0
-3855 3872 3873 0
-3855 -3872 -3873 0
-3874 3855 0
-3874 3872 0
3874 -3855 -3872 0
3857 3874 -3875 0
3857 -3874 3875 0
-3857 3874 3875 0
-3857 -3874 -3875 0
-3876 3857 0
-3876 3874 0
3876 -3857 -3874 0
-3876 0
3859 199 -3877 0
3859 -199 3877 0
-3859 199 3877 0
-3859 -199 -3877 0
-3878 3859 0
-3878 199 0
3878 -3859 -199 0
3861 3878 -3879 0
3861 -3878 3879 0
-3861 3878 3879 0
-3861 -3878 -3879 0
-3880 3861 0
-3880 3878 0
3880 -3861 -3878 0
3863 3880 -3881 0
3863 -3880 3881 0
-3863 3880 3881 0
-3863 -3880 -3881 0
-3882 3863 0
-3882 3880 0
3882 -3863 -3880 0
3865 3882 -3883 0
3865 -3882 3883 0
-3865 3882 3883 0
-3865 -3882 -3883 0
-3884 3865 0
-3884 3882 0
3884 -3865 -3882 0
3867 3884 -3885 0
3867 -3884 3885 0
-3867 3884 3885 0
-3867 -3884 -3885 0
-3886 3867 0
-3886 3884 0
3886 -3867 -3884 0
3869 3886 -3887 0
3869 -3886 3887 0
-3869 3886 3887 0
-3869 -3886 -3887 0
-3888 3869 0
-3888 3886 0
3888 -3869 -3886 0
3871 3888 -3889 0
3871 -3888 3889 0
-3871 3888 3889 0
-3871 -3888 -3889 0
-3890 3871 0
-3890 3888 0
3890 -3871 -3888 0
3873 3890 -3891 0
3873 -3890 3891 0
-3873 3890 3891 0
-3873 -3890 -3891 0
-3892 3873 0
-3892 3890 0
3892 -3873 -3890 0
3875 3892 -3893 0
3875 -3892 3893 0
-3875 3892 3893 0
-3875 -3892 -3893 0
-3894 3875 0
-3894 3892 0
3894 -3875 -3892 0
-3894 0
3877 200 -3895 0
3877 -200 3895 0
-3877 200 3895 0
-3877 -200 -3895 0
-3896 3877 0
-3896 200 0
3896 -3877 -200 0
3879 3896 -3897 0
3879 -3896 3897 0
-3879 3896 3897 0
-3879 -3896 -3897 0
-3898 3879 0
-3898 3896 0
3898 -3879 -3896 0
3881 3898 -3899 0
3881 -3898 3899 0
-3881 3898 3899 0
-3881 -3898 -3899 0
-3900 3881 0
-3900 3898 0
3900 -3881 -3898 0
3883 3900 -3901 0
3883 -3900 3901 0
-3883 3900 3901 0
-3883 -3900 -3901 0
-3902 3883 0
-3902 3900 0
3902 -3883 -3900 0
3885 3902 -3903 0
3885 -3902 3903 0
-3885 3902 3903 0
-3885 -3902 -3903 0
-3904 3885 0
-3904 3902 0
3904 -3885 -3902 0
3887 3904 -3905 0
3887 -3904 3905 0
-3887 3904 3905 0
-3887 -3904 -3905 0
-3906 3887 0
-3906 3904 0
3906 -3887 -3904 0
3889 3906 -3907 0
3889 -3906 3907 0
-3889 3906 3907 0
-3889 -3906 -3907 0
-3908 3889 0
-3908 3906 0
3908 -3889 -3906 0
3891 3908 -3909 0
3891 -3908 3909 0
-3891 3908 3909 0
-3891 -3908 -3909 0
-3910 3891 0
-3910 3908 0
3910 -3891 -3908 0
3893 3910 -3911 0
3893 -3910 3911 0
-3893 3910 3911 0
-3893 -3910 -3911 0
-3912 3893 0
-3912 3910 0
3912 -3893 -3910 0
-3912 0
3895 201 -3913 0
3895 -201 3913 0
-3895 201 3913 0
-3895 -201 -3913 0
-3914 3895 0
-3914 201 0
3914 -3895 -201 0
3897 3914 -3915 0
3897 -3914 3915 0
-3897 3914 3915 0
-3897 -3914 -3915 0
-3916 3897 0
-3916 3914 0
3916 -3897 -3914 0
3899 3916 -3917 0
3899 -3916 3917 0
-3899 3916 3917 0
-3899 -3916 -3917 0
-3918 3899 0
-3918 3916 0
3918 -3899 -3916 0
3901 3918 -3919 0
3901 -3918 3919 0
-3901 3918 3919 0
-3901 -3918 -3919 0
-3920 3901 0
-3920 3918 0
3920 -3901 -3918 0
3903 3920 -3921 0
3903 -3920 3921 0
-3903 3920 3921 0
-3903 -3920 -3921 0
-3922 3903 0
-3922 3920 0
3922 -3903 -3920 0
3905 3922 -3923 0
3905 -3922 3923 0
-3905 3922 3923 0
-3905 -3922 -3923 0
-3924 3905 0
-3924 3922 0
3924 -3905 -3922 0
3907 3924 -3925 0
3907 -3924 3925 0
-3907 3924 3925 0
-3907 -3924 -3925 0
-3926 3907 0
-3926 3924 0
3926 -3907 -3924 0
3909 3926 -3927 0
3909 -3926 3927 0
-3909 3926 3927 0
-3909 -3926 -3927 0
-3928 3909 0
-3928 3926 0
3928 -3909 -3926 0
3911 3928 -3929 0
3911 -3928 3929 0
-3911 3928 3929 0
-3911 -3928 -3929 0
-3930 3911 0
-3930 3928 0
3930 -3911 -3928 0
-3930 0
3913 202 -3931 0
3913 -202 3931 0
-3913 202 3931 0
-3913 -202 -3931 0
-3932 3913 0
-3932 202 0
3932 -3913 -202 0
3915 3932 -3933 0
3915 -3932 3933 0
-3915 3932 3933 0
-3915 -3932 -3933 0
-3934 3915 0
-3934 3932 0
3934 -3915 -3932 0
3917 3934 -3935 0
3917 -3934 3935 0
-3917 3934 3935 0
-3917 -3934 -3935 0
-3936 3917 0
-3936 3934 0
3936 -3917 -3934 0
3919 3936 -3937 0
3919 -3936 3937 0
-3919 3936 3937 0
-3919 -3936 -3937 0
-3938 3919 0
-3938 3936 0
3938 -3919 -3936 0
3921 3938 -3939 0
3921 -3938 3939 0
-3921 3938 3939 0
-3921 -3938 -3939 0
-3940 3921 0
-3940 3938 0
3940 -3921 -3938 0
3923 3940 -3941 0
3923 -3940 3941 0
-3923 3940 3941 0
-3923 -3940 -3941 0
-3942 3923 0
-3942 3940 0
3942 -3923 -3940 0
3925 3942 -3943 0
3925 -3942 3943 0
-3925 3942 3943 0
-3925 -3942 -3943 0
-3944 3925 0
-3944 3942 0
3944 -3925 -3942 0
3927 3944 -3945 0
3927 -3944 3945 0
-3927 3944 3945 0
-3927 -3944 -3945 0
-3946 3927 0
-3946 3944 0
3946 -3927 -3944 0
3929 3946 -3947 0
3929 -3946 3947 0
-3929 3946 3947 0
-3929 -3946 -3947 0
-3948 3929 0
-3948 3946 0
3948 -3929 -3946 0
-3948 0
3931 203 -3949 0
3931 -203 3949 0
-3931 203 3949 0
-3931 -203 -3949 0
-3950 3931 0
-3950 203 0
3950 -3931 -203 0
3933 3950 -3951 0
3933 -3950 3951 0
-3933 3950 3951 0
-3933 -3950 -3951 0
-3952 3933 0
-3952 3950 0
3952 -3933 -3950 0
3935 3952 -3953 0
3935 -3952 3953 0
-3935 3952 3953 0
-3935 -3952 -3953 0
-3954 3935 0
-3954 3952 0
3954 -3935 -3952 0
3937 3954 -3955 0
3937 -3954 3955 0
-3937 3954 3955 0
-3937 -3954 -3955 0
-3956 3937 0
-3956 3954 0
3956 -3937 -3954 0
3939 3956 -3957 0
3939 -3956 3957 0
-3939 3956 3957 0
-3939 -3956 -3957 0
-3958 3939 0
-3958 3956 0
3958 -3939 -3956 0
3941 3958 -3959 0
3941 -3958 3959 0
-3941 3958 3959 0
-3941 -3958 -3959 0
-3960 3941 0
-3960 3958 0
3960 -3941 -3958 0
3943 3960 -3961 0
3943 -3960 3961 0
-3943 3960 3961 0
-3943 -3960 -3961 0
-3962 3943 0
-3962 3960 0
3962 -3943 -3960 0
3945 3962 -3963 0
3945 -3962 3963 0
-3945 3962 3963 0
-3945 -3962 -3963 0
-3964 3945 0
-3964 3962 0
3964 -3945 -3962 0
3947 3964 -3965 0
3947 -3964 3965 0
-3947 3964 3965 0
-3947 -3964 -3965 0
-3966 3947 0
-3966 3964 0
3966 -3947 -3964 0
-3966 0
3949 204 -3967 0
3949 -204 3967 0
-3949 204 3967 0
-3949 -204 -3967 0
-3968 3949 0
-3968 204 0
3968 -3949 -204 0
3951 3968 -3969 0
3951 -3968 3969 0
-3951 3968 3969 0
-3951 -3968 -3969 0
-3970 3951 0
-3970 3968 0
3970 -3951 -3968 0
3953 3970 -3971 0
3953 -3970 3971 0
-3953 3970 3971 0
-3953 -3970 -3971 0
-3972 3953 0
-3972 3970 0
3972 -3953 -3970 0
3955 3972 -3973 0
3955 -3972 3973 0
-3955 3972 3973 0
-3955 -3972 -3973 0
-3974 3955 0
-3974 3972 0
3974 -3955 -3972 0
3957 3974 -3975 0
3957 -3974 3975 0
-3957 3974 3975 0
-3957 -3974 -3975 0
-3976 3957 0
-3976 3974 0
3976 -3957 -3974 0
3959 3976 -3977 0
3959 -3976 3977 0
-3959 3976 3977 0
-3959 -3976 -3977 0
-3978 3959 0
-3978 3976 0
3978 -3959 -3976 0
3961 3978 -3979 0
3961 -3978 3979 0
-3961 3978 3979 0
-3961 -3978 -3979 0
-3980 3961 0
-3980 3978 0
3980 -3961 -3978 0
3963 3980 -3981 0
3963 -3980 3981 0
-3963 3980 3981 0
-3963 -3980 -3981 0
-3982 3963 0
-3982 3980 0
3982 -3963 -3980 0
3965 3982 -3983 0
3965 -3982 3983 0
-3965 3982 3983 0
-3965 -3982 -3983 0
-3984 3965 0
-3984 3982 0
3984 -3965 -3982 0
-3984 0
3967 205 -3985 0
3967 -205 3985 0
-3967 205 3985 0
-3967 -205 -3985 0
-3986 3967 0
-3986 205 0
3986 -3967 -205 0
3969 3986 -3987 0
3969 -3986 3987 0
-3969 3986 3987 0
-3969 -3986 -3987 0
-3988 3969 0
-3988 3986 0
3988 -3969 -3986 0
3971 3988 -3989 0
3971 -3988 3989 0
-3971 3988 3989 0
-3971 -3988 -3989 0
-3990 3971 0
-3990 3988 0
3990 -3971 -3988 0
3973 3990 -3991 0
3973 -3990 3991 0
-3973 3990 3991 0
-3973 -3990 -3991 0
-3992 3973 0
-3992 3990 0
3992 -3973 -3990 0
3975 3992 -3993 0
3975 -3992 3993 0
-3975 3992 3993 0
-3975 -3992 -3993 0
-3994 3975 0
-3994 3992 0
3994 -3975 -3992 0
3977 3994 -3995 0
3977 -3994 3995 0
-3977 3994 3995 0
-3977 -3994 -3995 0
-3996 3977 0
-3996 3994 0
3996 -3977 -3994 0
3979 3996 -3997 0
3979 -3996 3997 0
-3979 3996 3997 0
-3979 -3996 -3997 0
-3998 3979 0
-3998 3996 0
3998 -3979 -3996 0
3981 3998 -3999 0
3981 -3998 3999 0
-3981 3998 3999 0
-3981 -3998 -3999 0
-4000 3981 0
-4000 3998 0
4000 -3981 -3998 0
3983 4000 -4001 0
3983 -4000 4001 0
-3983 4000 4001 0
-3983 -4000 -4001 0
-4002 3983 0
-4002 4000 0
4002 -3983 -4000 0
-4002 0
3985 206 -4003 0
3985 -206 4003 0
-3985 206 4003 0
-3985 -206 -4003 0
-4004 3985 0
-4004 206 0
4004 -3985 -206 0
3987 4004 -4005 0
3987 -4004 4005 0
-3987 4004 4005 0
-3987 -4004 -4005 0
-4006 3987 0
-4006 4004 0
4006 -3987 -4004 0
3989 4006 -4007 0
3989 -4006 4007 0
-3989 4006 4007 0
-3989 -4006 -4007 0
-4008 3989 0
-4008 4006 0
4008 -3989 -4006 0
3991 4008 -4009 0
3991 -4008 4009 0
-3991 4008 4009 0
-3991 -4008 -4009 0
-4010 3991 0
-4010 4008 0
4010 -3991 -4008 0
3993 4010 -4011 0
3993 -4010 4011 0
-3993 4010 4011 0
-3993 -4010 -4011 0
-4012 3993 0
-4012 4010 0
4012 -3993 -4010 0
3995 4012 -4013 0
3995 -4012 4013 0
-3995 4012 4013 0
-3995 -4012 -4013 0
-4014 3995 0
-4014 4012 0
4014 -3995 -4012 0
3997 4014 -4015 0
3997 -4014 4015 0
-3997 4014 4015 0
-3997 -4014 -4015 0
-4016 3997 0
-4016 4014 0
4016 -3997 -4014 0
3999 4016 -4017 0
3999 -4016 4017 0
-3999 4016 4017 0
-3999 -4016 -4017 0
-4018 3999 0
-4018 4016 0
4018 -3999 -4016 0
4001 4018 -4019 0
4001 -4018 4019 0
-4001 4018 4019 0
-4001 -4018 -4019 0
-4020 4001 0
-4020 4018 0
4020 -4001 -4018 0
-4020 0
4003 207 -4021 0
4003 -207 4021 0
-4003 207 4021 0
-4003 -207 -4021 0
-4022 4003 0
-4022 207 0
4022 -4003 -207 0
4005 4022 -4023 0
4005 -4022 4023 0
-4005 4022 4023 0
-4005 -4022 -4023 0
-4024 4005 0
-4024 4022 0
4024 -4005 -4022 0
4007 4024 -4025 0
4007 -4024 4025 0
-4007 4024 4025 0
-4007 -4024 -4025 0
-4026 4007 0
-4026 4024 0
4026 -4007 -4024 0
4009 4026 -4027 0
4009 -4026 4027 0
-4009 4026 4027 0
-4009 -4026 -4027 0
-4028 4009 0
-4028 4026 0
4028 -4009 -4026 0
4011 4028 -4029 0
4011 -4028 4029 0
-4011 4028 4029 0
-4011 -4028 -4029 0
-4030 4011 0
-4030 4028 0
4030 -4011 -4028 0
4013 4030 -4031 0
4013 -4030 4031 0
-4013 4030 4031 0
-4013 -4030 -4031 0
-4032 4013 0
-4032 4030 0
4032 -4013 -4030 0
4015 4032 -4033 0
4015 -4032 4033 0
-4015 4032 4033 0
-4015 -4032 -4033 0
-4034 4015 0
-4034 4032 0
4034 -4015 -4032 0
4017 4034 -4035 0
4017 -4034 4035 0
-4017 4034 4035 0
-4017 -4034 -4035 0
-4036 4017 0
-4036 4034 0
4036 -4017 -4034 0
4019 4036 -4037 0
4019 -4036 4037 0
-4019 4036 4037 0
-4019 -4036 -4037 0
-4038 4019 0
-4038 4036 0
4038 -4019 -4036 0
-4038 0
4021 208 -4039 0
4021 -208 4039 0
-4021 208 4039 0
-4021 -208 -4039 0
-4040 4021 0
-4040 208 0
4040 -4021 -208 0
4023 4040 -4041 0
4023 -4040 4041 0
-4023 4040 4041 0
-4023 -4040 -4041 0
-4042 4023 0
-4042 4040 0
4042 -4023 -4040 0
4025 4042 -4043 0
4025 -4042 4043 0
-4025 4042 4043 0
-4025 -4042 -4043 0
-4044 4025 0
-4044 4042 0
4044 -4025 -4042 0
4027 4044 -4045 0
4027 -4044 4045 0
-4027 4044 4045 0
-4027 -4044 -4045 0
-4046 4027 0
-4046 4044 0
4046 -4027 -4044 0
4029 4046 -4047 0
4029 -4046 4047 0
-4029 4046 4047 0
-4029 -4046 -4047 0
-4048 4029 0
-4048 4046 0
4048 -4029 -4046 0
4031 4048 -4049 0
4031 -4048 4049 0
-4031 4048 4049 0
-4031 -4048 -4049 0
-4050 4031 0
-4050 4048 0
4050 -4031 -4048 0
4033 4050 -4051 0
4033 -4050 4051 0
-4033 4050 4051 0
-4033 -4050 -4051 0
-4052 4033 0
-4052 4050 0
4052 -4033 -4050 0
4035 4052 -4053 0
4035 -4052 4053 0
-4035 4052 4053 0
-4035 -4052 -4053 0
-4054 4035 0
-4054 4052 0
4054 -4035 -4052 0
4037 4054 -4055 0
4037 -4054 4055 0
-4037 4054 4055 0
-4037 -4054 -4055 0
-4056 4037 0
-4056 4054 0
4056 -4037 -4054 0
-4056 0
4039 209 -4057 0
4039 -209 4057 0
-4039 209 4057 0
-4039 -209 -4057 0
-4058 4039 0
-4058 209 0
4058 -4039 -209 0
4041 4058 -4059 0
4041 -4058 4059 0
-4041 4058 4059 0
-4041 -4058 -4059 0
-4060 4041 0
-4060 4058 0
4060 -4041 -4058 0
4043 4060 -4061 0
4043 -4060 4061 0
-4043 4060 4061 0
-4043 -4060 -4061 0
-4062 4043 0
-4062 4060 0
4062 -4043 -4060 0
4045 4062 -4063 0
4045 -4062 4063 0
-4045 4062 4063 0
-4045 -4062 -4063 0
-4064 4045 0
-4064 4062 0
4064 -4045 -4062 0
4047 4064 -4065 0
4047 -4064 4065 0
-4047 4064 4065 0
-4047 -4064 -4065 0
-4066 4047 0
-4066 4064 0
4066 -4047 -4064 0
4049 4066 -4067 0
4049 -4066 4067 0
-4049 4066 4067 0
-4049 -4066 -4067 0
-4068 4049 0
-4068 4066 0
4068 -4049 -4066 0
4051 4068 -4069 0
4051 -4068 4069 0
-4051 4068 4069 0
-4051 -4068 -4069 0
-4070 4051 0
-4070 4068 0
4070 -4051 -4068 0
4053 4070 -4071 0
4053 -4070 4071 0
-4053 4070 4071 0
-4053 -4070 -4071 0
-4072 4053 0
-4072 4070 0
4072 -4053 -4070 0
4055 4072 -4073 0
4055 -4072 4073 0
-4055 4072 4073 0
-4055 -4072 -4073 0
-4074 4055 0
-4074 4072 0
4074 -4055 -4072 0
-4074 0
4057 210 -4075 0
4057 -210 4075 0
-4057 210 4075 0
-4057 -210 -4075 0
-4076 4057 0
-4076 210 0
4076 -4057 -210 0
4059 4076 -4077 0
4059 -4076 4077 0
-4059 4076 4077 0
-4059 -4076 -4077 0
-4078 4059 0
-4078 4076 0
4078 -4059 -4076 0
4061 4078 -4079 0
4061 -4078 4079 0
-4061 4078 4079 0
-4061 -4078 -4079 0
-4080 4061 0
-4080 4078 0
4080 -4061 -4078 0
4063 4080 -4081 0
4063 -4080 4081 0
-4063 4080 4081 0
-4063 -4080 -4081 0
-4082 4063 0
-4082 4080 0
4082 -4063 -4080 0
4065 4082 -4083 0
4065 -4082 4083 0
-4065 4082 4083 0
-4065 -4082 -4083 0
-4084 4065 0
-4084 4082 0
4084 -4065 -4082 0
4067 4084 -4085 0
4067 -4084 4085 0
-4067 4084 4085 0
-4067 -4084 -4085 0
-4086 4067 0
-4086 4084 0
4086 -4067 -4084 0
4069 4086 -4087 0
4069 -4086 4087 0
-4069 4086 4087 0
-4069 -4086 -4087 0
-4088 4069 0
-4088 4086 0
4088 -4069 -4086 0
4071 4088 -4089 0
4071 -4088 4089 0
-4071 4088 4089 0
-4071 -4088 -4089 0
-4090 4071 0
-4090 4088 0
4090 -4071 -4088 0
4073 4090 -4091 0
4073 -4090 4091 0
-4073 4090 4091 0
-4073 -4090 -4091 0
-4092 4073 0
-4092 4090 0
4092 -4073 -4090 0
-4092 0
4075 211 -4093 0
4075 -211 4093 0
-4075 211 4093 0
-4075 -211 -4093 0
-4094 4075 0
-4094 211 0
4094 -4075 -211 0
4077 4094 -4095 0
4077 -4094 4095 0
-4077 4094 4095 0
-4077 -4094 -4095 0
-4096 4077 0
-4096 4094 0
4096 -4077 -4094 0
4079 4096 -4097 0
4079 -4096 4097 0
-4079 4096 4097 0
-4079 -4096 -4097 0
-4098 4079 0
-4098 4096 0
4098 -4079 -4096 0
4081 4098 -4099 0
4081 -4098 4099 0
-4081 4098 4099 0
-4081 -4098 -4099 0
-4100 4081 0
-4100 4098 0
4100 -4081 -4098 0
4083 4100 -4101 0
4083 -4100 4101 0
-4083 4100 4101 0
-4083 -4100 -4101 0
-4102 4083 0
-4102 4100 0
4102 -4083 -4100 0
4085 4102 -4103 0
4085 -4102 4103 0
-4085 4102 4103 0
-4085 -4102 -4103 0
-4104 4085 0
-4104 4102 0
4104 -4085 -4102 0
4087 4104 -4105 0
4087 -4104 4105 0
-4087 4104 4105 0
-4087 -4104 -4105 0
-4106 4087 0
-4106 4104 0
4106 -4087 -4104 0
4089 4106 -4107 0
4089 -4106 4107 0
-4089 4106 4107 0
-4089 -4106 -4107 0
-4108 4089 0
-4108 4106 0
4108 -4089 -4106 0
4091 4108 -4109 0
4091 -4108 4109 0
-4091 4108 4109 0
-4091 -4108 -4109 0
-4110 4091 0
-4110 4108 0
4110 -4091 -4108 0
-4110 0
4093 212 -4111 0
4093 -212 4111 0
-4093 212 4111 0
-4093 -212 -4111 0
-4112 4093 0
-4112 212 0
4112 -4093 -212 0
4095 4112 -4113 0
4095 -4112 4113 0
-4095 4112 4113 0
-4095 -4112 -4113 0
-4114 4095 0
-4114 4112 0
4114 -4095 -4112 0
4097 4114 -4115 0
4097 -4114 4115 0
-4097 4114 4115 0
-4097 -4114 -4115 0
-4116 4097 0
-4116 4114 0
4116 -4097 -4114 0
4099 4116 -4117 0
4099 -4116 4117 0
-4099 4116 4117 0
-4099 -4116 -4117 0
-4118 4099 0
-4118 4116 0
4118 -4099 -4116 0
4101 4118 -4119 0
4101 -4118 4119 0
-4101 4118 4119 0
-4101 -4118 -4119 0
-4120 4101 0
-4120 4118 0
4120 -4101 -4118 0
4103 4120 -4121 0
4103 -4120 4121 0
-4103 4120 4121 0
-4103 -4120 -4121 0
-4122 4103 0
-4122 4120 0
4122 -4103 -4120 0
4105 4122 -4123 0
4105 -4122 4123 0
-4105 4122 4123 0
-4105 -4122 -4123 0
-4124 4105 0
-4124 4122 0
4124 -4105 -4122 0
4107 4124 -4125 0
4107 -4124 4125 0
-4107 4124 4125 0
-4107 -4124 -4125 0
-4126 4107 0
-4126 4124 0
4126 -4107 -4124 0
4109 4126 -4127 0
4109 -4126 4127 0
-4109 4126 4127 0
-4109 -4126 -4127 0
-4128 4109 0
-4128 4126 0
4128 -4109 -4126 0
-4128 0
4111 213 -4129 0
4111 -213 4129 0
-4111 213 4129 0
-4111 -213 -4129 0
-4130 4111 0
-4130 213 0
4130 -4111 -213 0
4113 4130 -4131 0
4113 -4130 4131 0
-4113 4130 4131 0
-4113 -4130 -4131 0
-4132 4113 0
-4132 4130 0
4132 -4113 -4130 0
4115 4132 -4133 0
4115 -4132 4133 0
-4115 4132 4133 0
-4115 -4132 -4133 0
-4134 4115 0
-4134 4132 0
4134 -4115 -4132 0
4117 4134 -4135 0
4117 -4134 4135 0
-4117 4134 4135 0
-4117 -4134 -4135 0
-4136 4117 0
-4136 4134 0
4136 -4117 -4134 0
4119 4136 -4137 0
4119 -4136 4137 0
-4119 4136 4137 0
-4119 -4136 -4137 0
-4138 4119 0
-4138 4136 0
4138 -4119 -4136 0
4121 4138 -4139 0
4121 -4138 4139 0
-4121 4138 4139 0
-4121 -4138 -4139 0
-4140 4121 0
-4140 4138 0
4140 -4121 -4138 0
4123 4140 -4141 0
4123 -4140 4141 0
-4123 4140 4141 0
-4123 -4140 -4141 0
-4142 4123 0
-4142 4140 0
4142 -4123 -4140 0
4125 4142 -4143 0
4125 -4142 4143 0
-4125 4142 4143 0
-4125 -4142 -4143 0
-4144 4125 0
-4144 4142 0
4144 -4125 -4142 0
4127 4144 -4145 0
4127 -4144 4145 0
-4127 4144 4145 0
-4127 -4144 -4145 0
-4146 4127 0
-4146 4144 0
4146 -4127 -4144 0
-4146 0
4129 214 -4147 0
4129 -214 4147 0
-4129 214 4147 0
-4129 -214 -4147 0
-4148 4129 0
-4148 214 0
4148 -4129 -214 0
4131 4148 -4149 0
4131 -4148 4149 0
-4131 4148 4149 0
-4131 -4148 -4149 0
-4150 4131 0
-4150 4148 0
4150 -4131 -4148 0
4133 4150 -4151 0
4133 -4150 4151 0
-4133 4150 4151 0
-4133 -4150 -4151 0
-4152 4133 0
-4152 4150 0
4152 -4133 -4150 0
4135 4152 -4153 0
4135 -4152 4153 0
-4135 4152 4153 0
-4135 -4152 -4153 0
-4154 4135 0
-4154 4152 0
4154 -4135 -4152 0
4137 4154 -4155 0
4137 -4154 4155 0
-4137 4154 4155 0
-4137 -4154 -4155 0
-4156 4137 0
-4156 4154 0
4156 -4137 -4154 0
4139 4156 -4157 0
4139 -4156 4157 0
-4139 4156 4157 0
-4139 -4156 -4157 0
-4158 4139 0
-4158 4156 0
4158 -4139 -4156 0
4141 4158 -4159 0
4141 -4158 4159 0
-4141 4158 4159 0
-4141 -4158 -4159 0
-4160 4141 0
-4160 4158 0
4160 -4141 -4158 0
4143 4160 -4161 0
4143 -4160 4161 0
-4143 4160 4161 0
-4143 -4160 -4161 0
-4162 4143 0
-4162 4160 0
4162 -4143 -4160 0
4145 4162 -4163 0
4145 -4162 4163 0
-4145 4162 4163 0
-4145 -4162 -4163 0
-4164 4145 0
-4164 4162 0
4164 -4145 -4162 0
-4164 0
4147 215 -4165 0
4147 -215 4165 0
-4147 215 4165 0
-4147 -215 -4165 0
-4166 4147 0
-4166 215 0
4166 -4147 -215 0
4149 4166 -4167 0
4149 -4166 4167 0
-4149 4166 4167 0
-4149 -4166 -4167 0
-4168 4149 0
-4168 4166 0
4168 -4149 -4166 0
4151 4168 -4169 0
4151 -4168 4169 0
-4151 4168 4169 0
-4151 -4168 -4169 0
-4170 4151 0
-4170 4168 0
4170 -4151 -4168 0
4153 4170 -4171 0
4153 -4170 4171 0
-4153 4170 4171 0
-4153 -4170 -4171 0
-4172 4153 0
-4172 4170 0
4172 -4153 -4170 0
4155 4172 -4173 0
4155 -4172 4173 0
-4155 4172 4173 0
-4155 -4172 -4173 0
-4174 4155 0
-4174 4172 0
4174 -4155 -4172 0
4157 4174 -4175 0
4157 -4174 4175 0
-4157 4174 4175 0
-4157 -4174 -4175 0
-4176 4157 0
-4176 4174 0
4176 -4157 -4174 0
4159 4176 -4177 0
4159 -4176 4177 0
-4159 4176 4177 0
-4159 -4176 -4177 0
-4178 4159 0
-4178 4176 0
4178 -4159 -4176 0
4161 4178 -4179 0
4161 -4178 4179 0
-4161 4178 4179 0
-4161 -4178 -4179 0
-4180 4161 0
-4180 4178 0
4180 -4161 -4178 0
4163 4180 -4181 0
4163 -4180 4181 0
-4163 4180 4181 0
-4163 -4180 -4181 0
-4182 4163 0
-4182 4180 0
4182 -4163 -4180 0
-4182 0
4165 216 -4183 0
4165 -216 4183 0
-4165 216 4183 0
-4165 -216 -4183 0
-4184 4165 0
-4184 216 0
4184 -4165 -216 0
4167 4184 -4185 0
4167 -4184 4185 0
-4167 4184 4185 0
-4167 -4184 -4185 0
-4186 4167 0
-4186 4184 0
4186 -4167 -4184 0
4169 4186 -4187 0
4169 -4186 4187 0
-4169 4186 4187 0
-4169 -4186 -4187 0
-4188 4169 0
-4188 4186 0
4188 -4169 -4186 0
4171 4188 -4189 0
4171 -4188 4189 0
-4171 4188 4189 0
-4171 -4188 -4189 0
-4190 4171 0
-4190 4188 0
4190 -4171 -4188 0
4173 4190 -4191 0
4173 -4190 4191 0
-4173 4190 4191 0
-4173 -4190 -4191 0
-4192 4173 0
-4192 4190 0
4192 -4173 -4190 0
4175 4192 -4193 0
4175 -4192 4193 0
-4175 4192 4193 0
-4175 -4192 -4193 0
-4194 4175 0
-4194 4192 0
4194 -4175 -4192 0
4177 4194 -4195 0
4177 -4194 4195 0
-4177 4194 4195 0
-4177 -4194 -4195 0
-4196 4177 0
-4196 4194 0
4196 -4177 -4194 0
4179 4196 -4197 0
4179 -4196 4197 0
-4179 4196 4197 0
-4179 -4196 -4197 0
-4198 4179 0
-4198 4196 0
4198 -4179 -4196 0
4181 4198 -4199 0
4181 -4198 4199 0
-4181 4198 4199 0
-4181 -4198 -4199 0
-4200 4181 0
-4200 4198 0
4200 -4181 -4198 0
-4200 0
4183 217 -4201 0
4183 -217 4201 0
-4183 217 4201 0
-4183 -217 -4201 0
-4202 4183 0
-4202 217 0
4202 -4183 -217 0
4185 4202 -4203 0
4185 -4202 4203 0
-4185 4202 4203 0
-4185 -4202 -4203 0
-4204 4185 0
-4204 4202 0
4204 -4185 -4202 0
4187 4204 -4205 0
4187 -4204 4205 0
-4187 4204 4205 0
-4187 -4204 -4205 0
-4206 4187 0
-4206 4204 0
4206 -4187 -4204 0
4189 4206 -4207 0
4189 -4206 4207 0
-4189 4206 4207 0
-4189 -4206 -4207 0
-4208 4189 0
-4208 4206 0
4208 -4189 -4206 0
4191 4208 -4209 0
4191 -4208 4209 0
-4191 4208 4209 0
-4191 -4208 -4209 0
-4210 4191 0
-4210 4208 0
4210 -4191 -4208 0
4193 4210 -4211 0
4193 -4210 4211 0
-4193 4210 4211 0
-4193 -4210 -4211 0
-4212 4193 0
-4212 4210 0
4212 -4193 -4210 0
4195 4212 -4213 0
4195 -4212 4213 0
-4195 4212 4213 0
-4195 -4212 -4213 0
-4214 4195 0
-4214 4212 0
4214 -4195 -4212 0
4197 4214 -4215 0
4197 -4214 4215 0
-4197 4214 4215 0
-4197 -4214 -4215 0
-4216 4197 0
-4216 4214 0
4216 -4197 -4214 0
4199 4216 -4217 0
4199 -4216 4217 0
-4199 4216 4217 0
-4199 -4216 -4217 0
-4218 4199 0
-4218 4216 0
4218 -4199 -4216 0
-4218 0
4201 218 -4219 0
4201 -218 4219 0
-4201 218 4219 0
-4201 -218 -4219 0
-4220 4201 0
-4220 218 0
4220 -4201 -218 0
4203 4220 -4221 0
4203 -4220 4221 0
-4203 4220 4221 0
-4203 -4220 -4221 0
-4222 4203 0
-4222 4220 0
4222 -4203 -4220 0
4205 4222 -4223 0
4205 -4222 4223 0
-4205 4222 4223 0
-4205 -4222 -4223 0
-4224 4205 0
-4224 4222 0
4224 -4205 -4222 0
4207 4224 -4225 0
4207 -4224 4225 0
-4207 4224 4225 0
-4207 -4224 -4225 0
-4226 4207 0
-4226 4224 0
4226 -4207 -4224 0
4209 4226 -4227 0
4209 -4226 4227 0
-4209 4226 4227 0
-4209 -4226 -4227 0
-4228 4209 0
-4228 4226 0
4228 -4209 -4226 0
4211 4228 -4229 0
4211 -4228 4229 0
-4211 4228 4229 0
-4211 -4228 -4229 0
-4230 4211 0
-4230 4228 0
4230 -4211 -4228 0
4213 4230 -4231 0
4213 -4230 4231 0
-4213 4230 4231 0
-4213 -4230 -4231 0
-4232 4213 0
-4232 4230 0
4232 -4213 -4230 0
4215 4232 -4233 0
4215 -4232 4233 0
-4215 4232 4233 0
-4215 -4232 -4233 0
-4234 4215 0
-4234 4232 0
4234 -4215 -4232 0
4217 4234 -4235 0
4217 -4234 4235 0
-4217 4234 4235 0
-4217 -4234 -4235 0
-4236 4217 0
-4236 4234 0
4236 -4217 -4234 0
-4236 0
4219 219 -4237 0
4219 -219 4237 0
-4219 219 4237 0
-4219 -219 -4237 0
-4238 4219 0
-4238 219 0
4238 -4219 -219 0
4221 4238 -4239 0
4221 -4238 4239 0
-4221 4238 4239 0
-4221 -4238 -4239 0
-4240 4221 0
-4240 4238 0
4240 -4221 -4238 0
4223 4240 -4241 0
4223 -4240 4241 0
-4223 4240 4241 0
-4223 -4240 -4241 0
-4242 4223 0
-4242 4240 0
4242 -4223 -4240 0
4225 4242 -4243 0
4225 -4242 4243 0
-4225 4242 4243 0
-4225 -4242 -4243 0
-4244 4225 0
-4244 4242 0
4244 -4225 -4242 0
4227 4244 -4245 0
4227 -4244 4245 0
-4227 4244 4245 0
-4227 -4244 -4245 0
-4246 4227 0
-4246 4244 0
4246 -4227 -4244 0
4229 4246 -4247 0
4229 -4246 4247 0
-4229 4246 4247 0
-4229 -4246 -4247 0
-4248 4229 0
-4248 4246 0
4248 -4229 -4246 0
4231 4248 -4249 0
4231 -4248 4249 0
-4231 4248 4249 0
-4231 -4248 -4249 0
-4250 4231 0
-4250 4248 0
4250 -4231 -4248 0
4233 4250 -4251 0
4233 -4250 4251 0
-4233 4250 4251 0
-4233 -4250 -4251 0
-4252 4233 0
-4252 4250 0
4252 -4233 -4250 0
4235 4252 -4253 0
4235 -4252 4253 0
-4235 4252 4253 0
-4235 -4252 -4253 0
-4254 4235 0
-4254 4252 0
4254 -4235 -4252 0
-4254 0
4237 220 -4255 0
4237 -220 4255 0
-4237 220 4255 0
-4237 -220 -4255 0
-4256 4237 0
-4256 220 0
4256 -4237 -220 0
4239 4256 -4257 0
4239 -4256 4257 0
-4239 4256 4257 0
-4239 -4256 -4257 0
-4258 4239 0
-4258 4256 0
4258 -4239 -4256 0
4241 4258 -4259 0
4241 -4258 4259 0
-4241 4258 4259 0
-4241 -4258 -4259 0
-4260 4241 0
-4260 4258 0
4260 -4241 -4258 0
4243 4260 -4261 0
4243 -4260 4261 0
-4243 4260 4261 0
-4243 -4260 -4261 0
-4262 4243 0
-4262 4260 0
4262 -4243 -4260 0
4245 4262 -4263 0
4245 -4262 4263 0
-4245 4262 4263 0
-4245 -4262 -4263 0
-4264 4245 0
-4264 4262 0
4264 -4245 -4262 0
4247 4264 -4265 0
4247 -4264 4265 0
-4247 4264 4265 0
-4247 -4264 -4265 0
-4266 4247 0
-4266 4264 0
4266 -4247 -4264 0
4249 4266 -4267 0
4249 -4266 4267 0
-4249 4266 4267 0
-4249 -4266 -4267 0
-4268 4249 0
-4268 4266 0
4268 -4249 -4266 0
4251 4268 -4269 0
4251 -4268 4269 0
-4251 4268 4269 0
-4251 -4268 -4269 0
-4270 4251 0
-4270 4268 0
4270 -4251 -4268 0
4253 4270 -4271 0
4253 -4270 4271 0
-4253 4270 4271 0
-4253 -4270 -4271 0
-4272 4253 0
-4272 4270 0
4272 -4253 -4270 0
-4272 0
4255 221 -4273 0
4255 -221 4273 0
-4255 221 4273 0
-4255 -221 -4273 0
-4274 4255 0
-4274 221 0
4274 -4255 -221 0
4257 4274 -4275 0
4257 -4274 4275 0
-4257 4274 4275 0
-4257 -4274 -4275 0
-4276 4257 0
-4276 4274 0
4276 -4257 -4274 0
4259 4276 -4277 0
4259 -4276 4277 0
-4259 4276 4277 0
-4259 -4276 -4277 0
-4278 4259 0
-4278 4276 0
4278 -4259 -4276 0
4261 4278 -4279 0
4261 -4278 4279 0
-4261 4278 4279 0
-4261 -4278 -4279 0
-4280 4261 0
-4280 4278 0
4280 -4261 -4278 0
4263 4280 -4281 0
4263 -4280 4281 0
-4263 4280 4281 0
-4263 -4280 -4281 0
-4282 4263 0
-4282 4280 0
4282 -4263 -4280 0
4265 4282 -4283 0
4265 -4282 4283 0
-4265 4282 4283 0
-4265 -4282 -4283 0
-4284 4265 0
-4284 4282 0
4284 -4265 -4282 0
4267 4284 -4285 0
4267 -4284 4285 0
-4267 4284 4285 0
-4267 -4284 -4285 0
-4286 4267 0
-4286 4284 0
4286 -4267 -4284 0
4269 4286 -4287 0
4269 -4286 4287 0
-4269 4286 4287 0
-4269 -4286 -4287 0
-4288 4269 0
-4288 4286 0
4288 -4269 -4286 0
4271 4288 -4289 0
4271 -4288 4289 0
-4271 4288 4289 0
-4271 -4288 -4289 0
-4290 4271 0
-4290 4288 0
4290 -4271 -4288 0
-4290 0
4273 222 -4291 0
4273 -222 4291 0
-4273 222 4291 0
-4273 -222 -4291 0
-4292 4273 0
-4292 222 0
4292 -4273 -222 0
4275 4292 -4293 0
4275 -4292 4293 0
-4275 4292 4293 0
-4275 -4292 -4293 0
-4294 4275 0
-4294 4292 0
4294 -4275 -4292 0
4277 4294 -4295 0
4277 -4294 4295 0
-4277 4294 4295 0
-4277 -4294 -4295 0
-4296 4277 0
-4296 4294 0
4296 -4277 -4294 0
4279 4296 -4297 0
4279 -4296 4297 0
-4279 4296 4297 0
-4279 -4296 -4297 0
-4298 4279 0
-4298 4296 0
4298 -4279 -4296 0
4281 4298 -4299 0
4281 -4298 4299 0
-4281 4298 4299 0
-4281 -4298 -4299 0
-4300 4281 0
-4300 4298 0
4300 -4281 -4298 0
4283 4300 -4301 0
4283 -4300 4301 0
-4283 4300 4301 0
-4283 -4300 -4301 0
-4302 4283 0
-4302 4300 0
4302 -4283 -4300 0
4285 4302 -4303 0
4285 -4302 4303 0
-4285 4302 4303 0
-4285 -4302 -4303 0
-4304 4285 0
-4304 4302 0
4304 -4285 -4302 0
4287 4304 -4305 0
4287 -4304 4305 0
-4287 4304 4305 0
-4287 -4304 -4305 0
-4306 4287 0
-4306 4304 0
4306 -4287 -4304 0
4289 4306 -4307 0
4289 -4306 4307 0
-4289 4306 4307 0
-4289 -4306 -4307 0
-4308 4289 0
-4308 4306 0
4308 -4289 -4306 0
-4308 0
4291 223 -4309 0
4291 -223 4309 0
-4291 223 4309 0
-4291 -223 -4309 0
-4310 4291 0
-4310 223 0
4310 -4291 -223 0
4293 4310 -4311 0
4293 -4310 4311 0
-4293 4310 4311 0
-4293 -4310 -4311 0
-4312 4293 0
-4312 4310 0
4312 -4293 -4310 0
4295 4312 -4313 0
4295 -4312 4313 0
-4295 4312 4313 0
-4295 -4312 -4313 0
-4314 4295 0
-4314 4312 0
4314 -4295 -4312 0
4297 4314 -4315 0
4297 -4314 4315 0
-4297 4314 4315 0
-4297 -4314 -4315 0
-4316 4297 0
-4316 4314 0
4316 -4297 -4314 0
4299 4316 -4317 0
4299 -4316 4317 0
-4299 4316 4317 0
-4299 -4316 -4317 0
-4318 4299 0
-4318 4316 0
4318 -4299 -4316 0
4301 4318 -4319 0
4301 -4318 4319 0
-4301 4318 4319 0
-4301 -4318 -4319 0
-4320 4301 0
-4320 4318 0
4320 -4301 -4318 0
4303 4320 -4321 0
4303 -4320 4321 0
-4303 4320 4321 0
-4303 -4320 -4321 0
-4322 4303 0
-4322 4320 0
4322 -4303 -4320 0
4305 4322 -4323 0
4305 -4322 4323 0
-4305 4322 4323 0
-4305 -4322 -4323 0
-4324 4305 0
-4324 4322 0
4324 -4305 -4322 0
4307 4324 -4325 0
4307 -4324 4325 0
-4307 4324 4325 0
-4307 -4324 -4325 0
-4326 4307 0
-4326 4324 0
4326 -4307 -4324 0
-4326 0
4309 224 -4327 0
4309 -224 4327 0
-4309 224 4327 0
-4309 -224 -4327 0
-4328 4309 0
-4328 224 0
4328 -4309 -224 0
4311 4328 -4329 0
4311 -4328 4329 0
-4311 4328 4329 0
-4311 -4328 -4329 0
-4330 4311 0
-4330 4328 0
4330 -4311 -4328 0
4313 4330 -4331 0
4313 -4330 4331 0
-4313 4330 4331 0
-4313 -4330 -4331 0
-4332 4313 0
-4332 4330 0
4332 -4313 -4330 0
4315 4332 -4333 0
4315 -4332 4333 0
-4315 4332 4333 0
-4315 -4332 -4333 0
-4334 4315 0
-4334 4332 0
4334 -4315 -4332 0
4317 4334 -4335 0
4317 -4334 4335 0
-4317 4334 4335 0
-4317 -4334 -4335 0
-4336 4317 0
-4336 4334 0
4336 -4317 -4334 0
4319 4336 -4337 0
4319 -4336 4337 0
-4319 4336 4337 0
-4319 -4336 -4337 0
-4338 4319 0
-4338 4336 0
4338 -4319 -4336 0
4321 4338 -4339 0
4321 -4338 4339 0
-4321 4338 4339 0
-4321 -4338 -4339 0
-4340 4321 0
-4340 4338 0
4340 -4321 -4338 0
4323 4340 -4341 0
4323 -4340 4341 0
-4323 4340 4341 0
-4323 -4340 -4341 0
-4342 4323 0
-4342 4340 0
4342 -4323 -4340 0
4325 4342 -4343 0
4325 -4342 4343 0
-4325 4342 4343 0
-4325 -4342 -4343 0
-4344 4325 0
-4344 4342 0
4344 -4325 -4342 0
-4344 0
4327 225 -4345 0
4327 -225 4345 0
-4327 225 4345 0
-4327 -225 -4345 0
-4346 4327 0
-4346 225 0
4346 -4327 -225 0
4329 4346 -4347 0
4329 -4346 4347 0
-4329 4346 4347 0
-4329 -4346 -4347 0
-4348 4329 0
-4348 4346 0
4348 -4329 -4346 0
4331 4348 -4349 0
4331 -4348 4349 0
-4331 4348 4349 0
-4331 -4348 -4349 0
-4350 4331 0
-4350 4348 0
4350 -4331 -4348 0
4333 4350 -4351 0
4333 -4350 4351 0
-4333 4350 4351 0
-4333 -4350 -4351 0
-4352 4333 0
-4352 4350 0
4352 -4333 -4350 0
4335 4352 -4353 0
4335 -4352 4353 0
-4335 4352 4353 0
-4335 -4352 -4353 0
-4354 4335 0
-4354 4352 0
4354 -4335 -4352 0
4337 4354 -4355 0
4337 -4354 4355 0
-4337 4354 4355 0
-4337 -4354 -4355 0
-4356 4337 0
-4356 4354 0
4356 -4337 -4354 0
4339 4356 -4357 0
4339 -4356 4357 0
-4339 4356 4357 0
-4339 -4356 -4357 0
-4358 4339 0
-4358 4356 0
4358 -4339 -4356 0
4341 4358 -4359 0
4341 -4358 4359 0
-4341 4358 4359 0
-4341 -4358 -4359 0
-4360 4341 0
-4360 4358 0
4360 -4341 -4358 0
4343 4360 -4361 0
4343 -4360 4361 0
-4343 4360 4361 0
-4343 -4360 -4361 0
-4362 4343 0
-4362 4360 0
4362 -4343 -4360 0
-4362 0
4345 226 -4363 0
4345 -226 4363 0
-4345 226 4363 0
-4345 -226 -4363 0
-4364 4345 0
-4364 226 0
4364 -4345 -226 0
4347 4364 -4365 0
4347 -4364 4365 0
-4347 4364 4365 0
-4347 -4364 -4365 0
-4366 4347 0
-4366 4364 0
4366 -4347 -4364 0
4349 4366 -4367 0
4349 -4366 4367 0
-4349 4366 4367 0
-4349 -4366 -4367 0
-4368 4349 0
-4368 4366 0
4368 -4349 -4366 0
4351 4368 -4369 0
4351 -4368 4369 0
-4351 4368 4369 0
-4351 -4368 -4369 0
-4370 4351 0
-4370 4368 0
4370 -4351 -4368 0
4353 4370 -4371 0
4353 -4370 4371 0
-4353 4370 4371 0
-4353 -4370 -4371 0
-4372 4353 0
-4372 4370 0
4372 -4353 -4370 0
4355 4372 -4373 0
4355 -4372 4373 0
-4355 4372 4373 0
-4355 -4372 -4373 0
-4374 4355 0
-4374 4372 0
4374 -4355 -4372 0
4357 4374 -4375 0
4357 -4374 4375 0
-4357 4374 4375 0
-4357 -4374 -4375 0
-4376 4357 0
-4376 4374 0
4376 -4357 -4374 0
4359 4376 -4377 0
4359 -4376 4377 0
-4359 4376 4377 0
-4359 -4376 -4377 0
-4378 4359 0
-4378 4376 0
4378 -4359 -4376 0
4361 4378 -4379 0
4361 -4378 4379 0
-4361 4378 4379 0
-4361 -4378 -4379 0
-4380 4361 0
-4380 4378 0
4380 -4361 -4378 0
-4380 0
4363 227 -4381 0
4363 -227 4381 0
-4363 227 4381 0
-4363 -227 -4381 0
-4382 4363 0
-4382 227 0
4382 -4363 -227 0
4365 4382 -4383 0
4365 -4382 4383 0
-4365 4382 4383 0
-4365 -4382 -4383 0
-4384 4365 0
-4384 4382 0
4384 -4365 -4382 0
4367 4384 -4385 0
4367 -4384 4385 0
-4367 4384 4385 0
-4367 -4384 -4385 0
-4386 4367 0
-4386 4384 0
4386 -4367 -4384 0
4369 4386 -4387 0
4369 -4386 4387 0
-4369 4386 4387 0
-4369 -4386 -4387 0
-4388 4369 0
-4388 4386 0
4388 -4369 -4386 0
4371 4388 -4389 0
4371 -4388 4389 0
-4371 4388 4389 0
-4371 -4388 -4389 0
-4390 4371 0
-4390 4388 0
4390 -4371 -4388 0
4373 4390 -4391 0
4373 -4390 4391 0
-4373 4390 4391 0
-4373 -4390 -4391 0
-4392 4373 0
-4392 4390 0
4392 -4373 -4390 0
4375 4392 -4393 0
4375 -4392 4393 0
-4375 4392 4393 0
-4375 -4392 -4393 0
-4394 4375 0
-4394 4392 0
4394 -4375 -4392 0
4377 4394 -4395 0
4377 -4394 4395 0
-4377 4394 4395 0
-4377 -4394 -4395 0
-4396 4377 0
-4396 4394 0
4396 -4377 -4394 0
4379 4396 -4397 0
4379 -4396 4397 0
-4379 4396 4397 0
-4379 -4396 -4397 0
-4398 4379 0
-4398 4396 0
4398 -4379 -4396 0
-4398 0
4381 228 -4399 0
4381 -228 4399 0
-4381 228 4399 0
-4381 -228 -4399 0
-4400 4381 0
-4400 228 0
4400 -4381 -228 0
4383 4400 -4401 0
4383 -4400 4401 0
-4383 4400 4401 0
-4383 -4400 -4401 0
-4402 4383 0
-4402 4400 0
4402 -4383 -4400 0
4385 4402 -4403 0
4385 -4402 4403 0
-4385 4402 4403 0
-4385 -4402 -4403 0
-4404 4385 0
-4404 4402 0
4404 -4385 -4402 0
4387 4404 -4405 0
4387 -4404 4405 0
-4387 4404 4405 0
-4387 -4404 -4405 0
-4406 4387 0
-4406 4404 0
4406 -4387 -4404 0
4389 4406 -4407 0
4389 -4406 4407 0
-4389 4406 4407 0
-4389 -4406 -4407 0
-4408 4389 0
-4408 4406 0
4408 -4389 -4406 0
4391 4408 -4409 0
4391 -4408 4409 0
-4391 4408 4409 0
-4391 -4408 -4409 0
-4410 4391 0
-4410 4408 0
4410 -4391 -4408 0
4393 4410 -4411 0
4393 -4410 4411 0
-4393 4410 4411 0
-4393 -4410 -4411 0
-4412 4393 0
-4412 4410 0
4412 -4393 -4410 0
4395 4412 -4413 0
4395 -4412 4413 0
-4395 4412 4413 0
-4395 -4412 -4413 0
-4414 4395 0
-4414 4412 0
4414 -4395 -4412 0
4397 4414 -4415 0
4397 -4414 4415 0
-4397 4414 4415 0
-4397 -4414 -4415 0
-4416 4397 0
-4416 4414 0
4416 -4397 -4414 0
-4416 0
4399 229 -4417 0
4399 -229 4417 0
-4399 229 4417 0
-4399 -229 -4417 0
-4418 4399 0
-4418 229 0
4418 -4399 -229 0
4401 4418 -4419 0
4401 -4418 4419 0
-4401 4418 4419 0
-4401 -4418 -4419 0
-4420 4401 0
-4420 4418 0
4420 -4401 -4418 0
4403 4420 -4421 0
4403 -4420 4421 0
-4403 4420 4421 0
-4403 -4420 -4421 0
-4422 4403 0
-4422 4420 0
4422 -4403 -4420 0
4405 4422 -4423 0
4405 -4422 4423 0
-4405 4422 4423 0
-4405 -4422 -4423 0
-4424 4405 0
-4424 4422 0
4424 -4405 -4422 0
4407 4424 -4425 0
4407 -4424 4425 0
-4407 4424 4425 0
-4407 -4424 -4425 0
-4426 4407 0
-4426 4424 0
4426 -4407 -4424 0
4409 4426 -4427 0
4409 -4426 4427 0
-4409 4426 4427 0
-4409 -4426 -4427 0
-4428 4409 0
-4428 4426 0
4428 -4409 -4426 0
4411 4428 -4429 0
4411 -4428 4429 0
-4411 4428 4429 0
-4411 -4428 -4429 0
-4430 4411 0
-4430 4428 0
4430 -4411 -4428 0
4413 4430 -4431 0
4413 -4430 4431 0
-4413 4430 4431 0
-4413 -4430 -4431 0
-4432 4413 0
-4432 4430 0
4432 -4413 -4430 0
4415 4432 -4433 0
4415 -4432 4433 0
-4415 4432 4433 0
-4415 -4432 -4433 0
-4434 4415 0
-4434 4432 0
4434 -4415 -4432 0
-4434 0
4417 230 -4435 0
4417 -230 4435 0
-4417 230 4435 0
-4417 -230 -4435 0
-4436 4417 0
-4436 230 0
4436 -4417 -230 0
4419 4436 -4437 0
4419 -4436 4437 0
-4419 4436 4437 0
-4419 -4436 -4437 0
-4438 4419 0
-4438 4436 0
4438 -4419 -4436 0
4421 4438 -4439 0
4421 -4438 4439 0
-4421 4438 4439 0
-4421 -4438 -4439 0
-4440 4421 0
-4440 4438 0
4440 -4421 -4438 0
4423 4440 -4441 0
4423 -4440 4441 0
-4423 4440 4441 0
-4423 -4440 -4441 0
-4442 4423 0
-4442 4440 0
4442 -4423 -4440 0
4425 4442 -4443 0
4425 -4442 4443 0
-4425 4442 4443 0
-4425 -4442 -4443 0
-4444 4425 0
-4444 4442 0
4444 -4425 -4442 0
4427 4444 -4445 0
4427 -4444 4445 0
-4427 4444 4445 0
-4427 -4444 -4445 0
-4446 4427 0
-4446 4444 0
4446 -4427 -4444 0
4429 4446 -4447 0
4429 -4446 4447 0
-4429 4446 4447 0
-4429 -4446 -4447 0
-4448 4429 0
-4448 4446 0
4448 -4429 -4446 0
4431 4448 -4449 0
4431 -4448 4449 0
-4431 4448 4449 0
-4431 -4448 -4449 0
-4450 4431 0
-4450 4448 0
4450 -4431 -4448 0
4433 4450 -4451 0
4433 -4450 4451 0
-4433 4450 4451 0
-4433 -4450 -4451 0
-4452 4433 0
-4452 4450 0
4452 -4433 -4450 0
-4452 0
4435 231 -4453 0
4435 -231 4453 0
-4435 231 4453 0
-4435 -231 -4453 0
-4454 4435 0
-4454 231 0
4454 -4435 -231 0
4437 4454 -4455 0
4437 -4454 4455 0
-4437 4454 4455 0
-4437 -4454 -4455 0
-4456 4437 0
-4456 4454 0
4456 -4437 -4454 0
4439 4456 -4457 0
4439 -4456 4457 0
-4439 4456 4457 0
-4439 -4456 -4457 0
-4458 4439 0
-4458 4456 0
4458 -4439 -4456 0
4441 4458 -4459 0
4441 -4458 4459 0
-4441 4458 4459 0
-4441 -4458 -4459 0
-4460 4441 0
-4460 4458 0
4460 -4441 -4458 0
4443 4460 -4461 0
4443 -4460 4461 0
-4443 4460 4461 0
-4443 -4460 -4461 0
-4462 4443 0
-4462 4460 0
4462 -4443 -4460 0
4445 4462 -4463 0
4445 -4462 4463 0
-4445 4462 4463 0
-4445 -4462 -4463 0
-4464 4445 0
-4464 4462 0
4464 -4445 -4462 0
4447 4464 -4465 0
4447 -4464 4465 0
-4447 4464 4465 0
-4447 -4464 -4465 0
-4466 4447 0
-4466 4464 0
4466 -4447 -4464 0
4449 4466 -4467 0
4449 -4466 4467 0
-4449 4466 4467 0
-4449 -4466 -4467 0
-4468 4449 0
-4468 4466 0
4468 -4449 -4466 0
4451 4468 -4469 0
4451 -4468 4469 0
-4451 4468 4469 0
-4451 -4468 -4469 0
-4470 4451 0
-4470 4468 0
4470 -4451 -4468 0
-4470 0
4453 232 -4471 0
4453 -232 4471 0
-4453 232 4471 0
-4453 -232 -4471 0
-4472 4453 0
-4472 232 0
4472 -4453 -232 0
4455 4472 -4473 0
4455 -4472 4473 0
-4455 4472 4473 0
-4455 -4472 -4473 0
-4474 4455 0
-4474 4472 0
4474 -4455 -4472 0
4457 4474 -4475 0
4457 -4474 4475 0
-4457 4474 4475 0
-4457 -4474 -4475 0
-4476 4457 0
-4476 4474 0
4476 -4457 -4474 0
4459 4476 -4477 0
4459 -4476 4477 0
-4459 4476 4477 0
-4459 -4476 -4477 0
-4478 4459 0
-4478 4476 0
4478 -4459 -4476 0
4461 4478 -4479 0
4461 -4478 4479 0
-4461 4478 4479 0
-4461 -4478 -4479 0
-4480 4461 0
-4480 4478 0
4480 -4461 -4478 0
4463 4480 -4481 0
4463 -4480 4481 0
-4463 4480 4481 0
-4463 -4480 -4481 0
-4482 4463 0
-4482 4480 0
4482 -4463 -4480 0
4465 4482 -4483 0
4465 -4482 4483 0
-4465 4482 4483 0
-4465 -4482 -4483 0
-4484 4465 0
-4484 4482 0
4484 -4465 -4482 0
4467 4484 -4485 0
4467 -4484 4485 0
-4467 4484 4485 0
-4467 -4484 -4485 0
-4486 4467 0
-4486 4484 0
4486 -4467 -4484 0
4469 4486 -4487 0
4469 -4486 4487 0
-4469 4486 4487 0
-4469 -4486 -4487 0
-4488 4469 0
-4488 4486 0
4488 -4469 -4486 0
-4488 0
4471 233 -4489 0
4471 -233 4489 0
-4471 233 4489 0
-4471 -233 -4489 0
-4490 4471 0
-4490 233 0
4490 -4471 -233 0
4473 4490 -4491 0
4473 -4490 4491 0
-4473 4490 4491 0
-4473 -4490 -4491 0
-4492 4473 0
-4492 4490 0
4492 -4473 -4490 0
4475 4492 -4493 0
4475 -4492 4493 0
-4475 4492 4493 0
-4475 -4492 -4493 0
-4494 4475 0
-4494 4492 0
4494 -4475 -4492 0
4477 4494 -4495 0
4477 -4494 4495 0
-4477 4494 4495 0
-4477 -4494 -4495 0
-4496 4477 0
-4496 4494 0
4496 -4477 -4494 0
4479 4496 -4497 0
4479 -4496 4497 0
-4479 4496 4497 0
-4479 -4496 -4497 0
-4498 4479 0
-4498 4496 0
4498 -4479 -4496 0
4481 4498 -4499 0
4481 -4498 4499 0
-4481 4498 4499 0
-4481 -4498 -4499 0
-4500 4481 0
-4500 4498 0
4500 -4481 -4498 0
4483 4500 -4501 0
4483 -4500 4501 0
-4483 4500 4501 0
-4483 -4500 -4501 0
-4502 4483 0
-4502 4500 0
4502 -4483 -4500 0
4485 4502 -4503 0
4485 -4502 4503 0
-4485 4502 4503 0
-4485 -4502 -4503 0
-4504 4485 0
-4504 4502 0
4504 -4485 -4502 0
4487 4504 -4505 0
4487 -4504 4505 0
-4487 4504 4505 0
-4487 -4504 -4505 0
-4506 4487 0
-4506 4504 0
4506 -4487 -4504 0
-4506 0
4489 234 -4507 0
4489 -234 4507 0
-4489 234 4507 0
-4489 -234 -4507 0
-4508 4489 0
-4508 234 0
4508 -4489 -234 0
4491 4508 -4509 0
4491 -4508 4509 0
-4491 4508 4509 0
-4491 -4508 -4509 0
-4510 4491 0
-4510 4508 0
4510 -4491 -4508 0
4493 4510 -4511 0
4493 -4510 4511 0
-4493 4510 4511 0
-4493 -4510 -4511 0
-4512 4493 0
-4512 4510 0
4512 -4493 -4510 0
4495 4512 -4513 0
4495 -4512 4513 0
-4495 4512 4513 0
-4495 -4512 -4513 0
-4514 4495 0
-4514 4512 0
4514 -4495 -4512 0
4497 4514 -4515 0
4497 -4514 4515 0
-4497 4514 4515 0
-4497 -4514 -4515 0
-4516 4497 0
-4516 4514 0
4516 -4497 -4514 0
4499 4516 -4517 0
4499 -4516 4517 0
-4499 4516 4517 0
-4499 -4516 -4517 0
-4518 4499 0
-4518 4516 0
4518 -4499 -4516 0
4501 4518 -4519 0
4501 -4518 4519 0
-4501 4518 4519 0
-4501 -4518 -4519 0
-4520 4501 0
-4520 4518 0
4520 -4501 -4518 0
4503 4520 -4521 0
4503 -4520 4521 0
-4503 4520 4521 0
-4503 -4520 -4521 0
-4522 4503 0
-4522 4520 0
4522 -4503 -4520 0
4505 4522 -4523 0
4505 -4522 4523 0
-4505 4522 4523 0
-4505 -4522 -4523 0
-4524 4505 0
-4524 4522 0
4524 -4505 -4522 0
-4524 0
4507 235 -4525 0
4507 -235 4525 0
-4507 235 4525 0
-4507 -235 -4525 0
-4526 4507 0
-4526 235 0
4526 -4507 -235 0
4509 4526 -4527 0
4509 -4526 4527 0
-4509 4526 4527 0
-4509 -4526 -4527 0
-4528 4509 0
-4528 4526 0
4528 -4509 -4526 0
4511 4528 -4529 0
4511 -4528 4529 0
-4511 4528 4529 0
-4511 -4528 -4529 0
-4530 4511 0
-4530 4528 0
4530 -4511 -4528 0
4513 4530 -4531 0
4513 -4530 4531 0
-4513 4530 4531 0
-4513 -4530 -4531 0
-4532 4513 0
-4532 4530 0
4532 -4513 -4530 0
4515 4532 -4533 0
4515 -4532 4533 0
-4515 4532 4533 0
-4515 -4532 -4533 0
-4534 4515 0
-4534 4532 0
4534 -4515 -4532 0
4517 4534 -4535 0
4517 -4534 4535 0
-4517 4534 4535 0
-4517 -4534 -4535 0
-4536 4517 0
-4536 4534 0
4536 -4517 -4534 0
4519 4536 -4537 0
4519 -4536 4537 0
-4519 4536 4537 0
-4519 -4536 -4537 0
-4538 4519 0
-4538 4536 0
4538 -4519 -4536 0
4521 4538 -4539 0
4521 -4538 4539 0
-4521 4538 4539 0
-4521 -4538 -4539 0
-4540 4521 0
-4540 4538 0
4540 -4521 -4538 0
4523 4540 -4541 0
4523 -4540 4541 0
-4523 4540 4541 0
-4523 -4540 -4541 0
-4542 4523 0
-4542 4540 0
4542 -4523 -4540 0
-4542 0
4525 236 -4543 0
4525 -236 4543 0
-4525 236 4543 0
-4525 -236 -4543 0
-4544 4525 0
-4544 236 0
4544 -4525 -236 0
4527 4544 -4545 0
4527 -4544 4545 0
-4527 4544 4545 0
-4527 -4544 -4545 0
-4546 4527 0
-4546 4544 0
4546 -4527 -4544 0
4529 4546 -4547 0
4529 -4546 4547 0
-4529 4546 4547 0
-4529 -4546 -4547 0
-4548 4529 0
-4548 4546 0
4548 -4529 -4546 0
4531 4548 -4549 0
4531 -4548 4549 0
-4531 4548 4549 0
-4531 -4548 -4549 0
-4550 4531 0
-4550 4548 0
4550 -4531 -4548 0
4533 4550 -4551 0
4533 -4550 4551 0
-4533 4550 4551 0
-4533 -4550 -4551 0
-4552 4533 0
-4552 4550 0
4552 -4533 -4550 0
4535 4552 -4553 0
4535 -4552 4553 0
-4535 4552 4553 0
-4535 -4552 -4553 0
-4554 4535 0
-4554 4552 0
4554 -4535 -4552 0
4537 4554 -4555 0
4537 -4554 4555 0
-4537 4554 4555 0
-4537 -4554 -4555 0
-4556 4537 0
-4556 4554 0
4556 -4537 -4554 0
4539 4556 -4557 0
4539 -4556 4557 0
-4539 4556 4557 0
-4539 -4556 -4557 0
-4558 4539 0
-4558 4556 0
4558 -4539 -4556 0
4541 4558 -4559 0
4541 -4558 4559 0
-4541 4558 4559 0
-4541 -4558 -4559 0
-4560 4541 0
-4560 4558 0
4560 -4541 -4558 0
-4560 0
4543 237 -4561 0
4543 -237 4561 0
-4543 237 4561 0
-4543 -237 -4561 0
-4562 4543 0
-4562 237 0
4562 -4543 -237 0
4545 4562 -4563 0
4545 -4562 4563 0
-4545 4562 4563 0
-4545 -4562 -4563 0
-4564 4545 0
-4564 4562 0
4564 -4545 -4562 0
4547 4564 -4565 0
4547 -4564 4565 0
-4547 4564 4565 0
-4547 -4564 -4565 0
-4566 4547 0
-4566 4564 0
4566 -4547 -4564 0
4549 4566 -4567 0
4549 -4566 4567 0
-4549 4566 4567 0
-4549 -4566 -4567 0
-4568 4549 0
-4568 4566 0
4568 -4549 -4566 0
4551 4568 -4569 0
4551 -4568 4569 0
-4551 4568 4569 0
-4551 -4568 -4569 0
-4570 4551 0
-4570 4568 0
4570 -4551 -4568 0
4553 4570 -4571 0
4553 -4570 4571 0
-4553 4570 4571 0
-4553 -4570 -4571 0
-4572 4553 0
-4572 4570 0
4572 -4553 -4570 0
4555 4572 -4573 0
4555 -4572 4573 0
-4555 4572 4573 0
-4555 -4572 -4573 0
-4574 4555 0
-4574 4572 0
4574 -4555 -4572 0
4557 4574 -4575 0
4557 -4574 4575 0
-4557 4574 4575 0
-4557 -4574 -4575 0
-4576 4557 0
-4576 4574 0
4576 -4557 -4574 0
4559 4576 -4577 0
4559 -4576 4577 0
-4559 4576 4577 0
-4559 -4576 -4577 0
-4578 4559 0
-4578 4576 0
4578 -4559 -4576 0
-4578 0
4561 238 -4579 0
4561 -238 4579 0
-4561 238 4579 0
-4561 -238 -4579 0
-4580 4561 0
-4580 238 0
4580 -4561 -238 0
4563 4580 -4581 0
4563 -4580 4581 0
-4563 4580 4581 0
-4563 -4580 -4581 0
-4582 4563 0
-4582 4580 0
4582 -4563 -4580 0
4565 4582 -4583 0
4565 -4582 4583 0
-4565 4582 4583 0
-4565 -4582 -4583 0
-4584 4565 0
-4584 4582 0
4584 -4565 -4582 0
4567 4584 -4585 0
4567 -4584 4585 0
-4567 4584 4585 0
-4567 -4584 -4585 0
-4586 4567 0
-4586 4584 0
4586 -4567 -4584 0
4569 4586 -4587 0
4569 -4586 4587 0
-4569 4586 4587 0
-4569 -4586 -4587 0
-4588 4569 0
-4588 4586 0
4588 -4569 -4586 0
4571 4588 -4589 0
4571 -4588 4589 0
-4571 4588 4589 0
-4571 -4588 -4589 0
-4590 4571 0
-4590 4588 0
4590 -4571 -4588 0
4573 4590 -4591 0
4573 -4590 4591 0
-4573 4590 4591 0
-4573 -4590 -4591 0
-4592 4573 0
-4592 4590 0
4592 -4573 -4590 0
4575 4592 -4593 0
4575 -4592 4593 0
-4575 4592 4593 0
-4575 -4592 -4593 0
-4594 4575 0
-4594 4592 0
4594 -4575 -4592 0
4577 4594 -4595 0
4577 -4594 4595 0
-4577 4594 4595 0
-4577 -4594 -4595 0
-4596 4577 0
-4596 4594 0
4596 -4577 -4594 0
-4596 0
4579 239 -4597 0
4579 -239 4597 0
-4579 239 4597 0
-4579 -239 -4597 0
-4598 4579 0
-4598 239 0
4598 -4579 -239 0
4581 4598 -4599 0
4581 -4598 4599 0
-4581 4598 4599 0
-4581 -4598 -4599 0
-4600 4581 0
-4600 4598 0
4600 -4581 -4598 0
4583 4600 -4601 0
4583 -4600 4601 0
-4583 4600 4601 0
-4583 -4600 -4601 0
-4602 4583 0
-4602 4600 0
4602 -4583 -4600 0
4585 4602 -4603 0
4585 -4602 4603 0
-4585 4602 4603 0
-4585 -4602 -4603 0
-4604 4585 0
-4604 4602 0
4604 -4585 -4602 0
4587 4604 -4605 0
4587 -4604 4605 0
-4587 4604 4605 0
-4587 -4604 -4605 0
-4606 4587 0
-4606 4604 0
4606 -4587 -4604 0
4589 4606 -4607 0
4589 -4606 4607 0
-4589 4606 4607 0
-4589 -4606 -4607 0
-4608 4589 0
-4608 4606 0
4608 -4589 -4606 0
4591 4608 -4609 0
4591 -4608 4609 0
-4591 4608 4609 0
-4591 -4608 -4609 0
-4610 4591 0
-4610 4608 0
4610 -4591 -4608 0
4593 4610 -4611 0
4593 -4610 4611 0
-4593 4610 4611 0
-4593 -4610 -4611 0
-4612 4593 0
-4612 4610 0
4612 -4593 -4610 0
4595 4612 -4613 0
4595 -4612 4613 0
-4595 4612 4613 0
-4595 -4612 -4613 0
-4614 4595 0
-4614 4612 0
4614 -4595 -4612 0
-4614 0
4597 240 -4615 0
4597 -240 4615 0
-4597 240 4615 0
-4597 -240 -4615 0
-4616 4597 0
-4616 240 0
4616 -4597 -240 0
4599 4616 -4617 0
4599 -4616 4617 0
-4599 4616 4617 0
-4599 -4616 -4617 0
-4618 4599 0
-4618 4616 0
4618 -4599 -4616 0
4601 4618 -4619 0
4601 -4618 4619 0
-4601 4618 4619 0
-4601 -4618 -4619 0
-4620 4601 0
-4620 4618 0
4620 -4601 -4618 0
4603 4620 -4621 0
4603 -4620 4621 0
-4603 4620 4621 0
-4603 -4620 -4621 0
-4622 4603 0
-4622 4620 0
4622 -4603 -4620 0
4605 4622 -4623 0
4605 -4622 4623 0
-4605 4622 4623 0
-4605 -4622 -4623 0
-4624 4605 0
-4624 4622 0
4624 -4605 -4622 0
4607 4624 -4625 0
4607 -4624 4625 0
-4607 4624 4625 0
-4607 -4624 -4625 0
-4626 4607 0
-4626 4624 0
4626 -4607 -4624 0
4609 4626 -4627 0
4609 -4626 4627 0
-4609 4626 4627 0
-4609 -4626 -4627 0
-4628 4609 0
-4628 4626 0
4628 -4609 -4626 0
4611 4628 -4629 0
4611 -4628 4629 0
-4611 4628 4629 0
-4611 -4628 -4629 0
-4630 4611 0
-4630 4628 0
4630 -4611 -4628 0
4613 4630 -4631 0
4613 -4630 4631 0
-4613 4630 4631 0
-4613 -4630 -4631 0
-4632 4613 0
-4632 4630 0
4632 -4613 -4630 0
-4632 0
4615 241 -4633 0
4615 -241 4633 0
-4615 241 4633 0
-4615 -241 -4633 0
-4634 4615 0
-4634 241 0
4634 -4615 -241 0
4617 4634 -4635 0
4617 -4634 4635 0
-4617 4634 4635 0
-4617 -4634 -4635 0
-4636 4617 0
-4636 4634 0
4636 -4617 -4634 0
4619 4636 -4637 0
4619 -4636 4637 0
-4619 4636 4637 0
-4619 -4636 -4637 0
-4638 4619 0
-4638 4636 0
4638 -4619 -4636 0
4621 4638 -4639 0
4621 -4638 4639 0
-4621 4638 4639 0
-4621 -4638 -4639 0
-4640 4621 0
-4640 4638 0
4640 -4621 -4638 0
4623 4640 -4641 0
4623 -4640 4641 0
-4623 4640 4641 0
-4623 -4640 -4641 0
-4642 4623 0
-4642 4640 0
4642 -4623 -4640 0
4625 4642 -4643 0
4625 -4642 4643 0
-4625 4642 4643 0
-4625 -4642 -4643 0
-4644 4625 0
-4644 4642 0
4644 -4625 -4642 0
4627 4644 -4645 0
4627 -4644 4645 0
-4627 4644 4645 0
-4627 -4644 -4645 0
-4646 4627 0
-4646 4644 0
4646 -4627 -4644 0
4629 4646 -4647 0
4629 -4646 4647 0
-4629 4646 4647 0
-4629 -4646 -4647 0
-4648 4629 0
-4648 4646 0
4648 -4629 -4646 0
4631 4648 -4649 0
4631 -4648 4649 0
-4631 4648 4649 0
-4631 -4648 -4649 0
-4650 4631 0
-4650 4648 0
4650 -4631 -4648 0
-4650 0
4633 242 -4651 0
4633 -242 4651 0
-4633 242 4651 0
-4633 -242 -4651 0
-4652 4633 0
-4652 242 0
4652 -4633 -242 0
4635 4652 -4653 0
4635 -4652 4653 0
-4635 4652 4653 0
-4635 -4652 -4653 0
-4654 4635 0
-4654 4652 0
4654 -4635 -4652 0
4637 4654 -4655 0
4637 -4654 4655 0
-4637 4654 4655 0
-4637 -4654 -4655 0
-4656 4637 0
-4656 4654 0
4656 -4637 -4654 0
4639 4656 -4657 0
4639 -4656 4657 0
-4639 4656 4657 0
-4639 -4656 -4657 0
-4658 4639 0
-4658 4656 0
4658 -4639 -4656 0
4641 4658 -4659 0
4641 -4658 4659 0
-4641 4658 4659 0
-4641 -4658 -4659 0
-4660 4641 0
-4660 4658 0
4660 -4641 -4658 0
4643 4660 -4661 0
4643 -4660 4661 0
-4643 4660 4661 0
-4643 -4660 -4661 0
-4662 4643 0
-4662 4660 0
4662 -4643 -4660 0
4645 4662 -4663 0
4645 -4662 4663 0
-4645 4662 4663 0
-4645 -4662 -4663 0
-4664 4645 0
-4664 4662 0
4664 -4645 -4662 0
4647 4664 -4665 0
4647 -4664 4665 0
-4647 4664 4665 0
-4647 -4664 -4665 0
-4666 4647 0
-4666 4664 0
4666 -4647 -4664 0
4649 4666 -4667 0
4649 -4666 4667 0
-4649 4666 4667 0
-4649 -4666 -4667 0
-4668 4649 0
-4668 4666 0
4668 -4649 -4666 0
-4668 0
4651 243 -4669 0
4651 -243 4669 0
-4651 243 4669 0
-4651 -243 -4669 0
-4670 4651 0
-4670 243 0
4670 -4651 -243 0
4653 4670 -4671 0
4653 -4670 4671 0
-4653 4670 4671 0
-4653 -4670 -4671 0
-4672 4653 0
-4672 4670 0
4672 -4653 -4670 0
4655 4672 -4673 0
4655 -4672 4673 0
-4655 4672 4673 0
-4655 -4672 -4673 0
-4674 4655 0
-4674 4672 0
4674 -4655 -4672 0
4657 4674 -4675 0
4657 -4674 4675 0
-4657 4674 4675 0
-4657 -4674 -4675 0
-4676 4657 0
-4676 4674 0
4676 -4657 -4674 0
4659 4676 -4677 0
4659 -4676 4677 0
-4659 4676 4677 0
-4659 -4676 -4677 0
-4678 4659 0
-4678 4676 0
4678 -4659 -4676 0
4661 4678 -4679 0
4661 -4678 4679 0
-4661 4678 4679 0
-4661 -4678 -4679 0
-4680 4661 0
-4680 4678 0
4680 -4661 -4678 0
4663 4680 -4681 0
4663 -4680 4681 0
-4663 4680 4681 0
-4663 -4680 -4681 0
-4682 4663 0
-4682 4680 0
4682 -4663 -4680 0
4665 4682 -4683 0
4665 -4682 4683 0
-4665 4682 4683 0
-4665 -4682 -4683 0
-4684 4665 0
-4684 4682 0
4684 -4665 -4682 0
4667 4684 -4685 0
4667 -4684 4685 0
-4667 4684 4685 0
-4667 -4684 -4685 0
-4686 4667 0
-4686 4684 0
4686 -4667 -4684 0
-4686 0
4669 244 -4687 0
4669 -244 4687 0
-4669 244 4687 0
-4669 -244 -4687 0
-4688 4669 0
-4688 244 0
4688 -4669 -244 0
4671 4688 -4689 0
4671 -4688 4689 0
-4671 4688 4689 0
-4671 -4688 -4689 0
-4690 4671 0
-4690 4688 0
4690 -4671 -4688 0
4673 4690 -4691 0
4673 -4690 4691 0
-4673 4690 4691 0
-4673 -4690 -4691 0
-4692 4673 0
-4692 4690 0
4692 -4673 -4690 0
4675 4692 -4693 0
4675 -4692 4693 0
-4675 4692 4693 0
-4675 -4692 -4693 0
-4694 4675 0
-4694 4692 0
4694 -4675 -4692 0
4677 4694 -4695 0
4677 -4694 4695 0
-4677 4694 4695 0
-4677 -4694 -4695 0
-4696 4677 0
-4696 4694 0
4696 -4677 -4694 0
4679 4696 -4697 0
4679 -4696 4697 0
-4679 4696 4697 0
-4679 -4696 -4697 0
-4698 4679 0
-4698 4696 0
4698 -4679 -4696 0
4681 4698 -4699 0
4681 -4698 4699 0
-4681 4698 4699 0
-4681 -4698 -4699 0
-4700 4681 0
-4700 4698 0
4700 -4681 -4698 0
4683 4700 -4701 0
4683 -4700 4701 0
-4683 4700 4701 0
-4683 -4700 -4701 0
-4702 4683 0
-4702 4700 0
4702 -4683 -4700 0
4685 4702 -4703 0
4685 -4702 4703 0
-4685 4702 4703 0
-4685 -4702 -4703 0
-4704 4685 0
-4704 4702 0
4704 -4685 -4702 0
-4704 0
4687 245 -4705 0
4687 -245 4705 0
-4687 245 4705 0
-4687 -245 -4705 0
-4706 4687 0
-4706 245 0
4706 -4687 -245 0
4689 4706 -4707 0
4689 -4706 4707 0
-4689 4706 4707 0
-4689 -4706 -4707 0
-4708 4689 0
-4708 4706 0
4708 -4689 -4706 0
4691 4708 -4709 0
4691 -4708 4709 0
-4691 4708 4709 0
-4691 -4708 -4709 0
-4710 4691 0
-4710 4708 0
4710 -4691 -4708 0
4693 4710 -4711 0
4693 -4710 4711 0
-4693 4710 4711 0
-4693 -4710 -4711 0
-4712 4693 0
-4712 4710 0
4712 -4693 -4710 0
4695 4712 -4713 0
4695 -4712 4713 0
-4695 4712 4713 0
-4695 -4712 -4713 0
-4714 4695 0
-4714 4712 0
4714 -4695 -4712 0
4697 4714 -4715 0
4697 -4714 4715 0
-4697 4714 4715 0
-4697 -4714 -4715 0
-4716 4697 0
-4716 4714 0
4716 -4697 -4714 0
4699 4716 -4717 0
4699 -4716 4717 0
-4699 4716 4717 0
-4699 -4716 -4717 0
-4718 4699 0
-4718 4716 0
4718 -4699 -4716 0
4701 4718 -4719 0
4701 -4718 4719 0
-4701 4718 4719 0
-4701 -4718 -4719 0
-4720 4701 0
-4720 4718 0
4720 -4701 -4718 0
4703 4720 -4721 0
4703 -4720 4721 0
-4703 4720 4721 0
-4703 -4720 -4721 0
-4722 4703 0
-4722 4720 0
4722 -4703 -4720 0
-4722 0
4705 246 -4723 0
4705 -246 4723 0
-4705 246 4723 0
-4705 -246 -4723 0
-4724 4705 0
-4724 246 0
4724 -4705 -246 0
4707 4724 -4725 0
4707 -4724 4725 0
-4707 4724 4725 0
-4707 -4724 -4725 0
-4726 4707 0
-4726 4724 0
4726 -4707 -4724 0
4709 4726 -4727 0
4709 -4726 4727 0
-4709 4726 4727 0
-4709 -4726 -4727 0
-4728 4709 0
-4728 4726 0
4728 -4709 -4726 0
4711 4728 -4729 0
4711 -4728 4729 0
-4711 4728 4729 0
-4711 -4728 -4729 0
-4730 4711 0
-4730 4728 0
4730 -4711 -4728 0
4713 4730 -4731 0
4713 -4730 4731 0
-4713 4730 4731 0
-4713 -4730 -4731 0
-4732 4713 0
-4732 4730 0
4732 -4713 -4730 0
4715 4732 -4733 0
4715 -4732 4733 0
-4715 4732 4733 0
-4715 -4732 -4733 0
-4734 4715 0
-4734 4732 0
4734 -4715 -4732 0
4717 4734 -4735 0
4717 -4734 4735 0
-4717 4734 4735 0
-4717 -4734 -4735 0
-4736 4717 0
-4736 4734 0
4736 -4717 -4734 0
4719 4736 -4737 0
4719 -4736 4737 0
-4719 4736 4737 0
-4719 -4736 -4737 0
-4738 4719 0
-4738 4736 0
4738 -4719 -4736 0
4721 4738 -4739 0
4721 -4738 4739 0
-4721 4738 4739 0
-4721 -4738 -4739 0
-4740 4721 0
-4740 4738 0
4740 -4721 -4738 0
-4740 0
4723 247 -4741 0
4723 -247 4741 0
-4723 247 4741 0
-4723 -247 -4741 0
-4742 4723 0
-4742 247 0
4742 -4723 -247 0
4725 4742 -4743 0
4725 -4742 4743 0
-4725 4742 4743 0
-4725 -4742 -4743 0
-4744 4725 0
-4744 4742 0
4744 -4725 -4742 0
4727 4744 -4745 0
4727 -4744 4745 0
-4727 4744 4745 0
-4727 -4744 -4745 0
-4746 4727 0
-4746 4744 0
4746 -4727 -4744 0
4729 4746 -4747 0
4729 -4746 4747 0
-4729 4746 4747 0
-4729 -4746 -4747 0
-4748 4729 0
-4748 4746 0
4748 -4729 -4746 0
4731 4748 -4749 0
4731 -4748 4749 0
-4731 4748 4749 0
-4731 -4748 -4749 0
-4750 4731 0
-4750 4748 0
4750 -4731 -4748 0
4733 4750 -4751 0
4733 -4750 4751 0
-4733 4750 4751 0
-4733 -4750 -4751 0
-4752 4733 0
-4752 4750 0
4752 -4733 -4750 0
4735 4752 -4753 0
4735 -4752 4753 0
-4735 4752 4753 0
-4735 -4752 -4753 0
-4754 4735 0
-4754 4752 0
4754 -4735 -4752 0
4737 4754 -4755 0
4737 -4754 4755 0
-4737 4754 4755 0
-4737 -4754 -4755 0
-4756 4737 0
-4756 4754 0
4756 -4737 -4754 0
4739 4756 -4757 0
4739 -4756 4757 0
-4739 4756 4757 0
-4739 -4756 -4757 0
-4758 4739 0
-4758 4756 0
4758 -4739 -4756 0
-4758 0
4741 248 -4759 0
4741 -248 4759 0
-4741 248 4759 0
-4741 -248 -4759 0
-4760 4741 0
-4760 248 0
4760 -4741 -248 0
4743 4760 -4761 0
4743 -4760 4761 0
-4743 4760 4761 0
-4743 -4760 -4761 0
-4762 4743 0
-4762 4760 0
4762 -4743 -4760 0
4745 4762 -4763 0
4745 -4762 4763 0
-4745 4762 4763 0
-4745 -4762 -4763 0
-4764 4745 0
-4764 4762 0
4764 -4745 -4762 0
4747 4764 -4765 0
4747 -4764 4765 0
-4747 4764 4765 0
-4747 -4764 -4765 0
-4766 4747 0
-4766 4764 0
4766 -4747 -4764 0
4749 4766 -4767 0
4749 -4766 4767 0
-4749 4766 4767 0
-4749 -4766 -4767 0
-4768 4749 0
-4768 4766 0
4768 -4749 -4766 0
4751 4768 -4769 0
4751 -4768 4769 0
-4751 4768 4769 0
-4751 -4768 -4769 0
-4770 4751 0
-4770 4768 0
4770 -4751 -4768 0
4753 4770 -4771 0
4753 -4770 4771 0
-4753 4770 4771 0
-4753 -4770 -4771 0
-4772 4753 0
-4772 4770 0
4772 -4753 -4770 0
4755 4772 -4773 0
4755 -4772 4773 0
-4755 4772 4773 0
-4755 -4772 -4773 0
-4774 4755 0
-4774 4772 0
4774 -4755 -4772 0
4757 4774 -4775 0
4757 -4774 4775 0
-4757 4774 4775 0
-4757 -4774 -4775 0
-4776 4757 0
-4776 4774 0
4776 -4757 -4774 0
-4776 0
4759 249 -4777 0
4759 -249 4777 0
-4759 249 4777 0
-4759 -249 -4777 0
-4778 4759 0
-4778 249 0
4778 -4759 -249 0
4761 4778 -4779 0
4761 -4778 4779 0
-4761 4778 4779 0
-4761 -4778 -4779 0
-4780 4761 0
-4780 4778 0
4780 -4761 -4778 0
4763 4780 -4781 0
4763 -4780 4781 0
-4763 4780 4781 0
-4763 -4780 -4781 0
-4782 4763 0
-4782 4780 0
4782 -4763 -4780 0
4765 4782 -4783 0
4765 -4782 4783 0
-4765 4782 4783 0
-4765 -4782 -4783 0
-4784 4765 0
-4784 4782 0
4784 -4765 -4782 0
4767 4784 -4785 0
4767 -4784 4785 0
-4767 4784 4785 0
-4767 -4784 -4785 0
-4786 4767 0
-4786 4784 0
4786 -4767 -4784 0
4769 4786 -4787 0
4769 -4786 4787 0
-4769 4786 4787 0
-4769 -4786 -4787 0
-4788 4769 0
-4788 4786 0
4788 -4769 -4786 0
4771 4788 -4789 0
4771 -4788 4789 0
-4771 4788 4789 0
-4771 -4788 -4789 0
-4790 4771 0
-4790 4788 0
4790 -4771 -4788 0
4773 4790 -4791 0
4773 -4790 4791 0
-4773 4790 4791 0
-4773 -4790 -4791 0
-4792 4773 0
-4792 4790 0
4792 -4773 -4790 0
4775 4792 -4793 0
4775 -4792 4793 0
-4775 4792 4793 0
-4775 -4792 -4793 0
-4794 4775 0
-4794 4792 0
4794 -4775 -4792 0
-4794 0
4777 250 -4795 0
4777 -250 4795 0
-4777 250 4795 0
-4777 -250 -4795 0
-4796 4777 0
-4796 250 0
4796 -4777 -250 0
4779 4796 -4797 0
4779 -4796 4797 0
-4779 4796 4797 0
-4779 -4796 -4797 0
-4798 4779 0
-4798 4796 0
4798 -4779 -4796 0
4781 4798 -4799 0
4781 -4798 4799 0
-4781 4798 4799 0
-4781 -4798 -4799 0
-4800 4781 0
-4800 4798 0
4800 -4781 -4798 0
4783 4800 -4801 0
4783 -4800 4801 0
-4783 4800 4801 0
-4783 -4800 -4801 0
-4802 4783 0
-4802 4800 0
4802 -4783 -4800 0
4785 4802 -4803 0
4785 -4802 4803 0
-4785 4802 4803 0
-4785 -4802 -4803 0
-4804 4785 0
-4804 4802 0
4804 -4785 -4802 0
4787 4804 -4805 0
4787 -4804 4805 0
-4787 4804 4805 0
-4787 -4804 -4805 0
-4806 4787 0
-4806 4804 0
4806 -4787 -4804 0
4789 4806 -4807 0
4789 -4806 4807 0
-4789 4806 4807 0
-4789 -4806 -4807 0
-4808 4789 0
-4808 4806 0
4808 -4789 -4806 0
4791 4808 -4809 0
4791 -4808 4809 0
-4791 4808 4809 0
-4791 -4808 -4809 0
-4810 4791 0
-4810 4808 0
4810 -4791 -4808 0
4793 4810 -4811 0
4793 -4810 4811 0
-4793 4810 4811 0
-4793 -4810 -4811 0
-4812 4793 0
-4812 4810 0
4812 -4793 -4810 0
-4812 0
4795 251 -4813 0
4795 -251 4813 0
-4795 251 4813 0
-4795 -251 -4813 0
-4814 4795 0
-4814 251 0
4814 -4795 -251 0
4797 4814 -4815 0
4797 -4814 4815 0
-4797 4814 4815 0
-4797 -4814 -4815 0
-4816 4797 0
-4816 4814 0
4816 -4797 -4814 0
4799 4816 -4817 0
4799 -4816 4817 0
-4799 4816 4817 0
-4799 -4816 -4817 0
-4818 4799 0
-4818 4816 0
4818 -4799 -4816 0
4801 4818 -4819 0
4801 -4818 4819 0
-4801 4818 4819 0
-4801 -4818 -4819 0
-4820 4801 0
-4820 4818 0
4820 -4801 -4818 0
4803 4820 -4821 0
4803 -4820 4821 0
-4803 4820 4821 0
-4803 -4820 -4821 0
-4822 4803 0
-4822 4820 0
4822 -4803 -4820 0
4805 4822 -4823 0
4805 -4822 4823 0
-4805 4822 4823 0
-4805 -4822 -4823 0
-4824 4805 0
-4824 4822 0
4824 -4805 -4822 0
4807 4824 -4825 0
4807 -4824 4825 0
-4807 4824 4825 0
-4807 -4824 -4825 0
-4826 4807 0
-4826 4824 0
4826 -4807 -4824 0
4809 4826 -4827 0
4809 -4826 4827 0
-4809 4826 4827 0
-4809 -4826 -4827 0
-4828 4809 0
-4828 4826 0
4828 -4809 -4826 0
4811 4828 -4829 0
4811 -4828 4829 0
-4811 4828 4829 0
-4811 -4828 -4829 0
-4830 4811 0
-4830 4828 0
4830 -4811 -4828 0
-4830 0
4813 252 -4831 0
4813 -252 4831 0
-4813 252 4831 0
-4813 -252 -4831 0
-4832 4813 0
-4832 252 0
4832 -4813 -252 0
4815 4832 -4833 0
4815 -4832 4833 0
-4815 4832 4833 0
-4815 -4832 -4833 0
-4834 4815 0
-4834 4832 0
4834 -4815 -4832 0
4817 4834 -4835 0
4817 -4834 4835 0
-4817 4834 4835 0
-4817 -4834 -4835 0
-4836 4817 0
-4836 4834 0
4836 -4817 -4834 0
4819 4836 -4837 0
4819 -4836 4837 0
-4819 4836 4837 0
-4819 -4836 -4837 0
-4838 4819 0
-4838 4836 0
4838 -4819 -4836 0
4821 4838 -4839 0
4821 -4838 4839 0
-4821 4838 4839 0
-4821 -4838 -4839 0
-4840 4821 0
-4840 4838 0
4840 -4821 -4838 0
4823 4840 -4841 0
4823 -4840 4841 0
-4823 4840 4841 0
-4823 -4840 -4841 0
-4842 4823 0
-4842 4840 0
4842 -4823 -4840 0
4825 4842 -4843 0
4825 -4842 4843 0
-4825 4842 4843 0
-4825 -4842 -4843 0
-4844 4825 0
-4844 4842 0
4844 -4825 -4842 0
4827 4844 -4845 0
4827 -4844 4845 0
-4827 4844 4845 0
-4827 -4844 -4845 0
-4846 4827 0
-4846 4844 0
4846 -4827 -4844 0
4829 4846 -4847 0
4829 -4846 4847 0
-4829 4846 4847 0
-4829 -4846 -4847 0
-4848 4829 0
-4848 4846 0
4848 -4829 -4846 0
-4848 0
4831 253 -4849 0
4831 -253 4849 0
-4831 253 4849 0
-4831 -253 -4849 0
-4850 4831 0
-4850 253 0
4850 -4831 -253 0
4833 4850 -4851 0
4833 -4850 4851 0
-4833 4850 4851 0
-4833 -4850 -4851 0
-4852 4833 0
-4852 4850 0
4852 -4833 -4850 0
4835 4852 -4853 0
4835 -4852 4853 0
-4835 4852 4853 0
-4835 -4852 -4853 0
-4854 4835 0
-4854 4852 0
4854 -4835 -4852 0
4837 4854 -4855 0
4837 -4854 4855 0
-4837 4854 4855 0
-4837 -4854 -4855 0
-4856 4837 0
-4856 4854 0
4856 -4837 -4854 0
4839 4856 -4857 0
4839 -4856 4857 0
-4839 4856 4857 0
-4839 -4856 -4857 0
-4858 4839 0
-4858 4856 0
4858 -4839 -4856 0
4841 4858 -4859 0
4841 -4858 4859 0
-4841 4858 4859 0
-4841 -4858 -4859 0
-4860 4841 0
-4860 4858 0
4860 -4841 -4858 0
4843 4860 -4861 0
4843 -4860 4861 0
-4843 4860 4861 0
-4843 -4860 -4861 0
-4862 4843 0
-4862 4860 0
4862 -4843 -4860 0
4845 4862 -4863 0
4845 -4862 4863 0
-4845 4862 4863 0
-4845 -4862 -4863 0
-4864 4845 0
-4864 4862 0
4864 -4845 -4862 0
4847 4864 -4865 0
4847 -4864 4865 0
-4847 4864 4865 0
-4847 -4864 -4865 0
-4866 4847 0
-4866 4864 0
4866 -4847 -4864 0
-4866 0
4849 254 -4867 0
4849 -254 4867 0
-4849 254 4867 0
-4849 -254 -4867 0
-4868 4849 0
-4868 254 0
4868 -4849 -254 0
4851 4868 -4869 0
4851 -4868 4869 0
-4851 4868 4869 0
-4851 -4868 -4869 0
-4870 4851 0
-4870 4868 0
4870 -4851 -4868 0
4853 4870 -4871 0
4853 -4870 4871 0
-4853 4870 4871 0
-4853 -4870 -4871 0
-4872 4853 0
-4872 4870 0
4872 -4853 -4870 0
4855 4872 -4873 0
4855 -4872 4873 0
-4855 4872 4873 0
-4855 -4872 -4873 0
-4874 4855 0
-4874 4872 0
4874 -4855 -4872 0
4857 4874 -4875 0
4857 -4874 4875 0
-4857 4874 4875 0
-4857 -4874 -4875 0
-4876 4857 0
-4876 4874 0
4876 -4857 -4874 0
4859 4876 -4877 0
4859 -4876 4877 0
-4859 4876 4877 0
-4859 -4876 -4877 0
-4878 4859 0
-4878 4876 0
4878 -4859 -4876 0
4861 4878 -4879 0
4861 -4878 4879 0
-4861 4878 4879 0
-4861 -4878 -4879 0
-4880 4861 0
-4880 4878 0
4880 -4861 -4878 0
4863 4880 -4881 0
4863 -4880 4881 0
-4863 4880 4881 0
-4863 -4880 -4881 0
-4882 4863 0
-4882 4880 0
4882 -4863 -4880 0
4865 4882 -4883 0
4865 -4882 4883 0
-4865 4882 4883 0
-4865 -4882 -4883 0
-4884 4865 0
-4884 4882 0
4884 -4865 -4882 0
-4884 0
4867 255 -4885 0
4867 -255 4885 0
-4867 255 4885 0
-4867 -255 -4885 0
-4886 4867 0
-4886 255 0
4886 -4867 -255 0
4869 4886 -4887 0
4869 -4886 4887 0
-4869 4886 4887 0
-4869 -4886 -4887 0
-4888 4869 0
-4888 4886 0
4888 -4869 -4886 0
4871 4888 -4889 0
4871 -4888 4889 0
-4871 4888 4889 0
-4871 -4888 -4889 0
-4890 4871 0
-4890 4888 0
4890 -4871 -4888 0
4873 4890 -4891 0
4873 -4890 4891 0
-4873 4890 4891 0
-4873 -4890 -4891 0
-4892 4873 0
-4892 4890 0
4892 -4873 -4890 0
4875 4892 -4893 0
4875 -4892 4893 0
-4875 4892 4893 0
-4875 -4892 -4893 0
-4894 4875 0
-4894 4892 0
4894 -4875 -4892 0
4877 4894 -4895 0
4877 -4894 4895 0
-4877 4894 4895 0
-4877 -4894 -4895 0
-4896 4877 0
-4896 4894 0
4896 -4877 -4894 0
4879 4896 -4897 0
4879 -4896 4897 0
-4879 4896 4897 0
-4879 -4896 -4897 0
-4898 4879 0
-4898 4896 0
4898 -4879 -4896 0
4881 4898 -4899 0
4881 -4898 4899 0
-4881 4898 4899 0
-4881 -4898 -4899 0
-4900 4881 0
-4900 4898 0
4900 -4881 -4898 0
4883 4900 -4901 0
4883 -4900 4901 0
-4883 4900 4901 0
-4883 -4900 -4901 0
-4902 4883 0
-4902 4900 0
4902 -4883 -4900 0
-4902 0
4885 256 -4903 0
4885 -256 4903 0
-4885 256 4903 0
-4885 -256 -4903 0
-4904 4885 0
-4904 256 0
4904 -4885 -256 0
4887 4904 -4905 0
4887 -4904 4905 0
-4887 4904 4905 0
-4887 -4904 -4905 0
-4906 4887 0
-4906 4904 0
4906 -4887 -4904 0
4889 4906 -4907 0
4889 -4906 4907 0
-4889 4906 4907 0
-4889 -4906 -4907 0
-4908 4889 0
-4908 4906 0
4908 -4889 -4906 0
4891 4908 -4909 0
4891 -4908 4909 0
-4891 4908 4909 0
-4891 -4908 -4909 0
-4910 4891 0
-4910 4908 0
4910 -4891 -4908 0
4893 4910 -4911 0
4893 -4910 4911 0
-4893 4910 4911 0
-4893 -4910 -4911 0
-4912 4893 0
-4912 4910 0
4912 -4893 -4910 0
4895 4912 -4913 0
4895 -4912 4913 0
-4895 4912 4913 0
-4895 -4912 -4913 0
-4914 4895 0
-4914 4912 0
4914 -4895 -4912 0
4897 4914 -4915 0
4897 -4914 4915 0
-4897 4914 4915 0
-4897 -4914 -4915 0
-4916 4897 0
-4916 4914 0
4916 -4897 -4914 0
4899 4916 -4917 0
4899 -4916 4917 0
-4899 4916 4917 0
-4899 -4916 -4917 0
-4918 4899 0
-4918 4916 0
4918 -4899 -4916 0
4901 4918 -4919 0
4901 -4918 4919 0
-4901 4918 4919 0
-4901 -4918 -4919 0
-4920 4901 0
-4920 4918 0
4920 -4901 -4918 0
-4920 0
4903 257 -4921 0
4903 -257 4921 0
-4903 257 4921 0
-4903 -257 -4921 0
-4922 4903 0
-4922 257 0
4922 -4903 -257 0
4905 4922 -4923 0
4905 -4922 4923 0
-4905 4922 4923 0
-4905 -4922 -4923 0
-4924 4905 0
-4924 4922 0
4924 -4905 -4922 0
4907 4924 -4925 0
4907 -4924 4925 0
-4907 4924 4925 0
-4907 -4924 -4925 0
-4926 4907 0
-4926 4924 0
4926 -4907 -4924 0
4909 4926 -4927 0
4909 -4926 4927 0
-4909 4926 4927 0
-4909 -4926 -4927 0
-4928 4909 0
-4928 4926 0
4928 -4909 -4926 0
4911 4928 -4929 0
4911 -4928 4929 0
-4911 4928 4929 0
-4911 -4928 -4929 0
-4930 4911 0
-4930 4928 0
4930 -4911 -4928 0
4913 4930 -4931 0
4913 -4930 4931 0
-4913 4930 4931 0
-4913 -4930 -4931 0
-4932 4913 0
-4932 4930 0
4932 -4913 -4930 0
4915 4932 -4933 0
4915 -4932 4933 0
-4915 4932 4933 0
-4915 -4932 -4933 0
-4934 4915 0
-4934 4932 0
4934 -4915 -4932 0
4917 4934 -4935 0
4917 -4934 4935 0
-4917 4934 4935 0
-4917 -4934 -4935 0
-4936 4917 0
-4936 4934 0
4936 -4917 -4934 0
4919 4936 -4937 0
4919 -4936 4937 0
-4919 4936 4937 0
-4919 -4936 -4937 0
-4938 4919 0
-4938 4936 0
4938 -4919 -4936 0
-4938 0
4921 258 -4939 0
4921 -258 4939 0
-4921 258 4939 0
-4921 -258 -4939 0
-4940 4921 0
-4940 258 0
4940 -4921 -258 0
4923 4940 -4941 0
4923 -4940 4941 0
-4923 4940 4941 0
-4923 -4940 -4941 0
-4942 4923 0
-4942 4940 0
4942 -4923 -4940 0
4925 4942 -4943 0
4925 -4942 4943 0
-4925 4942 4943 0
-4925 -4942 -4943 0
-4944 4925 0
-4944 4942 0
4944 -4925 -4942 0
4927 4944 -4945 0
4927 -4944 4945 0
-4927 4944 4945 0
-4927 -4944 -4945 0
-4946 4927 0
-4946 4944 0
4946 -4927 -4944 0
4929 4946 -4947 0
4929 -4946 4947 0
-4929 4946 4947 0
-4929 -4946 -4947 0
-4948 4929 0
-4948 4946 0
4948 -4929 -4946 0
4931 4948 -4949 0
4931 -4948 4949 0
-4931 4948 4949 0
-4931 -4948 -4949 0
-4950 4931 0
-4950 4948 0
4950 -4931 -4948 0
4933 4950 -4951 0
4933 -4950 4951 0
-4933 4950 4951 0
-4933 -4950 -4951 0
-4952 4933 0
-4952 4950 0
4952 -4933 -4950 0
4935 4952 -4953 0
4935 -4952 4953 0
-4935 4952 4953 0
-4935 -4952 -4953 0
-4954 4935 0
-4954 4952 0
4954 -4935 -4952 0
4937 4954 -4955 0
4937 -4954 4955 0
-4937 4954 4955 0
-4937 -4954 -4955 0
-4956 4937 0
-4956 4954 0
4956 -4937 -4954 0
-4956 0
4939 259 -4957 0
4939 -259 4957 0
-4939 259 4957 0
-4939 -259 -4957 0
-4958 4939 0
-4958 259 0
4958 -4939 -259 0
4941 4958 -4959 0
4941 -4958 4959 0
-4941 4958 4959 0
-4941 -4958 -4959 0
-4960 4941 0
-4960 4958 0
4960 -4941 -4958 0
4943 4960 -4961 0
4943 -4960 4961 0
-4943 4960 4961 0
-4943 -4960 -4961 0
-4962 4943 0
-4962 4960 0
4962 -4943 -4960 0
4945 4962 -4963 0
4945 -4962 4963 0
-4945 4962 4963 0
-4945 -4962 -4963 0
-4964 4945 0
-4964 4962 0
4964 -4945 -4962 0
4947 4964 -4965 0
4947 -4964 4965 0
-4947 4964 4965 0
-4947 -4964 -4965 0
-4966 4947 0
-4966 4964 0
4966 -4947 -4964 0
4949 4966 -4967 0
4949 -4966 4967 0
-4949 4966 4967 0
-4949 -4966 -4967 0
-4968 4949 0
-4968 4966 0
4968 -4949 -4966 0
4951 4968 -4969 0
4951 -4968 4969 0
-4951 4968 4969 0
-4951 -4968 -4969 0
-4970 4951 0
-4970 4968 0
4970 -4951 -4968 0
4953 4970 -4971 0
4953 -4970 4971 0
-4953 4970 4971 0
-4953 -4970 -4971 0
-4972 4953 0
-4972 4970 0
4972 -4953 -4970 0
4955 4972 -4973 0
4955 -4972 4973 0
-4955 4972 4973 0
-4955 -4972 -4973 0
-4974 4955 0
-4974 4972 0
4974 -4955 -4972 0
-4974 0
4957 260 -4975 0
4957 -260 4975 0
-4957 260 4975 0
-4957 -260 -4975 0
-4976 4957 0
-4976 260 0
4976 -4957 -260 0
4959 4976 -4977 0
4959 -4976 4977 0
-4959 4976 4977 0
-4959 -4976 -4977 0
-4978 4959 0
-4978 4976 0
4978 -4959 -4976 0
4961 4978 -4979 0
4961 -4978 4979 0
-4961 4978 4979 0
-4961 -4978 -4979 0
-4980 4961 0
-4980 4978 0
4980 -4961 -4978 0
4963 4980 -4981 0
4963 -4980 4981 0
-4963 4980 4981 0
-4963 -4980 -4981 0
-4982 4963 0
-4982 4980 0
4982 -4963 -4980 0
4965 4982 -4983 0
4965 -4982 4983 0
-4965 4982 4983 0
-4965 -4982 -4983 0
-4984 4965 0
-4984 4982 0
4984 -4965 -4982 0
4967 4984 -4985 0
4967 -4984 4985 0
-4967 4984 4985 0
-4967 -4984 -4985 0
-4986 4967 0
-4986 4984 0
4986 -4967 -4984 0
4969 4986 -4987 0
4969 -4986 4987 0
-4969 4986 4987 0
-4969 -4986 -4987 0
-4988 4969 0
-4988 4986 0
4988 -4969 -4986 0
4971 4988 -4989 0
4971 -4988 4989 0
-4971 4988 4989 0
-4971 -4988 -4989 0
-4990 4971 0
-4990 4988 0
4990 -4971 -4988 0
4973 4990 -4991 0
4973 -4990 4991 0
-4973 4990 4991 0
-4973 -4990 -4991 0
-4992 4973 0
-4992 4990 0
4992 -4973 -4990 0
-4992 0
4975 261 -4993 0
4975 -261 4993 0
-4975 261 4993 0
-4975 -261 -4993 0
-4994 4975 0
-4994 261 0
4994 -4975 -261 0
4977 4994 -4995 0
4977 -4994 4995 0
-4977 4994 4995 0
-4977 -4994 -4995 0
-4996 4977 0
-4996 4994 0
4996 -4977 -4994 0
4979 4996 -4997 0
4979 -4996 4997 0
-4979 4996 4997 0
-4979 -4996 -4997 0
-4998 4979 0
-4998 4996 0
4998 -4979 -4996 0
4981 4998 -4999 0
4981 -4998 4999 0
-4981 4998 4999 0
-4981 -4998 -4999 0
-5000 4981 0
-5000 4998 0
5000 -4981 -4998 0
4983 5000 -5001 0
4983 -5000 5001 0
-4983 5000 5001 0
-4983 -5000 -5001 0
-5002 4983 0
-5002 5000 0
5002 -4983 -5000 0
4985 5002 -5003 0
4985 -5002 5003 0
-4985 5002 5003 0
-4985 -5002 -5003 0
-5004 4985 0
-5004 5002 0
5004 -4985 -5002 0
4987 5004 -5005 0
4987 -5004 5005 0
-4987 5004 5005 0
-4987 -5004 -5005 0
-5006 4987 0
-5006 5004 0
5006 -4987 -5004 0
4989 5006 -5007 0
4989 -5006 5007 0
-4989 5006 5007 0
-4989 -5006 -5007 0
-5008 4989 0
-5008 5006 0
5008 -4989 -5006 0
4991 5008 -5009 0
4991 -5008 5009 0
-4991 5008 5009 0
-4991 -5008 -5009 0
-5010 4991 0
-5010 5008 0
5010 -4991 -5008 0
-5010 0
4993 262 -5011 0
4993 -262 5011 0
-4993 262 5011 0
-4993 -262 -5011 0
-5012 4993 0
-5012 262 0
5012 -4993 -262 0
4995 5012 -5013 0
4995 -5012 5013 0
-4995 5012 5013 0
-4995 -5012 -5013 0
-5014 4995 0
-5014 5012 0
5014 -4995 -5012 0
4997 5014 -5015 0
4997 -5014 5015 0
-4997 5014 5015 0
-4997 -5014 -5015 0
-5016 4997 0
-5016 5014 0
5016 -4997 -5014 0
4999 5016 -5017 0
4999 -5016 5017 0
-4999 5016 5017 0
-4999 -5016 -5017 0
-5018 4999 0
-5018 5016 0
5018 -4999 -5016 0
5001 5018 -5019 0
5001 -5018 5019 0
-5001 5018 5019 0
-5001 -5018 -5019 0
-5020 5001 0
-5020 5018 0
5020 -5001 -5018 0
5003 5020 -5021 0
5003 -5020 5021 0
-5003 5020 5021 0
-5003 -5020 -5021 0
-5022 5003 0
-5022 5020 0
5022 -5003 -5020 0
5005 5022 -5023 0
5005 -5022 5023 0
-5005 5022 5023 0
-5005 -5022 -5023 0
-5024 5005 0
-5024 5022 0
5024 -5005 -5022 0
5007 5024 -5025 0
5007 -5024 5025 0
-5007 5024 5025 0
-5007 -5024 -5025 0
-5026 5007 0
-5026 5024 0
5026 -5007 -5024 0
5009 5026 -5027 0
5009 -5026 5027 0
-5009 5026 5027 0
-5009 -5026 -5027 0
-5028 5009 0
-5028 5026 0
5028 -5009 -5026 0
-5028 0
5011 263 -5029 0
5011 -263 5029 0
-5011 263 5029 0
-5011 -263 -5029 0
-5030 5011 0
-5030 263 0
5030 -5011 -263 0
5013 5030 -5031 0
5013 -5030 5031 0
-5013 5030 5031 0
-5013 -5030 -5031 0
-5032 5013 0
-5032 5030 0
5032 -5013 -5030 0
5015 5032 -5033 0
5015 -5032 5033 0
-5015 5032 5033 0
-5015 -5032 -5033 0
-5034 5015 0
-5034 5032 0
5034 -5015 -5032 0
5017 5034 -5035 0
5017 -5034 5035 0
-5017 5034 5035 0
-5017 -5034 -5035 0
-5036 5017 0
-5036 5034 0
5036 -5017 -5034 0
5019 5036 -5037 0
5019 -5036 5037 0
-5019 5036 5037 0
-5019 -5036 -5037 0
-5038 5019 0
-5038 5036 0
5038 -5019 -5036 0
5021 5038 -5039 0
5021 -5038 5039 0
-5021 5038 5039 0
-5021 -5038 -5039 0
-5040 5021 0
-5040 5038 0
5040 -5021 -5038 0
5023 5040 -5041 0
5023 -5040 5041 0
-5023 5040 5041 0
-5023 -5040 -5041 0
-5042 5023 0
-5042 5040 0
5042 -5023 -5040 0
5025 5042 -5043 0
5025 -5042 5043 0
-5025 5042 5043 0
-5025 -5042 -5043 0
-5044 5025 0
-5044 5042 0
5044 -5025 -5042 0
5027 5044 -5045 0
5027 -5044 5045 0
-5027 5044 5045 0
-5027 -5044 -5045 0
-5046 5027 0
-5046 5044 0
5046 -5027 -5044 0
-5046 0
5029 264 -5047 0
5029 -264 5047 0
-5029 264 5047 0
-5029 -264 -5047 0
-5048 5029 0
-5048 264 0
5048 -5029 -264 0
5031 5048 -5049 0
5031 -5048 5049 0
-5031 5048 5049 0
-5031 -5048 -5049 0
-5050 5031 0
-5050 5048 0
5050 -5031 -5048 0
5033 5050 -5051 0
5033 -5050 5051 0
-5033 5050 5051 0
-5033 -5050 -5051 0
-5052 5033 0
-5052 5050 0
5052 -5033 -5050 0
5035 5052 -5053 0
5035 -5052 5053 0
-5035 5052 5053 0
-5035 -5052 -5053 0
-5054 5035 0
-5054 5052 0
5054 -5035 -5052 0
5037 5054 -5055 0
5037 -5054 5055 0
-5037 5054 5055 0
-5037 -5054 -5055 0
-5056 5037 0
-5056 5054 0
5056 -5037 -5054 0
5039 5056 -5057 0
5039 -5056 5057 0
-5039 5056 5057 0
-5039 -5056 -5057 0
-5058 5039 0
-5058 5056 0
5058 -5039 -5056 0
5041 5058 -5059 0
5041 -5058 5059 0
-5041 5058 5059 0
-5041 -5058 -5059 0
-5060 5041 0
-5060 5058 0
5060 -5041 -5058 0
5043 5060 -5061 0
5043 -5060 5061 0
-5043 5060 5061 0
-5043 -5060 -5061 0
-5062 5043 0
-5062 5060 0
5062 -5043 -5060 0
5045 5062 -5063 0
5045 -5062 5063 0
-5045 5062 5063 0
-5045 -5062 -5063 0
-5064 5045 0
-5064 5062 0
5064 -5045 -5062 0
-5064 0
5047 265 -5065 0
5047 -265 5065 0
-5047 265 5065 0
-5047 -265 -5065 0
-5066 5047 0
-5066 265 0
5066 -5047 -265 0
5049 5066 -5067 0
5049 -5066 5067 0
-5049 5066 5067 0
-5049 -5066 -5067 0
-5068 5049 0
-5068 5066 0
5068 -5049 -5066 0
5051 5068 -5069 0
5051 -5068 5069 0
-5051 5068 5069 0
-5051 -5068 -5069 0
-5070 5051 0
-5070 5068 0
5070 -5051 -5068 0
5053 5070 -5071 0
5053 -5070 5071 0
-5053 5070 5071 0
-5053 -5070 -5071 0
-5072 5053 0
-5072 5070 0
5072 -5053 -5070 0
5055 5072 -5073 0
5055 -5072 5073 0
-5055 5072 5073 0
-5055 -5072 -5073 0
-5074 5055 0
-5074 5072 0
5074 -5055 -5072 0
5057 5074 -5075 0
5057 -5074 5075 0
-5057 5074 5075 0
-5057 -5074 -5075 0
-5076 5057 0
-5076 5074 0
5076 -5057 -5074 0
5059 5076 -5077 0
5059 -5076 5077 0
-5059 5076 5077 0
-5059 -5076 -5077 0
-5078 5059 0
-5078 5076 0
5078 -5059 -5076 0
5061 5078 -5079 0
5061 -5078 5079 0
-5061 5078 5079 0
-5061 -5078 -5079 0
-5080 5061 0
-5080 5078 0
5080 -5061 -5078 0
5063 5080 -5081 0
5063 -5080 5081 0
-5063 5080 5081 0
-5063 -5080 -5081 0
-5082 5063 0
-5082 5080 0
5082 -5063 -5080 0
-5082 0
5065 266 -5083 0
5065 -266 5083 0
-5065 266 5083 0
-5065 -266 -5083 0
-5084 5065 0
-5084 266 0
5084 -5065 -266 0
5067 5084 -5085 0
5067 -5084 5085 0
-5067 5084 5085 0
-5067 -5084 -5085 0
-5086 5067 0
-5086 5084 0
5086 -5067 -5084 0
5069 5086 -5087 0
5069 -5086 5087 0
-5069 5086 5087 0
-5069 -5086 -5087 0
-5088 5069 0
-5088 5086 0
5088 -5069 -5086 0
5071 5088 -5089 0
5071 -5088 5089 0
-5071 5088 5089 0
-5071 -5088 -5089 0
-5090 5071 0
-5090 5088 0
5090 -5071 -5088 0
5073 5090 -5091 0
5073 -5090 5091 0
-5073 5090 5091 0
-5073 -5090 -5091 0
-5092 5073 0
-5092 5090 0
5092 -5073 -5090 0
5075 5092 -5093 0
5075 -5092 5093 0
-5075 5092 5093 0
-5075 -5092 -5093 0
-5094 5075 0
-5094 5092 0
5094 -5075 -5092 0
5077 5094 -5095 0
5077 -5094 5095 0
-5077 5094 5095 0
-5077 -5094 -5095 0
-5096 5077 0
-5096 5094 0
5096 -5077 -5094 0
5079 5096 -5097 0
5079 -5096 5097 0
-5079 5096 5097 0
-5079 -5096 -5097 0
-5098 5079 0
-5098 5096 0
5098 -5079 -5096 0
5081 5098 -5099 0
5081 -5098 5099 0
-5081 5098 5099 0
-5081 -5098 -5099 0
-5100 5081 0
-5100 5098 0
5100 -5081 -5098 0
-5100 0
5083 267 -5101 0
5083 -267 5101 0
-5083 267 5101 0
-5083 -267 -5101 0
-5102 5083 0
-5102 267 0
5102 -5083 -267 0
5085 5102 -5103 0
5085 -5102 5103 0
-5085 5102 5103 0
-5085 -5102 -5103 0
-5104 5085 0
-5104 5102 0
5104 -5085 -5102 0
5087 5104 -5105 0
5087 -5104 5105 0
-5087 5104 5105 0
-5087 -5104 -5105 0
-5106 5087 0
-5106 5104 0
5106 -5087 -5104 0
5089 5106 -5107 0
5089 -5106 5107 0
-5089 5106 5107 0
-5089 -5106 -5107 0
-5108 5089 0
-5108 5106 0
5108 -5089 -5106 0
5091 5108 -5109 0
5091 -5108 5109 0
-5091 5108 5109 0
-5091 -5108 -5109 0
-5110 5091 0
-5110 5108 0
5110 -5091 -5108 0
5093 5110 -5111 0
5093 -5110 5111 0
-5093 5110 5111 0
-5093 -5110 -5111 0
-5112 5093 0
-5112 5110 0
5112 -5093 -5110 0
5095 5112 -5113 0
5095 -5112 5113 0
-5095 5112 5113 0
-5095 -5112 -5113 0
-5114 5095 0
-5114 5112 0
5114 -5095 -5112 0
5097 5114 -5115 0
5097 -5114 5115 0
-5097 5114 5115 0
-5097 -5114 -5115 0
-5116 5097 0
-5116 5114 0
5116 -5097 -5114 0
5099 5116 -5117 0
5099 -5116 5117 0
-5099 5116 5117 0
-5099 -5116 -5117 0
-5118 5099 0
-5118 5116 0
5118 -5099 -5116 0
-5118 0
5101 268 -5119 0
5101 -268 5119 0
-5101 268 5119 0
-5101 -268 -5119 0
-5120 5101 0
-5120 268 0
5120 -5101 -268 0
5103 5120 -5121 0
5103 -5120 5121 0
-5103 5120 5121 0
-5103 -5120 -5121 0
-5122 5103 0
-5122 5120 0
5122 -5103 -5120 0
5105 5122 -5123 0
5105 -5122 5123 0
-5105 5122 5123 0
-5105 -5122 -5123 0
-5124 5105 0
-5124 5122 0
5124 -5105 -5122 0
5107 5124 -5125 0
5107 -5124 5125 0
-5107 5124 5125 0
-5107 -5124 -5125 0
-5126 5107 0
-5126 5124 0
5126 -5107 -5124 0
5109 5126 -5127 0
5109 -5126 5127 0
-5109 5126 5127 0
-5109 -5126 -5127 0
-5128 5109 0
-5128 5126 0
5128 -5109 -5126 0
5111 5128 -5129 0
5111 -5128 5129 0
-5111 5128 5129 0
-5111 -5128 -5129 0
-5130 5111 0
-5130 5128 0
5130 -5111 -5128 0
5113 5130 -5131 0
5113 -5130 5131 0
-5113 5130 5131 0
-5113 -5130 -5131 0
-5132 5113 0
-5132 5130 0
5132 -5113 -5130 0
5115 5132 -5133 0
5115 -5132 5133 0
-5115 5132 5133 0
-5115 -5132 -5133 0
-5134 5115 0
-5134 5132 0
5134 -5115 -5132 0
5117 5134 -5135 0
5117 -5134 5135 0
-5117 5134 5135 0
-5117 -5134 -5135 0
-5136 5117 0
-5136 5134 0
5136 -5117 -5134 0
-5136 0
5119 269 -5137 0
5119 -269 5137 0
-5119 269 5137 0
-5119 -269 -5137 0
-5138 5119 0
-5138 269 0
5138 -5119 -269 0
5121 5138 -5139 0
5121 -5138 5139 0
-5121 5138 5139 0
-5121 -5138 -5139 0
-5140 5121 0
-5140 5138 0
5140 -5121 -5138 0
5123 5140 -5141 0
5123 -5140 5141 0
-5123 5140 5141 0
-5123 -5140 -5141 0
-5142 5123 0
-5142 5140 0
5142 -5123 -5140 0
5125 5142 -5143 0
5125 -5142 5143 0
-5125 5142 5143 0
-5125 -5142 -5143 0
-5144 5125 0
-5144 5142 0
5144 -5125 -5142 0
5127 5144 -5145 0
5127 -5144 5145 0
-5127 5144 5145 0
-5127 -5144 -5145 0
-5146 5127 0
-5146 5144 0
5146 -5127 -5144 0
5129 5146 -5147 0
5129 -5146 5147 0
-5129 5146 5147 0
-5129 -5146 -5147 0
-5148 5129 0
-5148 5146 0
5148 -5129 -5146 0
5131 5148 -5149 0
5131 -5148 5149 0
-5131 5148 5149 0
-5131 -5148 -5149 0
-5150 5131 0
-5150 5148 0
5150 -5131 -5148 0
5133 5150 -5151 0
5133 -5150 5151 0
-5133 5150 5151 0
-5133 -5150 -5151 0
-5152 5133 0
-5152 5150 0
5152 -5133 -5150 0
5135 5152 -5153 0
5135 -5152 5153 0
-5135 5152 5153 0
-5135 -5152 -5153 0
-5154 5135 0
-5154 5152 0
5154 -5135 -5152 0
-5154 0
5137 270 -5155 0
5137 -270 5155 0
-5137 270 5155 0
-5137 -270 -5155 0
-5156 5137 0
-5156 270 0
5156 -5137 -270 0
5139 5156 -5157 0
5139 -5156 5157 0
-5139 5156 5157 0
-5139 -5156 -5157 0
-5158 5139 0
-5158 5156 0
5158 -5139 -5156 0
5141 5158 -5159 0
5141 -5158 5159 0
-5141 5158 5159 0
-5141 -5158 -5159 0
-5160 5141 0
-5160 5158 0
5160 -5141 -5158 0
5143 5160 -5161 0
5143 -5160 5161 0
-5143 5160 5161 0
-5143 -5160 -5161 0
-5162 5143 0
-5162 5160 0
5162 -5143 -5160 0
5145 5162 -5163 0
5145 -5162 5163 0
-5145 5162 5163 0
-5145 -5162 -5163 0
-5164 5145 0
-5164 5162 0
5164 -5145 -5162 0
5147 5164 -5165 0
5147 -5164 5165 0
-5147 5164 5165 0
-5147 -5164 -5165 0
-5166 5147 0
-5166 5164 0
5166 -5147 -5164 0
5149 5166 -5167 0
5149 -5166 5167 0
-5149 5166 5167 0
-5149 -5166 -5167 0
-5168 5149 0
-5168 5166 0
5168 -5149 -5166 0
5151 5168 -5169 0
5151 -5168 5169 0
-5151 5168 5169 0
-5151 -5168 -5169 0
-5170 5151 0
-5170 5168 0
5170 -5151 -5168 0
5153 5170 -5171 0
5153 -5170 5171 0
-5153 5170 5171 0
-5153 -5170 -5171 0
-5172 5153 0
-5172 5170 0
5172 -5153 -5170 0
-5172 0
5155 271 -5173 0
5155 -271 5173 0
-5155 271 5173 0
-5155 -271 -5173 0
-5174 5155 0
-5174 271 0
5174 -5155 -271 0
5157 5174 -5175 0
5157 -5174 5175 0
-5157 5174 5175 0
-5157 -5174 -5175 0
-5176 5157 0
-5176 5174 0
5176 -5157 -5174 0
5159 5176 -5177 0
5159 -5176 5177 0
-5159 5176 5177 0
-5159 -5176 -5177 0
-5178 5159 0
-5178 5176 0
5178 -5159 -5176 0
5161 5178 -5179 0
5161 -5178 5179 0
-5161 5178 5179 0
-5161 -5178 -5179 0
-5180 5161 0
-5180 5178 0
5180 -5161 -5178 0
5163 5180 -5181 0
5163 -5180 5181 0
-5163 5180 5181 0
-5163 -5180 -5181 0
-5182 5163 0
-5182 5180 0
5182 -5163 -5180 0
5165 5182 -5183 0
5165 -5182 5183 0
-5165 5182 5183 0
-5165 -5182 -5183 0
-5184 5165 0
-5184 5182 0
5184 -5165 -5182 0
5167 5184 -5185 0
5167 -5184 5185 0
-5167 5184 5185 0
-5167 -5184 -5185 0
-5186 5167 0
-5186 5184 0
5186 -5167 -5184 0
5169 5186 -5187 0
5169 -5186 5187 0
-5169 5186 5187 0
-5169 -5186 -5187 0
-5188 5169 0
-5188 5186 0
5188 -5169 -5186 0
5171 5188 -5189 0
5171 -5188 5189 0
-5171 5188 5189 0
-5171 -5188 -5189 0
-5190 5171 0
-5190 5188 0
5190 -5171 -5188 0
-5190 0
5173 272 -5191 0
5173 -272 5191 0
-5173 272 5191 0
-5173 -272 -5191 0
-5192 5173 0
-5192 272 0
5192 -5173 -272 0
5175 5192 -5193 0
5175 -5192 5193 0
-5175 5192 5193 0
-5175 -5192 -5193 0
-5194 5175 0
-5194 5192 0
5194 -5175 -5192 0
5177 5194 -5195 0
5177 -5194 5195 0
-5177 5194 5195 0
-5177 -5194 -5195 0
-5196 5177 0
-5196 5194 0
5196 -5177 -5194 0
5179 5196 -5197 0
5179 -5196 5197 0
-5179 5196 5197 0
-5179 -5196 -5197 0
-5198 5179 0
-5198 5196 0
5198 -5179 -5196 0
5181 5198 -5199 0
5181 -5198 5199 0
-5181 5198 5199 0
-5181 -5198 -5199 0
-5200 5181 0
-5200 5198 0
5200 -5181 -5198 0
5183 5200 -5201 0
5183 -5200 5201 0
-5183 5200 5201 0
-5183 -5200 -5201 0
-5202 5183 0
-5202 5200 0
5202 -5183 -5200 0
5185 5202 -5203 0
5185 -5202 5203 0
-5185 5202 5203 0
-5185 -5202 -5203 0
-5204 5185 0
-5204 5202 0
5204 -5185 -5202 0
5187 5204 -5205 0
5187 -5204 5205 0
-5187 5204 5205 0
-5187 -5204 -5205 0
-5206 5187 0
-5206 5204 0
5206 -5187 -5204 0
5189 5206 -5207 0
5189 -5206 5207 0
-5189 5206 5207 0
-5189 -5206 -5207 0
-5208 5189 0
-5208 5206 0
5208 -5189 -5206 0
-5208 0
5191 273 -5209 0
5191 -273 5209 0
-5191 273 5209 0
-5191 -273 -5209 0
-5210 5191 0
-5210 273 0
5210 -5191 -273 0
5193 5210 -5211 0
5193 -5210 5211 0
-5193 5210 5211 0
-5193 -5210 -5211 0
-5212 5193 0
-5212 5210 0
5212 -5193 -5210 0
5195 5212 -5213 0
5195 -5212 5213 0
-5195 5212 5213 0
-5195 -5212 -5213 0
-5214 5195 0
-5214 5212 0
5214 -5195 -5212 0
5197 5214 -5215 0
5197 -5214 5215 0
-5197 5214 5215 0
-5197 -5214 -5215 0
-5216 5197 0
-5216 5214 0
5216 -5197 -5214 0
5199 5216 -5217 0
5199 -5216 5217 0
-5199 5216 5217 0
-5199 -5216 -5217 0
-5218 5199 0
-5218 5216 0
5218 -5199 -5216 0
5201 5218 -5219 0
5201 -5218 5219 0
-5201 5218 5219 0
-5201 -5218 -5219 0
-5220 5201 0
-5220 5218 0
5220 -5201 -5218 0
5203 5220 -5221 0
5203 -5220 5221 0
-5203 5220 5221 0
-5203 -5220 -5221 0
-5222 5203 0
-5222 5220 0
5222 -5203 -5220 0
5205 5222 -5223 0
5205 -5222 5223 0
-5205 5222 5223 0
-5205 -5222 -5223 0
-5224 5205 0
-5224 5222 0
5224 -5205 -5222 0
5207 5224 -5225 0
5207 -5224 5225 0
-5207 5224 5225 0
-5207 -5224 -5225 0
-5226 5207 0
-5226 5224 0
5226 -5207 -5224 0
-5226 0
5209 274 -5227 0
5209 -274 5227 0
-5209 274 5227 0
-5209 -274 -5227 0
-5228 5209 0
-5228 274 0
5228 -5209 -274 0
5211 5228 -5229 0
5211 -5228 5229 0
-5211 5228 5229 0
-5211 -5228 -5229 0
-5230 5211 0
-5230 5228 0
5230 -5211 -5228 0
5213 5230 -5231 0
5213 -5230 5231 0
-5213 5230 5231 0
-5213 -5230 -5231 0
-5232 5213 0
-5232 5230 0
5232 -5213 -5230 0
5215 5232 -5233 0
5215 -5232 5233 0
-5215 5232 5233 0
-5215 -5232 -5233 0
-5234 5215 0
-5234 5232 0
5234 -5215 -5232 0
5217 5234 -5235 0
5217 -5234 5235 0
-5217 5234 5235 0
-5217 -5234 -5235 0
-5236 5217 0
-5236 5234 0
5236 -5217 -5234 0
5219 5236 -5237 0
5219 -5236 5237 0
-5219 5236 5237 0
-5219 -5236 -5237 0
-5238 5219 0
-5238 5236 0
5238 -5219 -5236 0
5221 5238 -5239 0
5221 -5238 5239 0
-5221 5238 5239 0
-5221 -5238 -5239 0
-5240 5221 0
-5240 5238 0
5240 -5221 -5238 0
5223 5240 -5241 0
5223 -5240 5241 0
-5223 5240 5241 0
-5223 -5240 -5241 0
-5242 5223 0
-5242 5240 0
5242 -5223 -5240 0
5225 5242 -5243 0
5225 -5242 5243 0
-5225 5242 5243 0
-5225 -5242 -5243 0
-5244 5225 0
-5244 5242 0
5244 -5225 -5242 0
-5244 0
5227 275 -5245 0
5227 -275 5245 0
-5227 275 5245 0
-5227 -275 -5245 0
-5246 5227 0
-5246 275 0
5246 -5227 -275 0
5229 5246 -5247 0
5229 -5246 5247 0
-5229 5246 5247 0
-5229 -5246 -5247 0
-5248 5229 0
-5248 5246 0
5248 -5229 -5246 0
5231 5248 -5249 0
5231 -5248 5249 0
-5231 5248 5249 0
-5231 -5248 -5249 0
-5250 5231 0
-5250 5248 0
5250 -5231 -5248 0
5233 5250 -5251 0
5233 -5250 5251 0
-5233 5250 5251 0
-5233 -5250 -5251 0
-5252 5233 0
-5252 5250 0
5252 -5233 -5250 0
5235 5252 -5253 0
5235 -5252 5253 0
-5235 5252 5253 0
-5235 -5252 -5253 0
-5254 5235 0
-5254 5252 0
5254 -5235 -5252 0
5237 5254 -5255 0
5237 -5254 5255 0
-5237 5254 5255 0
-5237 -5254 -5255 0
-5256 5237 0
-5256 5254 0
5256 -5237 -5254 0
5239 5256 -5257 0
5239 -5256 5257 0
-5239 5256 5257 0
-5239 -5256 -5257 0
-5258 5239 0
-5258 5256 0
5258 -5239 -5256 0
5241 5258 -5259 0
5241 -5258 5259 0
-5241 5258 5259 0
-5241 -5258 -5259 0
-5260 5241 0
-5260 5258 0
5260 -5241 -5258 0
5243 5260 -5261 0
5243 -5260 5261 0
-5243 5260 5261 0
-5243 -5260 -5261 0
-5262 5243 0
-5262 5260 0
5262 -5243 -5260 0
-5262 0
5245 276 -5263 0
5245 -276 5263 0
-5245 276 5263 0
-5245 -276 -5263 0
-5264 5245 0
-5264 276 0
5264 -5245 -276 0
5247 5264 -5265 0
5247 -5264 5265 0
-5247 5264 5265 0
-5247 -5264 -5265 0
-5266 5247 0
-5266 5264 0
5266 -5247 -5264 0
5249 5266 -5267 0
5249 -5266 5267 0
-5249 5266 5267 0
-5249 -5266 -5267 0
-5268 5249 0
-5268 5266 0
5268 -5249 -5266 0
5251 5268 -5269 0
5251 -5268 5269 0
-5251 5268 5269 0
-5251 -5268 -5269 0
-5270 5251 0
-5270 5268 0
5270 -5251 -5268 0
5253 5270 -5271 0
5253 -5270 5271 0
-5253 5270 5271 0
-5253 -5270 -5271 0
-5272 5253 0
-5272 5270 0
5272 -5253 -5270 0
5255 5272 -5273 0
5255 -5272 5273 0
-5255 5272 5273 0
-5255 -5272 -5273 0
-5274 5255 0
-5274 5272 0
5274 -5255 -5272 0
5257 5274 -5275 0
5257 -5274 5275 0
-5257 5274 5275 0
-5257 -5274 -5275 0
-5276 5257 0
-5276 5274 0
5276 -5257 -5274 0
5259 5276 -5277 0
5259 -5276 5277 0
-5259 5276 5277 0
-5259 -5276 -5277 0
-5278 5259 0
-5278 5276 0
5278 -5259 -5276 0
5261 5278 -5279 0
5261 -5278 5279 0
-5261 5278 5279 0
-5261 -5278 -5279 0
-5280 5261 0
-5280 5278 0
5280 -5261 -5278 0
-5280 0
5263 277 -5281 0
5263 -277 5281 0
-5263 277 5281 0
-5263 -277 -5281 0
-5282 5263 0
-5282 277 0
5282 -5263 -277 0
5265 5282 -5283 0
5265 -5282 5283 0
-5265 5282 5283 0
-5265 -5282 -5283 0
-5284 5265 0
-5284 5282 0
5284 -5265 -5282 0
5267 5284 -5285 0
5267 -5284 5285 0
-5267 5284 5285 0
-5267 -5284 -5285 0
-5286 5267 0
-5286 5284 0
5286 -5267 -5284 0
5269 5286 -5287 0
5269 -5286 5287 0
-5269 5286 5287 0
-5269 -5286 -5287 0
-5288 5269 0
-5288 5286 0
5288 -5269 -5286 0
5271 5288 -5289 0
5271 -5288 5289 0
-5271 5288 5289 0
-5271 -5288 -5289 0
-5290 5271 0
-5290 5288 0
5290 -5271 -5288 0
5273 5290 -5291 0
5273 -5290 5291 0
-5273 5290 5291 0
-5273 -5290 -5291 0
-5292 5273 0
-5292 5290 0
5292 -5273 -5290 0
5275 5292 -5293 0
5275 -5292 5293 0
-5275 5292 5293 0
-5275 -5292 -5293 0
-5294 5275 0
-5294 5292 0
5294 -5275 -5292 0
5277 5294 -5295 0
5277 -5294 5295 0
-5277 5294 5295 0
-5277 -5294 -5295 0
-5296 5277 0
-5296 5294 0
5296 -5277 -5294 0
5279 5296 -5297 0
5279 -5296 5297 0
-5279 5296 5297 0
-5279 -5296 -5297 0
-5298 5279 0
-5298 5296 0
5298 -5279 -5296 0
-5298 0
5281 278 -5299 0
5281 -278 5299 0
-5281 278 5299 0
-5281 -278 -5299 0
-5300 5281 0
-5300 278 0
5300 -5281 -278 0
5283 5300 -5301 0
5283 -5300 5301 0
-5283 5300 5301 0
-5283 -5300 -5301 0
-5302 5283 0
-5302 5300 0
5302 -5283 -5300 0
5285 5302 -5303 0
5285 -5302 5303 0
-5285 5302 5303 0
-5285 -5302 -5303 0
-5304 5285 0
-5304 5302 0
5304 -5285 -5302 0
5287 5304 -5305 0
5287 -5304 5305 0
-5287 5304 5305 0
-5287 -5304 -5305 0
-5306 5287 0
-5306 5304 0
5306 -5287 -5304 0
5289 5306 -5307 0
5289 -5306 5307 0
-5289 5306 5307 0
-5289 -5306 -5307 0
-5308 5289 0
-5308 5306 0
5308 -5289 -5306 0
5291 5308 -5309 0
5291 -5308 5309 0
-5291 5308 5309 0
-5291 -5308 -5309 0
-5310 5291 0
-5310 5308 0
5310 -5291 -5308 0
5293 5310 -5311 0
5293 -5310 5311 0
-5293 5310 5311 0
-5293 -5310 -5311 0
-5312 5293 0
-5312 5310 0
5312 -5293 -5310 0
5295 5312 -5313 0
5295 -5312 5313 0
-5295 5312 5313 0
-5295 -5312 -5313 0
-5314 5295 0
-5314 5312 0
5314 -5295 -5312 0
5297 5314 -5315 0
5297 -5314 5315 0
-5297 5314 5315 0
-5297 -5314 -5315 0
-5316 5297 0
-5316 5314 0
5316 -5297 -5314 0
-5316 0
5299 279 -5317 0
5299 -279 5317 0
-5299 279 5317 0
-5299 -279 -5317 0
-5318 5299 0
-5318 279 0
5318 -5299 -279 0
5301 5318 -5319 0
5301 -5318 5319 0
-5301 5318 5319 0
-5301 -5318 -5319 0
-5320 5301 0
-5320 5318 0
5320 -5301 -5318 0
5303 5320 -5321 0
5303 -5320 5321 0
-5303 5320 5321 0
-5303 -5320 -5321 0
-5322 5303 0
-5322 5320 0
5322 -5303 -5320 0
5305 5322 -5323 0
5305 -5322 5323 0
-5305 5322 5323 0
-5305 -5322 -5323 0
-5324 5305 0
-5324 5322 0
5324 -5305 -5322 0
5307 5324 -5325 0
5307 -5324 5325 0
-5307 5324 5325 0
-5307 -5324 -5325 0
-5326 5307 0
-5326 5324 0
5326 -5307 -5324 0
5309 5326 -5327 0
5309 -5326 5327 0
-5309 5326 5327 0
-5309 -5326 -5327 0
-5328 5309 0
-5328 5326 0
5328 -5309 -5326 0
5311 5328 -5329 0
5311 -5328 5329 0
-5311 5328 5329 0
-5311 -5328 -5329 0
-5330 5311 0
-5330 5328 0
5330 -5311 -5328 0
5313 5330 -5331 0
5313 -5330 5331 0
-5313 5330 5331 0
-5313 -5330 -5331 0
-5332 5313 0
-5332 5330 0
5332 -5313 -5330 0
5315 5332 -5333 0
5315 -5332 5333 0
-5315 5332 5333 0
-5315 -5332 -5333 0
-5334 5315 0
-5334 5332 0
5334 -5315 -5332 0
-5334 0
5317 280 -5335 0
5317 -280 5335 0
-5317 280 5335 0
-5317 -280 -5335 0
-5336 5317 0
-5336 280 0
5336 -5317 -280 0
5319 5336 -5337 0
5319 -5336 5337 0
-5319 5336 5337 0
-5319 -5336 -5337 0
-5338 5319 0
-5338 5336 0
5338 -5319 -5336 0
5321 5338 -5339 0
5321 -5338 5339 0
-5321 5338 5339 0
-5321 -5338 -5339 0
-5340 5321 0
-5340 5338 0
5340 -5321 -5338 0
5323 5340 -5341 0
5323 -5340 5341 0
-5323 5340 5341 0
-5323 -5340 -5341 0
-5342 5323 0
-5342 5340 0
5342 -5323 -5340 0
5325 5342 -5343 0
5325 -5342 5343 0
-5325 5342 5343 0
-5325 -5342 -5343 0
-5344 5325 0
-5344 5342 0
5344 -5325 -5342 0
5327 5344 -5345 0
5327 -5344 5345 0
-5327 5344 5345 0
-5327 -5344 -5345 0
-5346 5327 0
-5346 5344 0
5346 -5327 -5344 0
5329 5346 -5347 0
5329 -5346 5347 0
-5329 5346 5347 0
-5329 -5346 -5347 0
-5348 5329 0
-5348 5346 0
5348 -5329 -5346 0
5331 5348 -5349 0
5331 -5348 5349 0
-5331 5348 5349 0
-5331 -5348 -5349 0
-5350 5331 0
-5350 5348 0
5350 -5331 -5348 0
5333 5350 -5351 0
5333 -5350 5351 0
-5333 5350 5351 0
-5333 -5350 -5351 0
-5352 5333 0
-5352 5350 0
5352 -5333 -5350 0
-5352 0
5335 281 -5353 0
5335 -281 5353 0
-5335 281 5353 0
-5335 -281 -5353 0
-5354 5335 0
-5354 281 0
5354 -5335 -281 0
5337 5354 -5355 0
5337 -5354 5355 0
-5337 5354 5355 0
-5337 -5354 -5355 0
-5356 5337 0
-5356 5354 0
5356 -5337 -5354 0
5339 5356 -5357 0
5339 -5356 5357 0
-5339 5356 5357 0
-5339 -5356 -5357 0
-5358 5339 0
-5358 5356 0
5358 -5339 -5356 0
5341 5358 -5359 0
5341 -5358 5359 0
-5341 5358 5359 0
-5341 -5358 -5359 0
-5360 5341 0
-5360 5358 0
5360 -5341 -5358 0
5343 5360 -5361 0
5343 -5360 5361 0
-5343 5360 5361 0
-5343 -5360 -5361 0
-5362 5343 0
-5362 5360 0
5362 -5343 -5360 0
5345 5362 -5363 0
5345 -5362 5363 0
-5345 5362 5363 0
-5345 -5362 -5363 0
-5364 5345 0
-5364 5362 0
5364 -5345 -5362 0
5347 5364 -5365 0
5347 -5364 5365 0
-5347 5364 5365 0
-5347 -5364 -5365 0
-5366 5347 0
-5366 5364 0
5366 -5347 -5364 0
5349 5366 -5367 0
5349 -5366 5367 0
-5349 5366 5367 0
-5349 -5366 -5367 0
-5368 5349 0
-5368 5366 0
5368 -5349 -5366 0
5351 5368 -5369 0
5351 -5368 5369 0
-5351 5368 5369 0
-5351 -5368 -5369 0
-5370 5351 0
-5370 5368 0
5370 -5351 -5368 0
-5370 0
5353 282 -5371 0
5353 -282 5371 0
-5353 282 5371 0
-5353 -282 -5371 0
-5372 5353 0
-5372 282 0
5372 -5353 -282 0
5355 5372 -5373 0
5355 -5372 5373 0
-5355 5372 5373 0
-5355 -5372 -5373 0
-5374 5355 0
-5374 5372 0
5374 -5355 -5372 0
5357 5374 -5375 0
5357 -5374 5375 0
-5357 5374 5375 0
-5357 -5374 -5375 0
-5376 5357 0
-5376 5374 0
5376 -5357 -5374 0
5359 5376 -5377 0
5359 -5376 5377 0
-5359 5376 5377 0
-5359 -5376 -5377 0
-5378 5359 0
-5378 5376 0
5378 -5359 -5376 0
5361 5378 -5379 0
5361 -5378 5379 0
-5361 5378 5379 0
-5361 -5378 -5379 0
-5380 5361 0
-5380 5378 0
5380 -5361 -5378 0
5363 5380 -5381 0
5363 -5380 5381 0
-5363 5380 5381 0
-5363 -5380 -5381 0
-5382 5363 0
-5382 5380 0
5382 -5363 -5380 0
5365 5382 -5383 0
5365 -5382 5383 0
-5365 5382 5383 0
-5365 -5382 -5383 0
-5384 5365 0
-5384 5382 0
5384 -5365 -5382 0
5367 5384 -5385 0
5367 -5384 5385 0
-5367 5384 5385 0
-5367 -5384 -5385 0
-5386 5367 0
-5386 5384 0
5386 -5367 -5384 0
5369 5386 -5387 0
5369 -5386 5387 0
-5369 5386 5387 0
-5369 -5386 -5387 0
-5388 5369 0
-5388 5386 0
5388 -5369 -5386 0
-5388 0
5371 283 -5389 0
5371 -283 5389 0
-5371 283 5389 0
-5371 -283 -5389 0
-5390 5371 0
-5390 283 0
5390 -5371 -283 0
5373 5390 -5391 0
5373 -5390 5391 0
-5373 5390 5391 0
-5373 -5390 -5391 0
-5392 5373 0
-5392 5390 0
5392 -5373 -5390 0
5375 5392 -5393 0
5375 -5392 5393 0
-5375 5392 5393 0
-5375 -5392 -5393 0
-5394 5375 0
-5394 5392 0
5394 -5375 -5392 0
5377 5394 -5395 0
5377 -5394 5395 0
-5377 5394 5395 0
-5377 -5394 -5395 0
-5396 5377 0
-5396 5394 0
5396 -5377 -5394 0
5379 5396 -5397 0
5379 -5396 5397 0
-5379 5396 5397 0
-5379 -5396 -5397 0
-5398 5379 0
-5398 5396 0
5398 -5379 -5396 0
5381 5398 -5399 0
5381 -5398 5399 0
-5381 5398 5399 0
-5381 -5398 -5399 0
-5400 5381 0
-5400 5398 0
5400 -5381 -5398 0
5383 5400 -5401 0
5383 -5400 5401 0
-5383 5400 5401 0
-5383 -5400 -5401 0
-5402 5383 0
-5402 5400 0
5402 -5383 -5400 0
5385 5402 -5403 0
5385 -5402 5403 0
-5385 5402 5403 0
-5385 -5402 -5403 0
-5404 5385 0
-5404 5402 0
5404 -5385 -5402 0
5387 5404 -5405 0
5387 -5404 5405 0
-5387 5404 5405 0
-5387 -5404 -5405 0
-5406 5387 0
-5406 5404 0
5406 -5387 -5404 0
-5406 0
5389 284 -5407 0
5389 -284 5407 0
-5389 284 5407 0
-5389 -284 -5407 0
-5408 5389 0
-5408 284 0
5408 -5389 -284 0
5391 5408 -5409 0
5391 -5408 5409 0
-5391 5408 5409 0
-5391 -5408 -5409 0
-5410 5391 0
-5410 5408 0
5410 -5391 -5408 0
5393 5410 -5411 0
5393 -5410 5411 0
-5393 5410 5411 0
-5393 -5410 -5411 0
-5412 5393 0
-5412 5410 0
5412 -5393 -5410 0
5395 5412 -5413 0
5395 -5412 5413 0
-5395 5412 5413 0
-5395 -5412 -5413 0
-5414 5395 0
-5414 5412 0
5414 -5395 -5412 0
5397 5414 -5415 0
5397 -5414 5415 0
-5397 5414 5415 0
-5397 -5414 -5415 0
-5416 5397 0
-5416 5414 0
5416 -5397 -5414 0
5399 5416 -5417 0
5399 -5416 5417 0
-5399 5416 5417 0
-5399 -5416 -5417 0
-5418 5399 0
-5418 5416 0
5418 -5399 -5416 0
5401 5418 -5419 0
5401 -5418 5419 0
-5401 5418 5419 0
-5401 -5418 -5419 0
-5420 5401 0
-5420 5418 0
5420 -5401 -5418 0
5403 5420 -5421 0
5403 -5420 5421 0
-5403 5420 5421 0
-5403 -5420 -5421 0
-5422 5403 0
-5422 5420 0
5422 -5403 -5420 0
5405 5422 -5423 0
5405 -5422 5423 0
-5405 5422 5423 0
-5405 -5422 -5423 0
-5424 5405 0
-5424 5422 0
5424 -5405 -5422 0
-5424 0
5407 285 -5425 0
5407 -285 5425 0
-5407 285 5425 0
-5407 -285 -5425 0
-5426 5407 0
-5426 285 0
5426 -5407 -285 0
5409 5426 -5427 0
5409 -5426 5427 0
-5409 5426 5427 0
-5409 -5426 -5427 0
-5428 5409 0
-5428 5426 0
5428 -5409 -5426 0
5411 5428 -5429 0
5411 -5428 5429 0
-5411 5428 5429 0
-5411 -5428 -5429 0
-5430 5411 0
-5430 5428 0
5430 -5411 -5428 0
5413 5430 -5431 0
5413 -5430 5431 0
-5413 5430 5431 0
-5413 -5430 -5431 0
-5432 5413 0
-5432 5430 0
5432 -5413 -5430 0
5415 5432 -5433 0
5415 -5432 5433 0
-5415 5432 5433 0
-5415 -5432 -5433 0
-5434 5415 0
-5434 5432 0
5434 -5415 -5432 0
5417 5434 -5435 0
5417 -5434 5435 0
-5417 5434 5435 0
-5417 -5434 -5435 0
-5436 5417 0
-5436 5434 0
5436 -5417 -5434 0
5419 5436 -5437 0
5419 -5436 5437 0
-5419 5436 5437 0
-5419 -5436 -5437 0
-5438 5419 0
-5438 5436 0
5438 -5419 -5436 0
5421 5438 -5439 0
5421 -5438 5439 0
-5421 5438 5439 0
-5421 -5438 -5439 0
-5440 5421 0
-5440 5438 0
5440 -5421 -5438 0
5423 5440 -5441 0
5423 -5440 5441 0
-5423 5440 5441 0
-5423 -5440 -5441 0
-5442 5423 0
-5442 5440 0
5442 -5423 -5440 0
-5442 0
5425 286 -5443 0
5425 -286 5443 0
-5425 286 5443 0
-5425 -286 -5443 0
-5444 5425 0
-5444 286 0
5444 -5425 -286 0
5427 5444 -5445 0
5427 -5444 5445 0
-5427 5444 5445 0
-5427 -5444 -5445 0
-5446 5427 0
-5446 5444 0
5446 -5427 -5444 0
5429 5446 -5447 0
5429 -5446 5447 0
-5429 5446 5447 0
-5429 -5446 -5447 0
-5448 5429 0
-5448 5446 0
5448 -5429 -5446 0
5431 5448 -5449 0
5431 -5448 5449 0
-5431 5448 5449 0
-5431 -5448 -5449 0
-5450 5431 0
-5450 5448 0
5450 -5431 -5448 0
5433 5450 -5451 0
5433 -5450 5451 0
-5433 5450 5451 0
-5433 -5450 -5451 0
-5452 5433 0
-5452 5450 0
5452 -5433 -5450 0
5435 5452 -5453 0
5435 -5452 5453 0
-5435 5452 5453 0
-5435 -5452 -5453 0
-5454 5435 0
-5454 5452 0
5454 -5435 -5452 0
5437 5454 -5455 0
5437 -5454 5455 0
-5437 5454 5455 0
-5437 -5454 -5455 0
-5456 5437 0
-5456 5454 0
5456 -5437 -5454 0
5439 5456 -5457 0
5439 -5456 5457 0
-5439 5456 5457 0
-5439 -5456 -5457 0
-5458 5439 0
-5458 5456 0
5458 -5439 -5456 0
5441 5458 -5459 0
5441 -5458 5459 0
-5441 5458 5459 0
-5441 -5458 -5459 0
-5460 5441 0
-5460 5458 0
5460 -5441 -5458 0
-5460 0
5443 287 -5461 0
5443 -287 5461 0
-5443 287 5461 0
-5443 -287 -5461 0
-5462 5443 0
-5462 287 0
5462 -5443 -287 0
5445 5462 -5463 0
5445 -5462 5463 0
-5445 5462 5463 0
-5445 -5462 -5463 0
-5464 5445 0
-5464 5462 0
5464 -5445 -5462 0
5447 5464 -5465 0
5447 -5464 5465 0
-5447 5464 5465 0
-5447 -5464 -5465 0
-5466 5447 0
-5466 5464 0
5466 -5447 -5464 0
5449 5466 -5467 0
5449 -5466 5467 0
-5449 5466 5467 0
-5449 -5466 -5467 0
-5468 5449 0
-5468 5466 0
5468 -5449 -5466 0
5451 5468 -5469 0
5451 -5468 5469 0
-5451 5468 5469 0
-5451 -5468 -5469 0
-5470 5451 0
-5470 5468 0
5470 -5451 -5468 0
5453 5470 -5471 0
5453 -5470 5471 0
-5453 5470 5471 0
-5453 -5470 -5471 0
-5472 5453 0
-5472 5470 0
5472 -5453 -5470 0
5455 5472 -5473 0
5455 -5472 5473 0
-5455 5472 5473 0
-5455 -5472 -5473 0
-5474 5455 0
-5474 5472 0
5474 -5455 -5472 0
5457 5474 -5475 0
5457 -5474 5475 0
-5457 5474 5475 0
-5457 -5474 -5475 0
-5476 5457 0
-5476 5474 0
5476 -5457 -5474 0
5459 5476 -5477 0
5459 -5476 5477 0
-5459 5476 5477 0
-5459 -5476 -5477 0
-5478 5459 0
-5478 5476 0
5478 -5459 -5476 0
-5478 0
5461 288 -5479 0
5461 -288 5479 0
-5461 288 5479 0
-5461 -288 -5479 0
-5480 5461 0
-5480 288 0
5480 -5461 -288 0
5463 5480 -5481 0
5463 -5480 5481 0
-5463 5480 5481 0
-5463 -5480 -5481 0
-5482 5463 0
-5482 5480 0
5482 -5463 -5480 0
5465 5482 -5483 0
5465 -5482 5483 0
-5465 5482 5483 0
-5465 -5482 -5483 0
-5484 5465 0
-5484 5482 0
5484 -5465 -5482 0
5467 5484 -5485 0
5467 -5484 5485 0
-5467 5484 5485 0
-5467 -5484 -5485 0
-5486 5467 0
-5486 5484 0
5486 -5467 -5484 0
5469 5486 -5487 0
5469 -5486 5487 0
-5469 5486 5487 0
-5469 -5486 -5487 0
-5488 5469 0
-5488 5486 0
5488 -5469 -5486 0
5471 5488 -5489 0
5471 -5488 5489 0
-5471 5488 5489 0
-5471 -5488 -5489 0
-5490 5471 0
-5490 5488 0
5490 -5471 -5488 0
5473 5490 -5491 0
5473 -5490 5491 0
-5473 5490 5491 0
-5473 -5490 -5491 0
-5492 5473 0
-5492 5490 0
5492 -5473 -5490 0
5475 5492 -5493 0
5475 -5492 5493 0
-5475 5492 5493 0
-5475 -5492 -5493 0
-5494 5475 0
-5494 5492 0
5494 -5475 -5492 0
5477 5494 -5495 0
5477 -5494 5495 0
-5477 5494 5495 0
-5477 -5494 -5495 0
-5496 5477 0
-5496 5494 0
5496 -5477 -5494 0
-5496 0
5479 289 -5497 0
5479 -289 5497 0
-5479 289 5497 0
-5479 -289 -5497 0
-5498 5479 0
-5498 289 0
5498 -5479 -289 0
5481 5498 -5499 0
5481 -5498 5499 0
-5481 5498 5499 0
-5481 -5498 -5499 0
-5500 5481 0
-5500 5498 0
5500 -5481 -5498 0
5483 5500 -5501 0
5483 -5500 5501 0
-5483 5500 5501 0
-5483 -5500 -5501 0
-5502 5483 0
-5502 5500 0
5502 -5483 -5500 0
5485 5502 -5503 0
5485 -5502 5503 0
-5485 5502 5503 0
-5485 -5502 -5503 0
-5504 5485 0
-5504 5502 0
5504 -5485 -5502 0
5487 5504 -5505 0
5487 -5504 5505 0
-5487 5504 5505 0
-5487 -5504 -5505 0
-5506 5487 0
-5506 5504 0
5506 -5487 -5504 0
5489 5506 -5507 0
5489 -5506 5507 0
-5489 5506 5507 0
-5489 -5506 -5507 0
-5508 5489 0
-5508 5506 0
5508 -5489 -5506 0
5491 5508 -5509 0
5491 -5508 5509 0
-5491 5508 5509 0
-5491 -5508 -5509 0
-5510 5491 0
-5510 5508 0
5510 -5491 -5508 0
5493 5510 -5511 0
5493 -5510 5511 0
-5493 5510 5511 0
-5493 -5510 -5511 0
-5512 5493 0
-5512 5510 0
5512 -5493 -5510 0
5495 5512 -5513 0
5495 -5512 5513 0
-5495 5512 5513 0
-5495 -5512 -5513 0
-5514 5495 0
-5514 5512 0
5514 -5495 -5512 0
-5514 0
5497 290 -5515 0
5497 -290 5515 0
-5497 290 5515 0
-5497 -290 -5515 0
-5516 5497 0
-5516 290 0
5516 -5497 -290 0
5499 5516 -5517 0
5499 -5516 5517 0
-5499 5516 5517 0
-5499 -5516 -5517 0
-5518 5499 0
-5518 5516 0
5518 -5499 -5516 0
5501 5518 -5519 0
5501 -5518 5519 0
-5501 5518 5519 0
-5501 -5518 -5519 0
-5520 5501 0
-5520 5518 0
5520 -5501 -5518 0
5503 5520 -5521 0
5503 -5520 5521 0
-5503 5520 5521 0
-5503 -5520 -5521 0
-5522 5503 0
-5522 5520 0
5522 -5503 -5520 0
5505 5522 -5523 0
5505 -5522 5523 0
-5505 5522 5523 0
-5505 -5522 -5523 0
-5524 5505 0
-5524 5522 0
5524 -5505 -5522 0
5507 5524 -5525 0
5507 -5524 5525 0
-5507 5524 5525 0
-5507 -5524 -5525 0
-5526 5507 0
-5526 5524 0
5526 -5507 -5524 0
5509 5526 -5527 0
5509 -5526 5527 0
-5509 5526 5527 0
-5509 -5526 -5527 0
-5528 5509 0
-5528 5526 0
5528 -5509 -5526 0
5511 5528 -5529 0
5511 -5528 5529 0
-5511 5528 5529 0
-5511 -5528 -5529 0
-5530 5511 0
-5530 5528 0
5530 -5511 -5528 0
5513 5530 -5531 0
5513 -5530 5531 0
-5513 5530 5531 0
-5513 -5530 -5531 0
-5532 5513 0
-5532 5530 0
5532 -5513 -5530 0
-5532 0
5515 291 -5533 0
5515 -291 5533 0
-5515 291 5533 0
-5515 -291 -5533 0
-5534 5515 0
-5534 291 0
5534 -5515 -291 0
5517 5534 -5535 0
5517 -5534 5535 0
-5517 5534 5535 0
-5517 -5534 -5535 0
-5536 5517 0
-5536 5534 0
5536 -5517 -5534 0
5519 5536 -5537 0
5519 -5536 5537 0
-5519 5536 5537 0
-5519 -5536 -5537 0
-5538 5519 0
-5538 5536 0
5538 -5519 -5536 0
5521 5538 -5539 0
5521 -5538 5539 0
-5521 5538 5539 0
-5521 -5538 -5539 0
-5540 5521 0
-5540 5538 0
5540 -5521 -5538 0
5523 5540 -5541 0
5523 -5540 5541 0
-5523 5540 5541 0
-5523 -5540 -5541 0
-5542 5523 0
-5542 5540 0
5542 -5523 -5540 0
5525 5542 -5543 0
5525 -5542 5543 0
-5525 5542 5543 0
-5525 -5542 -5543 0
-5544 5525 0
-5544 5542 0
5544 -5525 -5542 0
5527 5544 -5545 0
5527 -5544 5545 0
-5527 5544 5545 0
-5527 -5544 -5545 0
-5546 5527 0
-5546 5544 0
5546 -5527 -5544 0
5529 5546 -5547 0
5529 -5546 5547 0
-5529 5546 5547 0
-5529 -5546 -5547 0
-5548 5529 0
-5548 5546 0
5548 -5529 -5546 0
5531 5548 -5549 0
5531 -5548 5549 0
-5531 5548 5549 0
-5531 -5548 -5549 0
-5550 5531 0
-5550 5548 0
5550 -5531 -5548 0
-5550 0
5533 292 -5551 0
5533 -292 5551 0
-5533 292 5551 0
-5533 -292 -5551 0
-5552 5533 0
-5552 292 0
5552 -5533 -292 0
5535 5552 -5553 0
5535 -5552 5553 0
-5535 5552 5553 0
-5535 -5552 -5553 0
-5554 5535 0
-5554 5552 0
5554 -5535 -5552 0
5537 5554 -5555 0
5537 -5554 5555 0
-5537 5554 5555 0
-5537 -5554 -5555 0
-5556 5537 0
-5556 5554 0
5556 -5537 -5554 0
5539 5556 -5557 0
5539 -5556 5557 0
-5539 5556 5557 0
-5539 -5556 -5557 0
-5558 5539 0
-5558 5556 0
5558 -5539 -5556 0
5541 5558 -5559 0
5541 -5558 5559 0
-5541 5558 5559 0
-5541 -5558 -5559 0
-5560 5541 0
-5560 5558 0
5560 -5541 -5558 0
5543 5560 -5561 0
5543 -5560 5561 0
-5543 5560 5561 0
-5543 -5560 -5561 0
-5562 5543 0
-5562 5560 0
5562 -5543 -5560 0
5545 5562 -5563 0
5545 -5562 5563 0
-5545 5562 5563 0
-5545 -5562 -5563 0
-5564 5545 0
-5564 5562 0
5564 -5545 -5562 0
5547 5564 -5565 0
5547 -5564 5565 0
-5547 5564 5565 0
-5547 -5564 -5565 0
-5566 5547 0
-5566 5564 0
5566 -5547 -5564 0
5549 5566 -5567 0
5549 -5566 5567 0
-5549 5566 5567 0
-5549 -5566 -5567 0
-5568 5549 0
-5568 5566 0
5568 -5549 -5566 0
-5568 0
5551 293 -5569 0
5551 -293 5569 0
-5551 293 5569 0
-5551 -293 -5569 0
-5570 5551 0
-5570 293 0
5570 -5551 -293 0
5553 5570 -5571 0
5553 -5570 5571 0
-5553 5570 5571 0
-5553 -5570 -5571 0
-5572 5553 0
-5572 5570 0
5572 -5553 -5570 0
5555 5572 -5573 0
5555 -5572 5573 0
-5555 5572 5573 0
-5555 -5572 -5573 0
-5574 5555 0
-5574 5572 0
5574 -5555 -5572 0
5557 5574 -5575 0
5557 -5574 5575 0
-5557 5574 5575 0
-5557 -5574 -5575 0
-5576 5557 0
-5576 5574 0
5576 -5557 -5574 0
5559 5576 -5577 0
5559 -5576 5577 0
-5559 5576 5577 0
-5559 -5576 -5577 0
-5578 5559 0
-5578 5576 0
5578 -5559 -5576 0
5561 5578 -5579 0
5561 -5578 5579 0
-5561 5578 5579 0
-5561 -5578 -5579 0
-5580 5561 0
-5580 5578 0
5580 -5561 -5578 0
5563 5580 -5581 0
5563 -5580 5581 0
-5563 5580 5581 0
-5563 -5580 -5581 0
-5582 5563 0
-5582 5580 0
5582 -5563 -5580 0
5565 5582 -5583 0
5565 -5582 5583 0
-5565 5582 5583 0
-5565 -5582 -5583 0
-5584 5565 0
-5584 5582 0
5584 -5565 -5582 0
5567 5584 -5585 0
5567 -5584 5585 0
-5567 5584 5585 0
-5567 -5584 -5585 0
-5586 5567 0
-5586 5584 0
5586 -5567 -5584 0
-5586 0
5569 294 -5587 0
5569 -294 5587 0
-5569 294 5587 0
-5569 -294 -5587 0
-5588 5569 0
-5588 294 0
5588 -5569 -294 0
5571 5588 -5589 0
5571 -5588 5589 0
-5571 5588 5589 0
-5571 -5588 -5589 0
-5590 5571 0
-5590 5588 0
5590 -5571 -5588 0
5573 5590 -5591 0
5573 -5590 5591 0
-5573 5590 5591 0
-5573 -5590 -5591 0
-5592 5573 0
-5592 5590 0
5592 -5573 -5590 0
5575 5592 -5593 0
5575 -5592 5593 0
-5575 5592 5593 0
-5575 -5592 -5593 0
-5594 5575 0
-5594 5592 0
5594 -5575 -5592 0
5577 5594 -5595 0
5577 -5594 5595 0
-5577 5594 5595 0
-5577 -5594 -5595 0
-5596 5577 0
-5596 5594 0
5596 -5577 -5594 0
5579 5596 -5597 0
5579 -5596 5597 0
-5579 5596 5597 0
-5579 -5596 -5597 0
-5598 5579 0
-5598 5596 0
5598 -5579 -5596 0
5581 5598 -5599 0
5581 -5598 5599 0
-5581 5598 5599 0
-5581 -5598 -5599 0
-5600 5581 0
-5600 5598 0
5600 -5581 -5598 0
5583 5600 -5601 0
5583 -5600 5601 0
-5583 5600 5601 0
-5583 -5600 -5601 0
-5602 5583 0
-5602 5600 0
5602 -5583 -5600 0
5585 5602 -5603 0
5585 -5602 5603 0
-5585 5602 5603 0
-5585 -5602 -5603 0
-5604 5585 0
-5604 5602 0
5604 -5585 -5602 0
-5604 0
5587 295 -5605 0
5587 -295 5605 0
-5587 295 5605 0
-5587 -295 -5605 0
-5606 5587 0
-5606 295 0
5606 -5587 -295 0
5589 5606 -5607 0
5589 -5606 5607 0
-5589 5606 5607 0
-5589 -5606 -5607 0
-5608 5589 0
-5608 5606 0
5608 -5589 -5606 0
5591 5608 -5609 0
5591 -5608 5609 0
-5591 5608 5609 0
-5591 -5608 -5609 0
-5610 5591 0
-5610 5608 0
5610 -5591 -5608 0
5593 5610 -5611 0
5593 -5610 5611 0
-5593 5610 5611 0
-5593 -5610 -5611 0
-5612 5593 0
-5612 5610 0
5612 -5593 -5610 0
5595 5612 -5613 0
5595 -5612 5613 0
-5595 5612 5613 0
-5595 -5612 -5613 0
-5614 5595 0
-5614 5612 0
5614 -5595 -5612 0
5597 5614 -5615 0
5597 -5614 5615 0
-5597 5614 5615 0
-5597 -5614 -5615 0
-5616 5597 0
-5616 5614 0
5616 -5597 -5614 0
5599 5616 -5617 0
5599 -5616 5617 0
-5599 5616 5617 0
-5599 -5616 -5617 0
-5618 5599 0
-5618 5616 0
5618 -5599 -5616 0
5601 5618 -5619 0
5601 -5618 5619 0
-5601 5618 5619 0
-5601 -5618 -5619 0
-5620 5601 0
-5620 5618 0
5620 -5601 -5618 0
5603 5620 -5621 0
5603 -5620 5621 0
-5603 5620 5621 0
-5603 -5620 -5621 0
-5622 5603 0
-5622 5620 0
5622 -5603 -5620 0
-5622 0
5605 296 -5623 0
5605 -296 5623 0
-5605 296 5623 0
-5605 -296 -5623 0
-5624 5605 0
-5624 296 0
5624 -5605 -296 0
5607 5624 -5625 0
5607 -5624 5625 0
-5607 5624 5625 0
-5607 -5624 -5625 0
-5626 5607 0
-5626 5624 0
5626 -5607 -5624 0
5609 5626 -5627 0
5609 -5626 5627 0
-5609 5626 5627 0
-5609 -5626 -5627 0
-5628 5609 0
-5628 5626 0
5628 -5609 -5626 0
5611 5628 -5629 0
5611 -5628 5629 0
-5611 5628 5629 0
-5611 -5628 -5629 0
-5630 5611 0
-5630 5628 0
5630 -5611 -5628 0
5613 5630 -5631 0
5613 -5630 5631 0
-5613 5630 5631 0
-5613 -5630 -5631 0
-5632 5613 0
-5632 5630 0
5632 -5613 -5630 0
5615 5632 -5633 0
5615 -5632 5633 0
-5615 5632 5633 0
-5615 -5632 -5633 0
-5634 5615 0
-5634 5632 0
5634 -5615 -5632 0
5617 5634 -5635 0
5617 -5634 5635 0
-5617 5634 5635 0
-5617 -5634 -5635 0
-5636 5617 0
-5636 5634 0
5636 -5617 -5634 0
5619 5636 -5637 0
5619 -5636 5637 0
-5619 5636 5637 0
-5619 -5636 -5637 0
-5638 5619 0
-5638 5636 0
5638 -5619 -5636 0
5621 5638 -5639 0
5621 -5638 5639 0
-5621 5638 5639 0
-5621 -5638 -5639 0
-5640 5621 0
-5640 5638 0
5640 -5621 -5638 0
-5640 0
5623 297 -5641 0
5623 -297 5641 0
-5623 297 5641 0
-5623 -297 -5641 0
-5642 5623 0
-5642 297 0
5642 -5623 -297 0
5625 5642 -5643 0
5625 -5642 5643 0
-5625 5642 5643 0
-5625 -5642 -5643 0
-5644 5625 0
-5644 5642 0
5644 -5625 -5642 0
5627 5644 -5645 0
5627 -5644 5645 0
-5627 5644 5645 0
-5627 -5644 -5645 0
-5646 5627 0
-5646 5644 0
5646 -5627 -5644 0
5629 5646 -5647 0
5629 -5646 5647 0
-5629 5646 5647 0
-5629 -5646 -5647 0
-5648 5629 0
-5648 5646 0
5648 -5629 -5646 0
5631 5648 -5649 0
5631 -5648 5649 0
-5631 5648 5649 0
-5631 -5648 -5649 0
-5650 5631 0
-5650 5648 0
5650 -5631 -5648 0
5633 5650 -5651 0
5633 -5650 5651 0
-5633 5650 5651 0
-5633 -5650 -5651 0
-5652 5633 0
-5652 5650 0
5652 -5633 -5650 0
5635 5652 -5653 0
5635 -5652 5653 0
-5635 5652 5653 0
-5635 -5652 -5653 0
-5654 5635 0
-5654 5652 0
5654 -5635 -5652 0
5637 5654 -5655 0
5637 -5654 5655 0
-5637 5654 5655 0
-5637 -5654 -5655 0
-5656 5637 0
-5656 5654 0
5656 -5637 -5654 0
5639 5656 -5657 0
5639 -5656 5657 0
-5639 5656 5657 0
-5639 -5656 -5657 0
-5658 5639 0
-5658 5656 0
5658 -5639 -5656 0
-5658 0
5641 298 -5659 0
5641 -298 5659 0
-5641 298 5659 0
-5641 -298 -5659 0
-5660 5641 0
-5660 298 0
5660 -5641 -298 0
5643 5660 -5661 0
5643 -5660 5661 0
-5643 5660 5661 0
-5643 -5660 -5661 0
-5662 5643 0
-5662 5660 0
5662 -5643 -5660 0
5645 5662 -5663 0
5645 -5662 5663 0
-5645 5662 5663 0
-5645 -5662 -5663 0
-5664 5645 0
-5664 5662 0
5664 -5645 -5662 0
5647 5664 -5665 0
5647 -5664 5665 0
-5647 5664 5665 0
-5647 -5664 -5665 0
-5666 5647 0
-5666 5664 0
5666 -5647 -5664 0
5649 5666 -5667 0
5649 -5666 5667 0
-5649 5666 5667 0
-5649 -5666 -5667 0
-5668 5649 0
-5668 5666 0
5668 -5649 -5666 0
5651 5668 -5669 0
5651 -5668 5669 0
-5651 5668 5669 0
-5651 -5668 -5669 0
-5670 5651 0
-5670 5668 0
5670 -5651 -5668 0
5653 5670 -5671 0
5653 -5670 5671 0
-5653 5670 5671 0
-5653 -5670 -5671 0
-5672 5653 0
-5672 5670 0
5672 -5653 -5670 0
5655 5672 -5673 0
5655 -5672 5673 0
-5655 5672 5673 0
-5655 -5672 -5673 0
-5674 5655 0
-5674 5672 0
5674 -5655 -5672 0
5657 5674 -5675 0
5657 -5674 5675 0
-5657 5674 5675 0
-5657 -5674 -5675 0
-5676 5657 0
-5676 5674 0
5676 -5657 -5674 0
-5676 0
5659 299 -5677 0
5659 -299 5677 0
-5659 299 5677 0
-5659 -299 -5677 0
-5678 5659 0
-5678 299 0
5678 -5659 -299 0
5661 5678 -5679 0
5661 -5678 5679 0
-5661 5678 5679 0
-5661 -5678 -5679 0
-5680 5661 0
-5680 5678 0
5680 -5661 -5678 0
5663 5680 -5681 0
5663 -5680 5681 0
-5663 5680 5681 0
-5663 -5680 -5681 0
-5682 5663 0
-5682 5680 0
5682 -5663 -5680 0
5665 5682 -5683 0
5665 -5682 5683 0
-5665 5682 5683 0
-5665 -5682 -5683 0
-5684 5665 0
-5684 5682 0
5684 -5665 -5682 0
5667 5684 -5685 0
5667 -5684 5685 0
-5667 5684 5685 0
-5667 -5684 -5685 0
-5686 5667 0
-5686 5684 0
5686 -5667 -5684 0
5669 5686 -5687 0
5669 -5686 5687 0
-5669 5686 5687 0
-5669 -5686 -5687 0
-5688 5669 0
-5688 5686 0
5688 -5669 -5686 0
5671 5688 -5689 0
5671 -5688 5689 0
-5671 5688 5689 0
-5671 -5688 -5689 0
-5690 5671 0
-5690 5688 0
5690 -5671 -5688 0
5673 5690 -5691 0
5673 -5690 5691 0
-5673 5690 5691 0
-5673 -5690 -5691 0
-5692 5673 0
-5692 5690 0
5692 -5673 -5690 0
5675 5692 -5693 0
5675 -5692 5693 0
-5675 5692 5693 0
-5675 -5692 -5693 0
-5694 5675 0
-5694 5692 0
5694 -5675 -5692 0
-5694 0
5677 300 -5695 0
5677 -300 5695 0
-5677 300 5695 0
-5677 -300 -5695 0
-5696 5677 0
-5696 300 0
5696 -5677 -300 0
5679 5696 -5697 0
5679 -5696 5697 0
-5679 5696 5697 0
-5679 -5696 -5697 0
-5698 5679 0
-5698 5696 0
5698 -5679 -5696 0
5681 5698 -5699 0
5681 -5698 5699 0
-5681 5698 5699 0
-5681 -5698 -5699 0
-5700 5681 0
-5700 5698 0
5700 -5681 -5698 0
5683 5700 -5701 0
5683 -5700 5701 0
-5683 5700 5701 0
-5683 -5700 -5701 0
-5702 5683 0
-5702 5700 0
5702 -5683 -5700 0
5685 5702 -5703 0
5685 -5702 5703 0
-5685 5702 5703 0
-5685 -5702 -5703 0
-5704 5685 0
-5704 5702 0
5704 -5685 -5702 0
5687 5704 -5705 0
5687 -5704 5705 0
-5687 5704 5705 0
-5687 -5704 -5705 0
-5706 5687 0
-5706 5704 0
5706 -5687 -5704 0
5689 5706 -5707 0
5689 -5706 5707 0
-5689 5706 5707 0
-5689 -5706 -5707 0
-5708 5689 0
-5708 5706 0
5708 -5689 -5706 0
5691 5708 -5709 0
5691 -5708 5709 0
-5691 5708 5709 0
-5691 -5708 -5709 0
-5710 5691 0
-5710 5708 0
5710 -5691 -5708 0
5693 5710 -5711 0
5693 -5710 5711 0
-5693 5710 5711 0
-5693 -5710 -5711 0
-5712 5693 0
-5712 5710 0
5712 -5693 -5710 0
-5712 0
5695 301 -5713 0
5695 -301 5713 0
-5695 301 5713 0
-5695 -301 -5713 0
-5714 5695 0
-5714 301 0
5714 -5695 -301 0
5697 5714 -5715 0
5697 -5714 5715 0
-5697 5714 5715 0
-5697 -5714 -5715 0
-5716 5697 0
-5716 5714 0
5716 -5697 -5714 0
5699 5716 -5717 0
5699 -5716 5717 0
-5699 5716 5717 0
-5699 -5716 -5717 0
-5718 5699 0
-5718 5716 0
5718 -5699 -5716 0
5701 5718 -5719 0
5701 -5718 5719 0
-5701 5718 5719 0
-5701 -5718 -5719 0
-5720 5701 0
-5720 5718 0
5720 -5701 -5718 0
5703 5720 -5721 0
5703 -5720 5721 0
-5703 5720 5721 0
-5703 -5720 -5721 0
-5722 5703 0
-5722 5720 0
5722 -5703 -5720 0
5705 5722 -5723 0
5705 -5722 5723 0
-5705 5722 5723 0
-5705 -5722 -5723 0
-5724 5705 0
-5724 5722 0
5724 -5705 -5722 0
5707 5724 -5725 0
5707 -5724 5725 0
-5707 5724 5725 0
-5707 -5724 -5725 0
-5726 5707 0
-5726 5724 0
5726 -5707 -5724 0
5709 5726 -5727 0
5709 -5726 5727 0
-5709 5726 5727 0
-5709 -5726 -5727 0
-5728 5709 0
-5728 5726 0
5728 -5709 -5726 0
5711 5728 -5729 0
5711 -5728 5729 0
-5711 5728 5729 0
-5711 -5728 -5729 0
-5730 5711 0
-5730 5728 0
5730 -5711 -5728 0
-5730 0
5713 302 -5731 0
5713 -302 5731 0
-5713 302 5731 0
-5713 -302 -5731 0
-5732 5713 0
-5732 302 0
5732 -5713 -302 0
5715 5732 -5733 0
5715 -5732 5733 0
-5715 5732 5733 0
-5715 -5732 -5733 0
-5734 5715 0
-5734 5732 0
5734 -5715 -5732 0
5717 5734 -5735 0
5717 -5734 5735 0
-5717 5734 5735 0
-5717 -5734 -5735 0
-5736 5717 0
-5736 5734 0
5736 -5717 -5734 0
5719 5736 -5737 0
5719 -5736 5737 0
-5719 5736 5737 0
-5719 -5736 -5737 0
-5738 5719 0
-5738 5736 0
5738 -5719 -5736 0
5721 5738 -5739 0
5721 -5738 5739 0
-5721 5738 5739 0
-5721 -5738 -5739 0
-5740 5721 0
-5740 5738 0
5740 -5721 -5738 0
5723 5740 -5741 0
5723 -5740 5741 0
-5723 5740 5741 0
-5723 -5740 -5741 0
-5742 5723 0
-5742 5740 0
5742 -5723 -5740 0
5725 5742 -5743 0
5725 -5742 5743 0
-5725 5742 5743 0
-5725 -5742 -5743 0
-5744 5725 0
-5744 5742 0
5744 -5725 -5742 0
5727 5744 -5745 0
5727 -5744 5745 0
-5727 5744 5745 0
-5727 -5744 -5745 0
-5746 5727 0
-5746 5744 0
5746 -5727 -5744 0
5729 5746 -5747 0
5729 -5746 5747 0
-5729 5746 5747 0
-5729 -5746 -5747 0
-5748 5729 0
-5748 5746 0
5748 -5729 -5746 0
-5748 0
5731 303 -5749 0
5731 -303 5749 0
-5731 303 5749 0
-5731 -303 -5749 0
-5750 5731 0
-5750 303 0
5750 -5731 -303 0
5733 5750 -5751 0
5733 -5750 5751 0
-5733 5750 5751 0
-5733 -5750 -5751 0
-5752 5733 0
-5752 5750 0
5752 -5733 -5750 0
5735 5752 -5753 0
5735 -5752 5753 0
-5735 5752 5753 0
-5735 -5752 -5753 0
-5754 5735 0
-5754 5752 0
5754 -5735 -5752 0
5737 5754 -5755 0
5737 -5754 5755 0
-5737 5754 5755 0
-5737 -5754 -5755 0
-5756 5737 0
-5756 5754 0
5756 -5737 -5754 0
5739 5756 -5757 0
5739 -5756 5757 0
-5739 5756 5757 0
-5739 -5756 -5757 0
-5758 5739 0
-5758 5756 0
5758 -5739 -5756 0
5741 5758 -5759 0
5741 -5758 5759 0
-5741 5758 5759 0
-5741 -5758 -5759 0
-5760 5741 0
-5760 5758 0
5760 -5741 -5758 0
5743 5760 -5761 0
5743 -5760 5761 0
-5743 5760 5761 0
-5743 -5760 -5761 0
-5762 5743 0
-5762 5760 0
5762 -5743 -5760 0
5745 5762 -5763 0
5745 -5762 5763 0
-5745 5762 5763 0
-5745 -5762 -5763 0
-5764 5745 0
-5764 5762 0
5764 -5745 -5762 0
5747 5764 -5765 0
5747 -5764 5765 0
-5747 5764 5765 0
-5747 -5764 -5765 0
-5766 5747 0
-5766 5764 0
5766 -5747 -5764 0
-5766 0
-5749 0
5751 0
5753 0
-5755 0
-5757 0
-5759 0
-5761 0
5763 0
-5765 0
-5767 0
-5768 0
-5769 0
-5770 0
-5771 0
-5772 0
-5773 0
-5774 0
5767 136 -5775 0
5767 -136 5775 0
-5767 136 5775 0
-5767 -136 -5775 0
-5776 5767 0
-5776 136 0
5776 -5767 -136 0
5768 5776 -5777 0
5768 -5776 5777 0
-5768 5776 5777 0
-5768 -5776 -5777 0
-5778 5768 0
-5778 5776 0
5778 -5768 -5776 0
5769 5778 -5779 0
5769 -5778 5779 0
-5769 5778 5779 0
-5769 -5778 -5779 0
-5780 5769 0
-5780 5778 0
5780 -5769 -5778 0
5770 5780 -5781 0
5770 -5780 5781 0
-5770 5780 5781 0
-5770 -5780 -5781 0
-5782 5770 0
-5782 5780 0
5782 -5770 -5780 0
5771 5782 -5783 0
5771 -5782 5783 0
-5771 5782 5783 0
-5771 -5782 -5783 0
-5784 5771 0
-5784 5782 0
5784 -5771 -5782 0
5772 5784 -5785 0
5772 -5784 5785 0
-5772 5784 5785 0
-5772 -5784 -5785 0
-5786 5772 0
-5786 5784 0
5786 -5772 -5784 0
5773 5786 -5787 0
5773 -5786 5787 0
-5773 5786 5787 0
-5773 -5786 -5787 0
-5788 5773 0
-5788 5786 0
5788 -5773 -5786 0
5774 5788 -5789 0
5774 -5788 5789 0
-5774 5788 5789 0
-5774 -5788 -5789 0
-5790 5774 0
-5790 5788 0
5790 -5774 -5788 0
-5790 0
5775 137 -5791 0
5775 -137 5791 0
-5775 137 5791 0
-5775 -137 -5791 0
-5792 5775 0
-5792 137 0
5792 -5775 -137 0
5777 5792 -5793 0
5777 -5792 5793 0
-5777 5792 5793 0
-5777 -5792 -5793 0
-5794 5777 0
-5794 5792 0
5794 -5777 -5792 0
5779 5794 -5795 0
5779 -5794 5795 0
-5779 5794 5795 0
-5779 -5794 -5795 0
-5796 5779 0
-5796 5794 0
5796 -5779 -5794 0
5781 5796 -5797 0
5781 -5796 5797 0
-5781 5796 5797 0
-5781 -5796 -5797 0
-5798 5781 0
-5798 5796 0
5798 -5781 -5796 0
5783 5798 -5799 0
5783 -5798 5799 0
-5783 5798 5799 0
-5783 -5798 -5799 0
-5800 5783 0
-5800 5798 0
5800 -5783 -5798 0
5785 5800 -5801 0
5785 -5800 5801 0
-5785 5800 5801 0
-5785 -5800 -5801 0
-5802 5785 0
-5802 5800 0
5802 -5785 -5800 0
5787 5802 -5803 0
5787 -5802 5803 0
-5787 5802 5803 0
-5787 -5802 -5803 0
-5804 5787 0
-5804 5802 0
5804 -5787 -5802 0
5789 5804 -5805 0
5789 -5804 5805 0
-5789 5804 5805 0
-5789 -5804 -5805 0
-5806 5789 0
-5806 5804 0
5806 -5789 -5804 0
-5806 0
5791 138 -5807 0
5791 -138 5807 0
-5791 138 5807 0
-5791 -138 -5807 0
-5808 5791 0
-5808 138 0
5808 -5791 -138 0
5793 5808 -5809 0
5793 -5808 5809 0
-5793 5808 5809 0
-5793 -5808 -5809 0
-5810 5793 0
-5810 5808 0
5810 -5793 -5808 0
5795 5810 -5811 0
5795 -5810 5811 0
-5795 5810 5811 0
-5795 -5810 -5811 0
-5812 5795 0
-5812 5810 0
5812 -5795 -5810 0
5797 5812 -5813 0
5797 -5812 5813 0
-5797 5812 5813 0
-5797 -5812 -5813 0
-5814 5797 0
-5814 5812 0
5814 -5797 -5812 0
5799 5814 -5815 0
5799 -5814 5815 0
-5799 5814 5815 0
-5799 -5814 -5815 0
-5816 5799 0
-5816 5814 0
5816 -5799 -5814 0
5801 5816 -5817 0
5801 -5816 5817 0
-5801 5816 5817 0
-5801 -5816 -5817 0
-5818 5801 0
-5818 5816 0
5818 -5801 -5816 0
5803 5818 -5819 0
5803 -5818 5819 0
-5803 5818 5819 0
-5803 -5818 -5819 0
-5820 5803 0
-5820 5818 0
5820 -5803 -5818 0
5805 5820 -5821 0
5805 -5820 5821 0
-5805 5820 5821 0
-5805 -5820 -5821 0
-5822 5805 0
-5822 5820 0
5822 -5805 -5820 0
-5822 0
5807 139 -5823 0
5807 -139 5823 0
-5807 139 5823 0
-5807 -139 -5823 0
-5824 5807 0
-5824 139 0
5824 -5807 -139 0
5809 5824 -5825 0
5809 -5824 5825 0
-5809 5824 5825 0
-5809 -5824 -5825 0
-5826 5809 0
-5826 5824 0
5826 -5809 -5824 0
5811 5826 -5827 0
5811 -5826 5827 0
-5811 5826 5827 0
-5811 -5826 -5827 0
-5828 5811 0
-5828 5826 0
5828 -5811 -5826 0
5813 5828 -5829 0
5813 -5828 5829 0
-5813 5828 5829 0
-5813 -5828 -5829 0
-5830 5813 0
-5830 5828 0
5830 -5813 -5828 0
5815 5830 -5831 0
5815 -5830 5831 0
-5815 5830 5831 0
-5815 -5830 -5831 0
-5832 5815 0
-5832 5830 0
5832 -5815 -5830 0
5817 5832 -5833 0
5817 -5832 5833 0
-5817 5832 5833 0
-5817 -5832 -5833 0
-5834 5817 0
-5834 5832 0
5834 -5817 -5832 0
5819 5834 -5835 0
5819 -5834 5835 0
-5819 5834 5835 0
-5819 -5834 -5835 0
-5836 5819 0
-5836 5834 0
5836 -5819 -5834 0
5821 5836 -5837 0
5821 -5836 5837 0
-5821 5836 5837 0
-5821 -5836 -5837 0
-5838 5821 0
-5838 5836 0
5838 -5821 -5836 0
-5838 0
5823 140 -5839 0
5823 -140 5839 0
-5823 140 5839 0
-5823 -140 -5839 0
-5840 5823 0
-5840 140 0
5840 -5823 -140 0
5825 5840 -5841 0
5825 -5840 5841 0
-5825 5840 5841 0
-5825 -5840 -5841 0
-5842 5825 0
-5842 5840 0
5842 -5825 -5840 0
5827 5842 -5843 0
5827 -5842 5843 0
-5827 5842 5843 0
-5827 -5842 -5843 0
-5844 5827 0
-5844 5842 0
5844 -5827 -5842 0
5829 5844 -5845 0
5829 -5844 5845 0
-5829 5844 5845 0
-5829 -5844 -5845 0
-5846 5829 0
-5846 5844 0
5846 -5829 -5844 0
5831 5846 -5847 0
5831 -5846 5847 0
-5831 5846 5847 0
-5831 -5846 -5847 0
-5848 5831 0
-5848 5846 0
5848 -5831 -5846 0
5833 5848 -5849 0
5833 -5848 5849 0
-5833 5848 5849 0
-5833 -5848 -5849 0
-5850 5833 0
-5850 5848 0
5850 -5833 -5848 0
5835 5850 -5851 0
5835 -5850 5851 0
-5835 5850 5851 0
-5835 -5850 -5851 0
-5852 5835 0
-5852 5850 0
5852 -5835 -5850 0
5837 5852 -5853 0
5837 -5852 5853 0
-5837 5852 5853 0
-5837 -5852 -5853 0
-5854 5837 0
-5854 5852 0
5854 -5837 -5852 0
-5854 0
5839 141 -5855 0
5839 -141 5855 0
-5839 141 5855 0
-5839 -141 -5855 0
-5856 5839 0
-5856 141 0
5856 -5839 -141 0
5841 5856 -5857 0
5841 -5856 5857 0
-5841 5856 5857 0
-5841 -5856 -5857 0
-5858 5841 0
-5858 5856 0
5858 -5841 -5856 0
5843 5858 -5859 0
5843 -5858 5859 0
-5843 5858 5859 0
-5843 -5858 -5859 0
-5860 5843 0
-5860 5858 0
5860 -5843 -5858 0
5845 5860 -5861 0
5845 -5860 5861 0
-5845 5860 5861 0
-5845 -5860 -5861 0
-5862 5845 0
-5862 5860 0
5862 -5845 -5860 0
5847 5862 -5863 0
5847 -5862 5863 0
-5847 5862 5863 0
-5847 -5862 -5863 0
-5864 5847 0
-5864 5862 0
5864 -5847 -5862 0
5849 5864 -5865 0
5849 -5864 5865 0
-5849 5864 5865 0
-5849 -5864 -5865 0
-5866 5849 0
-5866 5864 0
5866 -5849 -5864 0
5851 5866 -5867 0
5851 -5866 5867 0
-5851 5866 5867 0
-5851 -5866 -5867 0
-5868 5851 0
-5868 5866 0
5868 -5851 -5866 0
5853 5868 -5869 0
5853 -5868 5869 0
-5853 5868 5869 0
-5853 -5868 -5869 0
-5870 5853 0
-5870 5868 0
5870 -5853 -5868 0
-5870 0
5855 142 -5871 0
5855 -142 5871 0
-5855 142 5871 0
-5855 -142 -5871 0
-5872 5855 0
-5872 142 0
5872 -5855 -142 0
5857 5872 -5873 0
5857 -5872 5873 0
-5857 5872 5873 0
-5857 -5872 -5873 0
-5874 5857 0
-5874 5872 0
5874 -5857 -5872 0
5859 5874 -5875 0
5859 -5874 5875 0
-5859 5874 5875 0
-5859 -5874 -5875 0
-5876 5859 0
-5876 5874 0
5876 -5859 -5874 0
5861 5876 -5877 0
5861 -5876 5877 0
-5861 5876 5877 0
-5861 -5876 -5877 0
-5878 5861 0
-5878 5876 0
5878 -5861 -5876 0
5863 5878 -5879 0
5863 -5878 5879 0
-5863 5878 5879 0
-5863 -5878 -5879 0
-5880 5863 0
-5880 5878 0
5880 -5863 -5878 0
5865 5880 -5881 0
5865 -5880 5881 0
-5865 5880 5881 0
-5865 -5880 -5881 0
-5882 5865 0
-5882 5880 0
5882 -5865 -5880 0
5867 5882 -5883 0
5867 -5882 5883 0
-5867 5882 5883 0
-5867 -5882 -5883 0
-5884 5867 0
-5884 5882 0
5884 -5867 -5882 0
5869 5884 -5885 0
5869 -5884 5885 0
-5869 5884 5885 0
-5869 -5884 -5885 0
-5886 5869 0
-5886 5884 0
5886 -5869 -5884 0
-5886 0
5871 143 -5887 0
5871 -143 5887 0
-5871 143 5887 0
-5871 -143 -5887 0
-5888 5871 0
-5888 143 0
5888 -5871 -143 0
5873 5888 -5889 0
5873 -5888 5889 0
-5873 5888 5889 0
-5873 -5888 -5889 0
-5890 5873 0
-5890 5888 0
5890 -5873 -5888 0
5875 5890 -5891 0
5875 -5890 5891 0
-5875 5890 5891 0
-5875 -5890 -5891 0
-5892 5875 0
-5892 5890 0
5892 -5875 -5890 0
5877 5892 -5893 0
5877 -5892 5893 0
-5877 5892 5893 0
-5877 -5892 -5893 0
-5894 5877 0
-5894 5892 0
5894 -5877 -5892 0
5879 5894 -5895 0
5879 -5894 5895 0
-5879 5894 5895 0
-5879 -5894 -5895 0
-5896 5879 0
-5896 5894 0
5896 -5879 -5894 0
5881 5896 -5897 0
5881 -5896 5897 0
-5881 5896 5897 0
-5881 -5896 -5897 0
-5898 5881 0
-5898 5896 0
5898 -5881 -5896 0
5883 5898 -5899 0
5883 -5898 5899 0
-5883 5898 5899 0
-5883 -5898 -5899 0
-5900 5883 0
-5900 5898 0
5900 -5883 -5898 0
5885 5900 -5901 0
5885 -5900 5901 0
-5885 5900 5901 0
-5885 -5900 -5901 0
-5902 5885 0
-5902 5900 0
5902 -5885 -5900 0
-5902 0
5887 144 -5903 0
5887 -144 5903 0
-5887 144 5903 0
-5887 -144 -5903 0
-5904 5887 0
-5904 144 0
5904 -5887 -144 0
5889 5904 -5905 0
5889 -5904 5905 0
-5889 5904 5905 0
-5889 -5904 -5905 0
-5906 5889 0
-5906 5904 0
5906 -5889 -5904 0
5891 5906 -5907 0
5891 -5906 5907 0
-5891 5906 5907 0
-5891 -5906 -5907 0
-5908 5891 0
-5908 5906 0
5908 -5891 -5906 0
5893 5908 -5909 0
5893 -5908 5909 0
-5893 5908 5909 0
-5893 -5908 -5909 0
-5910 5893 0
-5910 5908 0
5910 -5893 -5908 0
5895 5910 -5911 0
5895 -5910 5911 0
-5895 5910 5911 0
-5895 -5910 -5911 0
-5912 5895 0
-5912 5910 0
5912 -5895 -5910 0
5897 5912 -5913 0
5897 -5912 5913 0
-5897 5912 5913 0
-5897 -5912 -5913 0
-5914 5897 0
-5914 5912 0
5914 -5897 -5912 0
5899 5914 -5915 0
5899 -5914 5915 0
-5899 5914 5915 0
-5899 -5914 -5915 0
-5916 5899 0
-5916 5914 0
5916 -5899 -5914 0
5901 5916 -5917 0
5901 -5916 5917 0
-5901 5916 5917 0
-5901 -5916 -5917 0
-5918 5901 0
-5918 5916 0
5918 -5901 -5916 0
-5918 0
5903 145 -5919 0
5903 -145 5919 0
-5903 145 5919 0
-5903 -145 -5919 0
-5920 5903 0
-5920 145 0
5920 -5903 -145 0
5905 5920 -5921 0
5905 -5920 5921 0
-5905 5920 5921 0
-5905 -5920 -5921 0
-5922 5905 0
-5922 5920 0
5922 -5905 -5920 0
5907 5922 -5923 0
5907 -5922 5923 0
-5907 5922 5923 0
-5907 -5922 -5923 0
-5924 5907 0
-5924 5922 0
5924 -5907 -5922 0
5909 5924 -5925 0
5909 -5924 5925 0
-5909 5924 5925 0
-5909 -5924 -5925 0
-5926 5909 0
-5926 5924 0
5926 -5909 -5924 0
5911 5926 -5927 0
5911 -5926 5927 0
-5911 5926 5927 0
-5911 -5926 -5927 0
-5928 5911 0
-5928 5926 0
5928 -5911 -5926 0
5913 5928 -5929 0
5913 -5928 5929 0
-5913 5928 5929 0
-5913 -5928 -5929 0
-5930 5913 0
-5930 5928 0
5930 -5913 -5928 0
5915 5930 -5931 0
5915 -5930 5931 0
-5915 5930 5931 0
-5915 -5930 -5931 0
-5932 5915 0
-5932 5930 0
5932 -5915 -5930 0
5917 5932 -5933 0
5917 -5932 5933 0
-5917 5932 5933 0
-5917 -5932 -5933 0
-5934 5917 0
-5934 5932 0
5934 -5917 -5932 0
-5934 0
5919 146 -5935 0
5919 -146 5935 0
-5919 146 5935 0
-5919 -146 -5935 0
-5936 5919 0
-5936 146 0
5936 -5919 -146 0
5921 5936 -5937 0
5921 -5936 5937 0
-5921 5936 5937 0
-5921 -5936 -5937 0
-5938 5921 0
-5938 5936 0
5938 -5921 -5936 0
5923 5938 -5939 0
5923 -5938 5939 0
-5923 5938 5939 0
-5923 -5938 -5939 0
-5940 5923 0
-5940 5938 0
5940 -5923 -5938 0
5925 5940 -5941 0
5925 -5940 5941 0
-5925 5940 5941 0
-5925 -5940 -5941 0
-5942 5925 0
-5942 5940 0
5942 -5925 -5940 0
5927 5942 -5943 0
5927 -5942 5943 0
-5927 5942 5943 0
-5927 -5942 -5943 0
-5944 5927 0
-5944 5942 0
5944 -5927 -5942 0
5929 5944 -5945 0
5929 -5944 5945 0
-5929 5944 5945 0
-5929 -5944 -5945 0
-5946 5929 0
-5946 5944 0
5946 -5929 -5944 0
5931 5946 -5947 0
5931 -5946 5947 0
-5931 5946 5947 0
-5931 -5946 -5947 0
-5948 5931 0
-5948 5946 0
5948 -5931 -5946 0
5933 5948 -5949 0
5933 -5948 5949 0
-5933 5948 5949 0
-5933 -5948 -5949 0
-5950 5933 0
-5950 5948 0
5950 -5933 -5948 0
-5950 0
5935 147 -5951 0
5935 -147 5951 0
-5935 147 5951 0
-5935 -147 -5951 0
-5952 5935 0
-5952 147 0
5952 -5935 -147 0
5937 5952 -5953 0
5937 -5952 5953 0
-5937 5952 5953 0
-5937 -5952 -5953 0
-5954 5937 0
-5954 5952 0
5954 -5937 -5952 0
5939 5954 -5955 0
5939 -5954 5955 0
-5939 5954 5955 0
-5939 -5954 -5955 0
-5956 5939 0
-5956 5954 0
5956 -5939 -5954 0
5941 5956 -5957 0
5941 -5956 5957 0
-5941 5956 5957 0
-5941 -5956 -5957 0
-5958 5941 0
-5958 5956 0
5958 -5941 -5956 0
5943 5958 -5959 0
5943 -5958 5959 0
-5943 5958 5959 0
-5943 -5958 -5959 0
-5960 5943 0
-5960 5958 0
5960 -5943 -5958 0
5945 5960 -5961 0
5945 -5960 5961 0
-5945 5960 5961 0
-5945 -5960 -5961 0
-5962 5945 0
-5962 5960 0
5962 -5945 -5960 0
5947 5962 -5963 0
5947 -5962 5963 0
-5947 5962 5963 0
-5947 -5962 -5963 0
-5964 5947 0
-5964 5962 0
5964 -5947 -5962 0
5949 5964 -5965 0
5949 -5964 5965 0
-5949 5964 5965 0
-5949 -5964 -5965 0
-5966 5949 0
-5966 5964 0
5966 -5949 -5964 0
-5966 0
5951 148 -5967 0
5951 -148 5967 0
-5951 148 5967 0
-5951 -148 -5967 0
-5968 5951 0
-5968 148 0
5968 -5951 -148 0
5953 5968 -5969 0
5953 -5968 5969 0
-5953 5968 5969 0
-5953 -5968 -5969 0
-5970 5953 0
-5970 5968 0
5970 -5953 -5968 0
5955 5970 -5971 0
5955 -5970 5971 0
-5955 5970 5971 0
-5955 -5970 -5971 0
-5972 5955 0
-5972 5970 0
5972 -5955 -5970 0
5957 5972 -5973 0
5957 -5972 5973 0
-5957 5972 5973 0
-5957 -5972 -5973 0
-5974 5957 0
-5974 5972 0
5974 -5957 -5972 0
5959 5974 -5975 0
5959 -5974 5975 0
-5959 5974 5975 0
-5959 -5974 -5975 0
-5976 5959 0
-5976 5974 0
5976 -5959 -5974 0
5961 5976 -5977 0
5961 -5976 5977 0
-5961 5976 5977 0
-5961 -5976 -5977 0
-5978 5961 0
-5978 5976 0
5978 -5961 -5976 0
5963 5978 -5979 0
5963 -5978 5979 0
-5963 5978 5979 0
-5963 -5978 -5979 0
-5980 5963 0
-5980 5978 0
5980 -5963 -5978 0
5965 5980 -5981 0
5965 -5980 5981 0
-5965 5980 5981 0
-5965 -5980 -5981 0
-5982 5965 0
-5982 5980 0
5982 -5965 -5980 0
-5982 0
5967 149 -5983 0
5967 -149 5983 0
-5967 149 5983 0
-5967 -149 -5983 0
-5984 5967 0
-5984 149 0
5984 -5967 -149 0
5969 5984 -5985 0
5969 -5984 5985 0
-5969 5984 5985 0
-5969 -5984 -5985 0
-5986 5969 0
-5986 5984 0
5986 -5969 -5984 0
5971 5986 -5987 0
5971 -5986 5987 0
-5971 5986 5987 0
-5971 -5986 -5987 0
-5988 5971 0
-5988 5986 0
5988 -5971 -5986 0
5973 5988 -5989 0
5973 -5988 5989 0
-5973 5988 5989 0
-5973 -5988 -5989 0
-5990 5973 0
-5990 5988 0
5990 -5973 -5988 0
5975 5990 -5991 0
5975 -5990 5991 0
-5975 5990 5991 0
-5975 -5990 -5991 0
-5992 5975 0
-5992 5990 0
5992 -5975 -5990 0
5977 5992 -5993 0
5977 -5992 5993 0
-5977 5992 5993 0
-5977 -5992 -5993 0
-5994 5977 0
-5994 5992 0
5994 -5977 -5992 0
5979 5994 -5995 0
5979 -5994 5995 0
-5979 5994 5995 0
-5979 -5994 -5995 0
-5996 5979 0
-5996 5994 0
5996 -5979 -5994 0
5981 5996 -5997 0
5981 -5996 5997 0
-5981 5996 5997 0
-5981 -5996 -5997 0
-5998 5981 0
-5998 5996 0
5998 -5981 -5996 0
-5998 0
5983 150 -5999 0
5983 -150 5999 0
-5983 150 5999 0
-5983 -150 -5999 0
-6000 5983 0
-6000 150 0
6000 -5983 -150 0
5985 6000 -6001 0
5985 -6000 6001 0
-5985 6000 6001 0
-5985 -6000 -6001 0
-6002 5985 0
-6002 6000 0
6002 -5985 -6000 0
5987 6002 -6003 0
5987 -6002 6003 0
-5987 6002 6003 0
-5987 -6002 -6003 0
-6004 5987 0
-6004 6002 0
6004 -5987 -6002 0
5989 6004 -6005 0
5989 -6004 6005 0
-5989 6004 6005 0
-5989 -6004 -6005 0
-6006 5989 0
-6006 6004 0
6006 -5989 -6004 0
5991 6006 -6007 0
5991 -6006 6007 0
-5991 6006 6007 0
-5991 -6006 -6007 0
-6008 5991 0
-6008 6006 0
6008 -5991 -6006 0
5993 6008 -6009 0
5993 -6008 6009 0
-5993 6008 6009 0
-5993 -6008 -6009 0
-6010 5993 0
-6010 6008 0
6010 -5993 -6008 0
5995 6010 -6011 0
5995 -6010 6011 0
-5995 6010 6011 0
-5995 -6010 -6011 0
-6012 5995 0
-6012 6010 0
6012 -5995 -6010 0
5997 6012 -6013 0
5997 -6012 6013 0
-5997 6012 6013 0
-5997 -6012 -6013 0
-6014 5997 0
-6014 6012 0
6014 -5997 -6012 0
-6014 0
5999 151 -6015 0
5999 -151 6015 0
-5999 151 6015 0
-5999 -151 -6015 0
-6016 5999 0
-6016 151 0
6016 -5999 -151 0
6001 6016 -6017 0
6001 -6016 6017 0
-6001 6016 6017 0
-6001 -6016 -6017 0
-6018 6001 0
-6018 6016 0
6018 -6001 -6016 0
6003 6018 -6019 0
6003 -6018 6019 0
-6003 6018 6019 0
-6003 -6018 -6019 0
-6020 6003 0
-6020 6018 0
6020 -6003 -6018 0
6005 6020 -6021 0
6005 -6020 6021 0
-6005 6020 6021 0
-6005 -6020 -6021 0
-6022 6005 0
-6022 6020 0
6022 -6005 -6020 0
6007 6022 -6023 0
6007 -6022 6023 0
-6007 6022 6023 0
-6007 -6022 -6023 0
-6024 6007 0
-6024 6022 0
6024 -6007 -6022 0
6009 6024 -6025 0
6009 -6024 6025 0
-6009 6024 6025 0
-6009 -6024 -6025 0
-6026 6009 0
-6026 6024 0
6026 -6009 -6024 0
6011 6026 -6027 0
6011 -6026 6027 0
-6011 6026 6027 0
-6011 -6026 -6027 0
-6028 6011 0
-6028 6026 0
6028 -6011 -6026 0
6013 6028 -6029 0
6013 -6028 6029 0
-6013 6028 6029 0
-6013 -6028 -6029 0
-6030 6013 0
-6030 6028 0
6030 -6013 -6028 0
-6030 0
6015 152 -6031 0
6015 -152 6031 0
-6015 152 6031 0
-6015 -152 -6031 0
-6032 6015 0
-6032 152 0
6032 -6015 -152 0
6017 6032 -6033 0
6017 -6032 6033 0
-6017 6032 6033 0
-6017 -6032 -6033 0
-6034 6017 0
-6034 6032 0
6034 -6017 -6032 0
6019 6034 -6035 0
6019 -6034 6035 0
-6019 6034 6035 0
-6019 -6034 -6035 0
-6036 6019 0
-6036 6034 0
6036 -6019 -6034 0
6021 6036 -6037 0
6021 -6036 6037 0
-6021 6036 6037 0
-6021 -6036 -6037 0
-6038 6021 0
-6038 6036 0
6038 -6021 -6036 0
6023 6038 -6039 0
6023 -6038 6039 0
-6023 6038 6039 0
-6023 -6038 -6039 0
-6040 6023 0
-6040 6038 0
6040 -6023 -6038 0
6025 6040 -6041 0
6025 -6040 6041 0
-6025 6040 6041 0
-6025 -6040 -6041 0
-6042 6025 0
-6042 6040 0
6042 -6025 -6040 0
6027 6042 -6043 0
6027 -6042 6043 0
-6027 6042 6043 0
-6027 -6042 -6043 0
-6044 6027 0
-6044 6042 0
6044 -6027 -6042 0
6029 6044 -6045 0
6029 -6044 6045 0
-6029 6044 6045 0
-6029 -6044 -6045 0
-6046 6029 0
-6046 6044 0
6046 -6029 -6044 0
-6046 0
6031 153 -6047 0
6031 -153 6047 0
-6031 153 6047 0
-6031 -153 -6047 0
-6048 6031 0
-6048 153 0
6048 -6031 -153 0
6033 6048 -6049 0
6033 -6048 6049 0
-6033 6048 6049 0
-6033 -6048 -6049 0
-6050 6033 0
-6050 6048 0
6050 -6033 -6048 0
6035 6050 -6051 0
6035 -6050 6051 0
-6035 6050 6051 0
-6035 -6050 -6051 0
-6052 6035 0
-6052 6050 0
6052 -6035 -6050 0
6037 6052 -6053 0
6037 -6052 6053 0
-6037 6052 6053 0
-6037 -6052 -6053 0
-6054 6037 0
-6054 6052 0
6054 -6037 -6052 0
6039 6054 -6055 0
6039 -6054 6055 0
-6039 6054 6055 0
-6039 -6054 -6055 0
-6056 6039 0
-6056 6054 0
6056 -6039 -6054 0
6041 6056 -6057 0
6041 -6056 6057 0
-6041 6056 6057 0
-6041 -6056 -6057 0
-6058 6041 0
-6058 6056 0
6058 -6041 -6056 0
6043 6058 -6059 0
6043 -6058 6059 0
-6043 6058 6059 0
-6043 -6058 -6059 0
-6060 6043 0
-6060 6058 0
6060 -6043 -6058 0
6045 6060 -6061 0
6045 -6060 6061 0
-6045 6060 6061 0
-6045 -6060 -6061 0
-6062 6045 0
-6062 6060 0
6062 -6045 -6060 0
-6062 0
6047 154 -6063 0
6047 -154 6063 0
-6047 154 6063 0
-6047 -154 -6063 0
-6064 6047 0
-6064 154 0
6064 -6047 -154 0
6049 6064 -6065 0
6049 -6064 6065 0
-6049 6064 6065 0
-6049 -6064 -6065 0
-6066 6049 0
-6066 6064 0
6066 -6049 -6064 0
6051 6066 -6067 0
6051 -6066 6067 0
-6051 6066 6067 0
-6051 -6066 -6067 0
-6068 6051 0
-6068 6066 0
6068 -6051 -6066 0
6053 6068 -6069 0
6053 -6068 6069 0
-6053 6068 6069 0
-6053 -6068 -6069 0
-6070 6053 0
-6070 6068 0
6070 -6053 -6068 0
6055 6070 -6071 0
6055 -6070 6071 0
-6055 6070 6071 0
-6055 -6070 -6071 0
-6072 6055 0
-6072 6070 0
6072 -6055 -6070 0
6057 6072 -6073 0
6057 -6072 6073 0
-6057 6072 6073 0
-6057 -6072 -6073 0
-6074 6057 0
-6074 6072 0
6074 -6057 -6072 0
6059 6074 -6075 0
6059 -6074 6075 0
-6059 6074 6075 0
-6059 -6074 -6075 0
-6076 6059 0
-6076 6074 0
6076 -6059 -6074 0
6061 6076 -6077 0
6061 -6076 6077 0
-6061 6076 6077 0
-6061 -6076 -6077 0
-6078 6061 0
-6078 6076 0
6078 -6061 -6076 0
-6078 0
6063 155 -6079 0
6063 -155 6079 0
-6063 155 6079 0
-6063 -155 -6079 0
-6080 6063 0
-6080 155 0
6080 -6063 -155 0
6065 6080 -6081 0
6065 -6080 6081 0
-6065 6080 6081 0
-6065 -6080 -6081 0
-6082 6065 0
-6082 6080 0
6082 -6065 -6080 0
6067 6082 -6083 0
6067 -6082 6083 0
-6067 6082 6083 0
-6067 -6082 -6083 0
-6084 6067 0
-6084 6082 0
6084 -6067 -6082 0
6069 6084 -6085 0
6069 -6084 6085 0
-6069 6084 6085 0
-6069 -6084 -6085 0
-6086 6069 0
-6086 6084 0
6086 -6069 -6084 0
6071 6086 -6087 0
6071 -6086 6087 0
-6071 6086 6087 0
-6071 -6086 -6087 0
-6088 6071 0
-6088 6086 0
6088 -6071 -6086 0
6073 6088 -6089 0
6073 -6088 6089 0
-6073 6088 6089 0
-6073 -6088 -6089 0
-6090 6073 0
-6090 6088 0
6090 -6073 -6088 0
6075 6090 -6091 0
6075 -6090 6091 0
-6075 6090 6091 0
-6075 -6090 -6091 0
-6092 6075 0
-6092 6090 0
6092 -6075 -6090 0
6077 6092 -6093 0
6077 -6092 6093 0
-6077 6092 6093 0
-6077 -6092 -6093 0
-6094 6077 0
-6094 6092 0
6094 -6077 -6092 0
-6094 0
6079 156 -6095 0
6079 -156 6095 0
-6079 156 6095 0
-6079 -156 -6095 0
-6096 6079 0
-6096 156 0
6096 -6079 -156 0
6081 6096 -6097 0
6081 -6096 6097 0
-6081 6096 6097 0
-6081 -6096 -6097 0
-6098 6081 0
-6098 6096 0
6098 -6081 -6096 0
6083 6098 -6099 0
6083 -6098 6099 0
-6083 6098 6099 0
-6083 -6098 -6099 0
-6100 6083 0
-6100 6098 0
6100 -6083 -6098 0
6085 6100 -6101 0
6085 -6100 6101 0
-6085 6100 6101 0
-6085 -6100 -6101 0
-6102 6085 0
-6102 6100 0
6102 -6085 -6100 0
6087 6102 -6103 0
6087 -6102 6103 0
-6087 6102 6103 0
-6087 -6102 -6103 0
-6104 6087 0
-6104 6102 0
6104 -6087 -6102 0
6089 6104 -6105 0
6089 -6104 6105 0
-6089 6104 6105 0
-6089 -6104 -6105 0
-6106 6089 0
-6106 6104 0
6106 -6089 -6104 0
6091 6106 -6107 0
6091 -6106 6107 0
-6091 6106 6107 0
-6091 -6106 -6107 0
-6108 6091 0
-6108 6106 0
6108 -6091 -6106 0
6093 6108 -6109 0
6093 -6108 6109 0
-6093 6108 6109 0
-6093 -6108 -6109 0
-6110 6093 0
-6110 6108 0
6110 -6093 -6108 0
-6110 0
6095 157 -6111 0
6095 -157 6111 0
-6095 157 6111 0
-6095 -157 -6111 0
-6112 6095 0
-6112 157 0
6112 -6095 -157 0
6097 6112 -6113 0
6097 -6112 6113 0
-6097 6112 6113 0
-6097 -6112 -6113 0
-6114 6097 0
-6114 6112 0
6114 -6097 -6112 0
6099 6114 -6115 0
6099 -6114 6115 0
-6099 6114 6115 0
-6099 -6114 -6115 0
-6116 6099 0
-6116 6114 0
6116 -6099 -6114 0
6101 6116 -6117 0
6101 -6116 6117 0
-6101 6116 6117 0
-6101 -6116 -6117 0
-6118 6101 0
-6118 6116 0
6118 -6101 -6116 0
6103 6118 -6119 0
6103 -6118 6119 0
-6103 6118 6119 0
-6103 -6118 -6119 0
-6120 6103 0
-6120 6118 0
6120 -6103 -6118 0
6105 6120 -6121 0
6105 -6120 6121 0
-6105 6120 6121 0
-6105 -6120 -6121 0
-6122 6105 0
-6122 6120 0
6122 -6105 -6120 0
6107 6122 -6123 0
6107 -6122 6123 0
-6107 6122 6123 0
-6107 -6122 -6123 0
-6124 6107 0
-6124 6122 0
6124 -6107 -6122 0
6109 6124 -6125 0
6109 -6124 6125 0
-6109 6124 6125 0
-6109 -6124 -6125 0
-6126 6109 0
-6126 6124 0
6126 -6109 -6124 0
-6126 0
6111 158 -6127 0
6111 -158 6127 0
-6111 158 6127 0
-6111 -158 -6127 0
-6128 6111 0
-6128 158 0
6128 -6111 -158 0
6113 6128 -6129 0
6113 -6128 6129 0
-6113 6128 6129 0
-6113 -6128 -6129 0
-6130 6113 0
-6130 6128 0
6130 -6113 -6128 0
6115 6130 -6131 0
6115 -6130 6131 0
-6115 6130 6131 0
-6115 -6130 -6131 0
-6132 6115 0
-6132 6130 0
6132 -6115 -6130 0
6117 6132 -6133 0
6117 -6132 6133 0
-6117 6132 6133 0
-6117 -6132 -6133 0
-6134 6117 0
-6134 6132 0
6134 -6117 -6132 0
6119 6134 -6135 0
6119 -6134 6135 0
-6119 6134 6135 0
-6119 -6134 -6135 0
-6136 6119 0
-6136 6134 0
6136 -6119 -6134 0
6121 6136 -6137 0
6121 -6136 6137 0
-6121 6136 6137 0
-6121 -6136 -6137 0
-6138 6121 0
-6138 6136 0
6138 -6121 -6136 0
6123 6138 -6139 0
6123 -6138 6139 0
-6123 6138 6139 0
-6123 -6138 -6139 0
-6140 6123 0
-6140 6138 0
6140 -6123 -6138 0
6125 6140 -6141 0
6125 -6140 6141 0
-6125 6140 6141 0
-6125 -6140 -6141 0
-6142 6125 0
-6142 6140 0
6142 -6125 -6140 0
-6142 0
6127 159 -6143 0
6127 -159 6143 0
-6127 159 6143 0
-6127 -159 -6143 0
-6144 6127 0
-6144 159 0
6144 -6127 -159 0
6129 6144 -6145 0
6129 -6144 6145 0
-6129 6144 6145 0
-6129 -6144 -6145 0
-6146 6129 0
-6146 6144 0
6146 -6129 -6144 0
6131 6146 -6147 0
6131 -6146 6147 0
-6131 6146 6147 0
-6131 -6146 -6147 0
-6148 6131 0
-6148 6146 0
6148 -6131 -6146 0
6133 6148 -6149 0
6133 -6148 6149 0
-6133 6148 6149 0
-6133 -6148 -6149 0
-6150 6133 0
-6150 6148 0
6150 -6133 -6148 0
6135 6150 -6151 0
6135 -6150 6151 0
-6135 6150 6151 0
-6135 -6150 -6151 0
-6152 6135 0
-6152 6150 0
6152 -6135 -6150 0
6137 6152 -6153 0
6137 -6152 6153 0
-6137 6152 6153 0
-6137 -6152 -6153 0
-6154 6137 0
-6154 6152 0
6154 -6137 -6152 0
6139 6154 -6155 0
6139 -6154 6155 0
-6139 6154 6155 0
-6139 -6154 -6155 0
-6156 6139 0
-6156 6154 0
6156 -6139 -6154 0
6141 6156 -6157 0
6141 -6156 6157 0
-6141 6156 6157 0
-6141 -6156 -6157 0
-6158 6141 0
-6158 6156 0
6158 -6141 -6156 0
-6158 0
6143 160 -6159 0
6143 -160 6159 0
-6143 160 6159 0
-6143 -160 -6159 0
-6160 6143 0
-6160 160 0
6160 -6143 -160 0
6145 6160 -6161 0
6145 -6160 6161 0
-6145 6160 6161 0
-6145 -6160 -6161 0
-6162 6145 0
-6162 6160 0
6162 -6145 -6160 0
6147 6162 -6163 0
6147 -6162 6163 0
-6147 6162 6163 0
-6147 -6162 -6163 0
-6164 6147 0
-6164 6162 0
6164 -6147 -6162 0
6149 6164 -6165 0
6149 -6164 6165 0
-6149 6164 6165 0
-6149 -6164 -6165 0
-6166 6149 0
-6166 6164 0
6166 -6149 -6164 0
6151 6166 -6167 0
6151 -6166 6167 0
-6151 6166 6167 0
-6151 -6166 -6167 0
-6168 6151 0
-6168 6166 0
6168 -6151 -6166 0
6153 6168 -6169 0
6153 -6168 6169 0
-6153 6168 6169 0
-6153 -6168 -6169 0
-6170 6153 0
-6170 6168 0
6170 -6153 -6168 0
6155 6170 -6171 0
6155 -6170 6171 0
-6155 6170 6171 0
-6155 -6170 -6171 0
-6172 6155 0
-6172 6170 0
6172 -6155 -6170 0
6157 6172 -6173 0
6157 -6172 6173 0
-6157 6172 6173 0
-6157 -6172 -6173 0
-6174 6157 0
-6174 6172 0
6174 -6157 -6172 0
-6174 0
6159 161 -6175 0
6159 -161 6175 0
-6159 161 6175 0
-6159 -161 -6175 0
-6176 6159 0
-6176 161 0
6176 -6159 -161 0
6161 6176 -6177 0
6161 -6176 6177 0
-6161 6176 6177 0
-6161 -6176 -6177 0
-6178 6161 0
-6178 6176 0
6178 -6161 -6176 0
6163 6178 -6179 0
6163 -6178 6179 0
-6163 6178 6179 0
-6163 -6178 -6179 0
-6180 6163 0
-6180 6178 0
6180 -6163 -6178 0
6165 6180 -6181 0
6165 -6180 6181 0
-6165 6180 6181 0
-6165 -6180 -6181 0
-6182 6165 0
-6182 6180 0
6182 -6165 -6180 0
6167 6182 -6183 0
6167 -6182 6183 0
-6167 6182 6183 0
-6167 -6182 -6183 0
-6184 6167 0
-6184 6182 0
6184 -6167 -6182 0
6169 6184 -6185 0
6169 -6184 6185 0
-6169 6184 6185 0
-6169 -6184 -6185 0
-6186 6169 0
-6186 6184 0
6186 -6169 -6184 0
6171 6186 -6187 0
6171 -6186 6187 0
-6171 6186 6187 0
-6171 -6186 -6187 0
-6188 6171 0
-6188 6186 0
6188 -6171 -6186 0
6173 6188 -6189 0
6173 -6188 6189 0
-6173 6188 6189 0
-6173 -6188 -6189 0
-6190 6173 0
-6190 6188 0
6190 -6173 -6188 0
-6190 0
6175 162 -6191 0
6175 -162 6191 0
-6175 162 6191 0
-6175 -162 -6191 0
-6192 6175 0
-6192 162 0
6192 -6175 -162 0
6177 6192 -6193 0
6177 -6192 6193 0
-6177 6192 6193 0
-6177 -6192 -6193 0
-6194 6177 0
-6194 6192 0
6194 -6177 -6192 0
6179 6194 -6195 0
6179 -6194 6195 0
-6179 6194 6195 0
-6179 -6194 -6195 0
-6196 6179 0
-6196 6194 0
6196 -6179 -6194 0
6181 6196 -6197 0
6181 -6196 6197 0
-6181 6196 6197 0
-6181 -6196 -6197 0
-6198 6181 0
-6198 6196 0
6198 -6181 -6196 0
6183 6198 -6199 0
6183 -6198 6199 0
-6183 6198 6199 0
-6183 -6198 -6199 0
-6200 6183 0
-6200 6198 0
6200 -6183 -6198 0
6185 6200 -6201 0
6185 -6200 6201 0
-6185 6200 6201 0
-6185 -6200 -6201 0
-6202 6185 0
-6202 6200 0
6202 -6185 -6200 0
6187 6202 -6203 0
6187 -6202 6203 0
-6187 6202 6203 0
-6187 -6202 -6203 0
-6204 6187 0
-6204 6202 0
6204 -6187 -6202 0
6189 6204 -6205 0
6189 -6204 6205 0
-6189 6204 6205 0
-6189 -6204 -6205 0
-6206 6189 0
-6206 6204 0
6206 -6189 -6204 0
-6206 0
6191 163 -6207 0
6191 -163 6207 0
-6191 163 6207 0
-6191 -163 -6207 0
-6208 6191 0
-6208 163 0
6208 -6191 -163 0
6193 6208 -6209 0
6193 -6208 6209 0
-6193 6208 6209 0
-6193 -6208 -6209 0
-6210 6193 0
-6210 6208 0
6210 -6193 -6208 0
6195 6210 -6211 0
6195 -6210 6211 0
-6195 6210 6211 0
-6195 -6210 -6211 0
-6212 6195 0
-6212 6210 0
6212 -6195 -6210 0
6197 6212 -6213 0
6197 -6212 6213 0
-6197 6212 6213 0
-6197 -6212 -6213 0
-6214 6197 0
-6214 6212 0
6214 -6197 -6212 0
6199 6214 -6215 0
6199 -6214 6215 0
-6199 6214 6215 0
-6199 -6214 -6215 0
-6216 6199 0
-6216 6214 0
6216 -6199 -6214 0
6201 6216 -6217 0
6201 -6216 6217 0
-6201 6216 6217 0
-6201 -6216 -6217 0
-6218 6201 0
-6218 6216 0
6218 -6201 -6216 0
6203 6218 -6219 0
6203 -6218 6219 0
-6203 6218 6219 0
-6203 -6218 -6219 0
-6220 6203 0
-6220 6218 0
6220 -6203 -6218 0
6205 6220 -6221 0
6205 -6220 6221 0
-6205 6220 6221 0
-6205 -6220 -6221 0
-6222 6205 0
-6222 6220 0
6222 -6205 -6220 0
-6222 0
6207 164 -6223 0
6207 -164 6223 0
-6207 164 6223 0
-6207 -164 -6223 0
-6224 6207 0
-6224 164 0
6224 -6207 -164 0
6209 6224 -6225 0
6209 -6224 6225 0
-6209 6224 6225 0
-6209 -6224 -6225 0
-6226 6209 0
-6226 6224 0
6226 -6209 -6224 0
6211 6226 -6227 0
6211 -6226 6227 0
-6211 6226 6227 0
-6211 -6226 -6227 0
-6228 6211 0
-6228 6226 0
6228 -6211 -6226 0
6213 6228 -6229 0
6213 -6228 6229 0
-6213 6228 6229 0
-6213 -6228 -6229 0
-6230 6213 0
-6230 6228 0
6230 -6213 -6228 0
6215 6230 -6231 0
6215 -6230 6231 0
-6215 6230 6231 0
-6215 -6230 -6231 0
-6232 6215 0
-6232 6230 0
6232 -6215 -6230 0
6217 6232 -6233 0
6217 -6232 6233 0
-6217 6232 6233 0
-6217 -6232 -6233 0
-6234 6217 0
-6234 6232 0
6234 -6217 -6232 0
6219 6234 -6235 0
6219 -6234 6235 0
-6219 6234 6235 0
-6219 -6234 -6235 0
-6236 6219 0
-6236 6234 0
6236 -6219 -6234 0
6221 6236 -6237 0
6221 -6236 6237 0
-6221 6236 6237 0
-6221 -6236 -6237 0
-6238 6221 0
-6238 6236 0
6238 -6221 -6236 0
-6238 0
6223 165 -6239 0
6223 -165 6239 0
-6223 165 6239 0
-6223 -165 -6239 0
-6240 6223 0
-6240 165 0
6240 -6223 -165 0
6225 6240 -6241 0
6225 -6240 6241 0
-6225 6240 6241 0
-6225 -6240 -6241 0
-6242 6225 0
-6242 6240 0
6242 -6225 -6240 0
6227 6242 -6243 0
6227 -6242 6243 0
-6227 6242 6243 0
-6227 -6242 -6243 0
-6244 6227 0
-6244 6242 0
6244 -6227 -6242 0
6229 6244 -6245 0
6229 -6244 6245 0
-6229 6244 6245 0
-6229 -6244 -6245 0
-6246 6229 0
-6246 6244 0
6246 -6229 -6244 0
6231 6246 -6247 0
6231 -6246 6247 0
-6231 6246 6247 0
-6231 -6246 -6247 0
-6248 6231 0
-6248 6246 0
6248 -6231 -6246 0
6233 6248 -6249 0
6233 -6248 6249 0
-6233 6248 6249 0
-6233 -6248 -6249 0
-6250 6233 0
-6250 6248 0
6250 -6233 -6248 0
6235 6250 -6251 0
6235 -6250 6251 0
-6235 6250 6251 0
-6235 -6250 -6251 0
-6252 6235 0
-6252 6250 0
6252 -6235 -6250 0
6237 6252 -6253 0
6237 -6252 6253 0
-6237 6252 6253 0
-6237 -6252 -6253 0
-6254 6237 0
-6254 6252 0
6254 -6237 -6252 0
-6254 0
6239 166 -6255 0
6239 -166 6255 0
-6239 166 6255 0
-6239 -166 -6255 0
-6256 6239 0
-6256 166 0
6256 -6239 -166 0
6241 6256 -6257 0
6241 -6256 6257 0
-6241 6256 6257 0
-6241 -6256 -6257 0
-6258 6241 0
-6258 6256 0
6258 -6241 -6256 0
6243 6258 -6259 0
6243 -6258 6259 0
-6243 6258 6259 0
-6243 -6258 -6259 0
-6260 6243 0
-6260 6258 0
6260 -6243 -6258 0
6245 6260 -6261 0
6245 -6260 6261 0
-6245 6260 6261 0
-6245 -6260 -6261 0
-6262 6245 0
-6262 6260 0
6262 -6245 -6260 0
6247 6262 -6263 0
6247 -6262 6263 0
-6247 6262 6263 0
-6247 -6262 -6263 0
-6264 6247 0
-6264 6262 0
6264 -6247 -6262 0
6249 6264 -6265 0
6249 -6264 6265 0
-6249 6264 6265 0
-6249 -6264 -6265 0
-6266 6249 0
-6266 6264 0
6266 -6249 -6264 0
6251 6266 -6267 0
6251 -6266 6267 0
-6251 6266 6267 0
-6251 -6266 -6267 0
-6268 6251 0
-6268 6266 0
6268 -6251 -6266 0
6253 6268 -6269 0
6253 -6268 6269 0
-6253 6268 6269 0
-6253 -6268 -6269 0
-6270 6253 0
-6270 6268 0
6270 -6253 -6268 0
-6270 0
6255 167 -6271 0
6255 -167 6271 0
-6255 167 6271 0
-6255 -167 -6271 0
-6272 6255 0
-6272 167 0
6272 -6255 -167 0
6257 6272 -6273 0
6257 -6272 6273 0
-6257 6272 6273 0
-6257 -6272 -6273 0
-6274 6257 0
-6274 6272 0
6274 -6257 -6272 0
6259 6274 -6275 0
6259 -6274 6275 0
-6259 6274 6275 0
-6259 -6274 -6275 0
-6276 6259 0
-6276 6274 0
6276 -6259 -6274 0
6261 6276 -6277 0
6261 -6276 6277 0
-6261 6276 6277 0
-6261 -6276 -6277 0
-6278 6261 0
-6278 6276 0
6278 -6261 -6276 0
6263 6278 -6279 0
6263 -6278 6279 0
-6263 6278 6279 0
-6263 -6278 -6279 0
-6280 6263 0
-6280 6278 0
6280 -6263 -6278 0
6265 6280 -6281 0
6265 -6280 6281 0
-6265 6280 6281 0
-6265 -6280 -6281 0
-6282 6265 0
-6282 6280 0
6282 -6265 -6280 0
6267 6282 -6283 0
6267 -6282 6283 0
-6267 6282 6283 0
-6267 -6282 -6283 0
-6284 6267 0
-6284 6282 0
6284 -6267 -6282 0
6269 6284 -6285 0
6269 -6284 6285 0
-6269 6284 6285 0
-6269 -6284 -6285 0
-6286 6269 0
-6286 6284 0
6286 -6269 -6284 0
-6286 0
6271 168 -6287 0
6271 -168 6287 0
-6271 168 6287 0
-6271 -168 -6287 0
-6288 6271 0
-6288 168 0
6288 -6271 -168 0
6273 6288 -6289 0
6273 -6288 6289 0
-6273 6288 6289 0
-6273 -6288 -6289 0
-6290 6273 0
-6290 6288 0
6290 -6273 -6288 0
6275 6290 -6291 0
6275 -6290 6291 0
-6275 6290 6291 0
-6275 -6290 -6291 0
-6292 6275 0
-6292 6290 0
6292 -6275 -6290 0
6277 6292 -6293 0
6277 -6292 6293 0
-6277 6292 6293 0
-6277 -6292 -6293 0
-6294 6277 0
-6294 6292 0
6294 -6277 -6292 0
6279 6294 -6295 0
6279 -6294 6295 0
-6279 6294 6295 0
-6279 -6294 -6295 0
-6296 6279 0
-6296 6294 0
6296 -6279 -6294 0
6281 6296 -6297 0
6281 -6296 6297 0
-6281 6296 6297 0
-6281 -6296 -6297 0
-6298 6281 0
-6298 6296 0
6298 -6281 -6296 0
6283 6298 -6299 0
6283 -6298 6299 0
-6283 6298 6299 0
-6283 -6298 -6299 0
-6300 6283 0
-6300 6298 0
6300 -6283 -6298 0
6285 6300 -6301 0
6285 -6300 6301 0
-6285 6300 6301 0
-6285 -6300 -6301 0
-6302 6285 0
-6302 6300 0
6302 -6285 -6300 0
-6302 0
6287 169 -6303 0
6287 -169 6303 0
-6287 169 6303 0
-6287 -169 -6303 0
-6304 6287 0
-6304 169 0
6304 -6287 -169 0
6289 6304 -6305 0
6289 -6304 6305 0
-6289 6304 6305 0
-6289 -6304 -6305 0
-6306 6289 0
-6306 6304 0
6306 -6289 -6304 0
6291 6306 -6307 0
6291 -6306 6307 0
-6291 6306 6307 0
-6291 -6306 -6307 0
-6308 6291 0
-6308 6306 0
6308 -6291 -6306 0
6293 6308 -6309 0
6293 -6308 6309 0
-6293 6308 6309 0
-6293 -6308 -6309 0
-6310 6293 0
-6310 6308 0
6310 -6293 -6308 0
6295 6310 -6311 0
6295 -6310 6311 0
-6295 6310 6311 0
-6295 -6310 -6311 0
-6312 6295 0
-6312 6310 0
6312 -6295 -6310 0
6297 6312 -6313 0
6297 -6312 6313 0
-6297 6312 6313 0
-6297 -6312 -6313 0
-6314 6297 0
-6314 6312 0
6314 -6297 -6312 0
6299 6314 -6315 0
6299 -6314 6315 0
-6299 6314 6315 0
-6299 -6314 -6315 0
-6316 6299 0
-6316 6314 0
6316 -6299 -6314 0
6301 6316 -6317 0
6301 -6316 6317 0
-6301 6316 6317 0
-6301 -6316 -6317 0
-6318 6301 0
-6318 6316 0
6318 -6301 -6316 0
-6318 0
6303 170 -6319 0
6303 -170 6319 0
-6303 170 6319 0
-6303 -170 -6319 0
-6320 6303 0
-6320 170 0
6320 -6303 -170 0
6305 6320 -6321 0
6305 -6320 6321 0
-6305 6320 6321 0
-6305 -6320 -6321 0
-6322 6305 0
-6322 6320 0
6322 -6305 -6320 0
6307 6322 -6323 0
6307 -6322 6323 0
-6307 6322 6323 0
-6307 -6322 -6323 0
-6324 6307 0
-6324 6322 0
6324 -6307 -6322 0
6309 6324 -6325 0
6309 -6324 6325 0
-6309 6324 6325 0
-6309 -6324 -6325 0
-6326 6309 0
-6326 6324 0
6326 -6309 -6324 0
6311 6326 -6327 0
6311 -6326 6327 0
-6311 6326 6327 0
-6311 -6326 -6327 0
-6328 6311 0
-6328 6326 0
6328 -6311 -6326 0
6313 6328 -6329 0
6313 -6328 6329 0
-6313 6328 6329 0
-6313 -6328 -6329 0
-6330 6313 0
-6330 6328 0
6330 -6313 -6328 0
6315 6330 -6331 0
6315 -6330 6331 0
-6315 6330 6331 0
-6315 -6330 -6331 0
-6332 6315 0
-6332 6330 0
6332 -6315 -6330 0
6317 6332 -6333 0
6317 -6332 6333 0
-6317 6332 6333 0
-6317 -6332 -6333 0
-6334 6317 0
-6334 6332 0
6334 -6317 -6332 0
-6334 0
6319 171 -6335 0
6319 -171 6335 0
-6319 171 6335 0
-6319 -171 -6335 0
-6336 6319 0
-6336 171 0
6336 -6319 -171 0
6321 6336 -6337 0
6321 -6336 6337 0
-6321 6336 6337 0
-6321 -6336 -6337 0
-6338 6321 0
-6338 6336 0
6338 -6321 -6336 0
6323 6338 -6339 0
6323 -6338 6339 0
-6323 6338 6339 0
-6323 -6338 -6339 0
-6340 6323 0
-6340 6338 0
6340 -6323 -6338 0
6325 6340 -6341 0
6325 -6340 6341 0
-6325 6340 6341 0
-6325 -6340 -6341 0
-6342 6325 0
-6342 6340 0
6342 -6325 -6340 0
6327 6342 -6343 0
6327 -6342 6343 0
-6327 6342 6343 0
-6327 -6342 -6343 0
-6344 6327 0
-6344 6342 0
6344 -6327 -6342 0
6329 6344 -6345 0
6329 -6344 6345 0
-6329 6344 6345 0
-6329 -6344 -6345 0
-6346 6329 0
-6346 6344 0
6346 -6329 -6344 0
6331 6346 -6347 0
6331 -6346 6347 0
-6331 6346 6347 0
-6331 -6346 -6347 0
-6348 6331 0
-6348 6346 0
6348 -6331 -6346 0
6333 6348 -6349 0
6333 -6348 6349 0
-6333 6348 6349 0
-6333 -6348 -6349 0
-6350 6333 0
-6350 6348 0
6350 -6333 -6348 0
-6350 0
6335 172 -6351 0
6335 -172 6351 0
-6335 172 6351 0
-6335 -172 -6351 0
-6352 6335 0
-6352 172 0
6352 -6335 -172 0
6337 6352 -6353 0
6337 -6352 6353 0
-6337 6352 6353 0
-6337 -6352 -6353 0
-6354 6337 0
-6354 6352 0
6354 -6337 -6352 0
6339 6354 -6355 0
6339 -6354 6355 0
-6339 6354 6355 0
-6339 -6354 -6355 0
-6356 6339 0
-6356 6354 0
6356 -6339 -6354 0
6341 6356 -6357 0
6341 -6356 6357 0
-6341 6356 6357 0
-6341 -6356 -6357 0
-6358 6341 0
-6358 6356 0
6358 -6341 -6356 0
6343 6358 -6359 0
6343 -6358 6359 0
-6343 6358 6359 0
-6343 -6358 -6359 0
-6360 6343 0
-6360 6358 0
6360 -6343 -6358 0
6345 6360 -6361 0
6345 -6360 6361 0
-6345 6360 6361 0
-6345 -6360 -6361 0
-6362 6345 0
-6362 6360 0
6362 -6345 -6360 0
6347 6362 -6363 0
6347 -6362 6363 0
-6347 6362 6363 0
-6347 -6362 -6363 0
-6364 6347 0
-6364 6362 0
6364 -6347 -6362 0
6349 6364 -6365 0
6349 -6364 6365 0
-6349 6364 6365 0
-6349 -6364 -6365 0
-6366 6349 0
-6366 6364 0
6366 -6349 -6364 0
-6366 0
6351 173 -6367 0
6351 -173 6367 0
-6351 173 6367 0
-6351 -173 -6367 0
-6368 6351 0
-6368 173 0
6368 -6351 -173 0
6353 6368 -6369 0
6353 -6368 6369 0
-6353 6368 6369 0
-6353 -6368 -6369 0
-6370 6353 0
-6370 6368 0
6370 -6353 -6368 0
6355 6370 -6371 0
6355 -6370 6371 0
-6355 6370 6371 0
-6355 -6370 -6371 0
-6372 6355 0
-6372 6370 0
6372 -6355 -6370 0
6357 6372 -6373 0
6357 -6372 6373 0
-6357 6372 6373 0
-6357 -6372 -6373 0
-6374 6357 0
-6374 6372 0
6374 -6357 -6372 0
6359 6374 -6375 0
6359 -6374 6375 0
-6359 6374 6375 0
-6359 -6374 -6375 0
-6376 6359 0
-6376 6374 0
6376 -6359 -6374 0
6361 6376 -6377 0
6361 -6376 6377 0
-6361 6376 6377 0
-6361 -6376 -6377 0
-6378 6361 0
-6378 6376 0
6378 -6361 -6376 0
6363 6378 -6379 0
6363 -6378 6379 0
-6363 6378 6379 0
-6363 -6378 -6379 0
-6380 6363 0
-6380 6378 0
6380 -6363 -6378 0
6365 6380 -6381 0
6365 -6380 6381 0
-6365 6380 6381 0
-6365 -6380 -6381 0
-6382 6365 0
-6382 6380 0
6382 -6365 -6380 0
-6382 0
6367 174 -6383 0
6367 -174 6383 0
-6367 174 6383 0
-6367 -174 -6383 0
-6384 6367 0
-6384 174 0
6384 -6367 -174 0
6369 6384 -6385 0
6369 -6384 6385 0
-6369 6384 6385 0
-6369 -6384 -6385 0
-6386 6369 0
-6386 6384 0
6386 -6369 -6384 0
6371 6386 -6387 0
6371 -6386 6387 0
-6371 6386 6387 0
-6371 -6386 -6387 0
-6388 6371 0
-6388 6386 0
6388 -6371 -6386 0
6373 6388 -6389 0
6373 -6388 6389 0
-6373 6388 6389 0
-6373 -6388 -6389 0
-6390 6373 0
-6390 6388 0
6390 -6373 -6388 0
6375 6390 -6391 0
6375 -6390 6391 0
-6375 6390 6391 0
-6375 -6390 -6391 0
-6392 6375 0
-6392 6390 0
6392 -6375 -6390 0
6377 6392 -6393 0
6377 -6392 6393 0
-6377 6392 6393 0
-6377 -6392 -6393 0
-6394 6377 0
-6394 6392 0
6394 -6377 -6392 0
6379 6394 -6395 0
6379 -6394 6395 0
-6379 6394 6395 0
-6379 -6394 -6395 0
-6396 6379 0
-6396 6394 0
6396 -6379 -6394 0
6381 6396 -6397 0
6381 -6396 6397 0
-6381 6396 6397 0
-6381 -6396 -6397 0
-6398 6381 0
-6398 6396 0
6398 -6381 -6396 0
-6398 0
6383 175 -6399 0
6383 -175 6399 0
-6383 175 6399 0
-6383 -175 -6399 0
-6400 6383 0
-6400 175 0
6400 -6383 -175 0
6385 6400 -6401 0
6385 -6400 6401 0
-6385 6400 6401 0
-6385 -6400 -6401 0
-6402 6385 0
-6402 6400 0
6402 -6385 -6400 0
6387 6402 -6403 0
6387 -6402 6403 0
-6387 6402 6403 0
-6387 -6402 -6403 0
-6404 6387 0
-6404 6402 0
6404 -6387 -6402 0
6389 6404 -6405 0
6389 -6404 6405 0
-6389 6404 6405 0
-6389 -6404 -6405 0
-6406 6389 0
-6406 6404 0
6406 -6389 -6404 0
6391 6406 -6407 0
6391 -6406 6407 0
-6391 6406 6407 0
-6391 -6406 -6407 0
-6408 6391 0
-6408 6406 0
6408 -6391 -6406 0
6393 6408 -6409 0
6393 -6408 6409 0
-6393 6408 6409 0
-6393 -6408 -6409 0
-6410 6393 0
-6410 6408 0
6410 -6393 -6408 0
6395 6410 -6411 0
6395 -6410 6411 0
-6395 6410 6411 0
-6395 -6410 -6411 0
-6412 6395 0
-6412 6410 0
6412 -6395 -6410 0
6397 6412 -6413 0
6397 -6412 6413 0
-6397 6412 6413 0
-6397 -6412 -6413 0
-6414 6397 0
-6414 6412 0
6414 -6397 -6412 0
-6414 0
6399 176 -6415 0
6399 -176 6415 0
-6399 176 6415 0
-6399 -176 -6415 0
-6416 6399 0
-6416 176 0
6416 -6399 -176 0
6401 6416 -6417 0
6401 -6416 6417 0
-6401 6416 6417 0
-6401 -6416 -6417 0
-6418 6401 0
-6418 6416 0
6418 -6401 -6416 0
6403 6418 -6419 0
6403 -6418 6419 0
-6403 6418 6419 0
-6403 -6418 -6419 0
-6420 6403 0
-6420 6418 0
6420 -6403 -6418 0
6405 6420 -6421 0
6405 -6420 6421 0
-6405 6420 6421 0
-6405 -6420 -6421 0
-6422 6405 0
-6422 6420 0
6422 -6405 -6420 0
6407 6422 -6423 0
6407 -6422 6423 0
-6407 6422 6423 0
-6407 -6422 -6423 0
-6424 6407 0
-6424 6422 0
6424 -6407 -6422 0
6409 6424 -6425 0
6409 -6424 6425 0
-6409 6424 6425 0
-6409 -6424 -6425 0
-6426 6409 0
-6426 6424 0
6426 -6409 -6424 0
6411 6426 -6427 0
6411 -6426 6427 0
-6411 6426 6427 0
-6411 -6426 -6427 0
-6428 6411 0
-6428 6426 0
6428 -6411 -6426 0
6413 6428 -6429 0
6413 -6428 6429 0
-6413 6428 6429 0
-6413 -6428 -6429 0
-6430 6413 0
-6430 6428 0
6430 -6413 -6428 0
-6430 0
6415 177 -6431 0
6415 -177 6431 0
-6415 177 6431 0
-6415 -177 -6431 0
-6432 6415 0
-6432 177 0
6432 -6415 -177 0
6417 6432 -6433 0
6417 -6432 6433 0
-6417 6432 6433 0
-6417 -6432 -6433 0
-6434 6417 0
-6434 6432 0
6434 -6417 -6432 0
6419 6434 -6435 0
6419 -6434 6435 0
-6419 6434 6435 0
-6419 -6434 -6435 0
-6436 6419 0
-6436 6434 0
6436 -6419 -6434 0
6421 6436 -6437 0
6421 -6436 6437 0
-6421 6436 6437 0
-6421 -6436 -6437 0
-6438 6421 0
-6438 6436 0
6438 -6421 -6436 0
6423 6438 -6439 0
6423 -6438 6439 0
-6423 6438 6439 0
-6423 -6438 -6439 0
-6440 6423 0
-6440 6438 0
6440 -6423 -6438 0
6425 6440 -6441 0
6425 -6440 6441 0
-6425 6440 6441 0
-6425 -6440 -6441 0
-6442 6425 0
-6442 6440 0
6442 -6425 -6440 0
6427 6442 -6443 0
6427 -6442 6443 0
-6427 6442 6443 0
-6427 -6442 -6443 0
-6444 6427 0
-6444 6442 0
6444 -6427 -6442 0
6429 6444 -6445 0
6429 -6444 6445 0
-6429 6444 6445 0
-6429 -6444 -6445 0
-6446 6429 0
-6446 6444 0
6446 -6429 -6444 0
-6446 0
6431 178 -6447 0
6431 -178 6447 0
-6431 178 6447 0
-6431 -178 -6447 0
-6448 6431 0
-6448 178 0
6448 -6431 -178 0
6433 6448 -6449 0
6433 -6448 6449 0
-6433 6448 6449 0
-6433 -6448 -6449 0
-6450 6433 0
-6450 6448 0
6450 -6433 -6448 0
6435 6450 -6451 0
6435 -6450 6451 0
-6435 6450 6451 0
-6435 -6450 -6451 0
-6452 6435 0
-6452 6450 0
6452 -6435 -6450 0
6437 6452 -6453 0
6437 -6452 6453 0
-6437 6452 6453 0
-6437 -6452 -6453 0
-6454 6437 0
-6454 6452 0
6454 -6437 -6452 0
6439 6454 -6455 0
6439 -6454 6455 0
-6439 6454 6455 0
-6439 -6454 -6455 0
-6456 6439 0
-6456 6454 0
6456 -6439 -6454 0
6441 6456 -6457 0
6441 -6456 6457 0
-6441 6456 6457 0
-6441 -6456 -6457 0
-6458 6441 0
-6458 6456 0
6458 -6441 -6456 0
6443 6458 -6459 0
6443 -6458 6459 0
-6443 6458 6459 0
-6443 -6458 -6459 0
-6460 6443 0
-6460 6458 0
6460 -6443 -6458 0
6445 6460 -6461 0
6445 -6460 6461 0
-6445 6460 6461 0
-6445 -6460 -6461 0
-6462 6445 0
-6462 6460 0
6462 -6445 -6460 0
-6462 0
6447 179 -6463 0
6447 -179 6463 0
-6447 179 6463 0
-6447 -179 -6463 0
-6464 6447 0
-6464 179 0
6464 -6447 -179 0
6449 6464 -6465 0
6449 -6464 6465 0
-6449 6464 6465 0
-6449 -6464 -6465 0
-6466 6449 0
-6466 6464 0
6466 -6449 -6464 0
6451 6466 -6467 0
6451 -6466 6467 0
-6451 6466 6467 0
-6451 -6466 -6467 0
-6468 6451 0
-6468 6466 0
6468 -6451 -6466 0
6453 6468 -6469 0
6453 -6468 6469 0
-6453 6468 6469 0
-6453 -6468 -6469 0
-6470 6453 0
-6470 6468 0
6470 -6453 -6468 0
6455 6470 -6471 0
6455 -6470 6471 0
-6455 6470 6471 0
-6455 -6470 -6471 0
-6472 6455 0
-6472 6470 0
6472 -6455 -6470 0
6457 6472 -6473 0
6457 -6472 6473 0
-6457 6472 6473 0
-6457 -6472 -6473 0
-6474 6457 0
-6474 6472 0
6474 -6457 -6472 0
6459 6474 -6475 0
6459 -6474 6475 0
-6459 6474 6475 0
-6459 -6474 -6475 0
-6476 6459 0
-6476 6474 0
6476 -6459 -6474 0
6461 6476 -6477 0
6461 -6476 6477 0
-6461 6476 6477 0
-6461 -6476 -6477 0
-6478 6461 0
-6478 6476 0
6478 -6461 -6476 0
-6478 0
6463 180 -6479 0
6463 -180 6479 0
-6463 180 6479 0
-6463 -180 -6479 0
-6480 6463 0
-6480 180 0
6480 -6463 -180 0
6465 6480 -6481 0
6465 -6480 6481 0
-6465 6480 6481 0
-6465 -6480 -6481 0
-6482 6465 0
-6482 6480 0
6482 -6465 -6480 0
6467 6482 -6483 0
6467 -6482 6483 0
-6467 6482 6483 0
-6467 -6482 -6483 0
-6484 6467 0
-6484 6482 0
6484 -6467 -6482 0
6469 6484 -6485 0
6469 -6484 6485 0
-6469 6484 6485 0
-6469 -6484 -6485 0
-6486 6469 0
-6486 6484 0
6486 -6469 -6484 0
6471 6486 -6487 0
6471 -6486 6487 0
-6471 6486 6487 0
-6471 -6486 -6487 0
-6488 6471 0
-6488 6486 0
6488 -6471 -6486 0
6473 6488 -6489 0
6473 -6488 6489 0
-6473 6488 6489 0
-6473 -6488 -6489 0
-6490 6473 0
-6490 6488 0
6490 -6473 -6488 0
6475 6490 -6491 0
6475 -6490 6491 0
-6475 6490 6491 0
-6475 -6490 -6491 0
-6492 6475 0
-6492 6490 0
6492 -6475 -6490 0
6477 6492 -6493 0
6477 -6492 6493 0
-6477 6492 6493 0
-6477 -6492 -6493 0
-6494 6477 0
-6494 6492 0
6494 -6477 -6492 0
-6494 0
6479 181 -6495 0
6479 -181 6495 0
-6479 181 6495 0
-6479 -181 -6495 0
-6496 6479 0
-6496 181 0
6496 -6479 -181 0
6481 6496 -6497 0
6481 -6496 6497 0
-6481 6496 6497 0
-6481 -6496 -6497 0
-6498 6481 0
-6498 6496 0
6498 -6481 -6496 0
6483 6498 -6499 0
6483 -6498 6499 0
-6483 6498 6499 0
-6483 -6498 -6499 0
-6500 6483 0
-6500 6498 0
6500 -6483 -6498 0
6485 6500 -6501 0
6485 -6500 6501 0
-6485 6500 6501 0
-6485 -6500 -6501 0
-6502 6485 0
-6502 6500 0
6502 -6485 -6500 0
6487 6502 -6503 0
6487 -6502 6503 0
-6487 6502 6503 0
-6487 -6502 -6503 0
-6504 6487 0
-6504 6502 0
6504 -6487 -6502 0
6489 6504 -6505 0
6489 -6504 6505 0
-6489 6504 6505 0
-6489 -6504 -6505 0
-6506 6489 0
-6506 6504 0
6506 -6489 -6504 0
6491 6506 -6507 0
6491 -6506 6507 0
-6491 6506 6507 0
-6491 -6506 -6507 0
-6508 6491 0
-6508 6506 0
6508 -6491 -6506 0
6493 6508 -6509 0
6493 -6508 6509 0
-6493 6508 6509 0
-6493 -6508 -6509 0
-6510 6493 0
-6510 6508 0
6510 -6493 -6508 0
-6510 0
6495 182 -6511 0
6495 -182 6511 0
-6495 182 6511 0
-6495 -182 -6511 0
-6512 6495 0
-6512 182 0
6512 -6495 -182 0
6497 6512 -6513 0
6497 -6512 6513 0
-6497 6512 6513 0
-6497 -6512 -6513 0
-6514 6497 0
-6514 6512 0
6514 -6497 -6512 0
6499 6514 -6515 0
6499 -6514 6515 0
-6499 6514 6515 0
-6499 -6514 -6515 0
-6516 6499 0
-6516 6514 0
6516 -6499 -6514 0
6501 6516 -6517 0
6501 -6516 6517 0
-6501 6516 6517 0
-6501 -6516 -6517 0
-6518 6501 0
-6518 6516 0
6518 -6501 -6516 0
6503 6518 -6519 0
6503 -6518 6519 0
-6503 6518 6519 0
-6503 -6518 -6519 0
-6520 6503 0
-6520 6518 0
6520 -6503 -6518 0
6505 6520 -6521 0
6505 -6520 6521 0
-6505 6520 6521 0
-6505 -6520 -6521 0
-6522 6505 0
-6522 6520 0
6522 -6505 -6520 0
6507 6522 -6523 0
6507 -6522 6523 0
-6507 6522 6523 0
-6507 -6522 -6523 0
-6524 6507 0
-6524 6522 0
6524 -6507 -6522 0
6509 6524 -6525 0
6509 -6524 6525 0
-6509 6524 6525 0
-6509 -6524 -6525 0
-6526 6509 0
-6526 6524 0
6526 -6509 -6524 0
-6526 0
6511 183 -6527 0
6511 -183 6527 0
-6511 183 6527 0
-6511 -183 -6527 0
-6528 6511 0
-6528 183 0
6528 -6511 -183 0
6513 6528 -6529 0
6513 -6528 6529 0
-6513 6528 6529 0
-6513 -6528 -6529 0
-6530 6513 0
-6530 6528 0
6530 -6513 -6528 0
6515 6530 -6531 0
6515 -6530 6531 0
-6515 6530 6531 0
-6515 -6530 -6531 0
-6532 6515 0
-6532 6530 0
6532 -6515 -6530 0
6517 6532 -6533 0
6517 -6532 6533 0
-6517 6532 6533 0
-6517 -6532 -6533 0
-6534 6517 0
-6534 6532 0
6534 -6517 -6532 0
6519 6534 -6535 0
6519 -6534 6535 0
-6519 6534 6535 0
-6519 -6534 -6535 0
-6536 6519 0
-6536 6534 0
6536 -6519 -6534 0
6521 6536 -6537 0
6521 -6536 6537 0
-6521 6536 6537 0
-6521 -6536 -6537 0
-6538 6521 0
-6538 6536 0
6538 -6521 -6536 0
6523 6538 -6539 0
6523 -6538 6539 0
-6523 6538 6539 0
-6523 -6538 -6539 0
-6540 6523 0
-6540 6538 0
6540 -6523 -6538 0
6525 6540 -6541 0
6525 -6540 6541 0
-6525 6540 6541 0
-6525 -6540 -6541 0
-6542 6525 0
-6542 6540 0
6542 -6525 -6540 0
-6542 0
6527 184 -6543 0
6527 -184 6543 0
-6527 184 6543 0
-6527 -184 -6543 0
-6544 6527 0
-6544 184 0
6544 -6527 -184 0
6529 6544 -6545 0
6529 -6544 6545 0
-6529 6544 6545 0
-6529 -6544 -6545 0
-6546 6529 0
-6546 6544 0
6546 -6529 -6544 0
6531 6546 -6547 0
6531 -6546 6547 0
-6531 6546 6547 0
-6531 -6546 -6547 0
-6548 6531 0
-6548 6546 0
6548 -6531 -6546 0
6533 6548 -6549 0
6533 -6548 6549 0
-6533 6548 6549 0
-6533 -6548 -6549 0
-6550 6533 0
-6550 6548 0
6550 -6533 -6548 0
6535 6550 -6551 0
6535 -6550 6551 0
-6535 6550 6551 0
-6535 -6550 -6551 0
-6552 6535 0
-6552 6550 0
6552 -6535 -6550 0
6537 6552 -6553 0
6537 -6552 6553 0
-6537 6552 6553 0
-6537 -6552 -6553 0
-6554 6537 0
-6554 6552 0
6554 -6537 -6552 0
6539 6554 -6555 0
6539 -6554 6555 0
-6539 6554 6555 0
-6539 -6554 -6555 0
-6556 6539 0
-6556 6554 0
6556 -6539 -6554 0
6541 6556 -6557 0
6541 -6556 6557 0
-6541 6556 6557 0
-6541 -6556 -6557 0
-6558 6541 0
-6558 6556 0
6558 -6541 -6556 0
-6558 0
6543 185 -6559 0
6543 -185 6559 0
-6543 185 6559 0
-6543 -185 -6559 0
-6560 6543 0
-6560 185 0
6560 -6543 -185 0
6545 6560 -6561 0
6545 -6560 6561 0
-6545 6560 6561 0
-6545 -6560 -6561 0
-6562 6545 0
-6562 6560 0
6562 -6545 -6560 0
6547 6562 -6563 0
6547 -6562 6563 0
-6547 6562 6563 0
-6547 -6562 -6563 0
-6564 6547 0
-6564 6562 0
6564 -6547 -6562 0
6549 6564 -6565 0
6549 -6564 6565 0
-6549 6564 6565 0
-6549 -6564 -6565 0
-6566 6549 0
-6566 6564 0
6566 -6549 -6564 0
6551 6566 -6567 0
6551 -6566 6567 0
-6551 6566 6567 0
-6551 -6566 -6567 0
-6568 6551 0
-6568 6566 0
6568 -6551 -6566 0
6553 6568 -6569 0
6553 -6568 6569 0
-6553 6568 6569 0
-6553 -6568 -6569 0
-6570 6553 0
-6570 6568 0
6570 -6553 -6568 0
6555 6570 -6571 0
6555 -6570 6571 0
-6555 6570 6571 0
-6555 -6570 -6571 0
-6572 6555 0
-6572 6570 0
6572 -6555 -6570 0
6557 6572 -6573 0
6557 -6572 6573 0
-6557 6572 6573 0
-6557 -6572 -6573 0
-6574 6557 0
-6574 6572 0
6574 -6557 -6572 0
-6574 0
6559 186 -6575 0
6559 -186 6575 0
-6559 186 6575 0
-6559 -186 -6575 0
-6576 6559 0
-6576 186 0
6576 -6559 -186 0
6561 6576 -6577 0
6561 -6576 6577 0
-6561 6576 6577 0
-6561 -6576 -6577 0
-6578 6561 0
-6578 6576 0
6578 -6561 -6576 0
6563 6578 -6579 0
6563 -6578 6579 0
-6563 6578 6579 0
-6563 -6578 -6579 0
-6580 6563 0
-6580 6578 0
6580 -6563 -6578 0
6565 6580 -6581 0
6565 -6580 6581 0
-6565 6580 6581 0
-6565 -6580 -6581 0
-6582 6565 0
-6582 6580 0
6582 -6565 -6580 0
6567 6582 -6583 0
6567 -6582 6583 0
-6567 6582 6583 0
-6567 -6582 -6583 0
-6584 6567 0
-6584 6582 0
6584 -6567 -6582 0
6569 6584 -6585 0
6569 -6584 6585 0
-6569 6584 6585 0
-6569 -6584 -6585 0
-6586 6569 0
-6586 6584 0
6586 -6569 -6584 0
6571 6586 -6587 0
6571 -6586 6587 0
-6571 6586 6587 0
-6571 -6586 -6587 0
-6588 6571 0
-6588 6586 0
6588 -6571 -6586 0
6573 6588 -6589 0
6573 -6588 6589 0
-6573 6588 6589 0
-6573 -6588 -6589 0
-6590 6573 0
-6590 6588 0
6590 -6573 -6588 0
-6590 0
6575 187 -6591 0
6575 -187 6591 0
-6575 187 6591 0
-6575 -187 -6591 0
-6592 6575 0
-6592 187 0
6592 -6575 -187 0
6577 6592 -6593 0
6577 -6592 6593 0
-6577 6592 6593 0
-6577 -6592 -6593 0
-6594 6577 0
-6594 6592 0
6594 -6577 -6592 0
6579 6594 -6595 0
6579 -6594 6595 0
-6579 6594 6595 0
-6579 -6594 -6595 0
-6596 6579 0
-6596 6594 0
6596 -6579 -6594 0
6581 6596 -6597 0
6581 -6596 6597 0
-6581 6596 6597 0
-6581 -6596 -6597 0
-6598 6581 0
-6598 6596 0
6598 -6581 -6596 0
6583 6598 -6599 0
6583 -6598 6599 0
-6583 6598 6599 0
-6583 -6598 -6599 0
-6600 6583 0
-6600 6598 0
6600 -6583 -6598 0
6585 6600 -6601 0
6585 -6600 6601 0
-6585 6600 6601 0
-6585 -6600 -6601 0
-6602 6585 0
-6602 6600 0
6602 -6585 -6600 0
6587 6602 -6603 0
6587 -6602 6603 0
-6587 6602 6603 0
-6587 -6602 -6603 0
-6604 6587 0
-6604 6602 0
6604 -6587 -6602 0
6589 6604 -6605 0
6589 -6604 6605 0
-6589 6604 6605 0
-6589 -6604 -6605 0
-6606 6589 0
-6606 6604 0
6606 -6589 -6604 0
-6606 0
6591 188 -6607 0
6591 -188 6607 0
-6591 188 6607 0
-6591 -188 -6607 0
-6608 6591 0
-6608 188 0
6608 -6591 -188 0
6593 6608 -6609 0
6593 -6608 6609 0
-6593 6608 6609 0
-6593 -6608 -6609 0
-6610 6593 0
-6610 6608 0
6610 -6593 -6608 0
6595 6610 -6611 0
6595 -6610 6611 0
-6595 6610 6611 0
-6595 -6610 -6611 0
-6612 6595 0
-6612 6610 0
6612 -6595 -6610 0
6597 6612 -6613 0
6597 -6612 6613 0
-6597 6612 6613 0
-6597 -6612 -6613 0
-6614 6597 0
-6614 6612 0
6614 -6597 -6612 0
6599 6614 -6615 0
6599 -6614 6615 0
-6599 6614 6615 0
-6599 -6614 -6615 0
-6616 6599 0
-6616 6614 0
6616 -6599 -6614 0
6601 6616 -6617 0
6601 -6616 6617 0
-6601 6616 6617 0
-6601 -6616 -6617 0
-6618 6601 0
-6618 6616 0
6618 -6601 -6616 0
6603 6618 -6619 0
6603 -6618 6619 0
-6603 6618 6619 0
-6603 -6618 -6619 0
-6620 6603 0
-6620 6618 0
6620 -6603 -6618 0
6605 6620 -6621 0
6605 -6620 6621 0
-6605 6620 6621 0
-6605 -6620 -6621 0
-6622 6605 0
-6622 6620 0
6622 -6605 -6620 0
-6622 0
6607 189 -6623 0
6607 -189 6623 0
-6607 189 6623 0
-6607 -189 -6623 0
-6624 6607 0
-6624 189 0
6624 -6607 -189 0
6609 6624 -6625 0
6609 -6624 6625 0
-6609 6624 6625 0
-6609 -6624 -6625 0
-6626 6609 0
-6626 6624 0
6626 -6609 -6624 0
6611 6626 -6627 0
6611 -6626 6627 0
-6611 6626 6627 0
-6611 -6626 -6627 0
-6628 6611 0
-6628 6626 0
6628 -6611 -6626 0
6613 6628 -6629 0
6613 -6628 6629 0
-6613 6628 6629 0
-6613 -6628 -6629 0
-6630 6613 0
-6630 6628 0
6630 -6613 -6628 0
6615 6630 -6631 0
6615 -6630 6631 0
-6615 6630 6631 0
-6615 -6630 -6631 0
-6632 6615 0
-6632 6630 0
6632 -6615 -6630 0
6617 6632 -6633 0
6617 -6632 6633 0
-6617 6632 6633 0
-6617 -6632 -6633 0
-6634 6617 0
-6634 6632 0
6634 -6617 -6632 0
6619 6634 -6635 0
6619 -6634 6635 0
-6619 6634 6635 0
-6619 -6634 -6635 0
-6636 6619 0
-6636 6634 0
6636 -6619 -6634 0
6621 6636 -6637 0
6621 -6636 6637 0
-6621 6636 6637 0
-6621 -6636 -6637 0
-6638 6621 0
-6638 6636 0
6638 -6621 -6636 0
-6638 0
6623 190 -6639 0
6623 -190 6639 0
-6623 190 6639 0
-6623 -190 -6639 0
-6640 6623 0
-6640 190 0
6640 -6623 -190 0
6625 6640 -6641 0
6625 -6640 6641 0
-6625 6640 6641 0
-6625 -6640 -6641 0
-6642 6625 0
-6642 6640 0
6642 -6625 -6640 0
6627 6642 -6643 0
6627 -6642 6643 0
-6627 6642 6643 0
-6627 -6642 -6643 0
-6644 6627 0
-6644 6642 0
6644 -6627 -6642 0
6629 6644 -6645 0
6629 -6644 6645 0
-6629 6644 6645 0
-6629 -6644 -6645 0
-6646 6629 0
-6646 6644 0
6646 -6629 -6644 0
6631 6646 -6647 0
6631 -6646 6647 0
-6631 6646 6647 0
-6631 -6646 -6647 0
-6648 6631 0
-6648 6646 0
6648 -6631 -6646 0
6633 6648 -6649 0
6633 -6648 6649 0
-6633 6648 6649 0
-6633 -6648 -6649 0
-6650 6633 0
-6650 6648 0
6650 -6633 -6648 0
6635 6650 -6651 0
6635 -6650 6651 0
-6635 6650 6651 0
-6635 -6650 -6651 0
-6652 6635 0
-6652 6650 0
6652 -6635 -6650 0
6637 6652 -6653 0
6637 -6652 6653 0
-6637 6652 6653 0
-6637 -6652 -6653 0
-6654 6637 0
-6654 6652 0
6654 -6637 -6652 0
-6654 0
6639 191 -6655 0
6639 -191 6655 0
-6639 191 6655 0
-6639 -191 -6655 0
-6656 6639 0
-6656 191 0
6656 -6639 -191 0
6641 6656 -6657 0
6641 -6656 6657 0
-6641 6656 6657 0
-6641 -6656 -6657 0
-6658 6641 0
-6658 6656 0
6658 -6641 -6656 0
6643 6658 -6659 0
6643 -6658 6659 0
-6643 6658 6659 0
-6643 -6658 -6659 0
-6660 6643 0
-6660 6658 0
6660 -6643 -6658 0
6645 6660 -6661 0
6645 -6660 6661 0
-6645 6660 6661 0
-6645 -6660 -6661 0
-6662 6645 0
-6662 6660 0
6662 -6645 -6660 0
6647 6662 -6663 0
6647 -6662 6663 0
-6647 6662 6663 0
-6647 -6662 -6663 0
-6664 6647 0
-6664 6662 0
6664 -6647 -6662 0
6649 6664 -6665 0
6649 -6664 6665 0
-6649 6664 6665 0
-6649 -6664 -6665 0
-6666 6649 0
-6666 6664 0
6666 -6649 -6664 0
6651 6666 -6667 0
6651 -6666 6667 0
-6651 6666 6667 0
-6651 -6666 -6667 0
-6668 6651 0
-6668 6666 0
6668 -6651 -6666 0
6653 6668 -6669 0
6653 -6668 6669 0
-6653 6668 6669 0
-6653 -6668 -6669 0
-6670 6653 0
-6670 6668 0
6670 -6653 -6668 0
-6670 0
6655 192 -6671 0
6655 -192 6671 0
-6655 192 6671 0
-6655 -192 -6671 0
-6672 6655 0
-6672 192 0
6672 -6655 -192 0
6657 6672 -6673 0
6657 -6672 6673 0
-6657 6672 6673 0
-6657 -6672 -6673 0
-6674 6657 0
-6674 6672 0
6674 -6657 -6672 0
6659 6674 -6675 0
6659 -6674 6675 0
-6659 6674 6675 0
-6659 -6674 -6675 0
-6676 6659 0
-6676 6674 0
6676 -6659 -6674 0
6661 6676 -6677 0
6661 -6676 6677 0
-6661 6676 6677 0
-6661 -6676 -6677 0
-6678 6661 0
-6678 6676 0
6678 -6661 -6676 0
6663 6678 -6679 0
6663 -6678 6679 0
-6663 6678 6679 0
-6663 -6678 -6679 0
-6680 6663 0
-6680 6678 0
6680 -6663 -6678 0
6665 6680 -6681 0
6665 -6680 6681 0
-6665 6680 6681 0
-6665 -6680 -6681 0
-6682 6665 0
-6682 6680 0
6682 -6665 -6680 0
6667 6682 -6683 0
6667 -6682 6683 0
-6667 6682 6683 0
-6667 -6682 -6683 0
-6684 6667 0
-6684 6682 0
6684 -6667 -6682 0
6669 6684 -6685 0
6669 -6684 6685 0
-6669 6684 6685 0
-6669 -6684 -6685 0
-6686 6669 0
-6686 6684 0
6686 -6669 -6684 0
-6686 0
6671 193 -6687 0
6671 -193 6687 0
-6671 193 6687 0
-6671 -193 -6687 0
-6688 6671 0
-6688 193 0
6688 -6671 -193 0
6673 6688 -6689 0
6673 -6688 6689 0
-6673 6688 6689 0
-6673 -6688 -6689 0
-6690 6673 0
-6690 6688 0
6690 -6673 -6688 0
6675 6690 -6691 0
6675 -6690 6691 0
-6675 6690 6691 0
-6675 -6690 -6691 0
-6692 6675 0
-6692 6690 0
6692 -6675 -6690 0
6677 6692 -6693 0
6677 -6692 6693 0
-6677 6692 6693 0
-6677 -6692 -6693 0
-6694 6677 0
-6694 6692 0
6694 -6677 -6692 0
6679 6694 -6695 0
6679 -6694 6695 0
-6679 6694 6695 0
-6679 -6694 -6695 0
-6696 6679 0
-6696 6694 0
6696 -6679 -6694 0
6681 6696 -6697 0
6681 -6696 6697 0
-6681 6696 6697 0
-6681 -6696 -6697 0
-6698 6681 0
-6698 6696 0
6698 -6681 -6696 0
6683 6698 -6699 0
6683 -6698 6699 0
-6683 6698 6699 0
-6683 -6698 -6699 0
-6700 6683 0
-6700 6698 0
6700 -6683 -6698 0
6685 6700 -6701 0
6685 -6700 6701 0
-6685 6700 6701 0
-6685 -6700 -6701 0
-6702 6685 0
-6702 6700 0
6702 -6685 -6700 0
-6702 0
6687 194 -6703 0
6687 -194 6703 0
-6687 194 6703 0
-6687 -194 -6703 0
-6704 6687 0
-6704 194 0
6704 -6687 -194 0
6689 6704 -6705 0
6689 -6704 6705 0
-6689 6704 6705 0
-6689 -6704 -6705 0
-6706 6689 0
-6706 6704 0
6706 -6689 -6704 0
6691 6706 -6707 0
6691 -6706 6707 0
-6691 6706 6707 0
-6691 -6706 -6707 0
-6708 6691 0
-6708 6706 0
6708 -6691 -6706 0
6693 6708 -6709 0
6693 -6708 6709 0
-6693 6708 6709 0
-6693 -6708 -6709 0
-6710 6693 0
-6710 6708 0
6710 -6693 -6708 0
6695 6710 -6711 0
6695 -6710 6711 0
-6695 6710 6711 0
-6695 -6710 -6711 0
-6712 6695 0
-6712 6710 0
6712 -6695 -6710 0
6697 6712 -6713 0
6697 -6712 6713 0
-6697 6712 6713 0
-6697 -6712 -6713 0
-6714 6697 0
-6714 6712 0
6714 -6697 -6712 0
6699 6714 -6715 0
6699 -6714 6715 0
-6699 6714 6715 0
-6699 -6714 -6715 0
-6716 6699 0
-6716 6714 0
6716 -6699 -6714 0
6701 6716 -6717 0
6701 -6716 6717 0
-6701 6716 6717 0
-6701 -6716 -6717 0
-6718 6701 0
-6718 6716 0
6718 -6701 -6716 0
-6718 0
6703 195 -6719 0
6703 -195 6719 0
-6703 195 6719 0
-6703 -195 -6719 0
-6720 6703 0
-6720 195 0
6720 -6703 -195 0
6705 6720 -6721 0
6705 -6720 6721 0
-6705 6720 6721 0
-6705 -6720 -6721 0
-6722 6705 0
-6722 6720 0
6722 -6705 -6720 0
6707 6722 -6723 0
6707 -6722 6723 0
-6707 6722 6723 0
-6707 -6722 -6723 0
-6724 6707 0
-6724 6722 0
6724 -6707 -6722 0
6709 6724 -6725 0
6709 -6724 6725 0
-6709 6724 6725 0
-6709 -6724 -6725 0
-6726 6709 0
-6726 6724 0
6726 -6709 -6724 0
6711 6726 -6727 0
6711 -6726 6727 0
-6711 6726 6727 0
-6711 -6726 -6727 0
-6728 6711 0
-6728 6726 0
6728 -6711 -6726 0
6713 6728 -6729 0
6713 -6728 6729 0
-6713 6728 6729 0
-6713 -6728 -6729 0
-6730 6713 0
-6730 6728 0
6730 -6713 -6728 0
6715 6730 -6731 0
6715 -6730 6731 0
-6715 6730 6731 0
-6715 -6730 -6731 0
-6732 6715 0
-6732 6730 0
6732 -6715 -6730 0
6717 6732 -6733 0
6717 -6732 6733 0
-6717 6732 6733 0
-6717 -6732 -6733 0
-6734 6717 0
-6734 6732 0
6734 -6717 -6732 0
-6734 0
6719 196 -6735 0
6719 -196 6735 0
-6719 196 6735 0
-6719 -196 -6735 0
-6736 6719 0
-6736 196 0
6736 -6719 -196 0
6721 6736 -6737 0
6721 -6736 6737 0
-6721 6736 6737 0
-6721 -6736 -6737 0
-6738 6721 0
-6738 6736 0
6738 -6721 -6736 0
6723 6738 -6739 0
6723 -6738 6739 0
-6723 6738 6739 0
-6723 -6738 -6739 0
-6740 6723 0
-6740 6738 0
6740 -6723 -6738 0
6725 6740 -6741 0
6725 -6740 6741 0
-6725 6740 6741 0
-6725 -6740 -6741 0
-6742 6725 0
-6742 6740 0
6742 -6725 -6740 0
6727 6742 -6743 0
6727 -6742 6743 0
-6727 6742 6743 0
-6727 -6742 -6743 0
-6744 6727 0
-6744 6742 0
6744 -6727 -6742 0
6729 6744 -6745 0
6729 -6744 6745 0
-6729 6744 6745 0
-6729 -6744 -6745 0
-6746 6729 0
-6746 6744 0
6746 -6729 -6744 0
6731 6746 -6747 0
6731 -6746 6747 0
-6731 6746 6747 0
-6731 -6746 -6747 0
-6748 6731 0
-6748 6746 0
6748 -6731 -6746 0
6733 6748 -6749 0
6733 -6748 6749 0
-6733 6748 6749 0
-6733 -6748 -6749 0
-6750 6733 0
-6750 6748 0
6750 -6733 -6748 0
-6750 0
6735 197 -6751 0
6735 -197 6751 0
-6735 197 6751 0
-6735 -197 -6751 0
-6752 6735 0
-6752 197 0
6752 -6735 -197 0
6737 6752 -6753 0
6737 -6752 6753 0
-6737 6752 6753 0
-6737 -6752 -6753 0
-6754 6737 0
-6754 6752 0
6754 -6737 -6752 0
6739 6754 -6755 0
6739 -6754 6755 0
-6739 6754 6755 0
-6739 -6754 -6755 0
-6756 6739 0
-6756 6754 0
6756 -6739 -6754 0
6741 6756 -6757 0
6741 -6756 6757 0
-6741 6756 6757 0
-6741 -6756 -6757 0
-6758 6741 0
-6758 6756 0
6758 -6741 -6756 0
6743 6758 -6759 0
6743 -6758 6759 0
-6743 6758 6759 0
-6743 -6758 -6759 0
-6760 6743 0
-6760 6758 0
6760 -6743 -6758 0
6745 6760 -6761 0
6745 -6760 6761 0
-6745 6760 6761 0
-6745 -6760 -6761 0
-6762 6745 0
-6762 6760 0
6762 -6745 -6760 0
6747 6762 -6763 0
6747 -6762 6763 0
-6747 6762 6763 0
-6747 -6762 -6763 0
-6764 6747 0
-6764 6762 0
6764 -6747 -6762 0
6749 6764 -6765 0
6749 -6764 6765 0
-6749 6764 6765 0
-6749 -6764 -6765 0
-6766 6749 0
-6766 6764 0
6766 -6749 -6764 0
-6766 0
6751 198 -6767 0
6751 -198 6767 0
-6751 198 6767 0
-6751 -198 -6767 0
-6768 6751 0
-6768 198 0
6768 -6751 -198 0
6753 6768 -6769 0
6753 -6768 6769 0
-6753 6768 6769 0
-6753 -6768 -6769 0
-6770 6753 0
-6770 6768 0
6770 -6753 -6768 0
6755 6770 -6771 0
6755 -6770 6771 0
-6755 6770 6771 0
-6755 -6770 -6771 0
-6772 6755 0
-6772 6770 0
6772 -6755 -6770 0
6757 6772 -6773 0
6757 -6772 6773 0
-6757 6772 6773 0
-6757 -6772 -6773 0
-6774 6757 0
-6774 6772 0
6774 -6757 -6772 0
6759 6774 -6775 0
6759 -6774 6775 0
-6759 6774 6775 0
-6759 -6774 -6775 0
-6776 6759 0
-6776 6774 0
6776 -6759 -6774 0
6761 6776 -6777 0
6761 -6776 6777 0
-6761 6776 6777 0
-6761 -6776 -6777 0
-6778 6761 0
-6778 6776 0
6778 -6761 -6776 0
6763 6778 -6779 0
6763 -6778 6779 0
-6763 6778 6779 0
-6763 -6778 -6779 0
-6780 6763 0
-6780 6778 0
6780 -6763 -6778 0
6765 6780 -6781 0
6765 -6780 6781 0
-6765 6780 6781 0
-6765 -6780 -6781 0
-6782 6765 0
-6782 6780 0
6782 -6765 -6780 0
-6782 0
6767 199 -6783 0
6767 -199 6783 0
-6767 199 6783 0
-6767 -199 -6783 0
-6784 6767 0
-6784 199 0
6784 -6767 -199 0
6769 6784 -6785 0
6769 -6784 6785 0
-6769 6784 6785 0
-6769 -6784 -6785 0
-6786 6769 0
-6786 6784 0
6786 -6769 -6784 0
6771 6786 -6787 0
6771 -6786 6787 0
-6771 6786 6787 0
-6771 -6786 -6787 0
-6788 6771 0
-6788 6786 0
6788 -6771 -6786 0
6773 6788 -6789 0
6773 -6788 6789 0
-6773 6788 6789 0
-6773 -6788 -6789 0
-6790 6773 0
-6790 6788 0
6790 -6773 -6788 0
6775 6790 -6791 0
6775 -6790 6791 0
-6775 6790 6791 0
-6775 -6790 -6791 0
-6792 6775 0
-6792 6790 0
6792 -6775 -6790 0
6777 6792 -6793 0
6777 -6792 6793 0
-6777 6792 6793 0
-6777 -6792 -6793 0
-6794 6777 0
-6794 6792 0
6794 -6777 -6792 0
6779 6794 -6795 0
6779 -6794 6795 0
-6779 6794 6795 0
-6779 -6794 -6795 0
-6796 6779 0
-6796 6794 0
6796 -6779 -6794 0
6781 6796 -6797 0
6781 -6796 6797 0
-6781 6796 6797 0
-6781 -6796 -6797 0
-6798 6781 0
-6798 6796 0
6798 -6781 -6796 0
-6798 0
6783 200 -6799 0
6783 -200 6799 0
-6783 200 6799 0
-6783 -200 -6799 0
-6800 6783 0
-6800 200 0
6800 -6783 -200 0
6785 6800 -6801 0
6785 -6800 6801 0
-6785 6800 6801 0
-6785 -6800 -6801 0
-6802 6785 0
-6802 6800 0
6802 -6785 -6800 0
6787 6802 -6803 0
6787 -6802 6803 0
-6787 6802 6803 0
-6787 -6802 -6803 0
-6804 6787 0
-6804 6802 0
6804 -6787 -6802 0
6789 6804 -6805 0
6789 -6804 6805 0
-6789 6804 6805 0
-6789 -6804 -6805 0
-6806 6789 0
-6806 6804 0
6806 -6789 -6804 0
6791 6806 -6807 0
6791 -6806 6807 0
-6791 6806 6807 0
-6791 -6806 -6807 0
-6808 6791 0
-6808 6806 0
6808 -6791 -6806 0
6793 6808 -6809 0
6793 -6808 6809 0
-6793 6808 6809 0
-6793 -6808 -6809 0
-6810 6793 0
-6810 6808 0
6810 -6793 -6808 0
6795 6810 -6811 0
6795 -6810 6811 0
-6795 6810 6811 0
-6795 -6810 -6811 0
-6812 6795 0
-6812 6810 0
6812 -6795 -6810 0
6797 6812 -6813 0
6797 -6812 6813 0
-6797 6812 6813 0
-6797 -6812 -6813 0
-6814 6797 0
-6814 6812 0
6814 -6797 -6812 0
-6814 0
6799 201 -6815 0
6799 -201 6815 0
-6799 201 6815 0
-6799 -201 -6815 0
-6816 6799 0
-6816 201 0
6816 -6799 -201 0
6801 6816 -6817 0
6801 -6816 6817 0
-6801 6816 6817 0
-6801 -6816 -6817 0
-6818 6801 0
-6818 6816 0
6818 -6801 -6816 0
6803 6818 -6819 0
6803 -6818 6819 0
-6803 6818 6819 0
-6803 -6818 -6819 0
-6820 6803 0
-6820 6818 0
6820 -6803 -6818 0
6805 6820 -6821 0
6805 -6820 6821 0
-6805 6820 6821 0
-6805 -6820 -6821 0
-6822 6805 0
-6822 6820 0
6822 -6805 -6820 0
6807 6822 -6823 0
6807 -6822 6823 0
-6807 6822 6823 0
-6807 -6822 -6823 0
-6824 6807 0
-6824 6822 0
6824 -6807 -6822 0
6809 6824 -6825 0
6809 -6824 6825 0
-6809 6824 6825 0
-6809 -6824 -6825 0
-6826 6809 0
-6826 6824 0
6826 -6809 -6824 0
6811 6826 -6827 0
6811 -6826 6827 0
-6811 6826 6827 0
-6811 -6826 -6827 0
-6828 6811 0
-6828 6826 0
6828 -6811 -6826 0
6813 6828 -6829 0
6813 -6828 6829 0
-6813 6828 6829 0
-6813 -6828 -6829 0
-6830 6813 0
-6830 6828 0
6830 -6813 -6828 0
-6830 0
6815 202 -6831 0
6815 -202 6831 0
-6815 202 6831 0
-6815 -202 -6831 0
-6832 6815 0
-6832 202 0
6832 -6815 -202 0
6817 6832 -6833 0
6817 -6832 6833 0
-6817 6832 6833 0
-6817 -6832 -6833 0
-6834 6817 0
-6834 6832 0
6834 -6817 -6832 0
6819 6834 -6835 0
6819 -6834 6835 0
-6819 6834 6835 0
-6819 -6834 -6835 0
-6836 6819 0
-6836 6834 0
6836 -6819 -6834 0
6821 6836 -6837 0
6821 -6836 6837 0
-6821 6836 6837 0
-6821 -6836 -6837 0
-6838 6821 0
-6838 6836 0
6838 -6821 -6836 0
6823 6838 -6839 0
6823 -6838 6839 0
-6823 6838 6839 0
-6823 -6838 -6839 0
-6840 6823 0
-6840 6838 0
6840 -6823 -6838 0
6825 6840 -6841 0
6825 -6840 6841 0
-6825 6840 6841 0
-6825 -6840 -6841 0
-6842 6825 0
-6842 6840 0
6842 -6825 -6840 0
6827 6842 -6843 0
6827 -6842 6843 0
-6827 6842 6843 0
-6827 -6842 -6843 0
-6844 6827 0
-6844 6842 0
6844 -6827 -6842 0
6829 6844 -6845 0
6829 -6844 6845 0
-6829 6844 6845 0
-6829 -6844 -6845 0
-6846 6829 0
-6846 6844 0
6846 -6829 -6844 0
-6846 0
6831 203 -6847 0
6831 -203 6847 0
-6831 203 6847 0
-6831 -203 -6847 0
-6848 6831 0
-6848 203 0
6848 -6831 -203 0
6833 6848 -6849 0
6833 -6848 6849 0
-6833 6848 6849 0
-6833 -6848 -6849 0
-6850 6833 0
-6850 6848 0
6850 -6833 -6848 0
6835 6850 -6851 0
6835 -6850 6851 0
-6835 6850 6851 0
-6835 -6850 -6851 0
-6852 6835 0
-6852 6850 0
6852 -6835 -6850 0
6837 6852 -6853 0
6837 -6852 6853 0
-6837 6852 6853 0
-6837 -6852 -6853 0
-6854 6837 0
-6854 6852 0
6854 -6837 -6852 0
6839 6854 -6855 0
6839 -6854 6855 0
-6839 6854 6855 0
-6839 -6854 -6855 0
-6856 6839 0
-6856 6854 0
6856 -6839 -6854 0
6841 6856 -6857 0
6841 -6856 6857 0
-6841 6856 6857 0
-6841 -6856 -6857 0
-6858 6841 0
-6858 6856 0
6858 -6841 -6856 0
6843 6858 -6859 0
6843 -6858 6859 0
-6843 6858 6859 0
-6843 -6858 -6859 0
-6860 6843 0
-6860 6858 0
6860 -6843 -6858 0
6845 6860 -6861 0
6845 -6860 6861 0
-6845 6860 6861 0
-6845 -6860 -6861 0
-6862 6845 0
-6862 6860 0
6862 -6845 -6860 0
-6862 0
6847 204 -6863 0
6847 -204 6863 0
-6847 204 6863 0
-6847 -204 -6863 0
-6864 6847 0
-6864 204 0
6864 -6847 -204 0
6849 6864 -6865 0
6849 -6864 6865 0
-6849 6864 6865 0
-6849 -6864 -6865 0
-6866 6849 0
-6866 6864 0
6866 -6849 -6864 0
6851 6866 -6867 0
6851 -6866 6867 0
-6851 6866 6867 0
-6851 -6866 -6867 0
-6868 6851 0
-6868 6866 0
6868 -6851 -6866 0
6853 6868 -6869 0
6853 -6868 6869 0
-6853 6868 6869 0
-6853 -6868 -6869 0
-6870 6853 0
-6870 6868 0
6870 -6853 -6868 0
6855 6870 -6871 0
6855 -6870 6871 0
-6855 6870 6871 0
-6855 -6870 -6871 0
-6872 6855 0
-6872 6870 0
6872 -6855 -6870 0
6857 6872 -6873 0
6857 -6872 6873 0
-6857 6872 6873 0
-6857 -6872 -6873 0
-6874 6857 0
-6874 6872 0
6874 -6857 -6872 0
6859 6874 -6875 0
6859 -6874 6875 0
-6859 6874 6875 0
-6859 -6874 -6875 0
-6876 6859 0
-6876 6874 0
6876 -6859 -6874 0
6861 6876 -6877 0
6861 -6876 6877 0
-6861 6876 6877 0
-6861 -6876 -6877 0
-6878 6861 0
-6878 6876 0
6878 -6861 -6876 0
-6878 0
6863 205 -6879 0
6863 -205 6879 0
-6863 205 6879 0
-6863 -205 -6879 0
-6880 6863 0
-6880 205 0
6880 -6863 -205 0
6865 6880 -6881 0
6865 -6880 6881 0
-6865 6880 6881 0
-6865 -6880 -6881 0
-6882 6865 0
-6882 6880 0
6882 -6865 -6880 0
6867 6882 -6883 0
6867 -6882 6883 0
-6867 6882 6883 0
-6867 -6882 -6883 0
-6884 6867 0
-6884 6882 0
6884 -6867 -6882 0
6869 6884 -6885 0
6869 -6884 6885 0
-6869 6884 6885 0
-6869 -6884 -6885 0
-6886 6869 0
-6886 6884 0
6886 -6869 -6884 0
6871 6886 -6887 0
6871 -6886 6887 0
-6871 6886 6887 0
-6871 -6886 -6887 0
-6888 6871 0
-6888 6886 0
6888 -6871 -6886 0
6873 6888 -6889 0
6873 -6888 6889 0
-6873 6888 6889 0
-6873 -6888 -6889 0
-6890 6873 0
-6890 6888 0
6890 -6873 -6888 0
6875 6890 -6891 0
6875 -6890 6891 0
-6875 6890 6891 0
-6875 -6890 -6891 0
-6892 6875 0
-6892 6890 0
6892 -6875 -6890 0
6877 6892 -6893 0
6877 -6892 6893 0
-6877 6892 6893 0
-6877 -6892 -6893 0
-6894 6877 0
-6894 6892 0
6894 -6877 -6892 0
-6894 0
6879 206 -6895 0
6879 -206 6895 0
-6879 206 6895 0
-6879 -206 -6895 0
-6896 6879 0
-6896 206 0
6896 -6879 -206 0
6881 6896 -6897 0
6881 -6896 6897 0
-6881 6896 6897 0
-6881 -6896 -6897 0
-6898 6881 0
-6898 6896 0
6898 -6881 -6896 0
6883 6898 -6899 0
6883 -6898 6899 0
-6883 6898 6899 0
-6883 -6898 -6899 0
-6900 6883 0
-6900 6898 0
6900 -6883 -6898 0
6885 6900 -6901 0
6885 -6900 6901 0
-6885 6900 6901 0
-6885 -6900 -6901 0
-6902 6885 0
-6902 6900 0
6902 -6885 -6900 0
6887 6902 -6903 0
6887 -6902 6903 0
-6887 6902 6903 0
-6887 -6902 -6903 0
-6904 6887 0
-6904 6902 0
6904 -6887 -6902 0
6889 6904 -6905 0
6889 -6904 6905 0
-6889 6904 6905 0
-6889 -6904 -6905 0
-6906 6889 0
-6906 6904 0
6906 -6889 -6904 0
6891 6906 -6907 0
6891 -6906 6907 0
-6891 6906 6907 0
-6891 -6906 -6907 0
-6908 6891 0
-6908 6906 0
6908 -6891 -6906 0
6893 6908 -6909 0
6893 -6908 6909 0
-6893 6908 6909 0
-6893 -6908 -6909 0
-6910 6893 0
-6910 6908 0
6910 -6893 -6908 0
-6910 0
6895 207 -6911 0
6895 -207 6911 0
-6895 207 6911 0
-6895 -207 -6911 0
-6912 6895 0
-6912 207 0
6912 -6895 -207 0
6897 6912 -6913 0
6897 -6912 6913 0
-6897 6912 6913 0
-6897 -6912 -6913 0
-6914 6897 0
-6914 6912 0
6914 -6897 -6912 0
6899 6914 -6915 0
6899 -6914 6915 0
-6899 6914 6915 0
-6899 -6914 -6915 0
-6916 6899 0
-6916 6914 0
6916 -6899 -6914 0
6901 6916 -6917 0
6901 -6916 6917 0
-6901 6916 6917 0
-6901 -6916 -6917 0
-6918 6901 0
-6918 6916 0
6918 -6901 -6916 0
6903 6918 -6919 0
6903 -6918 6919 0
-6903 6918 6919 0
-6903 -6918 -6919 0
-6920 6903 0
-6920 6918 0
6920 -6903 -6918 0
6905 6920 -6921 0
6905 -6920 6921 0
-6905 6920 6921 0
-6905 -6920 -6921 0
-6922 6905 0
-6922 6920 0
6922 -6905 -6920 0
6907 6922 -6923 0
6907 -6922 6923 0
-6907 6922 6923 0
-6907 -6922 -6923 0
-6924 6907 0
-6924 6922 0
6924 -6907 -6922 0
6909 6924 -6925 0
6909 -6924 6925 0
-6909 6924 6925 0
-6909 -6924 -6925 0
-6926 6909 0
-6926 6924 0
6926 -6909 -6924 0
-6926 0
6911 208 -6927 0
6911 -208 6927 0
-6911 208 6927 0
-6911 -208 -6927 0
-6928 6911 0
-6928 208 0
6928 -6911 -208 0
6913 6928 -6929 0
6913 -6928 6929 0
-6913 6928 6929 0
-6913 -6928 -6929 0
-6930 6913 0
-6930 6928 0
6930 -6913 -6928 0
6915 6930 -6931 0
6915 -6930 6931 0
-6915 6930 6931 0
-6915 -6930 -6931 0
-6932 6915 0
-6932 6930 0
6932 -6915 -6930 0
6917 6932 -6933 0
6917 -6932 6933 0
-6917 6932 6933 0
-6917 -6932 -6933 0
-6934 6917 0
-6934 6932 0
6934 -6917 -6932 0
6919 6934 -6935 0
6919 -6934 6935 0
-6919 6934 6935 0
-6919 -6934 -6935 0
-6936 6919 0
-6936 6934 0
6936 -6919 -6934 0
6921 6936 -6937 0
6921 -6936 6937 0
-6921 6936 6937 0
-6921 -6936 -6937 0
-6938 6921 0
-6938 6936 0
6938 -6921 -6936 0
6923 6938 -6939 0
6923 -6938 6939 0
-6923 6938 6939 0
-6923 -6938 -6939 0
-6940 6923 0
-6940 6938 0
6940 -6923 -6938 0
6925 6940 -6941 0
6925 -6940 6941 0
-6925 6940 6941 0
-6925 -6940 -6941 0
-6942 6925 0
-6942 6940 0
6942 -6925 -6940 0
-6942 0
6927 209 -6943 0
6927 -209 6943 0
-6927 209 6943 0
-6927 -209 -6943 0
-6944 6927 0
-6944 209 0
6944 -6927 -209 0
6929 6944 -6945 0
6929 -6944 6945 0
-6929 6944 6945 0
-6929 -6944 -6945 0
-6946 6929 0
-6946 6944 0
6946 -6929 -6944 0
6931 6946 -6947 0
6931 -6946 6947 0
-6931 6946 6947 0
-6931 -6946 -6947 0
-6948 6931 0
-6948 6946 0
6948 -6931 -6946 0
6933 6948 -6949 0
6933 -6948 6949 0
-6933 6948 6949 0
-6933 -6948 -6949 0
-6950 6933 0
-6950 6948 0
6950 -6933 -6948 0
6935 6950 -6951 0
6935 -6950 6951 0
-6935 6950 6951 0
-6935 -6950 -6951 0
-6952 6935 0
-6952 6950 0
6952 -6935 -6950 0
6937 6952 -6953 0
6937 -6952 6953 0
-6937 6952 6953 0
-6937 -6952 -6953 0
-6954 6937 0
-6954 6952 0
6954 -6937 -6952 0
6939 6954 -6955 0
6939 -6954 6955 0
-6939 6954 6955 0
-6939 -6954 -6955 0
-6956 6939 0
-6956 6954 0
6956 -6939 -6954 0
6941 6956 -6957 0
6941 -6956 6957 0
-6941 6956 6957 0
-6941 -6956 -6957 0
-6958 6941 0
-6958 6956 0
6958 -6941 -6956 0
-6958 0
6943 210 -6959 0
6943 -210 6959 0
-6943 210 6959 0
-6943 -210 -6959 0
-6960 6943 0
-6960 210 0
6960 -6943 -210 0
6945 6960 -6961 0
6945 -6960 6961 0
-6945 6960 6961 0
-6945 -6960 -6961 0
-6962 6945 0
-6962 6960 0
6962 -6945 -6960 0
6947 6962 -6963 0
6947 -6962 6963 0
-6947 6962 6963 0
-6947 -6962 -6963 0
-6964 6947 0
-6964 6962 0
6964 -6947 -6962 0
6949 6964 -6965 0
6949 -6964 6965 0
-6949 6964 6965 0
-6949 -6964 -6965 0
-6966 6949 0
-6966 6964 0
6966 -6949 -6964 0
6951 6966 -6967 0
6951 -6966 6967 0
-6951 6966 6967 0
-6951 -6966 -6967 0
-6968 6951 0
-6968 6966 0
6968 -6951 -6966 0
6953 6968 -6969 0
6953 -6968 6969 0
-6953 6968 6969 0
-6953 -6968 -6969 0
-6970 6953 0
-6970 6968 0
6970 -6953 -6968 0
6955 6970 -6971 0
6955 -6970 6971 0
-6955 6970 6971 0
-6955 -6970 -6971 0
-6972 6955 0
-6972 6970 0
6972 -6955 -6970 0
6957 6972 -6973 0
6957 -6972 6973 0
-6957 6972 6973 0
-6957 -6972 -6973 0
-6974 6957 0
-6974 6972 0
6974 -6957 -6972 0
-6974 0
6959 211 -6975 0
6959 -211 6975 0
-6959 211 6975 0
-6959 -211 -6975 0
-6976 6959 0
-6976 211 0
6976 -6959 -211 0
6961 6976 -6977 0
6961 -6976 6977 0
-6961 6976 6977 0
-6961 -6976 -6977 0
-6978 6961 0
-6978 6976 0
6978 -6961 -6976 0
6963 6978 -6979 0
6963 -6978 6979 0
-6963 6978 6979 0
-6963 -6978 -6979 0
-6980 6963 0
-6980 6978 0
6980 -6963 -6978 0
6965 6980 -6981 0
6965 -6980 6981 0
-6965 6980 6981 0
-6965 -6980 -6981 0
-6982 6965 0
-6982 6980 0
6982 -6965 -6980 0
6967 6982 -6983 0
6967 -6982 6983 0
-6967 6982 6983 0
-6967 -6982 -6983 0
-6984 6967 0
-6984 6982 0
6984 -6967 -6982 0
6969 6984 -6985 0
6969 -6984 6985 0
-6969 6984 6985 0
-6969 -6984 -6985 0
-6986 6969 0
-6986 6984 0
6986 -6969 -6984 0
6971 6986 -6987 0
6971 -6986 6987 0
-6971 6986 6987 0
-6971 -6986 -6987 0
-6988 6971 0
-6988 6986 0
6988 -6971 -6986 0
6973 6988 -6989 0
6973 -6988 6989 0
-6973 6988 6989 0
-6973 -6988 -6989 0
-6990 6973 0
-6990 6988 0
6990 -6973 -6988 0
-6990 0
6975 212 -6991 0
6975 -212 6991 0
-6975 212 6991 0
-6975 -212 -6991 0
-6992 6975 0
-6992 212 0
6992 -6975 -212 0
6977 6992 -6993 0
6977 -6992 6993 0
-6977 6992 6993 0
-6977 -6992 -6993 0
-6994 6977 0
-6994 6992 0
6994 -6977 -6992 0
6979 6994 -6995 0
6979 -6994 6995 0
-6979 6994 6995 0
-6979 -6994 -6995 0
-6996 6979 0
-6996 6994 0
6996 -6979 -6994 0
6981 6996 -6997 0
6981 -6996 6997 0
-6981 6996 6997 0
-6981 -6996 -6997 0
-6998 6981 0
-6998 6996 0
6998 -6981 -6996 0
6983 6998 -6999 0
6983 -6998 6999 0
-6983 6998 6999 0
-6983 -6998 -6999 0
-7000 6983 0
-7000 6998 0
7000 -6983 -6998 0
6985 7000 -7001 0
6985 -7000 7001 0
-6985 7000 7001 0
-6985 -7000 -7001 0
-7002 6985 0
-7002 7000 0
7002 -6985 -7000 0
6987 7002 -7003 0
6987 -7002 7003 0
-6987 7002 7003 0
-6987 -7002 -7003 0
-7004 6987 0
-7004 7002 0
7004 -6987 -7002 0
6989 7004 -7005 0
6989 -7004 7005 0
-6989 7004 7005 0
-6989 -7004 -7005 0
-7006 6989 0
-7006 7004 0
7006 -6989 -7004 0
-7006 0
6991 213 -7007 0
6991 -213 7007 0
-6991 213 7007 0
-6991 -213 -7007 0
-7008 6991 0
-7008 213 0
7008 -6991 -213 0
6993 7008 -7009 0
6993 -7008 7009 0
-6993 7008 7009 0
-6993 -7008 -7009 0
-7010 6993 0
-7010 7008 0
7010 -6993 -7008 0
6995 7010 -7011 0
6995 -7010 7011 0
-6995 7010 7011 0
-6995 -7010 -7011 0
-7012 6995 0
-7012 7010 0
7012 -6995 -7010 0
6997 7012 -7013 0
6997 -7012 7013 0
-6997 7012 7013 0
-6997 -7012 -7013 0
-7014 6997 0
-7014 7012 0
7014 -6997 -7012 0
6999 7014 -7015 0
6999 -7014 7015 0
-6999 7014 7015 0
-6999 -7014 -7015 0
-7016 6999 0
-7016 7014 0
7016 -6999 -7014 0
7001 7016 -7017 0
7001 -7016 7017 0
-7001 7016 7017 0
-7001 -7016 -7017 0
-7018 7001 0
-7018 7016 0
7018 -7001 -7016 0
7003 7018 -7019 0
7003 -7018 7019 0
-7003 7018 7019 0
-7003 -7018 -7019 0
-7020 7003 0
-7020 7018 0
7020 -7003 -7018 0
7005 7020 -7021 0
7005 -7020 7021 0
-7005 7020 7021 0
-7005 -7020 -7021 0
-7022 7005 0
-7022 7020 0
7022 -7005 -7020 0
-7022 0
7007 214 -7023 0
7007 -214 7023 0
-7007 214 7023 0
-7007 -214 -7023 0
-7024 7007 0
-7024 214 0
7024 -7007 -214 0
7009 7024 -7025 0
7009 -7024 7025 0
-7009 7024 7025 0
-7009 -7024 -7025 0
-7026 7009 0
-7026 7024 0
7026 -7009 -7024 0
7011 7026 -7027 0
7011 -7026 7027 0
-7011 7026 7027 0
-7011 -7026 -7027 0
-7028 7011 0
-7028 7026 0
7028 -7011 -7026 0
7013 7028 -7029 0
7013 -7028 7029 0
-7013 7028 7029 0
-7013 -7028 -7029 0
-7030 7013 0
-7030 7028 0
7030 -7013 -7028 0
7015 7030 -7031 0
7015 -7030 7031 0
-7015 7030 7031 0
-7015 -7030 -7031 0
-7032 7015 0
-7032 7030 0
7032 -7015 -7030 0
7017 7032 -7033 0
7017 -7032 7033 0
-7017 7032 7033 0
-7017 -7032 -7033 0
-7034 7017 0
-7034 7032 0
7034 -7017 -7032 0
7019 7034 -7035 0
7019 -7034 7035 0
-7019 7034 7035 0
-7019 -7034 -7035 0
-7036 7019 0
-7036 7034 0
7036 -7019 -7034 0
7021 7036 -7037 0
7021 -7036 7037 0
-7021 7036 7037 0
-7021 -7036 -7037 0
-7038 7021 0
-7038 7036 0
7038 -7021 -7036 0
-7038 0
7023 215 -7039 0
7023 -215 7039 0
-7023 215 7039 0
-7023 -215 -7039 0
-7040 7023 0
-7040 215 0
7040 -7023 -215 0
7025 7040 -7041 0
7025 -7040 7041 0
-7025 7040 7041 0
-7025 -7040 -7041 0
-7042 7025 0
-7042 7040 0
7042 -7025 -7040 0
7027 7042 -7043 0
7027 -7042 7043 0
-7027 7042 7043 0
-7027 -7042 -7043 0
-7044 7027 0
-7044 7042 0
7044 -7027 -7042 0
7029 7044 -7045 0
7029 -7044 7045 0
-7029 7044 7045 0
-7029 -7044 -7045 0
-7046 7029 0
-7046 7044 0
7046 -7029 -7044 0
7031 7046 -7047 0
7031 -7046 7047 0
-7031 7046 7047 0
-7031 -7046 -7047 0
-7048 7031 0
-7048 7046 0
7048 -7031 -7046 0
7033 7048 -7049 0
7033 -7048 7049 0
-7033 7048 7049 0
-7033 -7048 -7049 0
-7050 7033 0
-7050 7048 0
7050 -7033 -7048 0
7035 7050 -7051 0
7035 -7050 7051 0
-7035 7050 7051 0
-7035 -7050 -7051 0
-7052 7035 0
-7052 7050 0
7052 -7035 -7050 0
7037 7052 -7053 0
7037 -7052 7053 0
-7037 7052 7053 0
-7037 -7052 -7053 0
-7054 7037 0
-7054 7052 0
7054 -7037 -7052 0
-7054 0
7039 216 -7055 0
7039 -216 7055 0
-7039 216 7055 0
-7039 -216 -7055 0
-7056 7039 0
-7056 216 0
7056 -7039 -216 0
7041 7056 -7057 0
7041 -7056 7057 0
-7041 7056 7057 0
-7041 -7056 -7057 0
-7058 7041 0
-7058 7056 0
7058 -7041 -7056 0
7043 7058 -7059 0
7043 -7058 7059 0
-7043 7058 7059 0
-7043 -7058 -7059 0
-7060 7043 0
-7060 7058 0
7060 -7043 -7058 0
7045 7060 -7061 0
7045 -7060 7061 0
-7045 7060 7061 0
-7045 -7060 -7061 0
-7062 7045 0
-7062 7060 0
7062 -7045 -7060 0
7047 7062 -7063 0
7047 -7062 7063 0
-7047 7062 7063 0
-7047 -7062 -7063 0
-7064 7047 0
-7064 7062 0
7064 -7047 -7062 0
7049 7064 -7065 0
7049 -7064 7065 0
-7049 7064 7065 0
-7049 -7064 -7065 0
-7066 7049 0
-7066 7064 0
7066 -7049 -7064 0
7051 7066 -7067 0
7051 -7066 7067 0
-7051 7066 7067 0
-7051 -7066 -7067 0
-7068 7051 0
-7068 7066 0
7068 -7051 -7066 0
7053 7068 -7069 0
7053 -7068 7069 0
-7053 7068 7069 0
-7053 -7068 -7069 0
-7070 7053 0
-7070 7068 0
7070 -7053 -7068 0
-7070 0
7055 217 -7071 0
7055 -217 7071 0
-7055 217 7071 0
-7055 -217 -7071 0
-7072 7055 0
-7072 217 0
7072 -7055 -217 0
7057 7072 -7073 0
7057 -7072 7073 0
-7057 7072 7073 0
-7057 -7072 -7073 0
-7074 7057 0
-7074 7072 0
7074 -7057 -7072 0
7059 7074 -7075 0
7059 -7074 7075 0
-7059 7074 7075 0
-7059 -7074 -7075 0
-7076 7059 0
-7076 7074 0
7076 -7059 -7074 0
7061 7076 -7077 0
7061 -7076 7077 0
-7061 7076 7077 0
-7061 -7076 -7077 0
-7078 7061 0
-7078 7076 0
7078 -7061 -7076 0
7063 7078 -7079 0
7063 -7078 7079 0
-7063 7078 7079 0
-7063 -7078 -7079 0
-7080 7063 0
-7080 7078 0
7080 -7063 -7078 0
7065 7080 -7081 0
7065 -7080 7081 0
-7065 7080 7081 0
-7065 -7080 -7081 0
-7082 7065 0
-7082 7080 0
7082 -7065 -7080 0
7067 7082 -7083 0
7067 -7082 7083 0
-7067 7082 7083 0
-7067 -7082 -7083 0
-7084 7067 0
-7084 7082 0
7084 -7067 -7082 0
7069 7084 -7085 0
7069 -7084 7085 0
-7069 7084 7085 0
-7069 -7084 -7085 0
-7086 7069 0
-7086 7084 0
7086 -7069 -7084 0
-7086 0
7071 218 -7087 0
7071 -218 7087 0
-7071 218 7087 0
-7071 -218 -7087 0
-7088 7071 0
-7088 218 0
7088 -7071 -218 0
7073 7088 -7089 0
7073 -7088 7089 0
-7073 7088 7089 0
-7073 -7088 -7089 0
-7090 7073 0
-7090 7088 0
7090 -7073 -7088 0
7075 7090 -7091 0
7075 -7090 7091 0
-7075 7090 7091 0
-7075 -7090 -7091 0
-7092 7075 0
-7092 7090 0
7092 -7075 -7090 0
7077 7092 -7093 0
7077 -7092 7093 0
-7077 7092 7093 0
-7077 -7092 -7093 0
-7094 7077 0
-7094 7092 0
7094 -7077 -7092 0
7079 7094 -7095 0
7079 -7094 7095 0
-7079 7094 7095 0
-7079 -7094 -7095 0
-7096 7079 0
-7096 7094 0
7096 -7079 -7094 0
7081 7096 -7097 0
7081 -7096 7097 0
-7081 7096 7097 0
-7081 -7096 -7097 0
-7098 7081 0
-7098 7096 0
7098 -7081 -7096 0
7083 7098 -7099 0
7083 -7098 7099 0
-7083 7098 7099 0
-7083 -7098 -7099 0
-7100 7083 0
-7100 7098 0
7100 -7083 -7098 0
7085 7100 -7101 0
7085 -7100 7101 0
-7085 7100 7101 0
-7085 -7100 -7101 0
-7102 7085 0
-7102 7100 0
7102 -7085 -7100 0
-7102 0
7087 219 -7103 0
7087 -219 7103 0
-7087 219 7103 0
-7087 -219 -7103 0
-7104 7087 0
-7104 219 0
7104 -7087 -219 0
7089 7104 -7105 0
7089 -7104 7105 0
-7089 7104 7105 0
-7089 -7104 -7105 0
-7106 7089 0
-7106 7104 0
7106 -7089 -7104 0
7091 7106 -7107 0
7091 -7106 7107 0
-7091 7106 7107 0
-7091 -7106 -7107 0
-7108 7091 0
-7108 7106 0
7108 -7091 -7106 0
7093 7108 -7109 0
7093 -7108 7109 0
-7093 7108 7109 0
-7093 -7108 -7109 0
-7110 7093 0
-7110 7108 0
7110 -7093 -7108 0
7095 7110 -7111 0
7095 -7110 7111 0
-7095 7110 7111 0
-7095 -7110 -7111 0
-7112 7095 0
-7112 7110 0
7112 -7095 -7110 0
7097 7112 -7113 0
7097 -7112 7113 0
-7097 7112 7113 0
-7097 -7112 -7113 0
-7114 7097 0
-7114 7112 0
7114 -7097 -7112 0
7099 7114 -7115 0
7099 -7114 7115 0
-7099 7114 7115 0
-7099 -7114 -7115 0
-7116 7099 0
-7116 7114 0
7116 -7099 -7114 0
7101 7116 -7117 0
7101 -7116 7117 0
-7101 7116 7117 0
-7101 -7116 -7117 0
-7118 7101 0
-7118 7116 0
7118 -7101 -7116 0
-7118 0
7103 220 -7119 0
7103 -220 7119 0
-7103 220 7119 0
-7103 -220 -7119 0
-7120 7103 0
-7120 220 0
7120 -7103 -220 0
7105 7120 -7121 0
7105 -7120 7121 0
-7105 7120 7121 0
-7105 -7120 -7121 0
-7122 7105 0
-7122 7120 0
7122 -7105 -7120 0
7107 7122 -7123 0
7107 -7122 7123 0
-7107 7122 7123 0
-7107 -7122 -7123 0
-7124 7107 0
-7124 7122 0
7124 -7107 -7122 0
7109 7124 -7125 0
7109 -7124 7125 0
-7109 7124 7125 0
-7109 -7124 -7125 0
-7126 7109 0
-7126 7124 0
7126 -7109 -7124 0
7111 7126 -7127 0
7111 -7126 7127 0
-7111 7126 7127 0
-7111 -7126 -7127 0
-7128 7111 0
-7128 7126 0
7128 -7111 -7126 0
7113 7128 -7129 0
7113 -7128 7129 0
-7113 7128 7129 0
-7113 -7128 -7129 0
-7130 7113 0
-7130 7128 0
7130 -7113 -7128 0
7115 7130 -7131 0
7115 -7130 7131 0
-7115 7130 7131 0
-7115 -7130 -7131 0
-7132 7115 0
-7132 7130 0
7132 -7115 -7130 0
7117 7132 -7133 0
7117 -7132 7133 0
-7117 7132 7133 0
-7117 -7132 -7133 0
-7134 7117 0
-7134 7132 0
7134 -7117 -7132 0
-7134 0
7119 221 -7135 0
7119 -221 7135 0
-7119 221 7135 0
-7119 -221 -7135 0
-7136 7119 0
-7136 221 0
7136 -7119 -221 0
7121 7136 -7137 0
7121 -7136 7137 0
-7121 7136 7137 0
-7121 -7136 -7137 0
-7138 7121 0
-7138 7136 0
7138 -7121 -7136 0
7123 7138 -7139 0
7123 -7138 7139 0
-7123 7138 7139 0
-7123 -7138 -7139 0
-7140 7123 0
-7140 7138 0
7140 -7123 -7138 0
7125 7140 -7141 0
7125 -7140 7141 0
-7125 7140 7141 0
-7125 -7140 -7141 0
-7142 7125 0
-7142 7140 0
7142 -7125 -7140 0
7127 7142 -7143 0
7127 -7142 7143 0
-7127 7142 7143 0
-7127 -7142 -7143 0
-7144 7127 0
-7144 7142 0
7144 -7127 -7142 0
7129 7144 -7145 0
7129 -7144 7145 0
-7129 7144 7145 0
-7129 -7144 -7145 0
-7146 7129 0
-7146 7144 0
7146 -7129 -7144 0
7131 7146 -7147 0
7131 -7146 7147 0
-7131 7146 7147 0
-7131 -7146 -7147 0
-7148 7131 0
-7148 7146 0
7148 -7131 -7146 0
7133 7148 -7149 0
7133 -7148 7149 0
-7133 7148 7149 0
-7133 -7148 -7149 0
-7150 7133 0
-7150 7148 0
7150 -7133 -7148 0
-7150 0
7135 222 -7151 0
7135 -222 7151 0
-7135 222 7151 0
-7135 -222 -7151 0
-7152 7135 0
-7152 222 0
7152 -7135 -222 0
7137 7152 -7153 0
7137 -7152 7153 0
-7137 7152 7153 0
-7137 -7152 -7153 0
-7154 7137 0
-7154 7152 0
7154 -7137 -7152 0
7139 7154 -7155 0
7139 -7154 7155 0
-7139 7154 7155 0
-7139 -7154 -7155 0
-7156 7139 0
-7156 7154 0
7156 -7139 -7154 0
7141 7156 -7157 0
7141 -7156 7157 0
-7141 7156 7157 0
-7141 -7156 -7157 0
-7158 7141 0
-7158 7156 0
7158 -7141 -7156 0
7143 7158 -7159 0
7143 -7158 7159 0
-7143 7158 7159 0
-7143 -7158 -7159 0
-7160 7143 0
-7160 7158 0
7160 -7143 -7158 0
7145 7160 -7161 0
7145 -7160 7161 0
-7145 7160 7161 0
-7145 -7160 -7161 0
-7162 7145 0
-7162 7160 0
7162 -7145 -7160 0
7147 7162 -7163 0
7147 -7162 7163 0
-7147 7162 7163 0
-7147 -7162 -7163 0
-7164 7147 0
-7164 7162 0
7164 -7147 -7162 0
7149 7164 -7165 0
7149 -7164 7165 0
-7149 7164 7165 0
-7149 -7164 -7165 0
-7166 7149 0
-7166 7164 0
7166 -7149 -7164 0
-7166 0
7151 223 -7167 0
7151 -223 7167 0
-7151 223 7167 0
-7151 -223 -7167 0
-7168 7151 0
-7168 223 0
7168 -7151 -223 0
7153 7168 -7169 0
7153 -7168 7169 0
-7153 7168 7169 0
-7153 -7168 -7169 0
-7170 7153 0
-7170 7168 0
7170 -7153 -7168 0
7155 7170 -7171 0
7155 -7170 7171 0
-7155 7170 7171 0
-7155 -7170 -7171 0
-7172 7155 0
-7172 7170 0
7172 -7155 -7170 0
7157 7172 -7173 0
7157 -7172 7173 0
-7157 7172 7173 0
-7157 -7172 -7173 0
-7174 7157 0
-7174 7172 0
7174 -7157 -7172 0
7159 7174 -7175 0
7159 -7174 7175 0
-7159 7174 7175 0
-7159 -7174 -7175 0
-7176 7159 0
-7176 7174 0
7176 -7159 -7174 0
7161 7176 -7177 0
7161 -7176 7177 0
-7161 7176 7177 0
-7161 -7176 -7177 0
-7178 7161 0
-7178 7176 0
7178 -7161 -7176 0
7163 7178 -7179 0
7163 -7178 7179 0
-7163 7178 7179 0
-7163 -7178 -7179 0
-7180 7163 0
-7180 7178 0
7180 -7163 -7178 0
7165 7180 -7181 0
7165 -7180 7181 0
-7165 7180 7181 0
-7165 -7180 -7181 0
-7182 7165 0
-7182 7180 0
7182 -7165 -7180 0
-7182 0
7167 224 -7183 0
7167 -224 7183 0
-7167 224 7183 0
-7167 -224 -7183 0
-7184 7167 0
-7184 224 0
7184 -7167 -224 0
7169 7184 -7185 0
7169 -7184 7185 0
-7169 7184 7185 0
-7169 -7184 -7185 0
-7186 7169 0
-7186 7184 0
7186 -7169 -7184 0
7171 7186 -7187 0
7171 -7186 7187 0
-7171 7186 7187 0
-7171 -7186 -7187 0
-7188 7171 0
-7188 7186 0
7188 -7171 -7186 0
7173 7188 -7189 0
7173 -7188 7189 0
-7173 7188 7189 0
-7173 -7188 -7189 0
-7190 7173 0
-7190 7188 0
7190 -7173 -7188 0
7175 7190 -7191 0
7175 -7190 7191 0
-7175 7190 7191 0
-7175 -7190 -7191 0
-7192 7175 0
-7192 7190 0
7192 -7175 -7190 0
7177 7192 -7193 0
7177 -7192 7193 0
-7177 7192 7193 0
-7177 -7192 -7193 0
-7194 7177 0
-7194 7192 0
7194 -7177 -7192 0
7179 7194 -7195 0
7179 -7194 7195 0
-7179 7194 7195 0
-7179 -7194 -7195 0
-7196 7179 0
-7196 7194 0
7196 -7179 -7194 0
7181 7196 -7197 0
7181 -7196 7197 0
-7181 7196 7197 0
-7181 -7196 -7197 0
-7198 7181 0
-7198 7196 0
7198 -7181 -7196 0
-7198 0
7183 225 -7199 0
7183 -225 7199 0
-7183 225 7199 0
-7183 -225 -7199 0
-7200 7183 0
-7200 225 0
7200 -7183 -225 0
7185 7200 -7201 0
7185 -7200 7201 0
-7185 7200 7201 0
-7185 -7200 -7201 0
-7202 7185 0
-7202 7200 0
7202 -7185 -7200 0
7187 7202 -7203 0
7187 -7202 7203 0
-7187 7202 7203 0
-7187 -7202 -7203 0
-7204 7187 0
-7204 7202 0
7204 -7187 -7202 0
7189 7204 -7205 0
7189 -7204 7205 0
-7189 7204 7205 0
-7189 -7204 -7205 0
-7206 7189 0
-7206 7204 0
7206 -7189 -7204 0
7191 7206 -7207 0
7191 -7206 7207 0
-7191 7206 7207 0
-7191 -7206 -7207 0
-7208 7191 0
-7208 7206 0
7208 -7191 -7206 0
7193 7208 -7209 0
7193 -7208 7209 0
-7193 7208 7209 0
-7193 -7208 -7209 0
-7210 7193 0
-7210 7208 0
7210 -7193 -7208 0
7195 7210 -7211 0
7195 -7210 7211 0
-7195 7210 7211 0
-7195 -7210 -7211 0
-7212 7195 0
-7212 7210 0
7212 -7195 -7210 0
7197 7212 -7213 0
7197 -7212 7213 0
-7197 7212 7213 0
-7197 -7212 -7213 0
-7214 7197 0
-7214 7212 0
7214 -7197 -7212 0
-7214 0
7199 226 -7215 0
7199 -226 7215 0
-7199 226 7215 0
-7199 -226 -7215 0
-7216 7199 0
-7216 226 0
7216 -7199 -226 0
7201 7216 -7217 0
7201 -7216 7217 0
-7201 7216 7217 0
-7201 -7216 -7217 0
-7218 7201 0
-7218 7216 0
7218 -7201 -7216 0
7203 7218 -7219 0
7203 -7218 7219 0
-7203 7218 7219 0
-7203 -7218 -7219 0
-7220 7203 0
-7220 7218 0
7220 -7203 -7218 0
7205 7220 -7221 0
7205 -7220 7221 0
-7205 7220 7221 0
-7205 -7220 -7221 0
-7222 7205 0
-7222 7220 0
7222 -7205 -7220 0
7207 7222 -7223 0
7207 -7222 7223 0
-7207 7222 7223 0
-7207 -7222 -7223 0
-7224 7207 0
-7224 7222 0
7224 -7207 -7222 0
7209 7224 -7225 0
7209 -7224 7225 0
-7209 7224 7225 0
-7209 -7224 -7225 0
-7226 7209 0
-7226 7224 0
7226 -7209 -7224 0
7211 7226 -7227 0
7211 -7226 7227 0
-7211 7226 7227 0
-7211 -7226 -7227 0
-7228 7211 0
-7228 7226 0
7228 -7211 -7226 0
7213 7228 -7229 0
7213 -7228 7229 0
-7213 7228 7229 0
-7213 -7228 -7229 0
-7230 7213 0
-7230 7228 0
7230 -7213 -7228 0
-7230 0
7215 227 -7231 0
7215 -227 7231 0
-7215 227 7231 0
-7215 -227 -7231 0
-7232 7215 0
-7232 227 0
7232 -7215 -227 0
7217 7232 -7233 0
7217 -7232 7233 0
-7217 7232 7233 0
-7217 -7232 -7233 0
-7234 7217 0
-7234 7232 0
7234 -7217 -7232 0
7219 7234 -7235 0
7219 -7234 7235 0
-7219 7234 7235 0
-7219 -7234 -7235 0
-7236 7219 0
-7236 7234 0
7236 -7219 -7234 0
7221 7236 -7237 0
7221 -7236 7237 0
-7221 7236 7237 0
-7221 -7236 -7237 0
-7238 7221 0
-7238 7236 0
7238 -7221 -7236 0
7223 7238 -7239 0
7223 -7238 7239 0
-7223 7238 7239 0
-7223 -7238 -7239 0
-7240 7223 0
-7240 7238 0
7240 -7223 -7238 0
7225 7240 -7241 0
7225 -7240 7241 0
-7225 7240 7241 0
-7225 -7240 -7241 0
-7242 7225 0
-7242 7240 0
7242 -7225 -7240 0
7227 7242 -7243 0
7227 -7242 7243 0
-7227 7242 7243 0
-7227 -7242 -7243 0
-7244 7227 0
-7244 7242 0
7244 -7227 -7242 0
7229 7244 -7245 0
7229 -7244 7245 0
-7229 7244 7245 0
-7229 -7244 -7245 0
-7246 7229 0
-7246 7244 0
7246 -7229 -7244 0
-7246 0
7231 228 -7247 0
7231 -228 7247 0
-7231 228 7247 0
-7231 -228 -7247 0
-7248 7231 0
-7248 228 0
7248 -7231 -228 0
7233 7248 -7249 0
7233 -7248 7249 0
-7233 7248 7249 0
-7233 -7248 -7249 0
-7250 7233 0
-7250 7248 0
7250 -7233 -7248 0
7235 7250 -7251 0
7235 -7250 7251 0
-7235 7250 7251 0
-7235 -7250 -7251 0
-7252 7235 0
-7252 7250 0
7252 -7235 -7250 0
7237 7252 -7253 0
7237 -7252 7253 0
-7237 7252 7253 0
-7237 -7252 -7253 0
-7254 7237 0
-7254 7252 0
7254 -7237 -7252 0
7239 7254 -7255 0
7239 -7254 7255 0
-7239 7254 7255 0
-7239 -7254 -7255 0
-7256 7239 0
-7256 7254 0
7256 -7239 -7254 0
7241 7256 -7257 0
7241 -7256 7257 0
-7241 7256 7257 0
-7241 -7256 -7257 0
-7258 7241 0
-7258 7256 0
7258 -7241 -7256 0
7243 7258 -7259 0
7243 -7258 7259 0
-7243 7258 7259 0
-7243 -7258 -7259 0
-7260 7243 0
-7260 7258 0
7260 -7243 -7258 0
7245 7260 -7261 0
7245 -7260 7261 0
-7245 7260 7261 0
-7245 -7260 -7261 0
-7262 7245 0
-7262 7260 0
7262 -7245 -7260 0
-7262 0
7247 229 -7263 0
7247 -229 7263 0
-7247 229 7263 0
-7247 -229 -7263 0
-7264 7247 0
-7264 229 0
7264 -7247 -229 0
7249 7264 -7265 0
7249 -7264 7265 0
-7249 7264 7265 0
-7249 -7264 -7265 0
-7266 7249 0
-7266 7264 0
7266 -7249 -7264 0
7251 7266 -7267 0
7251 -7266 7267 0
-7251 7266 7267 0
-7251 -7266 -7267 0
-7268 7251 0
-7268 7266 0
7268 -7251 -7266 0
7253 7268 -7269 0
7253 -7268 7269 0
-7253 7268 7269 0
-7253 -7268 -7269 0
-7270 7253 0
-7270 7268 0
7270 -7253 -7268 0
7255 7270 -7271 0
7255 -7270 7271 0
-7255 7270 7271 0
-7255 -7270 -7271 0
-7272 7255 0
-7272 7270 0
7272 -7255 -7270 0
7257 7272 -7273 0
7257 -7272 7273 0
-7257 7272 7273 0
-7257 -7272 -7273 0
-7274 7257 0
-7274 7272 0
7274 -7257 -7272 0
7259 7274 -7275 0
7259 -7274 7275 0
-7259 7274 7275 0
-7259 -7274 -7275 0
-7276 7259 0
-7276 7274 0
7276 -7259 -7274 0
7261 7276 -7277 0
7261 -7276 7277 0
-7261 7276 7277 0
-7261 -7276 -7277 0
-7278 7261 0
-7278 7276 0
7278 -7261 -7276 0
-7278 0
7263 230 -7279 0
7263 -230 7279 0
-7263 230 7279 0
-7263 -230 -7279 0
-7280 7263 0
-7280 230 0
7280 -7263 -230 0
7265 7280 -7281 0
7265 -7280 7281 0
-7265 7280 7281 0
-7265 -7280 -7281 0
-7282 7265 0
-7282 7280 0
7282 -7265 -7280 0
7267 7282 -7283 0
7267 -7282 7283 0
-7267 7282 7283 0
-7267 -7282 -7283 0
-7284 7267 0
-7284 7282 0
7284 -7267 -7282 0
7269 7284 -7285 0
7269 -7284 7285 0
-7269 7284 7285 0
-7269 -7284 -7285 0
-7286 7269 0
-7286 7284 0
7286 -7269 -7284 0
7271 7286 -7287 0
7271 -7286 7287 0
-7271 7286 7287 0
-7271 -7286 -7287 0
-7288 7271 0
-7288 7286 0
7288 -7271 -7286 0
7273 7288 -7289 0
7273 -7288 7289 0
-7273 7288 7289 0
-7273 -7288 -7289 0
-7290 7273 0
-7290 7288 0
7290 -7273 -7288 0
7275 7290 -7291 0
7275 -7290 7291 0
-7275 7290 7291 0
-7275 -7290 -7291 0
-7292 7275 0
-7292 7290 0
7292 -7275 -7290 0
7277 7292 -7293 0
7277 -7292 7293 0
-7277 7292 7293 0
-7277 -7292 -7293 0
-7294 7277 0
-7294 7292 0
7294 -7277 -7292 0
-7294 0
7279 231 -7295 0
7279 -231 7295 0
-7279 231 7295 0
-7279 -231 -7295 0
-7296 7279 0
-7296 231 0
7296 -7279 -231 0
7281 7296 -7297 0
7281 -7296 7297 0
-7281 7296 7297 0
-7281 -7296 -7297 0
-7298 7281 0
-7298 7296 0
7298 -7281 -7296 0
7283 7298 -7299 0
7283 -7298 7299 0
-7283 7298 7299 0
-7283 -7298 -7299 0
-7300 7283 0
-7300 7298 0
7300 -7283 -7298 0
7285 7300 -7301 0
7285 -7300 7301 0
-7285 7300 7301 0
-7285 -7300 -7301 0
-7302 7285 0
-7302 7300 0
7302 -7285 -7300 0
7287 7302 -7303 0
7287 -7302 7303 0
-7287 7302 7303 0
-7287 -7302 -7303 0
-7304 7287 0
-7304 7302 0
7304 -7287 -7302 0
7289 7304 -7305 0
7289 -7304 7305 0
-7289 7304 7305 0
-7289 -7304 -7305 0
-7306 7289 0
-7306 7304 0
7306 -7289 -7304 0
7291 7306 -7307 0
7291 -7306 7307 0
-7291 7306 7307 0
-7291 -7306 -7307 0
-7308 7291 0
-7308 7306 0
7308 -7291 -7306 0
7293 7308 -7309 0
7293 -7308 7309 0
-7293 7308 7309 0
-7293 -7308 -7309 0
-7310 7293 0
-7310 7308 0
7310 -7293 -7308 0
-7310 0
7295 232 -7311 0
7295 -232 7311 0
-7295 232 7311 0
-7295 -232 -7311 0
-7312 7295 0
-7312 232 0
7312 -7295 -232 0
7297 7312 -7313 0
7297 -7312 7313 0
-7297 7312 7313 0
-7297 -7312 -7313 0
-7314 7297 0
-7314 7312 0
7314 -7297 -7312 0
7299 7314 -7315 0
7299 -7314 7315 0
-7299 7314 7315 0
-7299 -7314 -7315 0
-7316 7299 0
-7316 7314 0
7316 -7299 -7314 0
7301 7316 -7317 0
7301 -7316 7317 0
-7301 7316 7317 0
-7301 -7316 -7317 0
-7318 7301 0
-7318 7316 0
7318 -7301 -7316 0
7303 7318 -7319 0
7303 -7318 7319 0
-7303 7318 7319 0
-7303 -7318 -7319 0
-7320 7303 0
-7320 7318 0
7320 -7303 -7318 0
7305 7320 -7321 0
7305 -7320 7321 0
-7305 7320 7321 0
-7305 -7320 -7321 0
-7322 7305 0
-7322 7320 0
7322 -7305 -7320 0
7307 7322 -7323 0
7307 -7322 7323 0
-7307 7322 7323 0
-7307 -7322 -7323 0
-7324 7307 0
-7324 7322 0
7324 -7307 -7322 0
7309 7324 -7325 0
7309 -7324 7325 0
-7309 7324 7325 0
-7309 -7324 -7325 0
-7326 7309 0
-7326 7324 0
7326 -7309 -7324 0
-7326 0
7311 233 -7327 0
7311 -233 7327 0
-7311 233 7327 0
-7311 -233 -7327 0
-7328 7311 0
-7328 233 0
7328 -7311 -233 0
7313 7328 -7329 0
7313 -7328 7329 0
-7313 7328 7329 0
-7313 -7328 -7329 0
-7330 7313 0
-7330 7328 0
7330 -7313 -7328 0
7315 7330 -7331 0
7315 -7330 7331 0
-7315 7330 7331 0
-7315 -7330 -7331 0
-7332 7315 0
-7332 7330 0
7332 -7315 -7330 0
7317 7332 -7333 0
7317 -7332 7333 0
-7317 7332 7333 0
-7317 -7332 -7333 0
-7334 7317 0
-7334 7332 0
7334 -7317 -7332 0
7319 7334 -7335 0
7319 -7334 7335 0
-7319 7334 7335 0
-7319 -7334 -7335 0
-7336 7319 0
-7336 7334 0
7336 -7319 -7334 0
7321 7336 -7337 0
7321 -7336 7337 0
-7321 7336 7337 0
-7321 -7336 -7337 0
-7338 7321 0
-7338 7336 0
7338 -7321 -7336 0
7323 7338 -7339 0
7323 -7338 7339 0
-7323 7338 7339 0
-7323 -7338 -7339 0
-7340 7323 0
-7340 7338 0
7340 -7323 -7338 0
7325 7340 -7341 0
7325 -7340 7341 0
-7325 7340 7341 0
-7325 -7340 -7341 0
-7342 7325 0
-7342 7340 0
7342 -7325 -7340 0
-7342 0
7327 234 -7343 0
7327 -234 7343 0
-7327 234 7343 0
-7327 -234 -7343 0
-7344 7327 0
-7344 234 0
7344 -7327 -234 0
7329 7344 -7345 0
7329 -7344 7345 0
-7329 7344 7345 0
-7329 -7344 -7345 0
-7346 7329 0
-7346 7344 0
7346 -7329 -7344 0
7331 7346 -7347 0
7331 -7346 7347 0
-7331 7346 7347 0
-7331 -7346 -7347 0
-7348 7331 0
-7348 7346 0
7348 -7331 -7346 0
7333 7348 -7349 0
7333 -7348 7349 0
-7333 7348 7349 0
-7333 -7348 -7349 0
-7350 7333 0
-7350 7348 0
7350 -7333 -7348 0
7335 7350 -7351 0
7335 -7350 7351 0
-7335 7350 7351 0
-7335 -7350 -7351 0
-7352 7335 0
-7352 7350 0
7352 -7335 -7350 0
7337 7352 -7353 0
7337 -7352 7353 0
-7337 7352 7353 0
-7337 -7352 -7353 0
-7354 7337 0
-7354 7352 0
7354 -7337 -7352 0
7339 7354 -7355 0
7339 -7354 7355 0
-7339 7354 7355 0
-7339 -7354 -7355 0
-7356 7339 0
-7356 7354 0
7356 -7339 -7354 0
7341 7356 -7357 0
7341 -7356 7357 0
-7341 7356 7357 0
-7341 -7356 -7357 0
-7358 7341 0
-7358 7356 0
7358 -7341 -7356 0
-7358 0
7343 235 -7359 0
7343 -235 7359 0
-7343 235 7359 0
-7343 -235 -7359 0
-7360 7343 0
-7360 235 0
7360 -7343 -235 0
7345 7360 -7361 0
7345 -7360 7361 0
-7345 7360 7361 0
-7345 -7360 -7361 0
-7362 7345 0
-7362 7360 0
7362 -7345 -7360 0
7347 7362 -7363 0
7347 -7362 7363 0
-7347 7362 7363 0
-7347 -7362 -7363 0
-7364 7347 0
-7364 7362 0
7364 -7347 -7362 0
7349 7364 -7365 0
7349 -7364 7365 0
-7349 7364 7365 0
-7349 -7364 -7365 0
-7366 7349 0
-7366 7364 0
7366 -7349 -7364 0
7351 7366 -7367 0
7351 -7366 7367 0
-7351 7366 7367 0
-7351 -7366 -7367 0
-7368 7351 0
-7368 7366 0
7368 -7351 -7366 0
7353 7368 -7369 0
7353 -7368 7369 0
-7353 7368 7369 0
-7353 -7368 -7369 0
-7370 7353 0
-7370 7368 0
7370 -7353 -7368 0
7355 7370 -7371 0
7355 -7370 7371 0
-7355 7370 7371 0
-7355 -7370 -7371 0
-7372 7355 0
-7372 7370 0
7372 -7355 -7370 0
7357 7372 -7373 0
7357 -7372 7373 0
-7357 7372 7373 0
-7357 -7372 -7373 0
-7374 7357 0
-7374 7372 0
7374 -7357 -7372 0
-7374 0
7359 236 -7375 0
7359 -236 7375 0
-7359 236 7375 0
-7359 -236 -7375 0
-7376 7359 0
-7376 236 0
7376 -7359 -236 0
7361 7376 -7377 0
7361 -7376 7377 0
-7361 7376 7377 0
-7361 -7376 -7377 0
-7378 7361 0
-7378 7376 0
7378 -7361 -7376 0
7363 7378 -7379 0
7363 -7378 7379 0
-7363 7378 7379 0
-7363 -7378 -7379 0
-7380 7363 0
-7380 7378 0
7380 -7363 -7378 0
7365 7380 -7381 0
7365 -7380 7381 0
-7365 7380 7381 0
-7365 -7380 -7381 0
-7382 7365 0
-7382 7380 0
7382 -7365 -7380 0
7367 7382 -7383 0
7367 -7382 7383 0
-7367 7382 7383 0
-7367 -7382 -7383 0
-7384 7367 0
-7384 7382 0
7384 -7367 -7382 0
7369 7384 -7385 0
7369 -7384 7385 0
-7369 7384 7385 0
-7369 -7384 -7385 0
-7386 7369 0
-7386 7384 0
7386 -7369 -7384 0
7371 7386 -7387 0
7371 -7386 7387 0
-7371 7386 7387 0
-7371 -7386 -7387 0
-7388 7371 0
-7388 7386 0
7388 -7371 -7386 0
7373 7388 -7389 0
7373 -7388 7389 0
-7373 7388 7389 0
-7373 -7388 -7389 0
-7390 7373 0
-7390 7388 0
7390 -7373 -7388 0
-7390 0
7375 237 -7391 0
7375 -237 7391 0
-7375 237 7391 0
-7375 -237 -7391 0
-7392 7375 0
-7392 237 0
7392 -7375 -237 0
7377 7392 -7393 0
7377 -7392 7393 0
-7377 7392 7393 0
-7377 -7392 -7393 0
-7394 7377 0
-7394 7392 0
7394 -7377 -7392 0
7379 7394 -7395 0
7379 -7394 7395 0
-7379 7394 7395 0
-7379 -7394 -7395 0
-7396 7379 0
-7396 7394 0
7396 -7379 -7394 0
7381 7396 -7397 0
7381 -7396 7397 0
-7381 7396 7397 0
-7381 -7396 -7397 0
-7398 7381 0
-7398 7396 0
7398 -7381 -7396 0
7383 7398 -7399 0
7383 -7398 7399 0
-7383 7398 7399 0
-7383 -7398 -7399 0
-7400 7383 0
-7400 7398 0
7400 -7383 -7398 0
7385 7400 -7401 0
7385 -7400 7401 0
-7385 7400 7401 0
-7385 -7400 -7401 0
-7402 7385 0
-7402 7400 0
7402 -7385 -7400 0
7387 7402 -7403 0
7387 -7402 7403 0
-7387 7402 7403 0
-7387 -7402 -7403 0
-7404 7387 0
-7404 7402 0
7404 -7387 -7402 0
7389 7404 -7405 0
7389 -7404 7405 0
-7389 7404 7405 0
-7389 -7404 -7405 0
-7406 7389 0
-7406 7404 0
7406 -7389 -7404 0
-7406 0
7391 238 -7407 0
7391 -238 7407 0
-7391 238 7407 0
-7391 -238 -7407 0
-7408 7391 0
-7408 238 0
7408 -7391 -238 0
7393 7408 -7409 0
7393 -7408 7409 0
-7393 7408 7409 0
-7393 -7408 -7409 0
-7410 7393 0
-7410 7408 0
7410 -7393 -7408 0
7395 7410 -7411 0
7395 -7410 7411 0
-7395 7410 7411 0
-7395 -7410 -7411 0
-7412 7395 0
-7412 7410 0
7412 -7395 -7410 0
7397 7412 -7413 0
7397 -7412 7413 0
-7397 7412 7413 0
-7397 -7412 -7413 0
-7414 7397 0
-7414 7412 0
7414 -7397 -7412 0
7399 7414 -7415 0
7399 -7414 7415 0
-7399 7414 7415 0
-7399 -7414 -7415 0
-7416 7399 0
-7416 7414 0
7416 -7399 -7414 0
7401 7416 -7417 0
7401 -7416 7417 0
-7401 7416 7417 0
-7401 -7416 -7417 0
-7418 7401 0
-7418 7416 0
7418 -7401 -7416 0
7403 7418 -7419 0
7403 -7418 7419 0
-7403 7418 7419 0
-7403 -7418 -7419 0
-7420 7403 0
-7420 7418 0
7420 -7403 -7418 0
7405 7420 -7421 0
7405 -7420 7421 0
-7405 7420 7421 0
-7405 -7420 -7421 0
-7422 7405 0
-7422 7420 0
7422 -7405 -7420 0
-7422 0
7407 239 -7423 0
7407 -239 7423 0
-7407 239 7423 0
-7407 -239 -7423 0
-7424 7407 0
-7424 239 0
7424 -7407 -239 0
7409 7424 -7425 0
7409 -7424 7425 0
-7409 7424 7425 0
-7409 -7424 -7425 0
-7426 7409 0
-7426 7424 0
7426 -7409 -7424 0
7411 7426 -7427 0
7411 -7426 7427 0
-7411 7426 7427 0
-7411 -7426 -7427 0
-7428 7411 0
-7428 7426 0
7428 -7411 -7426 0
7413 7428 -7429 0
7413 -7428 7429 0
-7413 7428 7429 0
-7413 -7428 -7429 0
-7430 7413 0
-7430 7428 0
7430 -7413 -7428 0
7415 7430 -7431 0
7415 -7430 7431 0
-7415 7430 7431 0
-7415 -7430 -7431 0
-7432 7415 0
-7432 7430 0
7432 -7415 -7430 0
7417 7432 -7433 0
7417 -7432 7433 0
-7417 7432 7433 0
-7417 -7432 -7433 0
-7434 7417 0
-7434 7432 0
7434 -7417 -7432 0
7419 7434 -7435 0
7419 -7434 7435 0
-7419 7434 7435 0
-7419 -7434 -7435 0
-7436 7419 0
-7436 7434 0
7436 -7419 -7434 0
7421 7436 -7437 0
7421 -7436 7437 0
-7421 7436 7437 0
-7421 -7436 -7437 0
-7438 7421 0
-7438 7436 0
7438 -7421 -7436 0
-7438 0
7423 240 -7439 0
7423 -240 7439 0
-7423 240 7439 0
-7423 -240 -7439 0
-7440 7423 0
-7440 240 0
7440 -7423 -240 0
7425 7440 -7441 0
7425 -7440 7441 0
-7425 7440 7441 0
-7425 -7440 -7441 0
-7442 7425 0
-7442 7440 0
7442 -7425 -7440 0
7427 7442 -7443 0
7427 -7442 7443 0
-7427 7442 7443 0
-7427 -7442 -7443 0
-7444 7427 0
-7444 7442 0
7444 -7427 -7442 0
7429 7444 -7445 0
7429 -7444 7445 0
-7429 7444 7445 0
-7429 -7444 -7445 0
-7446 7429 0
-7446 7444 0
7446 -7429 -7444 0
7431 7446 -7447 0
7431 -7446 7447 0
-7431 7446 7447 0
-7431 -7446 -7447 0
-7448 7431 0
-7448 7446 0
7448 -7431 -7446 0
7433 7448 -7449 0
7433 -7448 7449 0
-7433 7448 7449 0
-7433 -7448 -7449 0
-7450 7433 0
-7450 7448 0
7450 -7433 -7448 0
7435 7450 -7451 0
7435 -7450 7451 0
-7435 7450 7451 0
-7435 -7450 -7451 0
-7452 7435 0
-7452 7450 0
7452 -7435 -7450 0
7437 7452 -7453 0
7437 -7452 7453 0
-7437 7452 7453 0
-7437 -7452 -7453 0
-7454 7437 0
-7454 7452 0
7454 -7437 -7452 0
-7454 0
7439 241 -7455 0
7439 -241 7455 0
-7439 241 7455 0
-7439 -241 -7455 0
-7456 7439 0
-7456 241 0
7456 -7439 -241 0
7441 7456 -7457 0
7441 -7456 7457 0
-7441 7456 7457 0
-7441 -7456 -7457 0
-7458 7441 0
-7458 7456 0
7458 -7441 -7456 0
7443 7458 -7459 0
7443 -7458 7459 0
-7443 7458 7459 0
-7443 -7458 -7459 0
-7460 7443 0
-7460 7458 0
7460 -7443 -7458 0
7445 7460 -7461 0
7445 -7460 7461 0
-7445 7460 7461 0
-7445 -7460 -7461 0
-7462 7445 0
-7462 7460 0
7462 -7445 -7460 0
7447 7462 -7463 0
7447 -7462 7463 0
-7447 7462 7463 0
-7447 -7462 -7463 0
-7464 7447 0
-7464 7462 0
7464 -7447 -7462 0
7449 7464 -7465 0
7449 -7464 7465 0
-7449 7464 7465 0
-7449 -7464 -7465 0
-7466 7449 0
-7466 7464 0
7466 -7449 -7464 0
7451 7466 -7467 0
7451 -7466 7467 0
-7451 7466 7467 0
-7451 -7466 -7467 0
-7468 7451 0
-7468 7466 0
7468 -7451 -7466 0
7453 7468 -7469 0
7453 -7468 7469 0
-7453 7468 7469 0
-7453 -7468 -7469 0
-7470 7453 0
-7470 7468 0
7470 -7453 -7468 0
-7470 0
7455 242 -7471 0
7455 -242 7471 0
-7455 242 7471 0
-7455 -242 -7471 0
-7472 7455 0
-7472 242 0
7472 -7455 -242 0
7457 7472 -7473 0
7457 -7472 7473 0
-7457 7472 7473 0
-7457 -7472 -7473 0
-7474 7457 0
-7474 7472 0
7474 -7457 -7472 0
7459 7474 -7475 0
7459 -7474 7475 0
-7459 7474 7475 0
-7459 -7474 -7475 0
-7476 7459 0
-7476 7474 0
7476 -7459 -7474 0
7461 7476 -7477 0
7461 -7476 7477 0
-7461 7476 7477 0
-7461 -7476 -7477 0
-7478 7461 0
-7478 7476 0
7478 -7461 -7476 0
7463 7478 -7479 0
7463 -7478 7479 0
-7463 7478 7479 0
-7463 -7478 -7479 0
-7480 7463 0
-7480 7478 0
7480 -7463 -7478 0
7465 7480 -7481 0
7465 -7480 7481 0
-7465 7480 7481 0
-7465 -7480 -7481 0
-7482 7465 0
-7482 7480 0
7482 -7465 -7480 0
7467 7482 -7483 0
7467 -7482 7483 0
-7467 7482 7483 0
-7467 -7482 -7483 0
-7484 7467 0
-7484 7482 0
7484 -7467 -7482 0
7469 7484 -7485 0
7469 -7484 7485 0
-7469 7484 7485 0
-7469 -7484 -7485 0
-7486 7469 0
-7486 7484 0
7486 -7469 -7484 0
-7486 0
7471 243 -7487 0
7471 -243 7487 0
-7471 243 7487 0
-7471 -243 -7487 0
-7488 7471 0
-7488 243 0
7488 -7471 -243 0
7473 7488 -7489 0
7473 -7488 7489 0
-7473 7488 7489 0
-7473 -7488 -7489 0
-7490 7473 0
-7490 7488 0
7490 -7473 -7488 0
7475 7490 -7491 0
7475 -7490 7491 0
-7475 7490 7491 0
-7475 -7490 -7491 0
-7492 7475 0
-7492 7490 0
7492 -7475 -7490 0
7477 7492 -7493 0
7477 -7492 7493 0
-7477 7492 7493 0
-7477 -7492 -7493 0
-7494 7477 0
-7494 7492 0
7494 -7477 -7492 0
7479 7494 -7495 0
7479 -7494 7495 0
-7479 7494 7495 0
-7479 -7494 -7495 0
-7496 7479 0
-7496 7494 0
7496 -7479 -7494 0
7481 7496 -7497 0
7481 -7496 7497 0
-7481 7496 7497 0
-7481 -7496 -7497 0
-7498 7481 0
-7498 7496 0
7498 -7481 -7496 0
7483 7498 -7499 0
7483 -7498 7499 0
-7483 7498 7499 0
-7483 -7498 -7499 0
-7500 7483 0
-7500 7498 0
7500 -7483 -7498 0
7485 7500 -7501 0
7485 -7500 7501 0
-7485 7500 7501 0
-7485 -7500 -7501 0
-7502 7485 0
-7502 7500 0
7502 -7485 -7500 0
-7502 0
7487 244 -7503 0
7487 -244 7503 0
-7487 244 7503 0
-7487 -244 -7503 0
-7504 7487 0
-7504 244 0
7504 -7487 -244 0
7489 7504 -7505 0
7489 -7504 7505 0
-7489 7504 7505 0
-7489 -7504 -7505 0
-7506 7489 0
-7506 7504 0
7506 -7489 -7504 0
7491 7506 -7507 0
7491 -7506 7507 0
-7491 7506 7507 0
-7491 -7506 -7507 0
-7508 7491 0
-7508 7506 0
7508 -7491 -7506 0
7493 7508 -7509 0
7493 -7508 7509 0
-7493 7508 7509 0
-7493 -7508 -7509 0
-7510 7493 0
-7510 7508 0
7510 -7493 -7508 0
7495 7510 -7511 0
7495 -7510 7511 0
-7495 7510 7511 0
-7495 -7510 -7511 0
-7512 7495 0
-7512 7510 0
7512 -7495 -7510 0
7497 7512 -7513 0
7497 -7512 7513 0
-7497 7512 7513 0
-7497 -7512 -7513 0
-7514 7497 0
-7514 7512 0
7514 -7497 -7512 0
7499 7514 -7515 0
7499 -7514 7515 0
-7499 7514 7515 0
-7499 -7514 -7515 0
-7516 7499 0
-7516 7514 0
7516 -7499 -7514 0
7501 7516 -7517 0
7501 -7516 7517 0
-7501 7516 7517 0
-7501 -7516 -7517 0
-7518 7501 0
-7518 7516 0
7518 -7501 -7516 0
-7518 0
7503 245 -7519 0
7503 -245 7519 0
-7503 245 7519 0
-7503 -245 -7519 0
-7520 7503 0
-7520 245 0
7520 -7503 -245 0
7505 7520 -7521 0
7505 -7520 7521 0
-7505 7520 7521 0
-7505 -7520 -7521 0
-7522 7505 0
-7522 7520 0
7522 -7505 -7520 0
7507 7522 -7523 0
7507 -7522 7523 0
-7507 7522 7523 0
-7507 -7522 -7523 0
-7524 7507 0
-7524 7522 0
7524 -7507 -7522 0
7509 7524 -7525 0
7509 -7524 7525 0
-7509 7524 7525 0
-7509 -7524 -7525 0
-7526 7509 0
-7526 7524 0
7526 -7509 -7524 0
7511 7526 -7527 0
7511 -7526 7527 0
-7511 7526 7527 0
-7511 -7526 -7527 0
-7528 7511 0
-7528 7526 0
7528 -7511 -7526 0
7513 7528 -7529 0
7513 -7528 7529 0
-7513 7528 7529 0
-7513 -7528 -7529 0
-7530 7513 0
-7530 7528 0
7530 -7513 -7528 0
7515 7530 -7531 0
7515 -7530 7531 0
-7515 7530 7531 0
-7515 -7530 -7531 0
-7532 7515 0
-7532 7530 0
7532 -7515 -7530 0
7517 7532 -7533 0
7517 -7532 7533 0
-7517 7532 7533 0
-7517 -7532 -7533 0
-7534 7517 0
-7534 7532 0
7534 -7517 -7532 0
-7534 0
7519 246 -7535 0
7519 -246 7535 0
-7519 246 7535 0
-7519 -246 -7535 0
-7536 7519 0
-7536 246 0
7536 -7519 -246 0
7521 7536 -7537 0
7521 -7536 7537 0
-7521 7536 7537 0
-7521 -7536 -7537 0
-7538 7521 0
-7538 7536 0
7538 -7521 -7536 0
7523 7538 -7539 0
7523 -7538 7539 0
-7523 7538 7539 0
-7523 -7538 -7539 0
-7540 7523 0
-7540 7538 0
7540 -7523 -7538 0
7525 7540 -7541 0
7525 -7540 7541 0
-7525 7540 7541 0
-7525 -7540 -7541 0
-7542 7525 0
-7542 7540 0
7542 -7525 -7540 0
7527 7542 -7543 0
7527 -7542 7543 0
-7527 7542 7543 0
-7527 -7542 -7543 0
-7544 7527 0
-7544 7542 0
7544 -7527 -7542 0
7529 7544 -7545 0
7529 -7544 7545 0
-7529 7544 7545 0
-7529 -7544 -7545 0
-7546 7529 0
-7546 7544 0
7546 -7529 -7544 0
7531 7546 -7547 0
7531 -7546 7547 0
-7531 7546 7547 0
-7531 -7546 -7547 0
-7548 7531 0
-7548 7546 0
7548 -7531 -7546 0
7533 7548 -7549 0
7533 -7548 7549 0
-7533 7548 7549 0
-7533 -7548 -7549 0
-7550 7533 0
-7550 7548 0
7550 -7533 -7548 0
-7550 0
7535 247 -7551 0
7535 -247 7551 0
-7535 247 7551 0
-7535 -247 -7551 0
-7552 7535 0
-7552 247 0
7552 -7535 -247 0
7537 7552 -7553 0
7537 -7552 7553 0
-7537 7552 7553 0
-7537 -7552 -7553 0
-7554 7537 0
-7554 7552 0
7554 -7537 -7552 0
7539 7554 -7555 0
7539 -7554 7555 0
-7539 7554 7555 0
-7539 -7554 -7555 0
-7556 7539 0
-7556 7554 0
7556 -7539 -7554 0
7541 7556 -7557 0
7541 -7556 7557 0
-7541 7556 7557 0
-7541 -7556 -7557 0
-7558 7541 0
-7558 7556 0
7558 -7541 -7556 0
7543 7558 -7559 0
7543 -7558 7559 0
-7543 7558 7559 0
-7543 -7558 -7559 0
-7560 7543 0
-7560 7558 0
7560 -7543 -7558 0
7545 7560 -7561 0
7545 -7560 7561 0
-7545 7560 7561 0
-7545 -7560 -7561 0
-7562 7545 0
-7562 7560 0
7562 -7545 -7560 0
7547 7562 -7563 0
7547 -7562 7563 0
-7547 7562 7563 0
-7547 -7562 -7563 0
-7564 7547 0
-7564 7562 0
7564 -7547 -7562 0
7549 7564 -7565 0
7549 -7564 7565 0
-7549 7564 7565 0
-7549 -7564 -7565 0
-7566 7549 0
-7566 7564 0
7566 -7549 -7564 0
-7566 0
7551 248 -7567 0
7551 -248 7567 0
-7551 248 7567 0
-7551 -248 -7567 0
-7568 7551 0
-7568 248 0
7568 -7551 -248 0
7553 7568 -7569 0
7553 -7568 7569 0
-7553 7568 7569 0
-7553 -7568 -7569 0
-7570 7553 0
-7570 7568 0
7570 -7553 -7568 0
7555 7570 -7571 0
7555 -7570 7571 0
-7555 7570 7571 0
-7555 -7570 -7571 0
-7572 7555 0
-7572 7570 0
7572 -7555 -7570 0
7557 7572 -7573 0
7557 -7572 7573 0
-7557 7572 7573 0
-7557 -7572 -7573 0
-7574 7557 0
-7574 7572 0
7574 -7557 -7572 0
7559 7574 -7575 0
7559 -7574 7575 0
-7559 7574 7575 0
-7559 -7574 -7575 0
-7576 7559 0
-7576 7574 0
7576 -7559 -7574 0
7561 7576 -7577 0
7561 -7576 7577 0
-7561 7576 7577 0
-7561 -7576 -7577 0
-7578 7561 0
-7578 7576 0
7578 -7561 -7576 0
7563 7578 -7579 0
7563 -7578 7579 0
-7563 7578 7579 0
-7563 -7578 -7579 0
-7580 7563 0
-7580 7578 0
7580 -7563 -7578 0
7565 7580 -7581 0
7565 -7580 7581 0
-7565 7580 7581 0
-7565 -7580 -7581 0
-7582 7565 0
-7582 7580 0
7582 -7565 -7580 0
-7582 0
7567 249 -7583 0
7567 -249 7583 0
-7567 249 7583 0
-7567 -249 -7583 0
-7584 7567 0
-7584 249 0
7584 -7567 -249 0
7569 7584 -7585 0
7569 -7584 7585 0
-7569 7584 7585 0
-7569 -7584 -7585 0
-7586 7569 0
-7586 7584 0
7586 -7569 -7584 0
7571 7586 -7587 0
7571 -7586 7587 0
-7571 7586 7587 0
-7571 -7586 -7587 0
-7588 7571 0
-7588 7586 0
7588 -7571 -7586 0
7573 7588 -7589 0
7573 -7588 7589 0
-7573 7588 7589 0
-7573 -7588 -7589 0
-7590 7573 0
-7590 7588 0
7590 -7573 -7588 0
7575 7590 -7591 0
7575 -7590 7591 0
-7575 7590 7591 0
-7575 -7590 -7591 0
-7592 7575 0
-7592 7590 0
7592 -7575 -7590 0
7577 7592 -7593 0
7577 -7592 7593 0
-7577 7592 7593 0
-7577 -7592 -7593 0
-7594 7577 0
-7594 7592 0
7594 -7577 -7592 0
7579 7594 -7595 0
7579 -7594 7595 0
-7579 7594 7595 0
-7579 -7594 -7595 0
-7596 7579 0
-7596 7594 0
7596 -7579 -7594 0
7581 7596 -7597 0
7581 -7596 7597 0
-7581 7596 7597 0
-7581 -7596 -7597 0
-7598 7581 0
-7598 7596 0
7598 -7581 -7596 0
-7598 0
7583 250 -7599 0
7583 -250 7599 0
-7583 250 7599 0
-7583 -250 -7599 0
-7600 7583 0
-7600 250 0
7600 -7583 -250 0
7585 7600 -7601 0
7585 -7600 7601 0
-7585 7600 7601 0
-7585 -7600 -7601 0
-7602 7585 0
-7602 7600 0
7602 -7585 -7600 0
7587 7602 -7603 0
7587 -7602 7603 0
-7587 7602 7603 0
-7587 -7602 -7603 0
-7604 7587 0
-7604 7602 0
7604 -7587 -7602 0
7589 7604 -7605 0
7589 -7604 7605 0
-7589 7604 7605 0
-7589 -7604 -7605 0
-7606 7589 0
-7606 7604 0
7606 -7589 -7604 0
7591 7606 -7607 0
7591 -7606 7607 0
-7591 7606 7607 0
-7591 -7606 -7607 0
-7608 7591 0
-7608 7606 0
7608 -7591 -7606 0
7593 7608 -7609 0
7593 -7608 7609 0
-7593 7608 7609 0
-7593 -7608 -7609 0
-7610 7593 0
-7610 7608 0
7610 -7593 -7608 0
7595 7610 -7611 0
7595 -7610 7611 0
-7595 7610 7611 0
-7595 -7610 -7611 0
-7612 7595 0
-7612 7610 0
7612 -7595 -7610 0
7597 7612 -7613 0
7597 -7612 7613 0
-7597 7612 7613 0
-7597 -7612 -7613 0
-7614 7597 0
-7614 7612 0
7614 -7597 -7612 0
-7614 0
7599 251 -7615 0
7599 -251 7615 0
-7599 251 7615 0
-7599 -251 -7615 0
-7616 7599 0
-7616 251 0
7616 -7599 -251 0
7601 7616 -7617 0
7601 -7616 7617 0
-7601 7616 7617 0
-7601 -7616 -7617 0
-7618 7601 0
-7618 7616 0
7618 -7601 -7616 0
7603 7618 -7619 0
7603 -7618 7619 0
-7603 7618 7619 0
-7603 -7618 -7619 0
-7620 7603 0
-7620 7618 0
7620 -7603 -7618 0
7605 7620 -7621 0
7605 -7620 7621 0
-7605 7620 7621 0
-7605 -7620 -7621 0
-7622 7605 0
-7622 7620 0
7622 -7605 -7620 0
7607 7622 -7623 0
7607 -7622 7623 0
-7607 7622 7623 0
-7607 -7622 -7623 0
-7624 7607 0
-7624 7622 0
7624 -7607 -7622 0
7609 7624 -7625 0
7609 -7624 7625 0
-7609 7624 7625 0
-7609 -7624 -7625 0
-7626 7609 0
-7626 7624 0
7626 -7609 -7624 0
7611 7626 -7627 0
7611 -7626 7627 0
-7611 7626 7627 0
-7611 -7626 -7627 0
-7628 7611 0
-7628 7626 0
7628 -7611 -7626 0
7613 7628 -7629 0
7613 -7628 7629 0
-7613 7628 7629 0
-7613 -7628 -7629 0
-7630 7613 0
-7630 7628 0
7630 -7613 -7628 0
-7630 0
7615 252 -7631 0
7615 -252 7631 0
-7615 252 7631 0
-7615 -252 -7631 0
-7632 7615 0
-7632 252 0
7632 -7615 -252 0
7617 7632 -7633 0
7617 -7632 7633 0
-7617 7632 7633 0
-7617 -7632 -7633 0
-7634 7617 0
-7634 7632 0
7634 -7617 -7632 0
7619 7634 -7635 0
7619 -7634 7635 0
-7619 7634 7635 0
-7619 -7634 -7635 0
-7636 7619 0
-7636 7634 0
7636 -7619 -7634 0
7621 7636 -7637 0
7621 -7636 7637 0
-7621 7636 7637 0
-7621 -7636 -7637 0
-7638 7621 0
-7638 7636 0
7638 -7621 -7636 0
7623 7638 -7639 0
7623 -7638 7639 0
-7623 7638 7639 0
-7623 -7638 -7639 0
-7640 7623 0
-7640 7638 0
7640 -7623 -7638 0
7625 7640 -7641 0
7625 -7640 7641 0
-7625 7640 7641 0
-7625 -7640 -7641 0
-7642 7625 0
-7642 7640 0
7642 -7625 -7640 0
7627 7642 -7643 0
7627 -7642 7643 0
-7627 7642 7643 0
-7627 -7642 -7643 0
-7644 7627 0
-7644 7642 0
7644 -7627 -7642 0
7629 7644 -7645 0
7629 -7644 7645 0
-7629 7644 7645 0
-7629 -7644 -7645 0
-7646 7629 0
-7646 7644 0
7646 -7629 -7644 0
-7646 0
7631 253 -7647 0
7631 -253 7647 0
-7631 253 7647 0
-7631 -253 -7647 0
-7648 7631 0
-7648 253 0
7648 -7631 -253 0
7633 7648 -7649 0
7633 -7648 7649 0
-7633 7648 7649 0
-7633 -7648 -7649 0
-7650 7633 0
-7650 7648 0
7650 -7633 -7648 0
7635 7650 -7651 0
7635 -7650 7651 0
-7635 7650 7651 0
-7635 -7650 -7651 0
-7652 7635 0
-7652 7650 0
7652 -7635 -7650 0
7637 7652 -7653 0
7637 -7652 7653 0
-7637 7652 7653 0
-7637 -7652 -7653 0
-7654 7637 0
-7654 7652 0
7654 -7637 -7652 0
7639 7654 -7655 0
7639 -7654 7655 0
-7639 7654 7655 0
-7639 -7654 -7655 0
-7656 7639 0
-7656 7654 0
7656 -7639 -7654 0
7641 7656 -7657 0
7641 -7656 7657 0
-7641 7656 7657 0
-7641 -7656 -7657 0
-7658 7641 0
-7658 7656 0
7658 -7641 -7656 0
7643 7658 -7659 0
7643 -7658 7659 0
-7643 7658 7659 0
-7643 -7658 -7659 0
-7660 7643 0
-7660 7658 0
7660 -7643 -7658 0
7645 7660 -7661 0
7645 -7660 7661 0
-7645 7660 7661 0
-7645 -7660 -7661 0
-7662 7645 0
-7662 7660 0
7662 -7645 -7660 0
-7662 0
7647 254 -7663 0
7647 -254 7663 0
-7647 254 7663 0
-7647 -254 -7663 0
-7664 7647 0
-7664 254 0
7664 -7647 -254 0
7649 7664 -7665 0
7649 -7664 7665 0
-7649 7664 7665 0
-7649 -7664 -7665 0
-7666 7649 0
-7666 7664 0
7666 -7649 -7664 0
7651 7666 -7667 0
7651 -7666 7667 0
-7651 7666 7667 0
-7651 -7666 -7667 0
-7668 7651 0
-7668 7666 0
7668 -7651 -7666 0
7653 7668 -7669 0
7653 -7668 7669 0
-7653 7668 7669 0
-7653 -7668 -7669 0
-7670 7653 0
-7670 7668 0
7670 -7653 -7668 0
7655 7670 -7671 0
7655 -7670 7671 0
-7655 7670 7671 0
-7655 -7670 -7671 0
-7672 7655 0
-7672 7670 0
7672 -7655 -7670 0
7657 7672 -7673 0
7657 -7672 7673 0
-7657 7672 7673 0
-7657 -7672 -7673 0
-7674 7657 0
-7674 7672 0
7674 -7657 -7672 0
7659 7674 -7675 0
7659 -7674 7675 0
-7659 7674 7675 0
-7659 -7674 -7675 0
-7676 7659 0
-7676 7674 0
7676 -7659 -7674 0
7661 7676 -7677 0
7661 -7676 7677 0
-7661 7676 7677 0
-7661 -7676 -7677 0
-7678 7661 0
-7678 7676 0
7678 -7661 -7676 0
-7678 0
7663 255 -7679 0
7663 -255 7679 0
-7663 255 7679 0
-7663 -255 -7679 0
-7680 7663 0
-7680 255 0
7680 -7663 -255 0
7665 7680 -7681 0
7665 -7680 7681 0
-7665 7680 7681 0
-7665 -7680 -7681 0
-7682 7665 0
-7682 7680 0
7682 -7665 -7680 0
7667 7682 -7683 0
7667 -7682 7683 0
-7667 7682 7683 0
-7667 -7682 -7683 0
-7684 7667 0
-7684 7682 0
7684 -7667 -7682 0
7669 7684 -7685 0
7669 -7684 7685 0
-7669 7684 7685 0
-7669 -7684 -7685 0
-7686 7669 0
-7686 7684 0
7686 -7669 -7684 0
7671 7686 -7687 0
7671 -7686 7687 0
-7671 7686 7687 0
-7671 -7686 -7687 0
-7688 7671 0
-7688 7686 0
7688 -7671 -7686 0
7673 7688 -7689 0
7673 -7688 7689 0
-7673 7688 7689 0
-7673 -7688 -7689 0
-7690 7673 0
-7690 7688 0
7690 -7673 -7688 0
7675 7690 -7691 0
7675 -7690 7691 0
-7675 7690 7691 0
-7675 -7690 -7691 0
-7692 7675 0
-7692 7690 0
7692 -7675 -7690 0
7677 7692 -7693 0
7677 -7692 7693 0
-7677 7692 7693 0
-7677 -7692 -7693 0
-7694 7677 0
-7694 7692 0
7694 -7677 -7692 0
-7694 0
7679 256 -7695 0
7679 -256 7695 0
-7679 256 7695 0
-7679 -256 -7695 0
-7696 7679 0
-7696 256 0
7696 -7679 -256 0
7681 7696 -7697 0
7681 -7696 7697 0
-7681 7696 7697 0
-7681 -7696 -7697 0
-7698 7681 0
-7698 7696 0
7698 -7681 -7696 0
7683 7698 -7699 0
7683 -7698 7699 0
-7683 7698 7699 0
-7683 -7698 -7699 0
-7700 7683 0
-7700 7698 0
7700 -7683 -7698 0
7685 7700 -7701 0
7685 -7700 7701 0
-7685 7700 7701 0
-7685 -7700 -7701 0
-7702 7685 0
-7702 7700 0
7702 -7685 -7700 0
7687 7702 -7703 0
7687 -7702 7703 0
-7687 7702 7703 0
-7687 -7702 -7703 0
-7704 7687 0
-7704 7702 0
7704 -7687 -7702 0
7689 7704 -7705 0
7689 -7704 7705 0
-7689 7704 7705 0
-7689 -7704 -7705 0
-7706 7689 0
-7706 7704 0
7706 -7689 -7704 0
7691 7706 -7707 0
7691 -7706 7707 0
-7691 7706 7707 0
-7691 -7706 -7707 0
-7708 7691 0
-7708 7706 0
7708 -7691 -7706 0
7693 7708 -7709 0
7693 -7708 7709 0
-7693 7708 7709 0
-7693 -7708 -7709 0
-7710 7693 0
-7710 7708 0
7710 -7693 -7708 0
-7710 0
7695 257 -7711 0
7695 -257 7711 0
-7695 257 7711 0
-7695 -257 -7711 0
-7712 7695 0
-7712 257 0
7712 -7695 -257 0
7697 7712 -7713 0
7697 -7712 7713 0
-7697 7712 7713 0
-7697 -7712 -7713 0
-7714 7697 0
-7714 7712 0
7714 -7697 -7712 0
7699 7714 -7715 0
7699 -7714 7715 0
-7699 7714 7715 0
-7699 -7714 -7715 0
-7716 7699 0
-7716 7714 0
7716 -7699 -7714 0
7701 7716 -7717 0
7701 -7716 7717 0
-7701 7716 7717 0
-7701 -7716 -7717 0
-7718 7701 0
-7718 7716 0
7718 -7701 -7716 0
7703 7718 -7719 0
7703 -7718 7719 0
-7703 7718 7719 0
-7703 -7718 -7719 0
-7720 7703 0
-7720 7718 0
7720 -7703 -7718 0
7705 7720 -7721 0
7705 -7720 7721 0
-7705 7720 7721 0
-7705 -7720 -7721 0
-7722 7705 0
-7722 7720 0
7722 -7705 -7720 0
7707 7722 -7723 0
7707 -7722 7723 0
-7707 7722 7723 0
-7707 -7722 -7723 0
-7724 7707 0
-7724 7722 0
7724 -7707 -7722 0
7709 7724 -7725 0
7709 -7724 7725 0
-7709 7724 7725 0
-7709 -7724 -7725 0
-7726 7709 0
-7726 7724 0
7726 -7709 -7724 0
-7726 0
7711 258 -7727 0
7711 -258 7727 0
-7711 258 7727 0
-7711 -258 -7727 0
-7728 7711 0
-7728 258 0
7728 -7711 -258 0
7713 7728 -7729 0
7713 -7728 7729 0
-7713 7728 7729 0
-7713 -7728 -7729 0
-7730 7713 0
-7730 7728 0
7730 -7713 -7728 0
7715 7730 -7731 0
7715 -7730 7731 0
-7715 7730 7731 0
-7715 -7730 -7731 0
-7732 7715 0
-7732 7730 0
7732 -7715 -7730 0
7717 7732 -7733 0
7717 -7732 7733 0
-7717 7732 7733 0
-7717 -7732 -7733 0
-7734 7717 0
-7734 7732 0
7734 -7717 -7732 0
7719 7734 -7735 0
7719 -7734 7735 0
-7719 7734 7735 0
-7719 -7734 -7735 0
-7736 7719 0
-7736 7734 0
7736 -7719 -7734 0
7721 7736 -7737 0
7721 -7736 7737 0
-7721 7736 7737 0
-7721 -7736 -7737 0
-7738 7721 0
-7738 7736 0
7738 -7721 -7736 0
7723 7738 -7739 0
7723 -7738 7739 0
-7723 7738 7739 0
-7723 -7738 -7739 0
-7740 7723 0
-7740 7738 0
7740 -7723 -7738 0
7725 7740 -7741 0
7725 -7740 7741 0
-7725 7740 7741 0
-7725 -7740 -7741 0
-7742 7725 0
-7742 7740 0
7742 -7725 -7740 0
-7742 0
7727 259 -7743 0
7727 -259 7743 0
-7727 259 7743 0
-7727 -259 -7743 0
-7744 7727 0
-7744 259 0
7744 -7727 -259 0
7729 7744 -7745 0
7729 -7744 7745 0
-7729 7744 7745 0
-7729 -7744 -7745 0
-7746 7729 0
-7746 7744 0
7746 -7729 -7744 0
7731 7746 -7747 0
7731 -7746 7747 0
-7731 7746 7747 0
-7731 -7746 -7747 0
-7748 7731 0
-7748 7746 0
7748 -7731 -7746 0
7733 7748 -7749 0
7733 -7748 7749 0
-7733 7748 7749 0
-7733 -7748 -7749 0
-7750 7733 0
-7750 7748 0
7750 -7733 -7748 0
7735 7750 -7751 0
7735 -7750 7751 0
-7735 7750 7751 0
-7735 -7750 -7751 0
-7752 7735 0
-7752 7750 0
7752 -7735 -7750 0
7737 7752 -7753 0
7737 -7752 7753 0
-7737 7752 7753 0
-7737 -7752 -7753 0
-7754 7737 0
-7754 7752 0
7754 -7737 -7752 0
7739 7754 -7755 0
7739 -7754 7755 0
-7739 7754 7755 0
-7739 -7754 -7755 0
-7756 7739 0
-7756 7754 0
7756 -7739 -7754 0
7741 7756 -7757 0
7741 -7756 7757 0
-7741 7756 7757 0
-7741 -7756 -7757 0
-7758 7741 0
-7758 7756 0
7758 -7741 -7756 0
-7758 0
7743 260 -7759 0
7743 -260 7759 0
-7743 260 7759 0
-7743 -260 -7759 0
-7760 7743 0
-7760 260 0
7760 -7743 -260 0
7745 7760 -7761 0
7745 -7760 7761 0
-7745 7760 7761 0
-7745 -7760 -7761 0
-7762 7745 0
-7762 7760 0
7762 -7745 -7760 0
7747 7762 -7763 0
7747 -7762 7763 0
-7747 7762 7763 0
-7747 -7762 -7763 0
-7764 7747 0
-7764 7762 0
7764 -7747 -7762 0
7749 7764 -7765 0
7749 -7764 7765 0
-7749 7764 7765 0
-7749 -7764 -7765 0
-7766 7749 0
-7766 7764 0
7766 -7749 -7764 0
7751 7766 -7767 0
7751 -7766 7767 0
-7751 7766 7767 0
-7751 -7766 -7767 0
-7768 7751 0
-7768 7766 0
7768 -7751 -7766 0
7753 7768 -7769 0
7753 -7768 7769 0
-7753 7768 7769 0
-7753 -7768 -7769 0
-7770 7753 0
-7770 7768 0
7770 -7753 -7768 0
7755 7770 -7771 0
7755 -7770 7771 0
-7755 7770 7771 0
-7755 -7770 -7771 0
-7772 7755 0
-7772 7770 0
7772 -7755 -7770 0
7757 7772 -7773 0
7757 -7772 7773 0
-7757 7772 7773 0
-7757 -7772 -7773 0
-7774 7757 0
-7774 7772 0
7774 -7757 -7772 0
-7774 0
7759 261 -7775 0
7759 -261 7775 0
-7759 261 7775 0
-7759 -261 -7775 0
-7776 7759 0
-7776 261 0
7776 -7759 -261 0
7761 7776 -7777 0
7761 -7776 7777 0
-7761 7776 7777 0
-7761 -7776 -7777 0
-7778 7761 0
-7778 7776 0
7778 -7761 -7776 0
7763 7778 -7779 0
7763 -7778 7779 0
-7763 7778 7779 0
-7763 -7778 -7779 0
-7780 7763 0
-7780 7778 0
7780 -7763 -7778 0
7765 7780 -7781 0
7765 -7780 7781 0
-7765 7780 7781 0
-7765 -7780 -7781 0
-7782 7765 0
-7782 7780 0
7782 -7765 -7780 0
7767 7782 -7783 0
7767 -7782 7783 0
-7767 7782 7783 0
-7767 -7782 -7783 0
-7784 7767 0
-7784 7782 0
7784 -7767 -7782 0
7769 7784 -7785 0
7769 -7784 7785 0
-7769 7784 7785 0
-7769 -7784 -7785 0
-7786 7769 0
-7786 7784 0
7786 -7769 -7784 0
7771 7786 -7787 0
7771 -7786 7787 0
-7771 7786 7787 0
-7771 -7786 -7787 0
-7788 7771 0
-7788 7786 0
7788 -7771 -7786 0
7773 7788 -7789 0
7773 -7788 7789 0
-7773 7788 7789 0
-7773 -7788 -7789 0
-7790 7773 0
-7790 7788 0
7790 -7773 -7788 0
-7790 0
7775 262 -7791 0
7775 -262 7791 0
-7775 262 7791 0
-7775 -262 -7791 0
-7792 7775 0
-7792 262 0
7792 -7775 -262 0
7777 7792 -7793 0
7777 -7792 7793 0
-7777 7792 7793 0
-7777 -7792 -7793 0
-7794 7777 0
-7794 7792 0
7794 -7777 -7792 0
7779 7794 -7795 0
7779 -7794 7795 0
-7779 7794 7795 0
-7779 -7794 -7795 0
-7796 7779 0
-7796 7794 0
7796 -7779 -7794 0
7781 7796 -7797 0
7781 -7796 7797 0
-7781 7796 7797 0
-7781 -7796 -7797 0
-7798 7781 0
-7798 7796 0
7798 -7781 -7796 0
7783 7798 -7799 0
7783 -7798 7799 0
-7783 7798 7799 0
-7783 -7798 -7799 0
-7800 7783 0
-7800 7798 0
7800 -7783 -7798 0
7785 7800 -7801 0
7785 -7800 7801 0
-7785 7800 7801 0
-7785 -7800 -7801 0
-7802 7785 0
-7802 7800 0
7802 -7785 -7800 0
7787 7802 -7803 0
7787 -7802 7803 0
-7787 7802 7803 0
-7787 -7802 -7803 0
-7804 7787 0
-7804 7802 0
7804 -7787 -7802 0
7789 7804 -7805 0
7789 -7804 7805 0
-7789 7804 7805 0
-7789 -7804 -7805 0
-7806 7789 0
-7806 7804 0
7806 -7789 -7804 0
-7806 0
7791 263 -7807 0
7791 -263 7807 0
-7791 263 7807 0
-7791 -263 -7807 0
-7808 7791 0
-7808 263 0
7808 -7791 -263 0
7793 7808 -7809 0
7793 -7808 7809 0
-7793 7808 7809 0
-7793 -7808 -7809 0
-7810 7793 0
-7810 7808 0
7810 -7793 -7808 0
7795 7810 -7811 0
7795 -7810 7811 0
-7795 7810 7811 0
-7795 -7810 -7811 0
-7812 7795 0
-7812 7810 0
7812 -7795 -7810 0
7797 7812 -7813 0
7797 -7812 7813 0
-7797 7812 7813 0
-7797 -7812 -7813 0
-7814 7797 0
-7814 7812 0
7814 -7797 -7812 0
7799 7814 -7815 0
7799 -7814 7815 0
-7799 7814 7815 0
-7799 -7814 -7815 0
-7816 7799 0
-7816 7814 0
7816 -7799 -7814 0
7801 7816 -7817 0
7801 -7816 7817 0
-7801 7816 7817 0
-7801 -7816 -7817 0
-7818 7801 0
-7818 7816 0
7818 -7801 -7816 0
7803 7818 -7819 0
7803 -7818 7819 0
-7803 7818 7819 0
-7803 -7818 -7819 0
-7820 7803 0
-7820 7818 0
7820 -7803 -7818 0
7805 7820 -7821 0
7805 -7820 7821 0
-7805 7820 7821 0
-7805 -7820 -7821 0
-7822 7805 0
-7822 7820 0
7822 -7805 -7820 0
-7822 0
7807 264 -7823 0
7807 -264 7823 0
-7807 264 7823 0
-7807 -264 -7823 0
-7824 7807 0
-7824 264 0
7824 -7807 -264 0
7809 7824 -7825 0
7809 -7824 7825 0
-7809 7824 7825 0
-7809 -7824 -7825 0
-7826 7809 0
-7826 7824 0
7826 -7809 -7824 0
7811 7826 -7827 0
7811 -7826 7827 0
-7811 7826 7827 0
-7811 -7826 -7827 0
-7828 7811 0
-7828 7826 0
7828 -7811 -7826 0
7813 7828 -7829 0
7813 -7828 7829 0
-7813 7828 7829 0
-7813 -7828 -7829 0
-7830 7813 0
-7830 7828 0
7830 -7813 -7828 0
7815 7830 -7831 0
7815 -7830 7831 0
-7815 7830 7831 0
-7815 -7830 -7831 0
-7832 7815 0
-7832 7830 0
7832 -7815 -7830 0
7817 7832 -7833 0
7817 -7832 7833 0
-7817 7832 7833 0
-7817 -7832 -7833 0
-7834 7817 0
-7834 7832 0
7834 -7817 -7832 0
7819 7834 -7835 0
7819 -7834 7835 0
-7819 7834 7835 0
-7819 -7834 -7835 0
-7836 7819 0
-7836 7834 0
7836 -7819 -7834 0
7821 7836 -7837 0
7821 -7836 7837 0
-7821 7836 7837 0
-7821 -7836 -7837 0
-7838 7821 0
-7838 7836 0
7838 -7821 -7836 0
-7838 0
7823 265 -7839 0
7823 -265 7839 0
-7823 265 7839 0
-7823 -265 -7839 0
-7840 7823 0
-7840 265 0
7840 -7823 -265 0
7825 7840 -7841 0
7825 -7840 7841 0
-7825 7840 7841 0
-7825 -7840 -7841 0
-7842 7825 0
-7842 7840 0
7842 -7825 -7840 0
7827 7842 -7843 0
7827 -7842 7843 0
-7827 7842 7843 0
-7827 -7842 -7843 0
-7844 7827 0
-7844 7842 0
7844 -7827 -7842 0
7829 7844 -7845 0
7829 -7844 7845 0
-7829 7844 7845 0
-7829 -7844 -7845 0
-7846 7829 0
-7846 7844 0
7846 -7829 -7844 0
7831 7846 -7847 0
7831 -7846 7847 0
-7831 7846 7847 0
-7831 -7846 -7847 0
-7848 7831 0
-7848 7846 0
7848 -7831 -7846 0
7833 7848 -7849 0
7833 -7848 7849 0
-7833 7848 7849 0
-7833 -7848 -7849 0
-7850 7833 0
-7850 7848 0
7850 -7833 -7848 0
7835 7850 -7851 0
7835 -7850 7851 0
-7835 7850 7851 0
-7835 -7850 -7851 0
-7852 7835 0
-7852 7850 0
7852 -7835 -7850 0
7837 7852 -7853 0
7837 -7852 7853 0
-7837 7852 7853 0
-7837 -7852 -7853 0
-7854 7837 0
-7854 7852 0
7854 -7837 -7852 0
-7854 0
7839 266 -7855 0
7839 -266 7855 0
-7839 266 7855 0
-7839 -266 -7855 0
-7856 7839 0
-7856 266 0
7856 -7839 -266 0
7841 7856 -7857 0
7841 -7856 7857 0
-7841 7856 7857 0
-7841 -7856 -7857 0
-7858 7841 0
-7858 7856 0
7858 -7841 -7856 0
7843 7858 -7859 0
7843 -7858 7859 0
-7843 7858 7859 0
-7843 -7858 -7859 0
-7860 7843 0
-7860 7858 0
7860 -7843 -7858 0
7845 7860 -7861 0
7845 -7860 7861 0
-7845 7860 7861 0
-7845 -7860 -7861 0
-7862 7845 0
-7862 7860 0
7862 -7845 -7860 0
7847 7862 -7863 0
7847 -7862 7863 0
-7847 7862 7863 0
-7847 -7862 -7863 0
-7864 7847 0
-7864 7862 0
7864 -7847 -7862 0
7849 7864 -7865 0
7849 -7864 7865 0
-7849 7864 7865 0
-7849 -7864 -7865 0
-7866 7849 0
-7866 7864 0
7866 -7849 -7864 0
7851 7866 -7867 0
7851 -7866 7867 0
-7851 7866 7867 0
-7851 -7866 -7867 0
-7868 7851 0
-7868 7866 0
7868 -7851 -7866 0
7853 7868 -7869 0
7853 -7868 7869 0
-7853 7868 7869 0
-7853 -7868 -7869 0
-7870 7853 0
-7870 7868 0
7870 -7853 -7868 0
-7870 0
7855 267 -7871 0
7855 -267 7871 0
-7855 267 7871 0
-7855 -267 -7871 0
-7872 7855 0
-7872 267 0
7872 -7855 -267 0
7857 7872 -7873 0
7857 -7872 7873 0
-7857 7872 7873 0
-7857 -7872 -7873 0
-7874 7857 0
-7874 7872 0
7874 -7857 -7872 0
7859 7874 -7875 0
7859 -7874 7875 0
-7859 7874 7875 0
-7859 -7874 -7875 0
-7876 7859 0
-7876 7874 0
7876 -7859 -7874 0
7861 7876 -7877 0
7861 -7876 7877 0
-7861 7876 7877 0
-7861 -7876 -7877 0
-7878 7861 0
-7878 7876 0
7878 -7861 -7876 0
7863 7878 -7879 0
7863 -7878 7879 0
-7863 7878 7879 0
-7863 -7878 -7879 0
-7880 7863 0
-7880 7878 0
7880 -7863 -7878 0
7865 7880 -7881 0
7865 -7880 7881 0
-7865 7880 7881 0
-7865 -7880 -7881 0
-7882 7865 0
-7882 7880 0
7882 -7865 -7880 0
7867 7882 -7883 0
7867 -7882 7883 0
-7867 7882 7883 0
-7867 -7882 -7883 0
-7884 7867 0
-7884 7882 0
7884 -7867 -7882 0
7869 7884 -7885 0
7869 -7884 7885 0
-7869 7884 7885 0
-7869 -7884 -7885 0
-7886 7869 0
-7886 7884 0
7886 -7869 -7884 0
-7886 0
7871 268 -7887 0
7871 -268 7887 0
-7871 268 7887 0
-7871 -268 -7887 0
-7888 7871 0
-7888 268 0
7888 -7871 -268 0
7873 7888 -7889 0
7873 -7888 7889 0
-7873 7888 7889 0
-7873 -7888 -7889 0
-7890 7873 0
-7890 7888 0
7890 -7873 -7888 0
7875 7890 -7891 0
7875 -7890 7891 0
-7875 7890 7891 0
-7875 -7890 -7891 0
-7892 7875 0
-7892 7890 0
7892 -7875 -7890 0
7877 7892 -7893 0
7877 -7892 7893 0
-7877 7892 7893 0
-7877 -7892 -7893 0
-7894 7877 0
-7894 7892 0
7894 -7877 -7892 0
7879 7894 -7895 0
7879 -7894 7895 0
-7879 7894 7895 0
-7879 -7894 -7895 0
-7896 7879 0
-7896 7894 0
7896 -7879 -7894 0
7881 7896 -7897 0
7881 -7896 7897 0
-7881 7896 7897 0
-7881 -7896 -7897 0
-7898 7881 0
-7898 7896 0
7898 -7881 -7896 0
7883 7898 -7899 0
7883 -7898 7899 0
-7883 7898 7899 0
-7883 -7898 -7899 0
-7900 7883 0
-7900 7898 0
7900 -7883 -7898 0
7885 7900 -7901 0
7885 -7900 7901 0
-7885 7900 7901 0
-7885 -7900 -7901 0
-7902 7885 0
-7902 7900 0
7902 -7885 -7900 0
-7902 0
7887 269 -7903 0
7887 -269 7903 0
-7887 269 7903 0
-7887 -269 -7903 0
-7904 7887 0
-7904 269 0
7904 -7887 -269 0
7889 7904 -7905 0
7889 -7904 7905 0
-7889 7904 7905 0
-7889 -7904 -7905 0
-7906 7889 0
-7906 7904 0
7906 -7889 -7904 0
7891 7906 -7907 0
7891 -7906 7907 0
-7891 7906 7907 0
-7891 -7906 -7907 0
-7908 7891 0
-7908 7906 0
7908 -7891 -7906 0
7893 7908 -7909 0
7893 -7908 7909 0
-7893 7908 7909 0
-7893 -7908 -7909 0
-7910 7893 0
-7910 7908 0
7910 -7893 -7908 0
7895 7910 -7911 0
7895 -7910 7911 0
-7895 7910 7911 0
-7895 -7910 -7911 0
-7912 7895 0
-7912 7910 0
7912 -7895 -7910 0
7897 7912 -7913 0
7897 -7912 7913 0
-7897 7912 7913 0
-7897 -7912 -7913 0
-7914 7897 0
-7914 7912 0
7914 -7897 -7912 0
7899 7914 -7915 0
7899 -7914 7915 0
-7899 7914 7915 0
-7899 -7914 -7915 0
-7916 7899 0
-7916 7914 0
7916 -7899 -7914 0
7901 7916 -7917 0
7901 -7916 7917 0
-7901 7916 7917 0
-7901 -7916 -7917 0
-7918 7901 0
-7918 7916 0
7918 -7901 -7916 0
-7918 0
7903 270 -7919 0
7903 -270 7919 0
-7903 270 7919 0
-7903 -270 -7919 0
-7920 7903 0
-7920 270 0
7920 -7903 -270 0
7905 7920 -7921 0
7905 -7920 7921 0
-7905 7920 7921 0
-7905 -7920 -7921 0
-7922 7905 0
-7922 7920 0
7922 -7905 -7920 0
7907 7922 -7923 0
7907 -7922 7923 0
-7907 7922 7923 0
-7907 -7922 -7923 0
-7924 7907 0
-7924 7922 0
7924 -7907 -7922 0
7909 7924 -7925 0
7909 -7924 7925 0
-7909 7924 7925 0
-7909 -7924 -7925 0
-7926 7909 0
-7926 7924 0
7926 -7909 -7924 0
7911 7926 -7927 0
7911 -7926 7927 0
-7911 7926 7927 0
-7911 -7926 -7927 0
-7928 7911 0
-7928 7926 0
7928 -7911 -7926 0
7913 7928 -7929 0
7913 -7928 7929 0
-7913 7928 7929 0
-7913 -7928 -7929 0
-7930 7913 0
-7930 7928 0
7930 -7913 -7928 0
7915 7930 -7931 0
7915 -7930 7931 0
-7915 7930 7931 0
-7915 -7930 -7931 0
-7932 7915 0
-7932 7930 0
7932 -7915 -7930 0
7917 7932 -7933 0
7917 -7932 7933 0
-7917 7932 7933 0
-7917 -7932 -7933 0
-7934 7917 0
-7934 7932 0
7934 -7917 -7932 0
-7934 0
7919 271 -7935 0
7919 -271 7935 0
-7919 271 7935 0
-7919 -271 -7935 0
-7936 7919 0
-7936 271 0
7936 -7919 -271 0
7921 7936 -7937 0
7921 -7936 7937 0
-7921 7936 7937 0
-7921 -7936 -7937 0
-7938 7921 0
-7938 7936 0
7938 -7921 -7936 0
7923 7938 -7939 0
7923 -7938 7939 0
-7923 7938 7939 0
-7923 -7938 -7939 0
-7940 7923 0
-7940 7938 0
7940 -7923 -7938 0
7925 7940 -7941 0
7925 -7940 7941 0
-7925 7940 7941 0
-7925 -7940 -7941 0
-7942 7925 0
-7942 7940 0
7942 -7925 -7940 0
7927 7942 -7943 0
7927 -7942 7943 0
-7927 7942 7943 0
-7927 -7942 -7943 0
-7944 7927 0
-7944 7942 0
7944 -7927 -7942 0
7929 7944 -7945 0
7929 -7944 7945 0
-7929 7944 7945 0
-7929 -7944 -7945 0
-7946 7929 0
-7946 7944 0
7946 -7929 -7944 0
7931 7946 -7947 0
7931 -7946 7947 0
-7931 7946 7947 0
-7931 -7946 -7947 0
-7948 7931 0
-7948 7946 0
7948 -7931 -7946 0
7933 7948 -7949 0
7933 -7948 7949 0
-7933 7948 7949 0
-7933 -7948 -7949 0
-7950 7933 0
-7950 7948 0
7950 -7933 -7948 0
-7950 0
7935 272 -7951 0
7935 -272 7951 0
-7935 272 7951 0
-7935 -272 -7951 0
-7952 7935 0
-7952 272 0
7952 -7935 -272 0
7937 7952 -7953 0
7937 -7952 7953 0
-7937 7952 7953 0
-7937 -7952 -7953 0
-7954 7937 0
-7954 7952 0
7954 -7937 -7952 0
7939 7954 -7955 0
7939 -7954 7955 0
-7939 7954 7955 0
-7939 -7954 -7955 0
-7956 7939 0
-7956 7954 0
7956 -7939 -7954 0
7941 7956 -7957 0
7941 -7956 7957 0
-7941 7956 7957 0
-7941 -7956 -7957 0
-7958 7941 0
-7958 7956 0
7958 -7941 -7956 0
7943 7958 -7959 0
7943 -7958 7959 0
-7943 7958 7959 0
-7943 -7958 -7959 0
-7960 7943 0
-7960 7958 0
7960 -7943 -7958 0
7945 7960 -7961 0
7945 -7960 7961 0
-7945 7960 7961 0
-7945 -7960 -7961 0
-7962 7945 0
-7962 7960 0
7962 -7945 -7960 0
7947 7962 -7963 0
7947 -7962 7963 0
-7947 7962 7963 0
-7947 -7962 -7963 0
-7964 7947 0
-7964 7962 0
7964 -7947 -7962 0
7949 7964 -7965 0
7949 -7964 7965 0
-7949 7964 7965 0
-7949 -7964 -7965 0
-7966 7949 0
-7966 7964 0
7966 -7949 -7964 0
-7966 0
7951 273 -7967 0
7951 -273 7967 0
-7951 273 7967 0
-7951 -273 -7967 0
-7968 7951 0
-7968 273 0
7968 -7951 -273 0
7953 7968 -7969 0
7953 -7968 7969 0
-7953 7968 7969 0
-7953 -7968 -7969 0
-7970 7953 0
-7970 7968 0
7970 -7953 -7968 0
7955 7970 -7971 0
7955 -7970 7971 0
-7955 7970 7971 0
-7955 -7970 -7971 0
-7972 7955 0
-7972 7970 0
7972 -7955 -7970 0
7957 7972 -7973 0
7957 -7972 7973 0
-7957 7972 7973 0
-7957 -7972 -7973 0
-7974 7957 0
-7974 7972 0
7974 -7957 -7972 0
7959 7974 -7975 0
7959 -7974 7975 0
-7959 7974 7975 0
-7959 -7974 -7975 0
-7976 7959 0
-7976 7974 0
7976 -7959 -7974 0
7961 7976 -7977 0
7961 -7976 7977 0
-7961 7976 7977 0
-7961 -7976 -7977 0
-7978 7961 0
-7978 7976 0
7978 -7961 -7976 0
7963 7978 -7979 0
7963 -7978 7979 0
-7963 7978 7979 0
-7963 -7978 -7979 0
-7980 7963 0
-7980 7978 0
7980 -7963 -7978 0
7965 7980 -7981 0
7965 -7980 7981 0
-7965 7980 7981 0
-7965 -7980 -7981 0
-7982 7965 0
-7982 7980 0
7982 -7965 -7980 0
-7982 0
7967 274 -7983 0
7967 -274 7983 0
-7967 274 7983 0
-7967 -274 -7983 0
-7984 7967 0
-7984 274 0
7984 -7967 -274 0
7969 7984 -7985 0
7969 -7984 7985 0
-7969 7984 7985 0
-7969 -7984 -7985 0
-7986 7969 0
-7986 7984 0
7986 -7969 -7984 0
7971 7986 -7987 0
7971 -7986 7987 0
-7971 7986 7987 0
-7971 -7986 -7987 0
-7988 7971 0
-7988 7986 0
7988 -7971 -7986 0
7973 7988 -7989 0
7973 -7988 7989 0
-7973 7988 7989 0
-7973 -7988 -7989 0
-7990 7973 0
-7990 7988 0
7990 -7973 -7988 0
7975 7990 -7991 0
7975 -7990 7991 0
-7975 7990 7991 0
-7975 -7990 -7991 0
-7992 7975 0
-7992 7990 0
7992 -7975 -7990 0
7977 7992 -7993 0
7977 -7992 7993 0
-7977 7992 7993 0
-7977 -7992 -7993 0
-7994 7977 0
-7994 7992 0
7994 -7977 -7992 0
7979 7994 -7995 0
7979 -7994 7995 0
-7979 7994 7995 0
-7979 -7994 -7995 0
-7996 7979 0
-7996 7994 0
7996 -7979 -7994 0
7981 7996 -7997 0
7981 -7996 7997 0
-7981 7996 7997 0
-7981 -7996 -7997 0
-7998 7981 0
-7998 7996 0
7998 -7981 -7996 0
-7998 0
7983 275 -7999 0
7983 -275 7999 0
-7983 275 7999 0
-7983 -275 -7999 0
-8000 7983 0
-8000 275 0
8000 -7983 -275 0
7985 8000 -8001 0
7985 -8000 8001 0
-7985 8000 8001 0
-7985 -8000 -8001 0
-8002 7985 0
-8002 8000 0
8002 -7985 -8000 0
7987 8002 -8003 0
7987 -8002 8003 0
-7987 8002 8003 0
-7987 -8002 -8003 0
-8004 7987 0
-8004 8002 0
8004 -7987 -8002 0
7989 8004 -8005 0
7989 -8004 8005 0
-7989 8004 8005 0
-7989 -8004 -8005 0
-8006 7989 0
-8006 8004 0
8006 -7989 -8004 0
7991 8006 -8007 0
7991 -8006 8007 0
-7991 8006 8007 0
-7991 -8006 -8007 0
-8008 7991 0
-8008 8006 0
8008 -7991 -8006 0
7993 8008 -8009 0
7993 -8008 8009 0
-7993 8008 8009 0
-7993 -8008 -8009 0
-8010 7993 0
-8010 8008 0
8010 -7993 -8008 0
7995 8010 -8011 0
7995 -8010 8011 0
-7995 8010 8011 0
-7995 -8010 -8011 0
-8012 7995 0
-8012 8010 0
8012 -7995 -8010 0
7997 8012 -8013 0
7997 -8012 8013 0
-7997 8012 8013 0
-7997 -8012 -8013 0
-8014 7997 0
-8014 8012 0
8014 -7997 -8012 0
-8014 0
7999 276 -8015 0
7999 -276 8015 0
-7999 276 8015 0
-7999 -276 -8015 0
-8016 7999 0
-8016 276 0
8016 -7999 -276 0
8001 8016 -8017 0
8001 -8016 8017 0
-8001 8016 8017 0
-8001 -8016 -8017 0
-8018 8001 0
-8018 8016 0
8018 -8001 -8016 0
8003 8018 -8019 0
8003 -8018 8019 0
-8003 8018 8019 0
-8003 -8018 -8019 0
-8020 8003 0
-8020 8018 0
8020 -8003 -8018 0
8005 8020 -8021 0
8005 -8020 8021 0
-8005 8020 8021 0
-8005 -8020 -8021 0
-8022 8005 0
-8022 8020 0
8022 -8005 -8020 0
8007 8022 -8023 0
8007 -8022 8023 0
-8007 8022 8023 0
-8007 -8022 -8023 0
-8024 8007 0
-8024 8022 0
8024 -8007 -8022 0
8009 8024 -8025 0
8009 -8024 8025 0
-8009 8024 8025 0
-8009 -8024 -8025 0
-8026 8009 0
-8026 8024 0
8026 -8009 -8024 0
8011 8026 -8027 0
8011 -8026 8027 0
-8011 8026 8027 0
-8011 -8026 -8027 0
-8028 8011 0
-8028 8026 0
8028 -8011 -8026 0
8013 8028 -8029 0
8013 -8028 8029 0
-8013 8028 8029 0
-8013 -8028 -8029 0
-8030 8013 0
-8030 8028 0
8030 -8013 -8028 0
-8030 0
8015 277 -8031 0
8015 -277 8031 0
-8015 277 8031 0
-8015 -277 -8031 0
-8032 8015 0
-8032 277 0
8032 -8015 -277 0
8017 8032 -8033 0
8017 -8032 8033 0
-8017 8032 8033 0
-8017 -8032 -8033 0
-8034 8017 0
-8034 8032 0
8034 -8017 -8032 0
8019 8034 -8035 0
8019 -8034 8035 0
-8019 8034 8035 0
-8019 -8034 -8035 0
-8036 8019 0
-8036 8034 0
8036 -8019 -8034 0
8021 8036 -8037 0
8021 -8036 8037 0
-8021 8036 8037 0
-8021 -8036 -8037 0
-8038 8021 0
-8038 8036 0
8038 -8021 -8036 0
8023 8038 -8039 0
8023 -8038 8039 0
-8023 8038 8039 0
-8023 -8038 -8039 0
-8040 8023 0
-8040 8038 0
8040 -8023 -8038 0
8025 8040 -8041 0
8025 -8040 8041 0
-8025 8040 8041 0
-8025 -8040 -8041 0
-8042 8025 0
-8042 8040 0
8042 -8025 -8040 0
8027 8042 -8043 0
8027 -8042 8043 0
-8027 8042 8043 0
-8027 -8042 -8043 0
-8044 8027 0
-8044 8042 0
8044 -8027 -8042 0
8029 8044 -8045 0
8029 -8044 8045 0
-8029 8044 8045 0
-8029 -8044 -8045 0
-8046 8029 0
-8046 8044 0
8046 -8029 -8044 0
-8046 0
8031 278 -8047 0
8031 -278 8047 0
-8031 278 8047 0
-8031 -278 -8047 0
-8048 8031 0
-8048 278 0
8048 -8031 -278 0
8033 8048 -8049 0
8033 -8048 8049 0
-8033 8048 8049 0
-8033 -8048 -8049 0
-8050 8033 0
-8050 8048 0
8050 -8033 -8048 0
8035 8050 -8051 0
8035 -8050 8051 0
-8035 8050 8051 0
-8035 -8050 -8051 0
-8052 8035 0
-8052 8050 0
8052 -8035 -8050 0
8037 8052 -8053 0
8037 -8052 8053 0
-8037 8052 8053 0
-8037 -8052 -8053 0
-8054 8037 0
-8054 8052 0
8054 -8037 -8052 0
8039 8054 -8055 0
8039 -8054 8055 0
-8039 8054 8055 0
-8039 -8054 -8055 0
-8056 8039 0
-8056 8054 0
8056 -8039 -8054 0
8041 8056 -8057 0
8041 -8056 8057 0
-8041 8056 8057 0
-8041 -8056 -8057 0
-8058 8041 0
-8058 8056 0
8058 -8041 -8056 0
8043 8058 -8059 0
8043 -8058 8059 0
-8043 8058 8059 0
-8043 -8058 -8059 0
-8060 8043 0
-8060 8058 0
8060 -8043 -8058 0
8045 8060 -8061 0
8045 -8060 8061 0
-8045 8060 8061 0
-8045 -8060 -8061 0
-8062 8045 0
-8062 8060 0
8062 -8045 -8060 0
-8062 0
8047 279 -8063 0
8047 -279 8063 0
-8047 279 8063 0
-8047 -279 -8063 0
-8064 8047 0
-8064 279 0
8064 -8047 -279 0
8049 8064 -8065 0
8049 -8064 8065 0
-8049 8064 8065 0
-8049 -8064 -8065 0
-8066 8049 0
-8066 8064 0
8066 -8049 -8064 0
8051 8066 -8067 0
8051 -8066 8067 0
-8051 8066 8067 0
-8051 -8066 -8067 0
-8068 8051 0
-8068 8066 0
8068 -8051 -8066 0
8053 8068 -8069 0
8053 -8068 8069 0
-8053 8068 8069 0
-8053 -8068 -8069 0
-8070 8053 0
-8070 8068 0
8070 -8053 -8068 0
8055 8070 -8071 0
8055 -8070 8071 0
-8055 8070 8071 0
-8055 -8070 -8071 0
-8072 8055 0
-8072 8070 0
8072 -8055 -8070 0
8057 8072 -8073 0
8057 -8072 8073 0
-8057 8072 8073 0
-8057 -8072 -8073 0
-8074 8057 0
-8074 8072 0
8074 -8057 -8072 0
8059 8074 -8075 0
8059 -8074 8075 0
-8059 8074 8075 0
-8059 -8074 -8075 0
-8076 8059 0
-8076 8074 0
8076 -8059 -8074 0
8061 8076 -8077 0
8061 -8076 8077 0
-8061 8076 8077 0
-8061 -8076 -8077 0
-8078 8061 0
-8078 8076 0
8078 -8061 -8076 0
-8078 0
8063 280 -8079 0
8063 -280 8079 0
-8063 280 8079 0
-8063 -280 -8079 0
-8080 8063 0
-8080 280 0
8080 -8063 -280 0
8065 8080 -8081 0
8065 -8080 8081 0
-8065 8080 8081 0
-8065 -8080 -8081 0
-8082 8065 0
-8082 8080 0
8082 -8065 -8080 0
8067 8082 -8083 0
8067 -8082 8083 0
-8067 8082 8083 0
-8067 -8082 -8083 0
-8084 8067 0
-8084 8082 0
8084 -8067 -8082 0
8069 8084 -8085 0
8069 -8084 8085 0
-8069 8084 8085 0
-8069 -8084 -8085 0
-8086 8069 0
-8086 8084 0
8086 -8069 -8084 0
8071 8086 -8087 0
8071 -8086 8087 0
-8071 8086 8087 0
-8071 -8086 -8087 0
-8088 8071 0
-8088 8086 0
8088 -8071 -8086 0
8073 8088 -8089 0
8073 -8088 8089 0
-8073 8088 8089 0
-8073 -8088 -8089 0
-8090 8073 0
-8090 8088 0
8090 -8073 -8088 0
8075 8090 -8091 0
8075 -8090 8091 0
-8075 8090 8091 0
-8075 -8090 -8091 0
-8092 8075 0
-8092 8090 0
8092 -8075 -8090 0
8077 8092 -8093 0
8077 -8092 8093 0
-8077 8092 8093 0
-8077 -8092 -8093 0
-8094 8077 0
-8094 8092 0
8094 -8077 -8092 0
-8094 0
8079 281 -8095 0
8079 -281 8095 0
-8079 281 8095 0
-8079 -281 -8095 0
-8096 8079 0
-8096 281 0
8096 -8079 -281 0
8081 8096 -8097 0
8081 -8096 8097 0
-8081 8096 8097 0
-8081 -8096 -8097 0
-8098 8081 0
-8098 8096 0
8098 -8081 -8096 0
8083 8098 -8099 0
8083 -8098 8099 0
-8083 8098 8099 0
-8083 -8098 -8099 0
-8100 8083 0
-8100 8098 0
8100 -8083 -8098 0
8085 8100 -8101 0
8085 -8100 8101 0
-8085 8100 8101 0
-8085 -8100 -8101 0
-8102 8085 0
-8102 8100 0
8102 -8085 -8100 0
8087 8102 -8103 0
8087 -8102 8103 0
-8087 8102 8103 0
-8087 -8102 -8103 0
-8104 8087 0
-8104 8102 0
8104 -8087 -8102 0
8089 8104 -8105 0
8089 -8104 8105 0
-8089 8104 8105 0
-8089 -8104 -8105 0
-8106 8089 0
-8106 8104 0
8106 -8089 -8104 0
8091 8106 -8107 0
8091 -8106 8107 0
-8091 8106 8107 0
-8091 -8106 -8107 0
-8108 8091 0
-8108 8106 0
8108 -8091 -8106 0
8093 8108 -8109 0
8093 -8108 8109 0
-8093 8108 8109 0
-8093 -8108 -8109 0
-8110 8093 0
-8110 8108 0
8110 -8093 -8108 0
-8110 0
8095 282 -8111 0
8095 -282 8111 0
-8095 282 8111 0
-8095 -282 -8111 0
-8112 8095 0
-8112 282 0
8112 -8095 -282 0
8097 8112 -8113 0
8097 -8112 8113 0
-8097 8112 8113 0
-8097 -8112 -8113 0
-8114 8097 0
-8114 8112 0
8114 -8097 -8112 0
8099 8114 -8115 0
8099 -8114 8115 0
-8099 8114 8115 0
-8099 -8114 -8115 0
-8116 8099 0
-8116 8114 0
8116 -8099 -8114 0
8101 8116 -8117 0
8101 -8116 8117 0
-8101 8116 8117 0
-8101 -8116 -8117 0
-8118 8101 0
-8118 8116 0
8118 -8101 -8116 0
8103 8118 -8119 0
8103 -8118 8119 0
-8103 8118 8119 0
-8103 -8118 -8119 0
-8120 8103 0
-8120 8118 0
8120 -8103 -8118 0
8105 8120 -8121 0
8105 -8120 8121 0
-8105 8120 8121 0
-8105 -8120 -8121 0
-8122 8105 0
-8122 8120 0
8122 -8105 -8120 0
8107 8122 -8123 0
8107 -8122 8123 0
-8107 8122 8123 0
-8107 -8122 -8123 0
-8124 8107 0
-8124 8122 0
8124 -8107 -8122 0
8109 8124 -8125 0
8109 -8124 8125 0
-8109 8124 8125 0
-8109 -8124 -8125 0
-8126 8109 0
-8126 8124 0
8126 -8109 -8124 0
-8126 0
8111 283 -8127 0
8111 -283 8127 0
-8111 283 8127 0
-8111 -283 -8127 0
-8128 8111 0
-8128 283 0
8128 -8111 -283 0
8113 8128 -8129 0
8113 -8128 8129 0
-8113 8128 8129 0
-8113 -8128 -8129 0
-8130 8113 0
-8130 8128 0
8130 -8113 -8128 0
8115 8130 -8131 0
8115 -8130 8131 0
-8115 8130 8131 0
-8115 -8130 -8131 0
-8132 8115 0
-8132 8130 0
8132 -8115 -8130 0
8117 8132 -8133 0
8117 -8132 8133 0
-8117 8132 8133 0
-8117 -8132 -8133 0
-8134 8117 0
-8134 8132 0
8134 -8117 -8132 0
8119 8134 -8135 0
8119 -8134 8135 0
-8119 8134 8135 0
-8119 -8134 -8135 0
-8136 8119 0
-8136 8134 0
8136 -8119 -8134 0
8121 8136 -8137 0
8121 -8136 8137 0
-8121 8136 8137 0
-8121 -8136 -8137 0
-8138 8121 0
-8138 8136 0
8138 -8121 -8136 0
8123 8138 -8139 0
8123 -8138 8139 0
-8123 8138 8139 0
-8123 -8138 -8139 0
-8140 8123 0
-8140 8138 0
8140 -8123 -8138 0
8125 8140 -8141 0
8125 -8140 8141 0
-8125 8140 8141 0
-8125 -8140 -8141 0
-8142 8125 0
-8142 8140 0
8142 -8125 -8140 0
-8142 0
8127 284 -8143 0
8127 -284 8143 0
-8127 284 8143 0
-8127 -284 -8143 0
-8144 8127 0
-8144 284 0
8144 -8127 -284 0
8129 8144 -8145 0
8129 -8144 8145 0
-8129 8144 8145 0
-8129 -8144 -8145 0
-8146 8129 0
-8146 8144 0
8146 -8129 -8144 0
8131 8146 -8147 0
8131 -8146 8147 0
-8131 8146 8147 0
-8131 -8146 -8147 0
-8148 8131 0
-8148 8146 0
8148 -8131 -8146 0
8133 8148 -8149 0
8133 -8148 8149 0
-8133 8148 8149 0
-8133 -8148 -8149 0
-8150 8133 0
-8150 8148 0
8150 -8133 -8148 0
8135 8150 -8151 0
8135 -8150 8151 0
-8135 8150 8151 0
-8135 -8150 -8151 0
-8152 8135 0
-8152 8150 0
8152 -8135 -8150 0
8137 8152 -8153 0
8137 -8152 8153 0
-8137 8152 8153 0
-8137 -8152 -8153 0
-8154 8137 0
-8154 8152 0
8154 -8137 -8152 0
8139 8154 -8155 0
8139 -8154 8155 0
-8139 8154 8155 0
-8139 -8154 -8155 0
-8156 8139 0
-8156 8154 0
8156 -8139 -8154 0
8141 8156 -8157 0
8141 -8156 8157 0
-8141 8156 8157 0
-8141 -8156 -8157 0
-8158 8141 0
-8158 8156 0
8158 -8141 -8156 0
-8158 0
8143 285 -8159 0
8143 -285 8159 0
-8143 285 8159 0
-8143 -285 -8159 0
-8160 8143 0
-8160 285 0
8160 -8143 -285 0
8145 8160 -8161 0
8145 -8160 8161 0
-8145 8160 8161 0
-8145 -8160 -8161 0
-8162 8145 0
-8162 8160 0
8162 -8145 -8160 0
8147 8162 -8163 0
8147 -8162 8163 0
-8147 8162 8163 0
-8147 -8162 -8163 0
-8164 8147 0
-8164 8162 0
8164 -8147 -8162 0
8149 8164 -8165 0
8149 -8164 8165 0
-8149 8164 8165 0
-8149 -8164 -8165 0
-8166 8149 0
-8166 8164 0
8166 -8149 -8164 0
8151 8166 -8167 0
8151 -8166 8167 0
-8151 8166 8167 0
-8151 -8166 -8167 0
-8168 8151 0
-8168 8166 0
8168 -8151 -8166 0
8153 8168 -8169 0
8153 -8168 8169 0
-8153 8168 8169 0
-8153 -8168 -8169 0
-8170 8153 0
-8170 8168 0
8170 -8153 -8168 0
8155 8170 -8171 0
8155 -8170 8171 0
-8155 8170 8171 0
-8155 -8170 -8171 0
-8172 8155 0
-8172 8170 0
8172 -8155 -8170 0
8157 8172 -8173 0
8157 -8172 8173 0
-8157 8172 8173 0
-8157 -8172 -8173 0
-8174 8157 0
-8174 8172 0
8174 -8157 -8172 0
-8174 0
8159 286 -8175 0
8159 -286 8175 0
-8159 286 8175 0
-8159 -286 -8175 0
-8176 8159 0
-8176 286 0
8176 -8159 -286 0
8161 8176 -8177 0
8161 -8176 8177 0
-8161 8176 8177 0
-8161 -8176 -8177 0
-8178 8161 0
-8178 8176 0
8178 -8161 -8176 0
8163 8178 -8179 0
8163 -8178 8179 0
-8163 8178 8179 0
-8163 -8178 -8179 0
-8180 8163 0
-8180 8178 0
8180 -8163 -8178 0
8165 8180 -8181 0
8165 -8180 8181 0
-8165 8180 8181 0
-8165 -8180 -8181 0
-8182 8165 0
-8182 8180 0
8182 -8165 -8180 0
8167 8182 -8183 0
8167 -8182 8183 0
-8167 8182 8183 0
-8167 -8182 -8183 0
-8184 8167 0
-8184 8182 0
8184 -8167 -8182 0
8169 8184 -8185 0
8169 -8184 8185 0
-8169 8184 8185 0
-8169 -8184 -8185 0
-8186 8169 0
-8186 8184 0
8186 -8169 -8184 0
8171 8186 -8187 0
8171 -8186 8187 0
-8171 8186 8187 0
-8171 -8186 -8187 0
-8188 8171 0
-8188 8186 0
8188 -8171 -8186 0
8173 8188 -8189 0
8173 -8188 8189 0
-8173 8188 8189 0
-8173 -8188 -8189 0
-8190 8173 0
-8190 8188 0
8190 -8173 -8188 0
-8190 0
8175 287 -8191 0
8175 -287 8191 0
-8175 287 8191 0
-8175 -287 -8191 0
-8192 8175 0
-8192 287 0
8192 -8175 -287 0
8177 8192 -8193 0
8177 -8192 8193 0
-8177 8192 8193 0
-8177 -8192 -8193 0
-8194 8177 0
-8194 8192 0
8194 -8177 -8192 0
8179 8194 -8195 0
8179 -8194 8195 0
-8179 8194 8195 0
-8179 -8194 -8195 0
-8196 8179 0
-8196 8194 0
8196 -8179 -8194 0
8181 8196 -8197 0
8181 -8196 8197 0
-8181 8196 8197 0
-8181 -8196 -8197 0
-8198 8181 0
-8198 8196 0
8198 -8181 -8196 0
8183 8198 -8199 0
8183 -8198 8199 0
-8183 8198 8199 0
-8183 -8198 -8199 0
-8200 8183 0
-8200 8198 0
8200 -8183 -8198 0
8185 8200 -8201 0
8185 -8200 8201 0
-8185 8200 8201 0
-8185 -8200 -8201 0
-8202 8185 0
-8202 8200 0
8202 -8185 -8200 0
8187 8202 -8203 0
8187 -8202 8203 0
-8187 8202 8203 0
-8187 -8202 -8203 0
-8204 8187 0
-8204 8202 0
8204 -8187 -8202 0
8189 8204 -8205 0
8189 -8204 8205 0
-8189 8204 8205 0
-8189 -8204 -8205 0
-8206 8189 0
-8206 8204 0
8206 -8189 -8204 0
-8206 0
8191 288 -8207 0
8191 -288 8207 0
-8191 288 8207 0
-8191 -288 -8207 0
-8208 8191 0
-8208 288 0
8208 -8191 -288 0
8193 8208 -8209 0
8193 -8208 8209 0
-8193 8208 8209 0
-8193 -8208 -8209 0
-8210 8193 0
-8210 8208 0
8210 -8193 -8208 0
8195 8210 -8211 0
8195 -8210 8211 0
-8195 8210 8211 0
-8195 -8210 -8211 0
-8212 8195 0
-8212 8210 0
8212 -8195 -8210 0
8197 8212 -8213 0
8197 -8212 8213 0
-8197 8212 8213 0
-8197 -8212 -8213 0
-8214 8197 0
-8214 8212 0
8214 -8197 -8212 0
8199 8214 -8215 0
8199 -8214 8215 0
-8199 8214 8215 0
-8199 -8214 -8215 0
-8216 8199 0
-8216 8214 0
8216 -8199 -8214 0
8201 8216 -8217 0
8201 -8216 8217 0
-8201 8216 8217 0
-8201 -8216 -8217 0
-8218 8201 0
-8218 8216 0
8218 -8201 -8216 0
8203 8218 -8219 0
8203 -8218 8219 0
-8203 8218 8219 0
-8203 -8218 -8219 0
-8220 8203 0
-8220 8218 0
8220 -8203 -8218 0
8205 8220 -8221 0
8205 -8220 8221 0
-8205 8220 8221 0
-8205 -8220 -8221 0
-8222 8205 0
-8222 8220 0
8222 -8205 -8220 0
-8222 0
8207 289 -8223 0
8207 -289 8223 0
-8207 289 8223 0
-8207 -289 -8223 0
-8224 8207 0
-8224 289 0
8224 -8207 -289 0
8209 8224 -8225 0
8209 -8224 8225 0
-8209 8224 8225 0
-8209 -8224 -8225 0
-8226 8209 0
-8226 8224 0
8226 -8209 -8224 0
8211 8226 -8227 0
8211 -8226 8227 0
-8211 8226 8227 0
-8211 -8226 -8227 0
-8228 8211 0
-8228 8226 0
8228 -8211 -8226 0
8213 8228 -8229 0
8213 -8228 8229 0
-8213 8228 8229 0
-8213 -8228 -8229 0
-8230 8213 0
-8230 8228 0
8230 -8213 -8228 0
8215 8230 -8231 0
8215 -8230 8231 0
-8215 8230 8231 0
-8215 -8230 -8231 0
-8232 8215 0
-8232 8230 0
8232 -8215 -8230 0
8217 8232 -8233 0
8217 -8232 8233 0
-8217 8232 8233 0
-8217 -8232 -8233 0
-8234 8217 0
-8234 8232 0
8234 -8217 -8232 0
8219 8234 -8235 0
8219 -8234 8235 0
-8219 8234 8235 0
-8219 -8234 -8235 0
-8236 8219 0
-8236 8234 0
8236 -8219 -8234 0
8221 8236 -8237 0
8221 -8236 8237 0
-8221 8236 8237 0
-8221 -8236 -8237 0
-8238 8221 0
-8238 8236 0
8238 -8221 -8236 0
-8238 0
8223 290 -8239 0
8223 -290 8239 0
-8223 290 8239 0
-8223 -290 -8239 0
-8240 8223 0
-8240 290 0
8240 -8223 -290 0
8225 8240 -8241 0
8225 -8240 8241 0
-8225 8240 8241 0
-8225 -8240 -8241 0
-8242 8225 0
-8242 8240 0
8242 -8225 -8240 0
8227 8242 -8243 0
8227 -8242 8243 0
-8227 8242 8243 0
-8227 -8242 -8243 0
-8244 8227 0
-8244 8242 0
8244 -8227 -8242 0
8229 8244 -8245 0
8229 -8244 8245 0
-8229 8244 8245 0
-8229 -8244 -8245 0
-8246 8229 0
-8246 8244 0
8246 -8229 -8244 0
8231 8246 -8247 0
8231 -8246 8247 0
-8231 8246 8247 0
-8231 -8246 -8247 0
-8248 8231 0
-8248 8246 0
8248 -8231 -8246 0
8233 8248 -8249 0
8233 -8248 8249 0
-8233 8248 8249 0
-8233 -8248 -8249 0
-8250 8233 0
-8250 8248 0
8250 -8233 -8248 0
8235 8250 -8251 0
8235 -8250 8251 0
-8235 8250 8251 0
-8235 -8250 -8251 0
-8252 8235 0
-8252 8250 0
8252 -8235 -8250 0
8237 8252 -8253 0
8237 -8252 8253 0
-8237 8252 8253 0
-8237 -8252 -8253 0
-8254 8237 0
-8254 8252 0
8254 -8237 -8252 0
-8254 0
8239 291 -8255 0
8239 -291 8255 0
-8239 291 8255 0
-8239 -291 -8255 0
-8256 8239 0
-8256 291 0
8256 -8239 -291 0
8241 8256 -8257 0
8241 -8256 8257 0
-8241 8256 8257 0
-8241 -8256 -8257 0
-8258 8241 0
-8258 8256 0
8258 -8241 -8256 0
8243 8258 -8259 0
8243 -8258 8259 0
-8243 8258 8259 0
-8243 -8258 -8259 0
-8260 8243 0
-8260 8258 0
8260 -8243 -8258 0
8245 8260 -8261 0
8245 -8260 8261 0
-8245 8260 8261 0
-8245 -8260 -8261 0
-8262 8245 0
-8262 8260 0
8262 -8245 -8260 0
8247 8262 -8263 0
8247 -8262 8263 0
-8247 8262 8263 0
-8247 -8262 -8263 0
-8264 8247 0
-8264 8262 0
8264 -8247 -8262 0
8249 8264 -8265 0
8249 -8264 8265 0
-8249 8264 8265 0
-8249 -8264 -8265 0
-8266 8249 0
-8266 8264 0
8266 -8249 -8264 0
8251 8266 -8267 0
8251 -8266 8267 0
-8251 8266 8267 0
-8251 -8266 -8267 0
-8268 8251 0
-8268 8266 0
8268 -8251 -8266 0
8253 8268 -8269 0
8253 -8268 8269 0
-8253 8268 8269 0
-8253 -8268 -8269 0
-8270 8253 0
-8270 8268 0
8270 -8253 -8268 0
-8270 0
8255 292 -8271 0
8255 -292 8271 0
-8255 292 8271 0
-8255 -292 -8271 0
-8272 8255 0
-8272 292 0
8272 -8255 -292 0
8257 8272 -8273 0
8257 -8272 8273 0
-8257 8272 8273 0
-8257 -8272 -8273 0
-8274 8257 0
-8274 8272 0
8274 -8257 -8272 0
8259 8274 -8275 0
8259 -8274 8275 0
-8259 8274 8275 0
-8259 -8274 -8275 0
-8276 8259 0
-8276 8274 0
8276 -8259 -8274 0
8261 8276 -8277 0
8261 -8276 8277 0
-8261 8276 8277 0
-8261 -8276 -8277 0
-8278 8261 0
-8278 8276 0
8278 -8261 -8276 0
8263 8278 -8279 0
8263 -8278 8279 0
-8263 8278 8279 0
-8263 -8278 -8279 0
-8280 8263 0
-8280 8278 0
8280 -8263 -8278 0
8265 8280 -8281 0
8265 -8280 8281 0
-8265 8280 8281 0
-8265 -8280 -8281 0
-8282 8265 0
-8282 8280 0
8282 -8265 -8280 0
8267 8282 -8283 0
8267 -8282 8283 0
-8267 8282 8283 0
-8267 -8282 -8283 0
-8284 8267 0
-8284 8282 0
8284 -8267 -8282 0
8269 8284 -8285 0
8269 -8284 8285 0
-8269 8284 8285 0
-8269 -8284 -8285 0
-8286 8269 0
-8286 8284 0
8286 -8269 -8284 0
-8286 0
8271 293 -8287 0
8271 -293 8287 0
-8271 293 8287 0
-8271 -293 -8287 0
-8288 8271 0
-8288 293 0
8288 -8271 -293 0
8273 8288 -8289 0
8273 -8288 8289 0
-8273 8288 8289 0
-8273 -8288 -8289 0
-8290 8273 0
-8290 8288 0
8290 -8273 -8288 0
8275 8290 -8291 0
8275 -8290 8291 0
-8275 8290 8291 0
-8275 -8290 -8291 0
-8292 8275 0
-8292 8290 0
8292 -8275 -8290 0
8277 8292 -8293 0
8277 -8292 8293 0
-8277 8292 8293 0
-8277 -8292 -8293 0
-8294 8277 0
-8294 8292 0
8294 -8277 -8292 0
8279 8294 -8295 0
8279 -8294 8295 0
-8279 8294 8295 0
-8279 -8294 -8295 0
-8296 8279 0
-8296 8294 0
8296 -8279 -8294 0
8281 8296 -8297 0
8281 -8296 8297 0
-8281 8296 8297 0
-8281 -8296 -8297 0
-8298 8281 0
-8298 8296 0
8298 -8281 -8296 0
8283 8298 -8299 0
8283 -8298 8299 0
-8283 8298 8299 0
-8283 -8298 -8299 0
-8300 8283 0
-8300 8298 0
8300 -8283 -8298 0
8285 8300 -8301 0
8285 -8300 8301 0
-8285 8300 8301 0
-8285 -8300 -8301 0
-8302 8285 0
-8302 8300 0
8302 -8285 -8300 0
-8302 0
8287 294 -8303 0
8287 -294 8303 0
-8287 294 8303 0
-8287 -294 -8303 0
-8304 8287 0
-8304 294 0
8304 -8287 -294 0
8289 8304 -8305 0
8289 -8304 8305 0
-8289 8304 8305 0
-8289 -8304 -8305 0
-8306 8289 0
-8306 8304 0
8306 -8289 -8304 0
8291 8306 -8307 0
8291 -8306 8307 0
-8291 8306 8307 0
-8291 -8306 -8307 0
-8308 8291 0
-8308 8306 0
8308 -8291 -8306 0
8293 8308 -8309 0
8293 -8308 8309 0
-8293 8308 8309 0
-8293 -8308 -8309 0
-8310 8293 0
-8310 8308 0
8310 -8293 -8308 0
8295 8310 -8311 0
8295 -8310 8311 0
-8295 8310 8311 0
-8295 -8310 -8311 0
-8312 8295 0
-8312 8310 0
8312 -8295 -8310 0
8297 8312 -8313 0
8297 -8312 8313 0
-8297 8312 8313 0
-8297 -8312 -8313 0
-8314 8297 0
-8314 8312 0
8314 -8297 -8312 0
8299 8314 -8315 0
8299 -8314 8315 0
-8299 8314 8315 0
-8299 -8314 -8315 0
-8316 8299 0
-8316 8314 0
8316 -8299 -8314 0
8301 8316 -8317 0
8301 -8316 8317 0
-8301 8316 8317 0
-8301 -8316 -8317 0
-8318 8301 0
-8318 8316 0
8318 -8301 -8316 0
-8318 0
8303 295 -8319 0
8303 -295 8319 0
-8303 295 8319 0
-8303 -295 -8319 0
-8320 8303 0
-8320 295 0
8320 -8303 -295 0
8305 8320 -8321 0
8305 -8320 8321 0
-8305 8320 8321 0
-8305 -8320 -8321 0
-8322 8305 0
-8322 8320 0
8322 -8305 -8320 0
8307 8322 -8323 0
8307 -8322 8323 0
-8307 8322 8323 0
-8307 -8322 -8323 0
-8324 8307 0
-8324 8322 0
8324 -8307 -8322 0
8309 8324 -8325 0
8309 -8324 8325 0
-8309 8324 8325 0
-8309 -8324 -8325 0
-8326 8309 0
-8326 8324 0
8326 -8309 -8324 0
8311 8326 -8327 0
8311 -8326 8327 0
-8311 8326 8327 0
-8311 -8326 -8327 0
-8328 8311 0
-8328 8326 0
8328 -8311 -8326 0
8313 8328 -8329 0
8313 -8328 8329 0
-8313 8328 8329 0
-8313 -8328 -8329 0
-8330 8313 0
-8330 8328 0
8330 -8313 -8328 0
8315 8330 -8331 0
8315 -8330 8331 0
-8315 8330 8331 0
-8315 -8330 -8331 0
-8332 8315 0
-8332 8330 0
8332 -8315 -8330 0
8317 8332 -8333 0
8317 -8332 8333 0
-8317 8332 8333 0
-8317 -8332 -8333 0
-8334 8317 0
-8334 8332 0
8334 -8317 -8332 0
-8334 0
8319 296 -8335 0
8319 -296 8335 0
-8319 296 8335 0
-8319 -296 -8335 0
-8336 8319 0
-8336 296 0
8336 -8319 -296 0
8321 8336 -8337 0
8321 -8336 8337 0
-8321 8336 8337 0
-8321 -8336 -8337 0
-8338 8321 0
-8338 8336 0
8338 -8321 -8336 0
8323 8338 -8339 0
8323 -8338 8339 0
-8323 8338 8339 0
-8323 -8338 -8339 0
-8340 8323 0
-8340 8338 0
8340 -8323 -8338 0
8325 8340 -8341 0
8325 -8340 8341 0
-8325 8340 8341 0
-8325 -8340 -8341 0
-8342 8325 0
-8342 8340 0
8342 -8325 -8340 0
8327 8342 -8343 0
8327 -8342 8343 0
-8327 8342 8343 0
-8327 -8342 -8343 0
-8344 8327 0
-8344 8342 0
8344 -8327 -8342 0
8329 8344 -8345 0
8329 -8344 8345 0
-8329 8344 8345 0
-8329 -8344 -8345 0
-8346 8329 0
-8346 8344 0
8346 -8329 -8344 0
8331 8346 -8347 0
8331 -8346 8347 0
-8331 8346 8347 0
-8331 -8346 -8347 0
-8348 8331 0
-8348 8346 0
8348 -8331 -8346 0
8333 8348 -8349 0
8333 -8348 8349 0
-8333 8348 8349 0
-8333 -8348 -8349 0
-8350 8333 0
-8350 8348 0
8350 -8333 -8348 0
-8350 0
8335 297 -8351 0
8335 -297 8351 0
-8335 297 8351 0
-8335 -297 -8351 0
-8352 8335 0
-8352 297 0
8352 -8335 -297 0
8337 8352 -8353 0
8337 -8352 8353 0
-8337 8352 8353 0
-8337 -8352 -8353 0
-8354 8337 0
-8354 8352 0
8354 -8337 -8352 0
8339 8354 -8355 0
8339 -8354 8355 0
-8339 8354 8355 0
-8339 -8354 -8355 0
-8356 8339 0
-8356 8354 0
8356 -8339 -8354 0
8341 8356 -8357 0
8341 -8356 8357 0
-8341 8356 8357 0
-8341 -8356 -8357 0
-8358 8341 0
-8358 8356 0
8358 -8341 -8356 0
8343 8358 -8359 0
8343 -8358 8359 0
-8343 8358 8359 0
-8343 -8358 -8359 0
-8360 8343 0
-8360 8358 0
8360 -8343 -8358 0
8345 8360 -8361 0
8345 -8360 8361 0
-8345 8360 8361 0
-8345 -8360 -8361 0
-8362 8345 0
-8362 8360 0
8362 -8345 -8360 0
8347 8362 -8363 0
8347 -8362 8363 0
-8347 8362 8363 0
-8347 -8362 -8363 0
-8364 8347 0
-8364 8362 0
8364 -8347 -8362 0
8349 8364 -8365 0
8349 -8364 8365 0
-8349 8364 8365 0
-8349 -8364 -8365 0
-8366 8349 0
-8366 8364 0
8366 -8349 -8364 0
-8366 0
8351 298 -8367 0
8351 -298 8367 0
-8351 298 8367 0
-8351 -298 -8367 0
-8368 8351 0
-8368 298 0
8368 -8351 -298 0
8353 8368 -8369 0
8353 -8368 8369 0
-8353 8368 8369 0
-8353 -8368 -8369 0
-8370 8353 0
-8370 8368 0
8370 -8353 -8368 0
8355 8370 -8371 0
8355 -8370 8371 0
-8355 8370 8371 0
-8355 -8370 -8371 0
-8372 8355 0
-8372 8370 0
8372 -8355 -8370 0
8357 8372 -8373 0
8357 -8372 8373 0
-8357 8372 8373 0
-8357 -8372 -8373 0
-8374 8357 0
-8374 8372 0
8374 -8357 -8372 0
8359 8374 -8375 0
8359 -8374 8375 0
-8359 8374 8375 0
-8359 -8374 -8375 0
-8376 8359 0
-8376 8374 0
8376 -8359 -8374 0
8361 8376 -8377 0
8361 -8376 8377 0
-8361 8376 8377 0
-8361 -8376 -8377 0
-8378 8361 0
-8378 8376 0
8378 -8361 -8376 0
8363 8378 -8379 0
8363 -8378 8379 0
-8363 8378 8379 0
-8363 -8378 -8379 0
-8380 8363 0
-8380 8378 0
8380 -8363 -8378 0
8365 8380 -8381 0
8365 -8380 8381 0
-8365 8380 8381 0
-8365 -8380 -8381 0
-8382 8365 0
-8382 8380 0
8382 -8365 -8380 0
-8382 0
8367 299 -8383 0
8367 -299 8383 0
-8367 299 8383 0
-8367 -299 -8383 0
-8384 8367 0
-8384 299 0
8384 -8367 -299 0
8369 8384 -8385 0
8369 -8384 8385 0
-8369 8384 8385 0
-8369 -8384 -8385 0
-8386 8369 0
-8386 8384 0
8386 -8369 -8384 0
8371 8386 -8387 0
8371 -8386 8387 0
-8371 8386 8387 0
-8371 -8386 -8387 0
-8388 8371 0
-8388 8386 0
8388 -8371 -8386 0
8373 8388 -8389 0
8373 -8388 8389 0
-8373 8388 8389 0
-8373 -8388 -8389 0
-8390 8373 0
-8390 8388 0
8390 -8373 -8388 0
8375 8390 -8391 0
8375 -8390 8391 0
-8375 8390 8391 0
-8375 -8390 -8391 0
-8392 8375 0
-8392 8390 0
8392 -8375 -8390 0
8377 8392 -8393 0
8377 -8392 8393 0
-8377 8392 8393 0
-8377 -8392 -8393 0
-8394 8377 0
-8394 8392 0
8394 -8377 -8392 0
8379 8394 -8395 0
8379 -8394 8395 0
-8379 8394 8395 0
-8379 -8394 -8395 0
-8396 8379 0
-8396 8394 0
8396 -8379 -8394 0
8381 8396 -8397 0
8381 -8396 8397 0
-8381 8396 8397 0
-8381 -8396 -8397 0
-8398 8381 0
-8398 8396 0
8398 -8381 -8396 0
-8398 0
8383 300 -8399 0
8383 -300 8399 0
-8383 300 8399 0
-8383 -300 -8399 0
-8400 8383 0
-8400 300 0
8400 -8383 -300 0
8385 8400 -8401 0
8385 -8400 8401 0
-8385 8400 8401 0
-8385 -8400 -8401 0
-8402 8385 0
-8402 8400 0
8402 -8385 -8400 0
8387 8402 -8403 0
8387 -8402 8403 0
-8387 8402 8403 0
-8387 -8402 -8403 0
-8404 8387 0
-8404 8402 0
8404 -8387 -8402 0
8389 8404 -8405 0
8389 -8404 8405 0
-8389 8404 8405 0
-8389 -8404 -8405 0
-8406 8389 0
-8406 8404 0
8406 -8389 -8404 0
8391 8406 -8407 0
8391 -8406 8407 0
-8391 8406 8407 0
-8391 -8406 -8407 0
-8408 8391 0
-8408 8406 0
8408 -8391 -8406 0
8393 8408 -8409 0
8393 -8408 8409 0
-8393 8408 8409 0
-8393 -8408 -8409 0
-8410 8393 0
-8410 8408 0
8410 -8393 -8408 0
8395 8410 -8411 0
8395 -8410 8411 0
-8395 8410 8411 0
-8395 -8410 -8411 0
-8412 8395 0
-8412 8410 0
8412 -8395 -8410 0
8397 8412 -8413 0
8397 -8412 8413 0
-8397 8412 8413 0
-8397 -8412 -8413 0
-8414 8397 0
-8414 8412 0
8414 -8397 -8412 0
-8414 0
8399 301 -8415 0
8399 -301 8415 0
-8399 301 8415 0
-8399 -301 -8415 0
-8416 8399 0
-8416 301 0
8416 -8399 -301 0
8401 8416 -8417 0
8401 -8416 8417 0
-8401 8416 8417 0
-8401 -8416 -8417 0
-8418 8401 0
-8418 8416 0
8418 -8401 -8416 0
8403 8418 -8419 0
8403 -8418 8419 0
-8403 8418 8419 0
-8403 -8418 -8419 0
-8420 8403 0
-8420 8418 0
8420 -8403 -8418 0
8405 8420 -8421 0
8405 -8420 8421 0
-8405 8420 8421 0
-8405 -8420 -8421 0
-8422 8405 0
-8422 8420 0
8422 -8405 -8420 0
8407 8422 -8423 0
8407 -8422 8423 0
-8407 8422 8423 0
-8407 -8422 -8423 0
-8424 8407 0
-8424 8422 0
8424 -8407 -8422 0
8409 8424 -8425 0
8409 -8424 8425 0
-8409 8424 8425 0
-8409 -8424 -8425 0
-8426 8409 0
-8426 8424 0
8426 -8409 -8424 0
8411 8426 -8427 0
8411 -8426 8427 0
-8411 8426 8427 0
-8411 -8426 -8427 0
-8428 8411 0
-8428 8426 0
8428 -8411 -8426 0
8413 8428 -8429 0
8413 -8428 8429 0
-8413 8428 8429 0
-8413 -8428 -8429 0
-8430 8413 0
-8430 8428 0
8430 -8413 -8428 0
-8430 0
8415 302 -8431 0
8415 -302 8431 0
-8415 302 8431 0
-8415 -302 -8431 0
-8432 8415 0
-8432 302 0
8432 -8415 -302 0
8417 8432 -8433 0
8417 -8432 8433 0
-8417 8432 8433 0
-8417 -8432 -8433 0
-8434 8417 0
-8434 8432 0
8434 -8417 -8432 0
8419 8434 -8435 0
8419 -8434 8435 0
-8419 8434 8435 0
-8419 -8434 -8435 0
-8436 8419 0
-8436 8434 0
8436 -8419 -8434 0
8421 8436 -8437 0
8421 -8436 8437 0
-8421 8436 8437 0
-8421 -8436 -8437 0
-8438 8421 0
-8438 8436 0
8438 -8421 -8436 0
8423 8438 -8439 0
8423 -8438 8439 0
-8423 8438 8439 0
-8423 -8438 -8439 0
-8440 8423 0
-8440 8438 0
8440 -8423 -8438 0
8425 8440 -8441 0
8425 -8440 8441 0
-8425 8440 8441 0
-8425 -8440 -8441 0
-8442 8425 0
-8442 8440 0
8442 -8425 -8440 0
8427 8442 -8443 0
8427 -8442 8443 0
-8427 8442 8443 0
-8427 -8442 -8443 0
-8444 8427 0
-8444 8442 0
8444 -8427 -8442 0
8429 8444 -8445 0
8429 -8444 8445 0
-8429 8444 8445 0
-8429 -8444 -8445 0
-8446 8429 0
-8446 8444 0
8446 -8429 -8444 0
-8446 0
8431 303 -8447 0
8431 -303 8447 0
-8431 303 8447 0
-8431 -303 -8447 0
-8448 8431 0
-8448 303 0
8448 -8431 -303 0
8433 8448 -8449 0
8433 -8448 8449 0
-8433 8448 8449 0
-8433 -8448 -8449 0
-8450 8433 0
-8450 8448 0
8450 -8433 -8448 0
8435 8450 -8451 0
8435 -8450 8451 0
-8435 8450 8451 0
-8435 -8450 -8451 0
-8452 8435 0
-8452 8450 0
8452 -8435 -8450 0
8437 8452 -8453 0
8437 -8452 8453 0
-8437 8452 8453 0
-8437 -8452 -8453 0
-8454 8437 0
-8454 8452 0
8454 -8437 -8452 0
8439 8454 -8455 0
8439 -8454 8455 0
-8439 8454 8455 0
-8439 -8454 -8455 0
-8456 8439 0
-8456 8454 0
8456 -8439 -8454 0
8441 8456 -8457 0
8441 -8456 8457 0
-8441 8456 8457 0
-8441 -8456 -8457 0
-8458 8441 0
-8458 8456 0
8458 -8441 -8456 0
8443 8458 -8459 0
8443 -8458 8459 0
-8443 8458 8459 0
-8443 -8458 -8459 0
-8460 8443 0
-8460 8458 0
8460 -8443 -8458 0
8445 8460 -8461 0
8445 -8460 8461 0
-8445 8460 8461 0
-8445 -8460 -8461 0
-8462 8445 0
-8462 8460 0
8462 -8445 -8460 0
-8462 0
-8447 0
8449 0
8451 0
-8453 0
-8455 0
-8457 0
-8459 0
-8461 0
24 0
25 0
26 0
27 0
28 0
29 0
30 0
31 0
32 0
33 0
34 0
35 0
57 0
59 0
61 0
103 0
105 0
107 0
108 0
109 0
110 0
111 0
112 0
113 0
114 0
115 0
116 0
117 0
118 0
119 0
8 94 0
10 19 0
10 136 0
12 16 0
12 145 0
14 20 0
14 155 0
15 150 0
16 46 0
19 45 0
20 50 0
21 43 0
21 69 0
22 41 0
22 66 0
39 62 0
39 86 0
39 98 0
39 124 0
39 142 0
39 143 0
40 64 0
40 88 0
41 65 0
41 89 0
41 127 0
41 147 0
41 163 0
42 67 0
42 93 0
43 70 0
43 94 0
43 132 0
43 137 0
43 149 0
44 53 0
44 72 0
44 80 0
44 95 0
44 97 0
45 48 0
45 90 0
45 127 0
46 97 0
46 124 0
47 50 0
47 67 0
47 90 0
47 139 0
48 64 0
48 87 0
48 89 0
48 138 0
49 94 0
49 131 0
49 145 0
50 89 0
50 91 0
50 128 0
51 71 0
51 146 0
52 68 0
52 84 0
53 86 0
53 96 0
53 135 0
53 155 0
54 93 0
54 95 0
54 132 0
54 136 0
55 63 0
55 150 0
56 95 0
56 125 0
56 134 0
58 92 0
58 126 0
58 129 0
60 91 0
60 130 0
60 133 0
62 86 0
62 102 0
63 87 0
63 88 0
63 151 0
63 158 0
64 88 0
64 121 0
65 89 0
65 104 0
66 89 0
66 90 0
66 104 0
66 147 0
67 91 0
67 164 0
68 92 0
68 157 0
69 93 0
69 94 0
69 106 0
69 137 0
70 94 0
70 106 0
71 93 0
71 95 0
71 96 0
71 122 0
71 168 0
72 96 0
72 120 0
72 153 0
73 86 0
73 97 0
73 102 0
73 142 0
73 143 0
78 96 0
82 122 0
82 130 0
86 97 0
86 120 0
86 123 0
86 125 0
86 134 0
86 282 0
87 127 0
87 227 0
88 104 0
88 124 0
88 196 0
89 90 0
89 129 0
89 222 0
89 291 0
90 289 0
91 92 0
91 104 0
91 131 0
91 263 0
92 128 0
92 296 0
93 94 0
93 122 0
93 130 0
93 133 0
93 236 0
94 130 0
94 179 0
94 272 0
95 96 0
95 135 0
95 242 0
96 123 0
96 132 0
96 135 0
96 187 0
97 125 0
97 231 0
97 273 0
98 151 0
99 147 0
99 164 0
100 137 0
100 141 0
101 120 0
101 142 0
120 134 0
120 144 0
120 151 0
121 126 0
121 163 0
121 164 0
122 133 0
122 141 0
122 149 0
123 132 0
124 162 0
125 144 0
125 151 0
127 174 0
128 173 0
129 164 0
130 141 0
131 137 0
131 177 0
135 142 0
135 148 0
1 21 100 0
2 15 84 0
2 46 55 0
2 55 86 0
3 49 52 0
3 92 106 0
4 10 88 0
4 10 127 0
4 12 55 0
4 17 63 0
4 58 127 0
4 88 99 0
4 99 127 0
4 228 295 0
5 10 48 0
5 12 124 0
5 13 92 0
5 18 64 0
5 18 89 0
5 19 88 0
5 39 87 0
5 56 124 0
5 58 88 0
5 64 98 0
5 87 101 0
5 98 124 0
5 101 124 0
5 190 215 0
6 11 87 0
6 12 131 0
6 14 47 0
6 21 67 0
6 21 92 0
6 60 131 0
6 67 100 0
6 90 128 0
6 91 129 0
6 100 131 0
6 194 214 0
7 14 128 0
7 22 68 0
7 49 52 0
7 58 128 0
7 68 99 0
7 92 130 0
7 99 128 0
7 163 226 0
7 226 301 0
8 10 51 0
8 13 91 0
8 43 73 0
8 51 54 0
8 56 135 0
8 71 101 0
8 73 106 0
8 96 98 0
8 98 135 0
8 101 135 0
8 180 193 0
9 10 132 0
9 60 132 0
9 96 134 0
9 97 135 0
9 100 132 0
9 149 181 0
9 153 169 0
9 192 232 0
10 48 75 0
10 48 126 0
10 82 159 0
10 140 159 0
11 36 80 0
11 41 87 0
11 80 85 0
11 80 248 0
11 139 205 0
11 139 297 0
12 85 154 0
13 138 225 0
13 138 298 0
13 146 204 0
13 146 247 0
14 40 90 0
14 44 83 0
14 47 76 0
14 47 129 0
14 81 160 0
14 83 86 0
14 91 129 0
14 144 160 0
15 38 84 0
15 63 75 0
15 84 254 0
15 143 165 0
16 21 100 0
16 85 134 0
16 85 151 0
16 97 101 0
16 134 169 0
17 22 104 0
17 47 65 0
17 48 126 0
17 65 66 0
17 88 127 0
18 44 62 0
18 44 176 0
18 55 125 0
18 56 87 0
18 62 73 0
18 62 80 0
18 86 102 0
18 88 126 0
18 142 201 0
19 22 99 0
19 48 90 0
19 65 88 0
19 90 99 0
19 90 129 0
19 121 140 0
20 46 55 0
20 81 126 0
20 89 127 0
20 89 164 0
21 52 130 0
21 60 92 0
21 93 106 0
22 47 129 0
22 48 58 0
22 91 128 0
22 97 99 0
22 99 204 0
23 51 133 0
23 52 165 0
23 60 95 0
23 69 70 0
23 70 84 0
23 94 106 0
23 137 183 0
36 52 91 0
37 51 96 0
38 55 88 0
39 73 167 0
39 102 215 0
40 50 90 0
40 63 176 0
40 73 125 0
40 73 126 0
40 90 127 0
41 87 126 0
41 104 295 0
42 45 89 0
42 70 129 0
42 70 130 0
42 82 91 0
43 95 106 0
43 106 232 0
44 71 86 0
45 65 81 0
45 140 159 0
46 73 88 0
46 85 154 0
46 86 127 0
47 76 92 0
47 92 131 0
48 58 67 0
48 58 161 0
48 88 129 0
49 52 159 0
49 69 82 0
49 77 92 0
49 83 154 0
50 65 92 0
50 66 140 0
50 90 131 0
50 90 300 0
51 54 70 0
51 72 93 0
51 79 96 0
52 67 94 0
52 70 93 0
52 91 128 0
52 92 94 0
53 62 95 0
53 73 85 0
53 95 97 0
53 97 132 0
53 144 160 0
54 69 96 0
54 70 83 0
54 82 106 0
54 94 135 0
54 106 131 0
54 106 152 0
55 64 97 0
55 74 88 0
55 87 97 0
55 143 165 0
56 85 86 0
56 120 181 0
56 151 217 0
58 87 121 0
58 91 128 0
58 121 284 0
58 164 219 0
60 82 83 0
60 122 233 0
60 141 216 0
62 63 97 0
62 80 97 0
62 80 167 0
62 167 201 0
63 74 97 0
63 75 98 0
63 75 101 0
63 75 102 0
63 97 124 0
63 176 225 0
64 176 225 0
65 88 121 0
65 139 178 0
65 178 294 0
66 67 92 0
66 76 92 0
66 92 129 0
66 178 294 0
67 77 99 0
67 77 104 0
68 69 91 0
68 76 100 0
68 76 106 0
68 77 94 0
68 91 106 0
68 94 131 0
69 77 91 0
69 126 177 0
69 152 183 0
70 123 125 0
70 152 183 0
71 79 100 0
71 79 106 0
72 73 95 0
72 79 86 0
72 85 95 0
72 97 135 0
73 79 95 0
73 80 167 0
73 123 125 0
73 167 201 0
74 81 87 0
74 81 124 0
74 85 88 0
75 80 90 0
75 87 128 0
75 98 127 0
75 121 125 0
75 174 178 0
75 182 217 0
76 82 128 0
76 100 128 0
76 216 238 0
77 91 106 0
77 99 131 0
77 219 302 0
78 85 95 0
78 85 132 0
78 123 131 0
78 123 152 0
79 83 96 0
79 83 135 0
79 96 122 0
79 149 180 0
79 149 233 0
79 233 245 0
81 126 129 0
81 164 220 0
82 91 106 0
82 97 100 0
82 100 146 0
82 100 241 0
83 86 135 0
83 130 133 0
83 141 145 0
83 141 269 0
85 95 101 0
85 125 134 0
85 151 206 0
87 162 174 0
87 249 261 0
88 162 174 0
89 174 284 0
90 128 129 0
90 139 147 0
90 176 223 0
91 128 129 0
91 161 303 0
92 140 157 0
92 147 229 0
92 147 301 0
92 173 177 0
94 141 269 0
95 153 168 0
96 153 239 0
97 134 135 0
98 144 184 0
102 142 180 0
104 147 226 0
106 137 214 0
125 169 206 0
129 140 283 0
130 145 156 0
132 154 189 0
133 145 156 0
133 156 269 0
134 169 206 0
135 154 189 0
1 8 84 106 0
1 12 77 95 0
1 23 123 148 0
1 46 73 85 0
1 51 54 60 0
1 51 54 122 0
1 51 54 269 0
1 51 94 122 0
1 51 95 130 0
1 54 60 94 0
1 70 95 122 0
2 8 86 101 0
2 12 55 74 0
2 14 65 81 0
2 50 65 81 0
2 55 87 134 0
2 72 87 102 0
2 81 87 104 0
3 7 60 92 0
3 10 78 92 0
3 12 52 77 0
3 21 173 177 0
3 52 92 133 0
4 5 58 98 0
4 5 63 64 0
4 9 39 97 0
4 14 77 87 0
4 15 36 46 0
4 15 45 46 0
4 16 71 72 0
4 16 72 85 0
4 17 18 125 0
4 17 104 127 0
4 20 55 86 0
4 20 102 124 0
4 37 53 73 0
4 37 53 79 0
4 39 55 65 0
4 44 46 79 0
4 44 55 79 0
4 48 55 75 0
4 50 55 83 0
4 65 102 124 0
4 158 169 280 0
5 6 12 47 0
5 6 12 48 0
5 10 13 47 0
5 17 18 126 0
5 18 22 58 0
5 18 41 62 0
5 19 40 67 0
5 36 48 76 0
5 36 50 66 0
5 36 50 76 0
5 41 48 62 0
5 45 50 66 0
5 48 53 82 0
5 48 58 62 0
5 53 82 121 0
5 58 62 98 0
5 78 79 95 0
6 7 67 68 0
6 7 79 91 0
6 7 79 92 0
6 11 14 37 0
6 11 14 48 0
6 11 14 75 0
6 12 19 48 0
6 13 84 95 0
6 17 58 91 0
6 18 38 45 0
6 19 47 48 0
6 20 42 64 0
6 20 64 81 0
6 21 22 129 0
6 21 106 131 0
6 22 100 129 0
6 47 48 75 0
6 139 221 287 0
6 147 159 300 0
7 8 14 51 0
7 10 79 92 0
7 11 55 87 0
7 12 15 38 0
7 12 52 130 0
7 15 38 49 0
7 19 94 131 0
7 21 22 130 0
7 21 99 130 0
7 37 54 71 0
7 38 47 76 0
7 38 47 129 0
7 45 52 85 0
7 47 52 129 0
7 49 50 66 0
7 49 54 70 0
7 49 54 71 0
7 52 66 106 0
7 58 91 106 0
7 58 91 130 0
7 91 99 130 0
7 104 128 129 0
7 123 148 177 0
8 9 71 72 0
8 9 75 95 0
8 9 101 123 0
8 10 13 38 0
8 13 38 54 0
8 16 43 135 0
8 16 54 122 0
8 45 56 71 0
8 49 54 69 0
8 49 60 69 0
8 56 71 98 0
8 56 73 123 0
8 69 95 123 0
8 102 134 135 0
8 156 168 244 0
9 11 14 74 0
9 11 36 53 0
9 11 53 54 0
9 11 53 55 0
9 12 44 81 0
9 12 81 120 0
9 13 52 92 0
9 13 77 91 0
9 13 77 92 0
9 18 93 101 0
9 23 42 72 0
9 23 43 72 0
9 23 72 100 0
9 23 80 97 0
9 23 95 100 0
9 36 53 71 0
9 44 49 81 0
9 49 81 120 0
9 53 54 71 0
9 60 95 106 0
9 80 95 100 0
9 95 100 134 0
9 95 102 134 0
9 106 132 133 0
9 142 154 253 0
9 148 162 174 0
10 12 22 99 0
10 42 48 58 0
10 49 92 120 0
10 58 87 88 0
10 94 101 135 0
11 13 82 100 0
11 14 37 79 0
11 17 176 297 0
11 36 53 73 0
11 37 53 73 0
11 37 53 79 0
11 37 73 95 0
11 43 55 88 0
11 46 53 79 0
11 48 50 66 0
11 48 90 128 0
11 49 67 77 0
11 51 53 73 0
11 54 72 78 0
12 21 85 100 0
12 23 52 60 0
12 37 92 130 0
12 44 78 83 0
12 51 92 130 0
12 53 75 95 0
13 18 38 45 0
13 18 45 47 0
13 18 45 87 0
13 22 82 100 0
13 37 54 71 0
13 37 89 127 0
13 38 45 75 0
13 39 77 92 0
13 44 54 71 0
13 45 55 65 0
13 82 99 100 0
14 48 74 75 0
14 48 74 126 0
15 36 49 69 0
15 38 49 69 0
15 40 75 125 0
16 22 85 99 0
16 63 72 134 0
17 18 127 160 0
17 20 104 127 0
17 46 102 135 0
17 47 89 104 0
17 127 160 288 0
17 136 163 294 0
17 162 174 255 0
17 163 172 294 0
18 37 87 98 0
18 38 46 55 0
18 44 56 83 0
18 45 50 66 0
18 45 104 128 0
18 50 51 76 0
18 80 82 100 0
18 80 97 98 0
18 93 98 102 0
18 102 205 215 0
18 160 162 174 0
19 22 104 128 0
19 23 67 68 0
19 36 48 76 0
19 47 48 129 0
19 54 82 92 0
19 55 75 88 0
21 23 122 130 0
21 41 44 75 0
21 50 81 104 0
21 51 60 85 0
21 159 173 177 0
22 43 55 78 0
22 54 55 78 0
22 159 173 177 0
22 173 177 258 0
23 39 47 74 0
23 39 72 97 0
23 39 97 134 0
23 53 80 97 0
23 53 102 124 0
23 70 73 132 0
23 72 78 98 0
23 72 78 101 0
23 77 84 132 0
23 79 80 95 0
23 145 149 183 0
36 48 76 126 0
36 72 78 98 0
36 72 78 102 0
36 78 95 101 0
36 78 101 132 0
37 46 85 134 0
37 49 83 133 0
37 63 86 127 0
37 68 93 128 0
38 44 71 83 0
38 47 75 129 0
38 62 95 98 0
38 62 95 134 0
38 67 90 131 0
38 90 100 131 0
40 63 125 126 0
40 74 75 102 0
40 75 102 125 0
40 81 155 175 0
40 101 149 158 0
40 130 158 241 0
40 144 158 171 0
40 144 158 176 0
40 144 158 271 0
42 48 58 88 0
42 52 76 130 0
42 75 157 286 0
42 76 77 100 0
42 76 77 106 0
42 82 157 207 0
42 82 157 218 0
42 91 97 129 0
42 91 129 134 0
42 98 157 163 0
42 101 149 157 0
42 125 157 184 0
42 140 157 218 0
42 140 157 286 0
43 69 82 83 0
43 74 75 88 0
44 56 169 239 0
44 73 124 135 0
45 50 65 66 0
45 94 101 135 0
46 49 83 133 0
46 49 85 134 0
47 58 91 99 0
47 65 127 128 0
47 66 127 128 0
48 74 284 285 0
48 79 80 124 0
48 126 139 258 0
49 52 83 106 0
49 54 69 70 0
49 60 83 93 0
50 92 104 129 0
51 54 60 68 0
51 60 68 85 0
51 63 90 98 0
51 70 95 122 0
51 95 121 133 0
52 60 156 292 0
52 78 94 122 0
53 88 95 121 0
54 72 78 101 0
54 72 78 102 0
54 76 81 92 0
54 78 106 134 0
54 78 122 134 0
55 56 169 225 0
55 78 188 255 0
55 79 97 120 0
56 62 63 75 0
56 72 85 89 0
56 75 102 127 0
56 85 89 101 0
56 85 181 271 0
56 144 184 217 0
58 138 140 219 0
58 140 219 221 0
60 68 69 76 0
60 68 76 94 0
60 78 106 123 0
60 82 146 216 0
62 80 124 135 0
62 89 126 127 0
62 149 153 168 0
64 74 80 99 0
64 81 125 126 0
65 75 81 98 0
65 75 88 102 0
67 78 122 123 0
67 83 90 131 0
67 218 268 292 0
68 77 93 129 0
68 218 268 292 0
69 77 92 104 0
69 82 86 91 0
69 90 104 126 0
69 101 153 168 0
70 73 123 135 0
70 78 83 85 0
70 82 83 183 0
71 83 85 165 0
71 165 239 240 0
72 78 85 101 0
72 83 85 165 0
72 165 239 240 0
73 79 83 85 0
74 75 124 127 0
74 79 101 125 0
74 151 176 280 0
74 153 158 168 0
74 153 168 258 0
74 163 215 285 0
74 229 284 285 0
75 79 124 127 0
75 101 102 127 0
76 77 128 131 0
76 164 218 277 0
76 173 178 300 0
77 84 132 135 0
77 92 145 228 0
78 79 132 135 0
78 79 180 232 0
78 82 85 106 0
78 84 95 101 0
78 84 101 132 0
78 85 106 131 0
78 100 122 123 0
78 181 190 240 0
78 181 195 244 0
79 95 102 123 0
79 148 167 253 0
79 153 162 174 0
81 163 220 286 0
83 95 106 123 0
83 106 154 189 0
83 149 207 269 0
83 153 168 241 0
85 153 168 258 0
86 91 237 303 0
87 90 280 283 0
89 160 174 215 0
90 136 198 268 0
90 159 173 219 0
93 159 177 226 0
94 123 154 180 0
95 102 123 134 0
97 145 200 239 0
97 158 176 284 0
98 144 175 275 0
98 153 163 168 0
98 163 173 177 0
99 140 221 283 0
101 149 162 174 0
101 149 173 177 0
123 125 148 149 0
123 143 148 205 0
123 143 148 275 0
124 160 265 288 0
126 161 164 220 0
126 161 220 283 0
127 160 265 288 0
128 159 264 287 0
129 161 220 283 0
131 159 264 287 0
132 135 150 166 0
134 162 163 174 0
1 4 56 81 87 0
1 6 69 83 84 0
1 7 49 54 122 0
1 23 84 87 132 0
1 41 56 87 98 0
1 46 63 72 134 0
1 51 54 100 130 0
1 51 60 95 106 0
1 68 95 106 122 0
2 4 55 80 102 0
2 5 19 89 97 0
2 5 37 45 74 0
2 5 42 89 97 0
2 6 42 58 104 0
2 6 42 58 124 0
2 8 9 16 43 0
2 8 16 21 106 0
2 8 80 102 135 0
2 9 17 38 46 0
2 9 46 53 74 0
2 15 17 38 46 0
2 15 53 79 87 0
2 15 68 76 77 0
2 36 46 62 75 0
2 42 58 62 91 0
2 44 55 79 125 0
2 62 72 79 95 0
3 4 19 36 48 0
3 6 37 52 77 0
3 7 76 94 131 0
3 8 43 80 91 0
3 8 49 54 77 0
3 8 51 52 77 0
3 52 153 168 177 0
4 5 11 37 45 0
4 5 36 46 75 0
4 6 10 47 77 0
4 9 10 37 74 0
4 9 37 55 79 0
4 9 38 44 74 0
4 9 38 46 74 0
4 9 40 73 98 0
4 9 46 53 74 0
4 9 56 73 78 0
4 9 56 73 101 0
4 10 13 44 79 0
4 10 37 38 79 0
4 10 63 81 85 0
4 11 18 37 45 0
4 12 53 76 79 0
4 14 37 38 79 0
4 17 40 49 98 0
4 17 40 81 98 0
4 17 49 72 98 0
4 18 45 46 74 0
4 36 38 46 75 0
4 36 48 74 126 0
4 36 48 75 135 0
4 37 44 63 79 0
4 37 53 80 123 0
4 37 53 102 123 0
4 37 55 73 83 0
4 39 40 55 104 0
4 40 49 55 98 0
4 41 63 81 85 0
4 44 65 124 135 0
4 49 63 85 99 0
4 51 78 95 106 0
4 53 72 73 98 0
4 55 72 81 98 0
4 138 162 163 202 0
4 143 165 184 265 0
4 144 162 163 172 0
5 6 12 13 37 0
5 6 12 36 75 0
5 6 47 75 78 0
5 6 48 76 79 0
5 7 10 13 46 0
5 7 12 54 78 0
5 7 36 49 78 0
5 8 13 45 75 0
5 8 44 78 79 0
5 9 12 44 78 0
5 12 47 78 129 0
5 17 20 63 64 0
5 17 22 51 95 0
5 18 40 41 98 0
5 18 40 41 102 0
5 18 79 87 97 0
5 19 40 41 99 0
5 19 40 41 131 0
5 19 40 58 99 0
5 19 40 58 131 0
5 19 42 58 99 0
5 20 37 55 74 0
5 22 36 48 80 0
5 36 48 128 129 0
5 36 49 69 78 0
5 40 41 48 102 0
5 44 71 78 79 0
5 55 62 66 125 0
5 56 63 74 85 0
5 74 79 102 125 0
5 188 195 221 284 0
6 7 13 37 50 0
6 8 14 15 75 0
6 9 11 14 76 0
6 9 11 53 79 0
6 10 36 38 75 0
6 10 42 91 120 0
6 11 12 14 76 0
6 13 18 87 102 0
6 13 75 98 128 0
6 16 69 83 84 0
6 17 50 84 100 0
6 18 19 38 47 0
6 20 41 42 124 0
6 37 50 68 69 0
6 41 69 104 128 0
6 41 77 104 128 0
6 48 50 80 124 0
6 58 69 82 100 0
6 91 99 100 135 0
7 8 12 23 99 0
7 8 14 49 77 0
7 8 51 52 77 0
7 8 51 74 77 0
7 8 54 68 101 0
7 8 68 85 101 0
7 9 14 37 74 0
7 10 17 55 85 0
7 12 14 51 52 0
7 13 53 73 74 0
7 17 45 55 85 0
7 36 38 49 76 0
7 36 49 50 76 0
7 37 52 70 78 0
7 38 49 66 67 0
7 49 71 74 77 0
7 51 52 70 78 0
7 60 76 92 99 0
7 74 75 80 121 0
7 92 99 100 104 0
7 162 165 174 239 0
8 9 15 36 53 0
8 9 53 54 78 0
8 10 13 49 78 0
8 12 36 51 79 0
8 13 49 54 78 0
8 13 54 92 106 0
8 15 53 73 75 0
8 15 77 83 99 0
8 16 43 102 123 0
8 21 23 49 133 0
8 22 42 123 129 0
8 36 51 68 77 0
8 36 51 69 77 0
8 38 54 72 73 0
8 38 90 101 123 0
8 44 51 133 134 0
8 49 68 69 133 0
8 49 68 71 130 0
8 54 71 85 120 0
8 56 71 78 85 0
8 60 68 85 101 0
8 71 78 85 120 0
8 142 143 170 233 0
8 171 173 177 203 0
9 11 53 76 79 0
9 16 123 125 135 0
9 17 38 46 63 0
9 18 38 45 76 0
9 18 46 53 74 0
9 20 53 64 81 0
9 23 39 78 102 0
9 23 54 72 106 0
9 23 134 143 213 0
9 36 53 70 78 0
9 38 44 62 63 0
9 38 44 62 74 0
9 38 44 63 74 0
9 38 54 70 79 0
9 38 54 71 76 0
9 38 82 84 96 0
9 44 46 56 62 0
9 46 53 63 74 0
9 49 81 98 125 0
9 54 60 78 82 0
9 56 148 149 275 0
9 60 72 100 123 0
9 162 174 202 267 0
10 11 13 38 71 0
10 11 14 15 76 0
10 11 52 76 77 0
10 13 47 91 129 0
10 13 50 55 75 0
10 14 18 102 124 0
10 15 47 49 77 0
10 23 48 85 90 0
10 49 55 71 77 0
11 12 14 51 79 0
11 12 51 78 79 0
11 13 49 54 78 0
11 13 63 81 97 0
11 17 56 85 101 0
11 19 37 75 90 0
11 23 36 39 97 0
11 23 37 53 102 0
11 23 39 74 76 0
11 23 46 49 74 0
11 37 53 80 123 0
11 37 53 102 123 0
11 37 67 76 77 0
11 50 52 55 76 0
11 53 101 102 124 0
11 80 101 133 134 0
12 13 14 55 74 0
12 15 36 69 130 0
12 15 46 62 79 0
12 18 38 55 74 0
12 18 40 94 127 0
12 18 63 81 94 0
12 18 83 102 124 0
12 37 63 72 125 0
12 54 68 85 120 0
13 14 15 46 74 0
13 14 38 74 75 0
13 15 16 85 101 0
13 15 46 53 74 0
13 15 56 72 85 0
13 17 45 75 77 0
13 18 53 76 83 0
13 45 104 121 128 0
13 45 211 288 297 0
13 60 70 78 95 0
13 62 81 97 120 0
14 17 104 124 127 0
14 19 43 48 74 0
14 93 165 168 232 0
15 16 23 85 101 0
15 17 38 53 79 0
15 17 38 79 82 0
15 18 38 45 76 0
15 18 38 46 74 0
15 19 22 43 78 0
15 20 77 99 129 0
15 22 36 91 106 0
15 38 68 76 77 0
15 41 51 53 95 0
15 41 67 90 104 0
15 46 79 102 135 0
15 49 54 69 77 0
15 53 68 76 84 0
15 77 78 99 129 0
16 22 85 104 128 0
16 23 43 55 87 0
16 44 51 54 60 0
16 49 60 102 135 0
16 51 52 83 130 0
16 85 168 258 266 0
17 18 37 45 63 0
17 18 46 53 73 0
17 18 62 65 127 0
17 18 80 160 174 0
17 19 20 22 129 0
17 19 22 121 129 0
17 36 48 63 75 0
17 37 53 63 79 0
17 43 45 65 98 0
17 45 50 66 80 0
17 74 75 87 98 0
18 20 39 52 92 0
18 37 38 45 74 0
18 38 51 76 83 0
18 42 76 80 124 0
18 47 51 79 135 0
18 47 79 100 135 0
18 51 76 79 83 0
18 55 62 65 127 0
18 62 74 87 104 0
18 75 76 80 98 0
18 75 88 102 133 0
18 162 174 202 267 0
19 23 140 157 275 0
19 36 48 66 129 0
19 36 48 128 129 0
19 38 47 127 129 0
19 43 100 104 128 0
19 47 75 104 129 0
19 51 52 82 133 0
19 65 67 68 85 0
19 70 162 174 183 0
19 72 77 90 106 0
19 76 81 92 104 0
19 92 156 172 246 0
19 106 138 177 232 0
19 140 157 208 286 0
20 63 64 66 83 0
20 74 75 80 121 0
20 102 139 162 167 0
20 102 139 162 180 0
20 104 124 174 295 0
20 144 158 171 225 0
20 144 158 225 271 0
21 80 124 127 134 0
21 146 159 173 224 0
21 171 173 177 203 0
22 42 68 99 102 0
22 48 51 82 129 0
22 52 77 99 129 0
22 138 177 197 258 0
22 146 173 258 287 0
23 37 51 54 60 0
23 38 90 101 123 0
23 42 52 60 122 0
23 46 63 72 125 0
23 52 55 85 133 0
23 52 83 95 134 0
23 53 79 84 102 0
23 70 78 83 101 0
23 77 78 101 131 0
23 77 78 101 134 0
36 37 56 88 99 0
36 48 66 126 129 0
36 77 78 101 134 0
37 46 63 72 125 0
37 46 64 125 126 0
37 49 68 71 130 0
37 49 68 71 133 0
37 54 68 69 71 0
37 62 81 97 120 0
38 44 62 74 134 0
38 44 71 79 131 0
38 46 62 72 73 0
38 46 62 73 134 0
38 47 68 69 76 0
38 49 66 69 129 0
38 71 90 101 123 0
40 42 75 99 135 0
40 42 75 102 129 0
40 42 75 124 129 0
40 42 75 129 135 0
40 47 158 172 173 0
40 52 81 94 98 0
40 56 75 80 121 0
40 58 75 98 121 0
40 63 73 74 80 0
40 74 99 104 124 0
40 75 80 95 122 0
40 133 158 207 269 0
40 144 155 199 271 0
42 47 68 120 129 0
42 47 100 120 129 0
42 48 58 75 99 0
42 48 75 124 129 0
42 48 75 129 135 0
42 48 157 174 204 0
42 49 76 100 123 0
42 50 76 81 104 0
42 50 162 174 286 0
42 55 76 97 100 0
42 58 70 157 219 0
42 69 104 121 125 0
42 69 121 125 129 0
42 75 77 128 131 0
42 76 81 82 104 0
42 76 81 100 104 0
42 76 82 104 127 0
42 82 136 198 218 0
42 134 139 157 206 0
42 136 140 268 275 0
42 136 140 268 286 0
44 56 74 86 101 0
44 56 144 158 217 0
44 79 83 84 102 0
44 79 83 102 124 0
45 74 89 98 135 0
46 49 68 71 130 0
47 52 66 69 128 0
47 52 66 69 131 0
47 52 82 106 159 0
47 53 79 101 123 0
47 54 68 85 120 0
47 56 63 80 104 0
47 58 76 100 120 0
47 69 77 83 92 0
47 76 77 91 99 0
47 79 83 101 123 0
47 82 106 159 264 0
48 55 62 65 124 0
48 58 75 98 122 0
48 75 76 80 98 0
48 75 80 86 98 0
49 77 78 100 123 0
49 84 85 91 120 0
49 123 148 157 207 0
50 51 66 92 95 0
51 53 101 121 133 0
51 54 63 81 94 0
51 60 78 101 121 0
51 69 95 125 133 0
51 83 101 121 133 0
52 73 78 130 131 0
52 77 99 106 132 0
53 66 73 78 95 0
53 73 78 130 134 0
53 79 180 208 297 0
53 80 81 95 121 0
53 80 102 123 124 0
54 68 85 91 120 0
54 77 78 101 134 0
54 78 79 101 106 0
54 78 97 122 123 0
54 78 101 122 123 0
54 168 173 177 241 0
55 70 74 83 123 0
56 143 153 165 239 0
56 143 165 239 240 0
56 144 175 217 275 0
58 77 91 99 100 0
60 68 77 122 129 0
60 70 77 83 123 0
60 77 78 92 123 0
60 77 78 100 123 0
60 79 83 120 123 0
62 74 75 79 127 0
62 76 139 144 162 0
62 173 177 201 205 0
63 77 91 99 100 0
66 87 99 100 106 0
68 77 83 129 133 0
68 91 97 99 128 0
68 138 140 146 268 0
70 73 147 155 232 0
70 82 145 183 202 0
74 79 98 102 125 0
76 153 160 168 265 0
76 164 177 245 277 0
77 78 84 101 131 0
77 83 84 90 100 0
77 149 157 163 168 0
78 87 125 126 134 0
78 94 101 122 135 0
80 104 155 174 226 0
81 94 199 215 270 0
82 106 159 264 287 0
83 145 153 200 255 0
83 149 171 258 269 0
84 143 148 189 205 0
84 143 148 189 275 0
85 145 153 239 258 0
87 138 149 151 258 0
88 138 146 230 286 0
88 144 160 193 284 0
89 138 161 219 301 0
89 143 166 188 233 0
93 136 214 245 246 0
94 145 152 232 245 0
95 142 148 180 187 0
96 143 182 232 233 0
97 140 198 208 214 0
102 127 155 162 215 0
102 144 160 162 265 0
102 144 160 265 288 0
106 126 173 177 214 0
106 138 140 152 177 0
123 125 149 150 255 0
123 143 150 166 205 0
123 143 150 166 275 0
126 146 153 168 220 0
126 153 168 220 286 0
129 153 168 221 283 0
135 143 150 166 275 0
1 6 16 51 78 91 0
1 7 39 106 128 130 0
1 10 13 18 71 120 0
1 11 13 53 54 122 0
1 18 23 51 79 135 0
1 18 23 79 100 135 0
1 48 78 84 98 132 0
1 60 72 78 101 122 0
2 4 6 50 104 131 0
2 5 12 36 74 78 0
2 5 37 55 74 127 0
2 7 15 20 49 78 0
2 9 12 37 38 74 0
2 11 18 37 79 84 0
2 15 17 62 79 98 0
2 15 46 51 74 121 0
2 16 42 80 102 135 0
2 18 19 37 55 74 0
2 39 70 77 83 92 0
2 55 62 95 97 134 0
2 72 84 87 98 134 0
3 4 19 36 46 65 0
3 4 49 58 63 85 0
3 5 6 19 62 98 0
3 6 9 52 76 130 0
3 6 13 49 77 79 0
3 6 38 49 77 79 0
3 7 52 69 131 132 0
3 8 80 81 95 121 0
3 10 11 52 76 130 0
3 11 19 48 63 124 0
3 12 13 18 19 76 0
3 12 36 37 71 77 0
3 12 42 51 52 60 0
3 17 19 36 48 63 0
3 18 70 80 84 124 0
3 19 36 48 62 63 0
3 37 52 67 77 128 0
3 52 145 153 177 239 0
4 5 17 53 73 95 0
4 5 18 41 46 98 0
4 5 18 41 46 102 0
4 6 11 14 71 74 0
4 6 37 55 73 134 0
4 7 48 74 75 77 0
4 8 11 18 45 75 0
4 8 16 68 72 133 0
4 9 10 11 77 96 0
4 9 10 18 46 85 0
4 9 10 37 63 135 0
4 9 10 46 74 134 0
4 9 55 73 76 134 0
4 9 72 73 78 125 0
4 10 11 15 76 77 0
4 10 38 46 134 135 0
4 11 38 54 71 77 0
4 11 54 65 71 77 0
4 16 56 65 81 121 0
4 16 148 162 163 205 0
4 18 41 81 85 125 0
4 19 36 47 48 124 0
4 23 48 74 84 132 0
4 37 55 102 123 134 0
4 37 56 75 87 104 0
4 41 58 75 81 87 0
4 46 47 75 79 85 0
4 49 66 69 76 77 0
4 53 72 101 102 125 0
4 163 172 178 207 294 0
5 6 19 40 47 99 0
5 6 48 67 79 128 0
5 12 14 36 63 74 0
5 12 15 36 66 129 0
5 14 36 38 128 129 0
5 15 48 55 66 129 0
5 17 20 58 66 77 0
5 17 48 49 74 80 0
5 22 42 75 82 129 0
5 41 43 99 124 126 0
5 42 73 77 100 129 0
5 42 86 106 129 130 0
5 52 69 77 90 135 0
5 56 74 75 81 120 0
5 63 74 79 80 102 0
6 7 13 38 49 79 0
6 7 13 50 74 76 0
6 7 38 49 128 129 0
6 7 42 60 99 122 0
6 7 44 52 76 77 0
6 7 52 92 99 133 0
6 7 60 90 99 100 0
6 9 52 69 76 77 0
6 10 38 47 68 77 0
6 10 38 49 68 77 0
6 10 38 68 76 131 0
6 11 23 53 79 80 0
6 11 44 66 127 128 0
6 12 13 14 74 79 0
6 14 37 38 68 77 0
6 15 47 65 77 126 0
6 16 50 72 76 85 0
6 17 65 68 69 128 0
6 18 40 55 92 97 0
6 19 36 41 69 75 0
6 20 36 43 69 90 0
6 20 42 58 76 99 0
6 22 42 47 104 106 0
6 43 47 91 97 99 0
6 49 68 77 82 91 0
6 51 76 87 95 133 0
6 60 137 140 173 183 0
6 74 171 221 287 293 0
6 137 140 166 219 294 0
7 8 23 42 99 122 0
7 8 51 55 130 131 0
7 10 11 66 77 129 0
7 10 13 36 38 76 0
7 10 36 37 38 76 0
7 10 37 38 66 76 0
7 10 37 38 66 129 0
7 11 65 80 101 134 0
7 12 23 52 99 134 0
7 12 36 37 71 77 0
7 13 18 69 92 104 0
7 13 36 50 74 76 0
7 13 36 78 101 131 0
7 14 37 68 69 71 0
7 16 40 49 106 123 0
7 16 47 66 81 85 0
7 16 52 85 104 128 0
7 19 42 52 60 122 0
7 36 38 49 128 129 0
7 37 52 77 128 129 0
7 42 52 60 66 122 0
7 45 60 84 85 134 0
7 46 50 68 82 84 0
7 49 67 100 123 127 0
7 52 69 78 100 123 0
7 140 147 183 216 218 0
8 9 12 36 78 79 0
8 9 43 83 98 125 0
8 9 53 63 123 125 0
8 10 12 13 14 15 0
8 10 13 20 62 78 0
8 11 42 68 101 123 0
8 12 60 83 86 101 0
8 14 36 66 75 129 0
8 20 43 81 93 123 0
8 23 39 53 54 133 0
8 23 60 69 83 100 0
8 37 53 54 102 123 0
8 37 54 68 69 78 0
8 49 68 71 78 134 0
8 49 68 100 106 133 0
9 10 11 38 63 74 0
9 10 11 51 54 78 0
9 10 38 63 79 124 0
9 10 38 65 76 126 0
9 11 51 60 95 121 0
9 11 54 71 76 77 0
9 12 14 37 53 74 0
9 12 20 37 38 74 0
9 16 37 51 54 60 0
9 16 49 51 54 122 0
9 18 23 42 56 83 0
9 18 23 43 56 83 0
9 23 43 53 56 63 0
9 40 125 132 134 135 0
9 43 50 72 85 102 0
9 47 53 56 85 124 0
9 51 53 75 95 125 0
10 11 12 13 14 15 0
10 11 52 77 128 129 0
10 13 37 62 79 125 0
10 14 15 58 76 91 0
11 12 15 38 62 63 0
11 12 15 38 68 131 0
11 14 22 23 55 76 0
11 19 75 76 77 100 0
11 20 53 63 101 102 0
11 20 53 98 101 102 0
11 23 37 85 90 135 0
11 36 44 66 127 128 0
11 36 51 78 83 135 0
11 37 52 77 128 129 0
11 47 62 79 83 101 0
11 47 79 85 95 97 0
11 51 68 73 85 133 0
12 14 36 68 69 78 0
12 36 37 71 78 79 0
12 36 38 71 72 135 0
12 37 50 66 68 69 0
12 48 54 68 69 78 0
13 15 37 46 85 101 0
13 15 52 83 95 134 0
13 16 49 75 98 128 0
13 17 37 40 126 129 0
13 17 81 87 99 102 0
13 37 64 74 75 80 0
13 47 48 68 129 131 0
13 52 76 83 128 131 0
14 15 36 66 67 75 0
14 18 38 45 66 129 0
14 18 81 83 89 127 0
14 36 38 71 72 135 0
14 36 74 83 96 97 0
14 37 38 62 79 125 0
14 47 58 80 99 128 0
14 54 78 97 101 134 0
15 23 38 55 85 133 0
15 41 53 81 83 95 0
15 42 73 77 99 129 0
15 72 74 81 98 135 0
16 17 18 74 104 124 0
16 19 47 66 81 85 0
16 19 56 63 75 84 0
16 20 23 70 74 135 0
16 20 77 81 106 123 0
16 20 81 83 106 123 0
16 23 40 49 106 123 0
16 56 63 80 84 104 0
16 70 102 149 167 180 0
16 134 164 193 233 271 0
17 18 74 81 85 102 0
17 19 36 47 48 63 0
17 23 49 83 104 127 0
17 37 74 81 85 102 0
17 40 46 63 81 121 0
17 40 74 81 102 135 0
17 46 51 72 81 121 0
18 19 39 48 75 127 0
18 23 37 79 100 135 0
18 37 48 58 102 128 0
18 37 72 88 98 101 0
18 39 48 75 90 127 0
18 42 51 72 75 98 0
18 48 55 56 81 86 0
18 82 100 124 129 135 0
18 142 148 155 190 237 0
19 22 51 55 75 127 0
19 23 49 70 76 130 0
19 23 49 70 77 130 0
19 43 47 48 82 121 0
19 54 77 100 106 133 0
19 60 138 157 180 274 0
19 75 89 99 100 130 0
19 78 79 82 101 132 0
20 38 47 75 77 82 0
20 42 139 164 229 289 0
20 48 66 76 126 127 0
20 73 81 125 132 134 0
20 75 76 99 126 129 0
20 139 147 173 222 228 0
22 38 65 67 82 92 0
22 42 77 97 106 129 0
22 43 77 78 99 129 0
22 47 53 76 81 104 0
22 49 70 77 78 100 0
22 52 64 77 83 99 0
22 77 78 84 99 132 0
23 36 43 44 83 124 0
23 40 78 82 93 123 0
23 43 44 83 123 135 0
23 43 79 80 102 133 0
23 44 83 106 123 135 0
23 46 49 51 54 122 0
23 49 68 99 123 127 0
23 50 54 90 101 124 0
23 62 73 84 125 126 0
23 77 78 82 84 123 0
23 141 145 157 194 281 0
36 48 62 65 75 125 0
36 48 261 265 280 283 0
36 51 78 97 101 134 0
36 56 78 85 122 123 0
36 78 85 97 122 123 0
37 77 99 100 123 129 0
37 77 100 104 123 129 0
38 44 212 234 235 262 0
40 42 47 63 129 130 0
40 42 47 81 100 128 0
40 47 60 81 100 128 0
40 47 77 99 100 121 0
40 48 58 74 75 122 0
40 55 56 74 75 135 0
40 77 122 125 126 129 0
40 121 138 140 284 302 0
41 48 63 99 122 126 0
41 99 106 136 152 214 0
42 47 48 58 82 121 0
42 49 53 76 92 97 0
42 55 97 99 128 131 0
42 63 69 74 104 121 0
42 63 69 74 121 129 0
42 74 120 126 129 130 0
42 81 139 164 219 229 0
42 81 139 164 229 289 0
42 104 136 146 173 295 0
42 123 129 143 150 275 0
43 51 72 100 121 133 0
43 54 72 83 84 85 0
44 50 76 81 99 104 0
45 144 151 161 199 288 0
45 209 212 277 299 300 0
46 58 81 169 265 270 0
47 49 69 99 123 135 0
47 55 56 87 92 124 0
47 209 212 277 283 299 0
47 209 247 277 283 299 0
48 52 72 81 94 98 0
48 53 65 90 92 129 0
48 210 213 277 278 300 0
48 210 213 277 283 300 0
48 210 248 277 278 300 0
48 210 248 277 283 300 0
50 53 67 92 97 104 0
50 66 78 92 101 132 0
50 126 146 153 168 209 0
50 210 213 283 288 300 0
50 210 248 283 288 300 0
51 52 69 70 78 130 0
51 66 75 91 102 127 0
51 142 143 148 152 240 0
53 54 66 79 122 134 0
54 62 78 98 122 123 0
54 72 78 83 84 85 0
54 72 79 83 133 134 0
54 146 168 173 241 287 0
54 209 239 247 253 262 0
55 73 74 75 101 121 0
58 81 140 146 153 168 0
60 138 140 156 157 275 0
62 65 74 75 79 81 0
62 138 177 201 205 264 0
64 75 138 270 286 288 0
66 71 83 97 100 134 0
69 81 99 121 125 130 0
70 77 78 82 84 123 0
70 126 142 183 193 282 0
71 134 153 155 165 186 0
72 133 136 165 168 242 0
74 141 155 184 190 284 0
74 150 151 158 191 265 0
75 144 200 247 283 295 0
76 82 220 226 248 266 0
79 80 83 102 123 124 0
79 145 149 156 172 207 0
80 142 144 148 190 237 0
80 142 148 155 190 237 0
81 139 147 173 222 228 0
81 139 147 173 226 228 0
81 139 153 163 168 220 0
82 106 159 173 250 287 0
84 92 150 241 246 260 0
84 141 145 157 194 281 0
85 134 150 153 173 295 0
86 91 137 162 245 295 0
86 141 155 193 196 215 0
89 153 164 168 220 286 0
97 142 173 177 201 205 0
98 138 163 177 197 264 0
98 147 155 163 167 201 0
100 145 146 156 162 241 0
101 141 149 150 169 206 0
101 143 171 221 266 275 0
104 140 159 264 287 294 0
125 141 155 184 190 284 0
130 136 151 219 241 245 0
1 4 8 39 101 125 127 0
1 4 9 12 71 72 135 0
1 4 37 65 77 94 122 0
1 4 40 48 56 90 98 0
1 6 19 41 47 92 104 0
1 6 19 83 84 100 128 0
1 7 13 37 49 54 129 0
1 7 13 49 51 54 129 0
1 7 39 43 128 130 133 0
1 7 39 77 128 130 131 0
1 7 70 77 83 100 123 0
1 8 68 69 99 128 131 0
1 11 18 19 48 102 128 0
1 13 37 38 54 100 130 0
1 13 37 38 54 106 130 0
1 13 37 50 53 54 122 0
1 14 16 55 62 75 81 0
1 21 44 48 75 128 135 0
1 36 38 44 79 85 122 0
1 37 38 54 122 134 135 0
1 39 69 77 128 130 131 0
1 46 56 63 80 84 104 0
2 4 10 14 46 79 85 0
2 4 18 46 69 79 84 0
2 5 6 7 20 82 100 0
2 5 7 14 19 58 81 0
2 7 46 58 68 83 84 0
2 8 20 37 54 78 79 0
2 8 39 83 85 101 123 0
2 9 10 15 17 36 63 0
2 9 11 18 54 79 84 0
2 9 13 44 48 74 78 0
2 11 16 51 79 82 123 0
2 11 18 51 79 82 123 0
2 15 38 56 87 94 124 0
2 16 18 40 48 55 75 0
2 17 19 77 80 121 129 0
2 17 58 77 80 99 122 0
2 18 44 69 77 79 84 0
2 18 44 79 82 123 131 0
2 20 37 54 71 78 79 0
2 20 42 81 99 100 129 0
2 46 251 257 259 283 299 0
2 52 74 81 98 120 135 0
3 4 8 16 72 130 133 0
3 4 12 15 19 77 79 0
3 5 15 19 52 62 98 0
3 6 10 38 47 130 131 0
3 6 20 58 62 63 128 0
3 7 13 14 68 74 76 0
3 8 41 78 132 133 135 0
3 10 11 52 67 128 130 0
3 10 13 50 68 69 76 0
3 10 37 38 68 69 76 0
3 10 37 52 76 77 79 0
3 11 19 48 62 63 135 0
3 12 13 38 68 76 131 0
3 12 15 70 73 95 133 0
3 12 37 38 68 76 131 0
3 13 14 18 19 55 74 0
3 13 19 38 41 75 80 0
3 15 55 69 79 131 132 0
3 16 48 55 72 75 85 0
3 54 72 83 84 85 122 0
3 145 149 152 183 196 286 0
4 5 7 12 36 74 78 0
4 5 17 18 99 102 129 0
4 6 7 12 38 77 79 0
4 6 8 14 38 75 79 0
4 6 9 20 64 125 134 0
4 6 12 38 68 69 79 0
4 8 10 37 38 75 77 0
4 9 10 37 75 125 135 0
4 10 14 38 46 79 125 0
4 10 15 45 68 76 131 0
4 10 37 62 63 73 134 0
4 10 38 46 72 80 123 0
4 10 44 47 77 79 129 0
4 15 20 38 52 80 102 0
4 16 18 81 87 97 121 0
4 16 65 72 81 101 121 0
4 17 20 41 49 64 75 0
4 17 48 62 90 122 127 0
4 18 20 44 79 84 125 0
4 18 37 47 79 125 135 0
4 19 20 41 69 92 99 0
4 19 23 36 46 65 106 0
4 20 65 74 75 79 81 0
4 46 49 72 74 95 102 0
5 6 17 19 20 42 129 0
5 6 17 19 42 50 129 0
5 6 23 48 76 85 124 0
5 6 47 53 80 99 128 0
5 9 11 51 52 55 78 0
5 11 12 54 74 76 78 0
5 18 19 20 41 58 66 0
5 18 19 40 58 65 81 0
5 18 19 40 58 65 127 0
5 18 19 58 63 68 127 0
5 18 20 55 97 121 127 0
5 18 39 48 58 75 127 0
5 19 22 43 65 77 100 0
5 21 68 73 77 106 129 0
5 22 42 52 77 100 131 0
5 22 42 65 76 127 129 0
5 37 63 80 85 93 127 0
5 55 64 72 80 125 126 0
5 68 78 99 100 128 130 0
6 7 17 36 65 128 131 0
6 8 12 38 51 53 79 0
6 8 15 23 53 79 80 0
6 10 12 13 38 47 77 0
6 11 13 16 38 78 91 0
6 13 14 48 68 74 131 0
6 13 42 100 121 128 130 0
6 13 47 52 55 75 79 0
6 15 41 48 90 104 129 0
6 15 53 95 121 122 127 0
6 16 36 54 72 76 77 0
6 17 20 42 75 78 125 0
6 20 42 58 100 121 128 0
6 20 70 77 78 130 131 0
6 22 40 42 76 126 129 0
6 22 69 77 121 129 131 0
6 37 73 87 125 130 134 0
6 38 44 47 71 75 79 0
6 42 68 75 120 121 129 0
6 43 69 71 76 99 131 0
6 67 69 77 121 129 131 0
6 68 76 99 122 130 132 0
6 106 147 172 173 208 300 0
7 8 14 54 79 122 131 0
7 8 23 37 52 60 85 0
7 9 15 51 70 79 133 0
7 9 15 53 70 74 78 0
7 9 53 73 78 95 131 0
7 10 14 15 37 76 77 0
7 10 36 37 38 128 129 0
7 11 12 22 23 44 100 0
7 13 23 39 52 74 97 0
7 17 45 55 81 130 135 0
7 44 60 76 82 92 131 0
7 62 64 74 82 84 97 0
7 66 68 76 122 128 130 0
7 67 77 100 121 127 129 0
7 136 137 159 162 173 174 0
7 141 157 162 205 216 245 0
7 147 183 216 218 286 293 0
8 9 49 68 69 83 85 0
8 12 23 36 51 72 102 0
8 13 21 42 76 128 129 0
8 18 53 56 80 83 123 0
8 19 21 41 78 130 135 0
8 21 56 60 72 85 102 0
8 23 37 54 60 68 131 0
8 23 49 68 69 78 84 0
8 23 55 75 85 124 127 0
8 36 200 207 250 260 279 0
8 37 38 54 80 123 134 0
8 38 54 72 79 87 123 0
8 75 82 99 100 106 129 0
8 102 142 165 167 221 233 0
8 171 173 177 181 188 208 0
9 10 13 37 63 74 135 0
9 10 15 18 45 71 76 0
9 11 39 51 68 85 133 0
9 12 54 68 85 134 135 0
9 13 14 48 54 71 135 0
9 13 18 20 46 74 78 0
9 15 18 45 54 71 76 0
9 18 22 36 38 83 96 0
9 18 42 53 72 75 98 0
9 18 44 48 51 83 84 0
9 19 48 69 79 128 129 0
9 21 53 56 60 83 85 0
9 21 53 56 83 101 122 0
9 21 54 71 72 75 76 0
9 23 43 80 83 123 135 0
9 23 51 78 79 84 106 0
9 23 53 72 83 101 122 0
9 39 48 69 70 128 130 0
9 48 69 70 80 128 130 0
9 50 53 79 94 101 123 0
9 51 72 84 128 133 134 0
9 60 72 79 83 102 123 0
9 77 83 84 101 130 134 0
9 133 134 136 150 168 242 0
9 142 155 162 166 202 233 0
10 12 13 37 62 63 78 0
10 12 20 36 74 85 124 0
10 13 14 36 71 76 131 0
10 17 81 87 99 101 104 0
10 36 46 69 74 121 125 0
10 37 38 62 63 72 73 0
10 37 44 47 49 51 78 0
10 40 153 163 176 198 258 0
10 42 46 74 76 77 99 0
10 48 69 81 90 99 104 0
10 69 79 84 99 130 131 0
11 12 15 18 20 51 74 0
11 12 48 74 98 102 127 0
11 13 18 36 92 97 130 0
11 17 18 44 48 75 104 0
11 17 18 55 74 80 102 0
11 17 18 55 74 81 102 0
11 20 72 79 83 101 102 0
11 48 50 55 69 76 78 0
12 15 51 62 69 74 130 0
12 18 42 48 56 75 127 0
12 19 36 38 65 128 129 0
12 20 38 47 65 82 126 0
12 21 40 47 76 94 128 0
12 23 53 60 63 80 83 0
12 36 70 78 85 93 134 0
12 38 54 71 72 76 135 0
12 42 43 76 77 97 122 0
12 53 240 248 253 257 262 0
12 70 162 174 183 184 248 0
13 14 36 64 66 127 129 0
13 14 37 63 83 124 135 0
13 14 48 54 71 72 135 0
13 14 51 68 69 74 79 0
13 17 76 78 84 99 130 0
13 18 22 37 40 58 121 0
13 18 37 40 58 67 121 0
13 18 39 40 72 83 97 0
13 19 37 39 48 80 128 0
13 19 39 48 75 80 127 0
13 22 37 40 58 65 121 0
13 37 40 44 56 74 79 0
13 37 49 53 69 74 79 0
14 36 37 62 63 64 65 0
14 37 38 67 68 128 131 0
15 16 74 79 81 102 135 0
15 18 52 62 65 74 124 0
15 37 74 79 81 85 98 0
15 47 55 66 69 77 131 0
15 50 51 66 83 92 101 0
15 74 81 85 98 101 133 0
16 17 40 41 55 74 124 0
16 20 23 51 81 83 132 0
16 20 40 99 100 106 123 0
16 37 40 48 53 62 73 0
16 39 44 106 123 125 135 0
16 60 138 140 145 157 180 0
16 150 151 158 195 285 295 0
17 18 20 48 63 121 124 0
17 18 45 84 97 128 129 0
17 20 40 79 95 128 130 0
17 40 55 85 89 97 102 0
17 41 50 67 100 104 131 0
18 19 22 38 55 75 127 0
18 19 37 38 55 81 120 0
18 21 46 86 88 121 131 0
18 23 43 48 83 124 125 0
18 23 77 79 100 129 135 0
18 36 52 53 85 87 124 0
18 37 48 69 72 77 81 0
18 37 53 68 80 97 99 0
18 38 46 51 73 74 83 0
18 38 46 68 72 74 135 0
18 51 53 101 102 123 124 0
18 68 71 80 82 98 121 0
19 20 43 48 79 82 128 0
19 39 53 77 97 101 123 0
19 40 145 146 149 152 183 0
19 42 65 75 76 128 129 0
19 43 44 64 65 66 126 0
19 43 48 79 82 121 128 0
19 47 56 66 78 81 85 0
19 70 126 144 151 178 217 0
19 84 145 146 149 152 196 0
19 139 146 161 163 195 220 0
19 139 161 163 187 220 286 0
19 139 161 163 195 220 286 0
19 145 146 149 152 183 196 0
19 145 149 152 183 196 286 0
20 42 99 100 104 106 129 0
20 58 62 79 81 127 130 0
20 139 147 161 173 226 302 0
21 70 136 137 159 171 302 0
23 38 43 44 79 82 102 0
23 38 43 79 80 82 102 0
23 43 51 79 80 84 102 0
23 43 55 77 83 99 106 0
23 44 69 123 133 134 135 0
23 47 81 84 99 100 132 0
23 48 53 63 83 102 122 0
23 52 69 79 99 100 128 0
23 69 79 84 99 100 104 0
23 106 146 168 205 232 266 0
23 146 149 168 183 205 266 0
36 49 55 77 83 99 106 0
37 48 75 81 90 98 104 0
37 48 75 90 101 104 121 0
37 49 51 66 77 132 133 0
39 85 150 160 162 193 284 0
39 101 145 149 152 183 243 0
40 46 62 63 65 81 129 0
40 52 58 78 87 106 130 0
40 55 74 79 81 98 135 0
40 58 73 74 75 80 81 0
41 54 68 79 83 133 134 0
42 43 51 76 78 128 129 0
42 49 52 76 78 92 106 0
42 70 139 162 174 183 198 0
43 101 141 150 169 206 271 0
43 123 136 146 156 236 245 0
44 56 144 158 176 224 225 0
44 150 151 164 168 193 233 0
44 168 254 256 261 265 280 0
44 191 234 256 261 265 280 0
44 197 212 239 240 244 262 0
44 209 234 240 244 247 262 0
44 209 239 240 244 247 262 0
44 212 234 240 244 247 262 0
44 234 254 256 261 265 280 0
44 239 254 256 261 265 280 0
45 69 79 84 130 131 133 0
45 209 247 274 277 299 300 0
45 212 261 265 280 288 298 0
46 50 53 62 66 73 134 0
46 137 142 155 163 193 288 0
46 164 257 259 261 265 288 0
46 188 191 261 265 283 299 0
46 251 257 259 261 278 299 0
47 52 60 66 69 77 95 0
47 58 68 81 100 121 128 0
47 157 209 212 220 283 299 0
47 157 209 220 247 283 299 0
48 50 210 248 283 287 294 0
48 52 75 82 94 124 129 0
48 164 257 259 261 265 280 0
48 191 259 261 265 278 280 0
48 191 259 261 265 280 283 0
48 257 259 261 265 280 283 0
49 55 77 83 85 99 106 0
49 79 136 149 156 207 274 0
49 191 250 254 260 277 300 0
49 250 254 256 260 277 300 0
50 65 210 248 283 287 294 0
50 82 139 141 161 198 287 0
50 82 141 161 198 287 294 0
50 139 140 162 198 210 265 0
50 211 250 260 279 297 300 0
51 68 72 82 95 101 132 0
52 159 213 277 279 297 300 0
52 213 260 277 279 297 300 0
53 160 211 253 265 280 297 0
53 210 240 248 253 257 262 0
53 211 253 261 265 280 297 0
53 213 240 248 253 257 262 0
54 69 77 78 100 131 133 0
54 159 212 250 262 274 279 0
54 159 250 262 274 279 298 0
55 160 211 239 253 280 297 0
55 211 213 239 253 261 280 0
55 211 239 253 261 280 297 0
55 212 261 280 283 298 299 0
55 261 274 280 283 298 299 0
56 150 169 181 204 238 271 0
58 62 65 79 81 127 130 0
58 68 78 99 100 128 130 0
58 81 139 147 173 222 302 0
60 67 69 84 99 100 104 0
60 67 69 99 100 104 131 0
64 81 130 144 176 199 270 0
64 85 225 232 266 270 271 0
65 66 68 80 81 120 129 0
65 138 150 160 162 167 174 0
70 81 126 151 164 182 237 0
71 144 199 200 239 258 295 0
75 79 94 96 97 99 100 0
75 170 172 270 283 286 288 0
77 80 84 92 145 246 275 0
77 82 145 146 156 157 226 0
77 141 149 152 157 245 281 0
77 153 168 198 226 255 260 0
78 83 84 101 133 134 135 0
78 106 142 143 146 149 240 0
79 139 142 145 149 156 258 0
80 102 143 149 153 180 200 0
82 132 146 157 180 200 218 0
83 84 137 159 177 192 272 0
84 85 144 153 174 177 232 0
84 137 145 159 177 192 272 0
84 137 145 177 192 260 272 0
86 141 149 150 160 181 196 0
88 91 136 137 150 157 255 0
89 127 138 140 215 258 270 0
89 145 146 149 152 183 196 0
89 145 149 152 183 196 286 0
96 152 186 195 213 248 271 0
98 147 150 155 167 201 205 0
98 155 167 201 205 241 301 0
100 146 150 156 162 205 269 0
100 146 156 162 205 241 269 0
100 146 156 205 230 241 269 0
101 150 169 173 204 206 271 0
102 143 171 180 221 266 275 0
102 147 150 155 167 205 215 0
102 147 155 164 167 205 215 0
122 136 146 168 233 238 244 0
126 138 140 164 218 245 275 0
126 138 140 164 218 245 286 0
1 2 9 13 38 95 124 132 0
1 2 16 37 40 53 62 73 0
1 2 16 44 48 55 81 134 0
1 2 44 48 55 56 81 83 0
1 4 9 16 17 72 81 97 0
1 6 7 13 16 48 50 76 0
1 6 12 51 78 79 91 122 0
1 6 17 20 62 66 74 124 0
1 7 8 67 69 100 128 131 0
1 7 13 15 37 42 51 129 0
1 7 36 51 77 79 85 122 0
1 7 37 38 42 66 128 129 0
1 8 39 72 83 102 123 135 0
1 8 42 54 55 69 77 122 0
1 9 10 13 16 38 62 81 0
1 9 23 37 51 106 121 123 0
1 10 36 49 51 84 85 122 0
1 10 36 51 79 85 100 130 0
1 11 22 42 51 84 123 129 0
1 11 36 37 68 91 128 135 0
1 12 17 74 79 81 85 101 0
1 12 21 36 37 77 94 122 0
1 12 39 56 79 84 85 97 0
1 13 17 72 83 101 102 132 0
1 13 22 40 58 65 81 121 0
1 13 38 63 81 98 124 127 0
1 15 16 19 67 68 75 134 0
1 16 19 20 37 48 55 81 0
1 18 19 48 49 62 125 128 0
1 18 78 81 85 97 98 104 0
1 36 42 51 52 60 69 85 0
1 49 51 55 72 77 80 125 0
2 3 15 67 82 128 129 131 0
2 4 9 18 47 49 79 135 0
2 4 13 18 38 74 76 104 0
2 4 18 19 74 76 81 129 0
2 5 42 46 81 99 100 129 0
2 7 13 15 68 76 122 131 0
2 9 11 38 44 54 78 83 0
2 9 11 38 51 55 83 84 0
2 9 12 13 20 37 74 78 0
2 9 37 44 55 56 81 85 0
2 9 40 48 55 56 76 79 0
2 14 36 37 51 63 75 124 0
2 15 17 49 79 93 102 123 0
2 15 18 36 38 85 87 124 0
2 16 37 55 73 75 81 83 0
2 16 48 69 72 74 77 81 0
2 17 36 37 40 48 56 75 0
2 17 38 48 72 83 127 132 0
2 17 38 48 72 95 127 132 0
2 18 37 45 51 72 124 125 0
2 22 80 82 88 95 106 127 0
2 38 48 55 72 83 127 132 0
2 79 166 189 201 239 266 271 0
3 4 6 11 48 74 75 77 0
3 5 6 19 22 48 65 129 0
3 5 6 42 64 75 99 129 0
3 5 11 19 49 77 78 79 0
3 5 13 19 41 75 78 80 0
3 5 44 68 73 81 100 129 0
3 6 7 15 21 82 129 131 0
3 6 10 22 38 76 106 130 0
3 6 22 47 60 89 94 128 0
3 8 16 37 42 52 60 78 0
3 12 19 20 38 65 66 82 0
3 13 37 53 74 77 79 128 0
3 15 22 38 82 128 129 131 0
3 19 66 76 77 100 129 130 0
3 22 123 139 163 220 283 286 0
3 50 160 176 213 283 288 300 0
3 139 161 163 195 220 283 286 0
4 6 9 20 37 46 85 123 0
4 6 10 13 48 68 74 77 0
4 6 10 13 48 68 74 131 0
4 7 9 22 44 73 77 85 0
4 8 9 10 13 36 52 75 0
4 8 17 21 49 79 104 133 0
4 9 10 18 40 84 125 135 0
4 9 16 17 20 37 40 98 0
4 10 11 20 36 51 83 135 0
4 10 11 36 38 68 76 131 0
4 10 12 20 53 84 102 123 0
4 10 20 60 77 83 89 134 0
4 12 18 19 36 37 38 47 0
4 12 37 68 72 74 77 135 0
4 13 20 37 65 66 67 129 0
4 13 60 70 82 84 85 93 0
4 16 40 62 63 65 81 129 0
4 18 37 47 79 102 123 125 0
4 20 22 39 55 83 127 128 0
4 20 37 63 75 120 125 127 0
4 38 39 92 101 125 127 134 0
4 38 46 51 52 74 83 135 0
4 40 45 54 75 94 98 124 0
5 6 11 12 22 68 78 84 0
5 6 12 22 54 68 79 88 0
5 6 17 20 38 52 65 77 0
5 6 19 22 40 81 104 123 0
5 7 9 14 17 36 37 63 0
5 7 10 37 46 88 121 130 0
5 7 11 20 80 101 127 134 0
5 7 11 51 63 78 83 135 0
5 7 12 18 20 36 74 78 0
5 11 13 17 36 46 63 135 0
5 14 36 63 68 75 124 131 0
5 17 18 36 44 63 81 85 0
5 17 18 48 52 74 75 104 0
5 18 37 38 55 81 120 127 0
5 18 51 65 67 76 128 129 0
5 18 52 74 75 80 104 121 0
5 20 39 40 41 49 81 128 0
5 36 40 63 81 85 102 124 0
5 41 47 66 75 98 121 122 0
5 42 45 49 75 91 99 129 0
6 7 14 37 72 74 76 135 0
6 7 43 49 100 106 128 129 0
6 7 68 69 77 82 90 104 0
6 8 9 12 36 38 134 135 0
6 8 15 48 51 69 75 130 0
6 9 12 19 38 65 76 79 0
6 9 13 42 51 69 89 104 0
6 9 17 18 38 46 76 134 0
6 11 12 14 38 74 77 79 0
6 11 19 38 75 76 80 129 0
6 11 19 42 65 75 128 129 0
6 13 22 43 69 77 121 131 0
6 13 22 47 77 89 104 121 0
6 13 51 76 84 104 130 133 0
6 13 55 62 73 75 125 134 0
6 14 19 36 37 38 43 77 0
6 21 22 36 38 49 79 84 0
6 23 78 82 83 99 100 133 0
6 36 40 43 63 80 90 120 0
6 136 146 156 161 198 233 277 0
6 139 162 198 255 265 286 297 0
7 9 43 49 66 100 129 135 0
7 10 36 46 74 121 125 131 0
7 10 36 74 81 121 125 131 0
7 10 60 72 81 84 85 97 0
7 10 144 158 171 198 276 292 0
7 13 15 23 37 38 42 129 0
7 16 43 60 81 85 99 104 0
7 20 40 42 91 106 129 130 0
7 22 48 51 69 78 129 131 0
7 23 36 44 74 83 84 98 0
7 36 46 63 85 98 100 129 0
7 36 51 65 72 102 133 134 0
7 40 52 58 66 77 99 100 0
7 45 46 63 80 98 100 129 0
7 104 106 154 178 189 216 219 0
7 104 139 178 183 204 216 218 0
7 123 136 146 156 183 236 245 0
7 137 149 156 177 238 244 272 0
8 9 36 72 80 83 85 123 0
8 9 47 53 64 78 79 127 0
8 9 47 53 65 78 79 126 0
8 10 13 36 48 52 74 78 0
8 10 17 22 79 80 90 92 0
8 11 23 37 69 85 102 123 0
8 15 36 48 51 69 75 130 0
8 200 207 250 257 259 260 279 0
9 10 13 14 54 62 126 127 0
9 10 13 23 37 40 74 123 0
9 10 18 37 38 55 81 120 0
9 11 14 19 38 54 55 127 0
9 13 18 23 43 83 101 134 0
9 14 18 19 36 38 66 129 0
9 14 18 36 38 66 126 129 0
9 15 38 44 54 69 71 77 0
9 16 18 40 85 102 123 125 0
9 21 23 37 51 73 106 121 0
9 21 39 68 77 84 95 122 0
9 21 56 60 72 79 83 101 0
9 40 51 55 56 87 98 124 0
9 50 54 69 78 90 101 134 0
9 53 70 72 73 83 101 122 0
9 53 72 83 102 122 123 134 0
9 54 66 70 72 76 84 129 0
10 16 17 55 67 85 101 124 0
10 145 149 158 165 171 208 276 0
10 149 158 165 168 171 208 276 0
11 12 13 15 21 42 60 94 0
11 13 49 68 71 72 79 130 0
11 13 56 68 69 78 123 130 0
11 17 40 47 58 75 98 104 0
11 18 20 21 40 55 97 98 0
11 21 23 66 68 75 79 99 0
11 47 137 146 157 178 220 224 0
11 209 212 213 277 283 299 300 0
12 18 42 48 75 81 97 121 0
12 18 42 53 72 73 75 127 0
12 23 36 49 51 79 85 122 0
12 36 37 38 68 128 129 131 0
12 39 46 68 71 76 82 129 0
12 66 69 70 75 82 131 134 0
13 14 18 36 38 62 63 126 0
13 18 20 55 75 79 80 127 0
13 18 37 38 81 98 124 127 0
13 18 37 38 81 102 125 127 0
13 18 37 69 72 77 80 81 0
13 19 22 36 38 43 75 80 0
13 22 37 40 58 63 98 121 0
13 22 37 40 58 98 101 121 0
13 23 38 63 81 102 125 127 0
13 37 38 72 83 106 134 135 0
13 39 72 77 79 83 84 130 0
13 53 54 62 71 72 81 101 0
13 54 71 72 81 82 84 135 0
13 148 160 163 174 204 224 275 0
14 22 42 69 75 77 128 129 0
14 23 36 49 69 85 122 130 0
14 49 65 75 77 126 127 129 0
14 53 60 145 169 189 201 212 0
15 18 72 74 81 85 102 133 0
15 23 47 51 52 58 77 131 0
15 40 55 58 62 65 127 130 0
15 42 51 54 76 128 129 133 0
15 188 212 257 277 283 288 300 0
16 18 22 51 78 127 128 134 0
16 21 60 66 72 83 84 85 0
16 23 58 79 84 94 99 100 0
16 36 52 72 78 79 94 97 0
16 37 40 55 62 73 80 83 0
16 55 143 151 176 195 285 295 0
16 106 143 148 167 214 258 284 0
16 150 151 158 195 224 275 295 0
16 150 151 164 168 193 233 271 0
17 18 19 36 38 46 47 63 0
17 22 49 50 53 78 90 95 0
17 23 37 43 62 73 90 100 0
17 37 48 62 65 81 98 127 0
17 38 41 62 69 80 99 130 0
17 41 50 67 68 99 104 131 0
17 48 50 67 92 100 124 131 0
18 19 53 67 68 80 98 102 0
18 48 53 83 97 102 122 123 0
18 55 71 74 81 101 127 135 0
19 21 41 70 78 132 133 135 0
19 22 36 38 43 49 128 129 0
19 22 40 70 75 77 83 123 0
19 22 40 75 78 94 106 123 0
19 22 54 68 76 77 128 129 0
19 36 43 48 62 63 77 135 0
19 60 76 138 164 208 229 281 0
19 82 89 138 155 199 226 227 0
19 99 106 138 143 161 220 221 0
20 41 42 73 76 81 82 121 0
20 48 75 77 85 100 123 135 0
20 49 58 77 81 99 100 121 0
20 142 145 151 163 178 266 294 0
21 49 76 77 84 99 128 132 0
23 36 43 51 77 78 85 122 0
23 41 43 62 73 76 100 129 0
23 43 44 74 79 85 98 133 0
23 43 51 68 77 78 85 130 0
23 43 52 55 73 74 133 135 0
23 141 145 152 157 183 226 245 0
23 141 145 152 157 183 245 281 0
36 37 154 159 191 235 250 279 0
36 38 212 220 268 283 288 300 0
36 197 209 213 239 240 253 262 0
36 209 212 213 277 283 299 300 0
36 209 213 234 240 247 253 262 0
37 38 77 83 97 100 104 129 0
37 40 72 80 97 98 104 130 0
37 50 159 213 250 269 292 300 0
38 95 147 155 163 167 195 215 0
38 210 212 248 277 278 288 300 0
38 210 212 248 277 283 288 300 0
38 212 213 235 239 248 253 262 0
42 55 58 79 98 99 102 120 0
43 67 68 95 100 123 128 131 0
43 139 161 163 195 220 283 286 0
44 48 160 164 172 259 265 280 0
44 54 167 169 212 234 247 262 0
45 134 149 227 237 293 295 301 0
45 138 177 199 209 221 264 298 0
46 64 65 68 78 81 82 100 0
46 174 239 253 254 256 260 261 0
47 191 220 250 254 260 268 279 0
47 250 254 256 260 269 277 292 0
48 68 72 77 84 130 131 135 0
48 68 77 80 84 100 131 135 0
48 172 248 259 261 265 280 283 0
49 60 146 156 205 216 230 241 0
49 154 159 240 248 250 257 259 0
49 154 170 191 240 250 257 260 0
49 154 172 188 240 248 250 260 0
49 154 240 248 250 257 259 260 0
49 166 191 250 260 268 277 300 0
49 220 250 254 256 260 268 300 0
49 250 254 256 260 277 287 294 0
50 52 211 260 279 287 294 297 0
50 58 138 143 161 194 219 221 0
50 66 82 141 161 172 198 287 0
50 139 162 174 198 210 286 297 0
50 160 176 210 213 283 299 300 0
50 211 250 260 279 292 293 300 0
50 213 250 260 279 287 294 297 0
51 78 84 85 106 122 130 135 0
51 84 141 163 181 198 238 239 0
51 210 239 240 248 253 257 262 0
52 54 153 168 171 177 203 210 0
52 60 67 69 75 77 121 129 0
52 82 106 144 188 224 258 287 0
52 211 220 260 268 279 297 300 0
52 211 260 277 279 287 294 297 0
52 212 240 244 260 262 274 279 0
52 213 260 269 277 292 297 300 0
53 79 180 188 205 253 266 271 0
53 101 106 150 169 204 206 271 0
53 160 176 211 213 253 265 280 0
53 160 211 253 265 280 292 293 0
54 137 145 148 163 180 224 245 0
54 146 173 241 247 266 274 287 0
56 70 153 164 169 180 189 195 0
58 88 147 158 159 174 255 264 0
58 138 142 150 161 166 219 221 0
60 76 160 165 168 174 240 258 0
60 82 138 146 157 162 279 292 0
60 146 156 159 205 226 230 241 0
64 144 151 158 160 174 288 295 0
65 70 137 150 160 162 167 174 0
65 138 150 152 160 162 174 188 0
67 95 140 143 148 165 179 233 0
67 134 140 157 202 206 208 218 0
70 80 146 150 154 167 243 288 0
70 85 146 147 150 154 169 270 0
71 79 153 174 179 181 188 232 0
73 150 151 164 168 193 233 271 0
75 80 139 153 158 168 220 286 0
75 170 172 270 282 283 286 293 0
78 83 84 101 102 124 133 134 0
78 137 175 190 205 232 248 270 0
80 142 144 148 169 195 237 276 0
80 142 148 155 169 195 202 237 0
81 89 138 140 198 215 230 270 0
84 101 145 149 156 172 207 248 0
84 149 151 156 172 207 248 269 0
84 149 156 172 207 248 249 269 0
85 139 144 173 188 199 283 295 0
86 133 143 160 162 173 193 207 0
88 97 141 142 144 162 236 238 0
88 98 143 155 162 166 233 242 0
99 138 142 161 194 220 221 283 0
104 130 142 173 178 219 268 301 0
104 138 150 160 167 174 255 288 0
125 134 137 142 155 205 288 295 0
125 134 137 143 155 205 288 295 0
125 137 143 155 182 205 288 295 0
125 143 155 184 200 206 211 232 0
130 140 149 157 166 173 177 197 0
132 142 143 148 165 168 233 240 0
1 2 4 46 49 53 70 72 83 0
1 2 9 13 38 72 83 124 132 0
1 2 10 16 40 55 80 134 135 0
1 2 13 17 38 72 83 127 132 0
1 2 13 17 52 72 77 127 132 0
1 2 17 37 40 53 56 79 127 0
1 3 7 42 69 70 77 84 95 0
1 4 5 7 62 63 77 98 127 0
1 4 6 13 16 17 51 65 81 0
1 4 7 20 68 69 74 77 84 0
1 4 8 12 68 72 73 80 133 0
1 4 12 46 70 72 77 83 134 0
1 4 16 18 65 75 120 125 127 0
1 4 20 68 69 73 77 128 131 0
1 4 39 46 72 75 125 126 127 0
1 5 6 9 13 18 19 36 62 0
1 5 7 11 17 63 81 102 127 0
1 5 8 16 18 38 55 75 81 0
1 5 8 43 52 77 92 99 100 0
1 5 13 16 45 51 62 63 80 0
1 5 16 17 20 37 51 74 81 0
1 6 11 13 38 48 54 100 130 0
1 6 37 38 54 63 65 79 122 0
1 7 9 20 81 125 131 132 134 0
1 8 37 42 45 52 69 77 122 0
1 8 66 70 83 84 132 134 135 0
1 9 14 49 76 81 92 104 121 0
1 13 18 53 72 80 83 98 131 0
1 13 22 51 52 69 78 129 131 0
1 16 37 38 40 62 79 84 131 0
1 17 23 43 55 99 100 104 130 0
1 18 40 55 56 68 74 77 98 0
1 20 21 46 47 81 82 104 106 0
1 36 42 51 60 69 77 79 85 0
2 3 6 13 22 49 51 84 121 0
2 3 23 52 62 73 76 100 129 0
2 4 5 17 22 39 83 127 128 0
2 4 5 55 62 73 79 124 125 0
2 4 6 8 46 50 79 83 84 0
2 4 6 12 46 53 58 84 85 0
2 4 10 11 45 54 68 73 134 0
2 4 15 74 78 80 97 121 135 0
2 4 20 23 37 75 79 95 98 0
2 5 41 73 75 99 124 129 135 0
2 6 16 17 19 36 48 80 81 0
2 6 37 78 81 82 86 100 121 0
2 8 9 15 23 51 52 70 97 0
2 8 12 18 43 79 84 95 125 0
2 8 18 36 73 75 79 84 131 0
2 9 10 37 55 79 125 128 129 0
2 9 11 13 23 44 78 83 133 0
2 9 11 55 78 79 80 130 135 0
2 9 13 20 37 74 79 83 85 0
2 9 13 20 69 70 80 128 130 0
2 9 16 71 79 82 84 102 133 0
2 12 20 70 76 101 130 132 133 0
2 13 17 37 38 72 83 127 132 0
2 13 17 38 65 72 75 83 132 0
2 13 18 37 38 72 83 106 124 0
2 15 45 47 58 75 76 83 131 0
2 17 19 38 49 50 77 80 99 0
2 19 36 37 40 47 48 56 62 0
2 37 44 62 63 69 79 82 123 0
2 37 212 251 257 259 278 280 299 0
2 45 138 173 177 199 220 221 298 0
3 4 9 17 20 37 40 98 120 0
3 5 13 22 49 51 84 128 129 0
3 5 15 19 48 52 62 65 129 0
3 5 15 21 23 66 128 132 133 0
3 6 7 16 52 53 69 79 83 0
3 6 9 21 23 72 73 76 79 0
3 6 16 19 20 54 58 63 85 0
3 7 9 12 19 36 38 65 71 0
3 8 9 36 38 72 85 102 123 0
3 8 14 19 36 48 51 74 77 0
3 8 15 21 41 73 78 132 135 0
3 9 10 37 38 67 68 69 128 0
3 10 13 51 67 69 77 128 130 0
3 11 17 19 48 63 68 69 79 0
3 12 48 50 54 81 101 122 130 0
3 15 18 51 67 78 128 129 131 0
3 17 18 22 48 90 124 129 133 0
3 17 38 41 43 44 62 99 130 0
3 18 48 171 178 246 271 283 293 0
3 49 154 183 191 240 248 257 264 0
4 5 11 14 44 45 46 51 74 0
4 5 12 45 54 68 69 74 78 0
4 5 13 17 51 97 122 127 128 0
4 6 13 23 48 50 68 80 131 0
4 6 13 46 48 71 79 131 135 0
4 6 14 37 38 68 80 123 131 0
4 6 36 58 75 77 79 88 130 0
4 8 14 67 75 92 99 100 129 0
4 8 18 39 64 81 83 101 134 0
4 9 11 18 23 38 42 69 83 0
4 9 14 23 42 56 80 120 129 0
4 9 16 18 53 55 75 97 123 0
4 9 16 20 37 40 55 98 101 0
4 9 46 77 83 84 93 102 120 0
4 11 15 17 36 76 97 98 134 0
4 16 155 160 193 205 225 258 293 0
4 18 20 47 56 77 81 100 128 0
4 20 47 60 72 81 89 98 104 0
5 6 7 11 48 51 78 128 129 0
5 6 9 13 18 19 36 62 99 0
5 6 11 12 37 78 80 123 134 0
5 6 17 67 68 69 77 128 131 0
5 7 40 49 58 66 99 100 121 0
5 9 12 36 38 70 78 128 129 0
5 9 42 46 62 81 99 100 129 0
5 12 15 46 48 68 69 77 79 0
5 13 22 51 75 78 128 129 131 0
5 14 16 17 18 49 74 81 106 0
5 16 18 22 23 40 75 126 135 0
5 19 22 36 54 69 82 85 127 0
5 20 39 40 41 75 90 104 121 0
5 23 43 44 73 81 100 128 129 0
5 46 48 66 80 84 86 98 128 0
6 7 8 15 48 51 75 130 131 0
6 7 10 37 38 63 77 79 124 0
6 7 14 68 71 77 84 104 129 0
6 8 12 20 21 58 99 122 128 0
6 8 20 49 67 68 77 128 129 0
6 9 10 13 38 68 69 128 129 0
6 10 11 13 17 38 48 67 130 0
6 11 12 13 15 46 51 74 78 0
6 11 13 20 52 60 78 106 122 0
6 12 13 38 62 68 69 74 78 0
6 13 18 22 42 65 68 80 130 0
6 15 17 53 76 81 100 104 121 0
6 16 42 54 77 84 99 100 121 0
6 17 45 47 49 52 58 99 106 0
6 19 23 58 68 69 77 99 100 0
6 19 36 65 75 99 126 128 129 0
6 19 40 47 49 70 77 99 121 0
6 21 22 45 47 83 94 106 128 0
6 40 42 43 47 49 66 99 100 0
6 42 46 47 58 77 84 88 100 0
6 47 58 66 69 76 77 83 128 0
6 60 76 77 94 99 106 121 128 0
6 197 204 208 220 221 224 268 294 0
7 9 11 48 52 53 75 77 79 0
7 10 36 46 52 106 120 121 125 0
7 11 19 21 70 82 84 85 123 0
7 12 14 39 53 79 81 97 101 0
7 13 14 15 23 72 74 76 80 0
7 17 19 40 52 58 77 99 133 0
7 17 43 47 53 66 97 122 131 0
7 20 38 58 77 81 97 100 122 0
8 9 16 40 55 72 80 83 121 0
8 9 37 53 70 84 101 128 132 0
8 14 37 50 54 66 72 75 79 0
8 17 47 69 74 78 85 133 134 0
9 10 13 38 40 47 48 74 123 0
9 10 18 38 44 47 74 77 129 0
9 11 17 37 63 73 74 124 125 0
9 11 51 68 69 78 123 125 130 0
9 13 15 42 51 54 78 79 129 0
9 13 18 23 38 48 60 83 100 0
9 13 20 38 40 47 74 79 123 0
9 13 38 40 48 55 74 79 123 0
9 13 38 44 48 63 79 82 123 0
9 13 38 48 72 80 83 98 131 0
9 17 38 48 53 72 83 127 132 0
9 18 37 38 39 55 74 81 120 0
9 20 51 75 80 95 101 102 122 0
9 23 40 58 75 81 104 106 123 0
9 39 53 70 72 73 83 122 130 0
9 42 55 56 77 98 101 129 131 0
9 47 51 65 101 102 123 133 134 0
9 53 70 72 73 80 83 122 130 0
9 56 149 152 183 201 202 243 275 0
10 11 12 38 62 72 73 74 78 0
10 11 212 239 240 244 247 253 262 0
10 13 36 48 63 72 74 78 135 0
10 23 42 45 100 149 165 168 243 0
10 40 41 46 63 76 81 85 125 0
10 40 46 56 65 66 81 85 120 0
10 130 148 150 155 162 169 188 295 0
10 149 158 165 168 171 221 271 276 0
11 16 17 19 51 67 68 75 134 0
11 23 37 55 62 74 75 128 129 0
11 160 191 211 265 280 283 288 297 0
11 160 210 212 248 265 280 283 299 0
12 13 14 36 47 51 72 74 135 0
12 13 51 63 80 81 83 94 132 0
12 14 19 42 49 68 83 104 122 0
12 17 18 40 55 66 75 99 100 0
12 17 40 55 66 75 99 100 102 0
12 19 21 47 48 51 66 127 130 0
12 49 79 141 158 208 241 258 276 0
12 49 141 144 158 208 241 258 276 0
13 17 18 36 46 48 51 83 135 0
13 17 37 49 72 77 83 134 135 0
13 17 37 72 83 98 101 124 132 0
13 18 22 55 56 83 84 85 129 0
13 18 23 37 38 73 78 79 85 0
13 18 23 38 56 81 85 101 104 0
13 18 37 38 70 73 81 127 135 0
13 18 38 48 72 80 83 98 106 0
13 18 38 60 68 85 98 101 122 0
13 19 62 74 75 76 79 99 128 0
13 20 22 69 70 78 101 121 131 0
13 20 37 48 63 73 74 79 123 0
13 20 55 56 75 80 81 120 128 0
13 21 51 73 85 98 101 126 133 0
13 23 38 63 73 81 101 127 135 0
13 46 154 160 209 239 247 253 265 0
13 47 54 66 74 98 100 106 133 0
13 75 79 80 84 99 124 126 128 0
13 191 211 239 253 261 265 280 297 0
14 21 36 37 38 41 129 130 131 0
15 16 40 51 55 67 76 81 133 0
15 45 55 66 67 72 73 75 130 0
15 160 191 211 239 253 265 280 297 0
15 172 188 212 244 277 283 299 300 0
15 213 254 256 274 277 283 299 300 0
16 17 18 36 55 81 85 97 104 0
16 19 20 23 43 76 83 126 127 0
16 62 142 148 150 151 169 176 195 0
16 62 150 151 164 233 237 240 271 0
16 81 150 151 158 177 195 275 295 0
17 18 38 48 53 72 83 127 132 0
17 18 38 50 55 67 82 124 131 0
17 18 40 41 48 58 74 79 124 0
17 38 48 50 55 67 92 124 131 0
17 102 127 147 159 167 217 264 302 0
18 22 38 55 56 65 69 75 81 0
18 23 53 75 83 97 102 121 122 0
18 40 54 62 74 89 97 98 124 0
18 42 77 79 99 100 102 124 129 0
19 21 23 40 47 58 75 106 121 0
19 40 52 80 90 98 120 121 123 0
19 126 138 164 218 245 286 291 292 0
20 23 48 49 69 74 124 126 130 0
20 47 142 145 151 157 163 178 266 0
20 145 163 172 178 200 207 239 294 0
21 38 47 51 76 80 94 104 128 0
21 49 72 76 77 78 84 99 128 0
21 50 183 210 211 264 279 297 300 0
22 70 136 146 150 152 156 185 216 0
23 36 37 49 51 60 72 78 80 0
23 50 54 68 71 72 74 82 85 0
23 139 161 163 183 195 220 283 286 0
36 37 50 161 183 198 250 279 300 0
36 49 50 161 183 198 264 287 294 0
36 191 212 261 265 280 283 288 298 0
37 212 251 257 259 261 280 283 299 0
37 213 250 254 256 260 277 279 300 0
38 47 51 63 66 76 77 132 133 0
38 52 60 69 77 83 90 92 100 0
38 154 212 213 239 240 248 253 257 0
38 191 211 250 260 277 279 297 300 0
38 210 212 220 248 268 278 288 300 0
38 210 212 220 248 268 283 288 300 0
38 210 212 234 240 248 253 257 262 0
38 210 212 248 277 283 287 288 294 0
39 145 149 151 152 183 198 220 243 0
39 145 149 151 152 183 198 243 286 0
40 43 66 75 81 99 121 123 128 0
40 81 104 139 177 208 214 221 293 0
43 123 136 146 154 162 174 232 245 0
44 52 138 140 145 146 162 175 229 0
44 62 64 150 151 168 199 233 242 0
44 71 152 161 197 209 239 283 299 0
45 50 51 65 76 78 99 106 130 0
45 167 169 212 261 265 280 298 299 0
47 51 64 70 72 73 76 79 133 0
48 139 149 163 164 208 217 225 248 0
49 154 159 165 191 240 248 250 257 0
50 139 162 174 198 210 286 292 293 0
50 152 156 213 250 260 279 297 300 0
51 191 240 248 250 257 260 262 279 0
52 159 240 244 262 269 274 292 298 0
56 82 143 198 226 239 240 255 266 0
58 136 146 156 157 208 233 277 284 0
60 84 156 172 207 233 249 257 269 0
60 136 155 165 169 200 240 247 258 0
60 138 140 157 180 208 258 271 279 0
65 70 138 144 160 169 174 177 249 0
66 143 149 150 155 167 168 233 258 0
66 143 150 155 167 168 233 245 249 0
68 89 138 145 146 198 268 275 292 0
69 76 82 161 198 281 286 287 294 0
70 80 146 150 154 170 178 243 288 0
70 85 136 163 170 172 180 189 224 0
70 136 137 146 159 171 175 287 302 0
70 136 137 146 159 171 236 287 302 0
71 136 155 165 169 200 240 247 258 0
74 137 142 155 193 196 205 288 295 0
74 137 142 155 193 205 280 288 295 0
75 138 139 176 258 270 286 288 302 0
75 138 139 188 258 270 286 288 302 0
75 170 172 209 247 260 277 283 300 0
75 257 259 261 265 270 280 286 288 0
76 136 146 152 171 178 224 232 300 0
78 128 138 139 149 155 177 257 265 0
79 136 143 149 150 166 173 193 238 0
80 85 144 158 187 232 266 271 276 0
80 132 146 154 167 188 243 275 288 0
80 137 142 155 182 205 282 288 295 0
80 137 143 145 155 182 282 288 295 0
80 137 143 155 182 205 282 288 295 0
81 104 143 148 174 202 233 270 299 0
81 123 140 145 146 208 214 274 293 0
82 104 138 160 166 170 173 255 288 0
83 126 145 146 148 156 175 180 193 0
83 126 145 146 148 156 177 180 193 0
83 136 146 151 219 241 245 268 272 0
84 139 142 149 151 156 244 269 293 0
84 142 149 151 156 207 248 269 294 0
85 106 145 146 147 150 154 169 270 0
89 143 149 150 155 167 168 233 249 0
89 143 150 155 168 188 233 245 258 0
91 138 160 166 170 229 255 288 289 0
101 102 106 123 141 149 168 208 257 0
101 138 150 169 197 204 206 264 271 0
102 104 142 150 155 163 167 205 215 0
102 106 145 146 147 150 154 169 270 0
102 106 146 147 150 154 169 205 270 0
104 123 138 150 160 174 188 255 288 0
104 133 136 142 143 163 165 168 202 0
104 138 150 152 160 174 188 255 288 0
106 142 143 148 152 165 168 233 240 0
122 136 146 151 219 241 245 268 272 0
126 132 143 145 146 156 175 180 193 0
126 137 138 140 141 164 218 286 291 0
130 144 148 150 155 163 169 174 295 0
130 144 150 155 163 174 202 270 295 0
133 136 153 155 161 165 200 247 270 0
1 2 8 13 16 17 40 48 53 73 0
1 2 13 40 44 56 79 81 84 98 0
1 2 14 16 37 38 40 62 73 134 0
1 2 18 37 40 55 56 72 102 123 0
1 4 11 37 42 51 52 54 77 129 0
1 6 11 37 42 54 77 79 128 129 0
1 7 8 20 67 69 70 77 81 132 0
1 7 9 12 37 38 42 50 54 76 0
1 7 9 18 42 53 55 97 102 120 0
1 7 15 47 52 55 58 77 97 131 0
1 7 20 37 42 48 52 77 82 128 0
1 7 22 23 37 38 42 82 121 128 0
1 8 10 12 38 54 63 74 82 134 0
1 9 13 50 52 53 72 124 131 132 0
1 9 36 51 60 76 78 90 126 135 0
1 13 14 16 40 62 72 73 76 80 0
1 16 18 40 52 76 77 87 98 100 0
1 17 23 38 41 62 73 80 99 130 0
1 42 51 54 63 77 83 128 129 135 0
1 45 205 212 224 261 265 280 293 299 0
2 3 9 16 19 36 40 48 51 62 0
2 3 11 12 15 20 76 78 130 131 0
2 4 7 10 13 23 74 77 80 134 0
2 4 11 15 47 64 71 77 80 129 0
2 6 7 20 63 66 79 83 101 133 0
2 6 9 16 20 39 55 72 74 81 0
2 6 9 23 66 79 81 102 128 129 0
2 6 13 55 71 72 73 75 78 125 0
2 6 23 44 48 74 78 79 102 135 0
2 7 9 13 51 62 63 79 84 126 0
2 8 9 11 16 23 42 60 69 100 0
2 9 12 38 40 67 74 83 85 128 0
2 9 23 37 51 60 62 73 123 135 0
2 12 18 37 45 54 68 69 74 78 0
2 13 18 37 39 40 51 58 121 128 0
2 13 18 40 72 83 85 97 101 130 0
2 13 37 38 40 44 73 74 79 123 0
2 13 37 53 62 72 77 80 81 94 0
2 15 17 18 36 37 63 79 82 123 0
2 17 18 23 41 51 74 97 121 134 0
2 37 62 68 75 79 84 125 128 131 0
2 37 166 191 197 204 234 253 265 280 0
2 38 72 79 82 85 123 131 133 134 0
3 4 5 11 14 19 49 125 128 129 0
3 4 8 18 19 36 38 46 49 77 0
3 5 7 9 15 17 68 77 130 131 0
3 6 7 13 18 23 51 69 120 129 0
3 6 11 18 76 81 90 93 99 131 0
3 6 16 19 20 36 44 58 63 85 0
3 8 13 15 36 52 63 79 83 85 0
3 8 23 53 78 79 95 100 102 134 0
3 9 13 20 51 75 77 80 81 128 0
3 10 15 16 44 74 81 101 123 135 0
3 11 19 23 37 54 85 102 106 133 0
3 13 14 23 51 72 74 77 102 128 0
3 13 15 19 36 38 67 73 75 80 0
3 16 20 23 43 76 83 84 126 127 0
3 37 170 172 188 191 235 250 262 279 0
3 69 70 82 133 150 163 180 194 224 0
4 5 11 13 38 67 73 76 80 128 0
4 5 11 15 20 48 98 102 120 127 0
4 5 13 21 38 66 67 73 76 80 0
4 5 16 20 21 23 49 64 78 80 0
4 6 9 20 62 76 77 83 84 130 0
4 6 13 47 49 51 54 65 79 126 0
4 6 18 20 21 51 66 78 121 130 0
4 6 23 37 38 58 77 84 128 131 0
4 7 8 19 43 46 49 65 74 77 0
4 7 9 10 13 44 47 48 51 129 0
4 7 23 68 69 74 77 81 121 130 0
4 8 15 47 48 51 68 75 79 131 0
4 8 15 55 73 75 77 128 129 134 0
4 8 42 62 68 69 77 83 127 129 0
4 9 23 53 62 74 77 85 100 120 0
4 14 37 38 66 67 69 77 83 135 0
4 19 23 47 48 68 81 98 99 128 0
4 138 144 155 157 163 182 199 276 301 0
4 139 184 199 205 223 265 270 280 293 0
5 6 7 40 41 76 77 80 121 123 0
5 6 13 15 19 20 77 126 128 129 0
5 6 17 18 19 20 63 81 99 129 0
5 6 18 19 36 98 101 128 129 130 0
5 6 20 21 22 40 46 68 127 128 0
5 6 20 21 22 40 63 74 127 128 0
5 6 40 41 80 84 99 100 121 123 0
5 7 9 37 48 51 52 74 76 78 0
5 7 13 38 40 52 75 90 104 121 0
5 9 15 38 39 52 74 85 95 97 0
5 9 23 43 73 81 85 100 128 129 0
5 11 12 15 37 44 52 58 82 128 0
5 12 19 38 49 54 83 122 130 135 0
5 12 23 36 42 80 84 85 98 104 0
5 17 20 42 55 66 72 76 77 129 0
5 18 20 37 49 66 68 80 127 129 0
5 18 37 58 63 74 85 98 99 128 0
5 19 22 36 43 69 78 85 127 131 0
5 42 56 58 74 79 80 98 99 101 0
6 7 9 10 13 53 55 128 130 131 0
6 7 17 20 36 54 63 66 67 128 0
6 7 18 37 48 52 67 76 93 131 0
6 7 20 43 49 68 77 81 123 129 0
6 8 13 18 66 71 78 85 106 135 0
6 8 19 49 67 78 84 93 106 128 0
6 9 17 20 66 76 79 126 128 129 0
6 11 13 19 38 56 63 71 75 84 0
6 13 17 38 48 68 74 82 129 131 0
6 13 18 23 43 51 69 85 120 129 0
6 14 37 38 63 68 69 83 124 135 0
6 17 37 49 50 74 76 85 90 124 0
6 21 22 45 47 52 78 83 94 128 0
6 42 150 161 162 163 164 173 219 224 0
6 47 51 55 76 78 99 104 129 131 0
7 10 51 66 72 100 129 133 134 135 0
7 12 14 36 39 54 69 71 81 83 0
7 13 16 37 42 43 44 52 79 129 0
7 14 68 69 71 74 81 82 84 125 0
7 18 39 48 54 72 82 90 101 133 0
7 23 172 191 224 253 254 277 292 300 0
7 80 133 150 151 153 164 175 224 269 0
7 183 198 240 241 244 262 264 274 298 0
8 9 20 47 48 51 79 82 126 133 0
8 9 51 68 78 83 97 101 127 134 0
8 13 18 37 38 43 49 84 93 106 0
8 15 43 50 69 72 77 92 129 134 0
8 16 23 40 42 43 56 58 100 130 0
8 17 18 39 78 80 95 100 102 127 0
8 17 43 55 75 81 85 98 104 124 0
8 69 70 72 78 83 121 122 129 130 0
8 89 143 146 175 177 240 241 246 270 0
9 10 14 43 72 75 97 106 124 134 0
9 11 16 51 54 68 101 102 133 135 0
9 11 18 19 23 37 48 73 77 129 0
9 11 36 51 52 78 83 85 97 134 0
9 13 18 20 53 69 70 80 128 130 0
9 16 17 18 20 39 74 75 101 127 0
9 18 19 40 43 62 81 83 85 122 0
9 18 74 79 83 97 98 101 122 123 0
9 75 139 144 150 168 193 221 233 283 0
9 201 254 256 259 261 265 266 271 280 0
10 11 12 159 209 218 277 283 299 300 0
10 12 18 65 66 76 85 101 102 125 0
10 12 140 155 161 164 172 190 199 284 0
10 13 15 23 38 42 47 77 122 129 0
10 13 18 40 46 63 74 79 84 85 0
10 13 42 60 62 73 89 106 125 134 0
10 14 17 41 53 69 76 84 130 131 0
10 38 46 51 67 68 69 89 128 132 0
11 13 15 23 37 54 77 99 100 121 0
11 13 56 62 63 68 78 123 127 130 0
11 15 19 38 58 68 77 78 99 130 0
11 15 49 55 67 76 79 101 125 134 0
11 18 23 38 53 54 72 75 101 121 0
11 18 44 48 73 78 79 84 130 135 0
11 19 36 37 43 71 73 77 78 85 0
11 47 138 143 146 147 148 152 239 255 0
11 209 213 247 277 283 292 293 299 300 0
11 213 250 254 256 260 269 277 292 300 0
12 13 14 15 36 69 71 72 77 135 0
12 14 23 38 54 69 71 72 77 80 0
12 14 36 37 38 66 67 68 74 131 0
12 39 140 144 161 164 167 170 172 199 0
12 140 144 155 161 164 172 190 199 291 0
13 16 18 20 55 56 58 85 98 101 0
13 18 23 38 56 68 85 98 130 133 0
13 18 23 56 68 78 85 98 130 133 0
13 19 54 56 68 74 77 102 106 133 0
13 23 38 52 71 72 82 85 101 102 0
13 38 46 49 56 72 77 83 86 102 0
13 42 49 56 77 80 83 86 100 121 0
14 16 41 50 62 75 87 95 98 101 0
14 17 39 72 79 83 84 97 101 127 0
14 129 161 165 221 240 255 266 277 283 0
14 132 135 138 144 166 208 242 249 297 0
15 16 82 140 145 147 158 159 257 275 0
15 18 22 36 48 55 56 65 75 127 0
15 18 23 44 48 73 78 79 100 135 0
15 19 50 51 67 75 76 81 99 104 0
15 69 136 139 159 165 173 178 224 265 0
15 159 191 212 240 244 250 262 274 279 0
16 20 40 53 67 70 74 79 80 81 0
16 52 211 212 240 244 260 269 274 292 0
17 18 20 40 48 55 58 66 75 124 0
17 18 138 140 143 144 172 255 270 274 0
17 21 51 55 76 78 81 94 95 124 0
17 69 134 147 151 153 173 230 282 294 0
18 19 138 140 142 144 172 203 205 258 0
18 20 37 49 68 77 80 81 99 106 0
18 23 39 51 65 75 85 100 122 123 0
18 37 44 48 58 74 85 98 101 128 0
18 143 145 150 157 166 233 247 262 270 0
18 143 145 157 166 233 239 262 270 274 0
18 166 197 204 210 212 248 277 283 300 0
19 20 44 48 54 68 69 77 82 128 0
19 42 70 126 144 178 193 200 247 295 0
19 44 48 58 62 63 73 74 127 135 0
19 126 138 164 218 221 245 266 275 292 0
20 42 48 58 63 77 98 99 100 122 0
20 58 65 75 77 81 99 100 121 122 0
20 65 138 139 140 161 208 214 301 303 0
21 40 139 156 157 158 164 172 173 213 0
22 37 49 53 65 77 84 129 130 132 0
22 72 141 149 165 168 199 226 255 257 0
22 147 153 168 172 173 177 180 223 272 0
23 42 100 145 149 165 239 240 248 258 0
36 45 54 76 83 84 85 92 97 124 0
36 159 209 213 240 247 277 283 299 300 0
37 50 159 208 221 250 266 271 279 300 0
37 154 159 191 212 240 248 250 257 279 0
37 213 234 253 254 256 260 261 265 280 0
38 160 189 191 201 211 213 239 265 280 0
38 189 201 210 212 239 240 248 257 262 0
39 40 55 70 74 83 93 97 99 102 0
40 42 58 62 74 75 99 122 124 128 0
40 44 138 139 148 163 164 195 205 258 0
40 98 140 159 163 164 166 174 270 302 0
40 98 140 159 163 164 169 174 184 302 0
42 68 138 140 161 208 258 271 283 284 0
42 84 89 138 140 146 162 241 258 266 0
43 84 139 161 163 188 189 220 283 286 0
43 139 143 147 166 178 188 230 233 241 0
45 64 144 145 151 156 158 239 288 302 0
46 145 146 149 151 152 161 183 190 243 0
48 139 149 153 158 164 208 217 235 302 0
52 104 139 144 159 174 188 197 258 287 0
58 88 140 144 158 163 170 172 221 249 0
60 67 72 82 138 146 166 198 233 292 0
60 106 141 150 168 180 218 232 255 268 0
60 136 155 161 165 200 240 247 258 270 0
62 138 150 160 174 178 204 264 288 293 0
62 142 148 150 151 153 169 176 195 206 0
65 82 138 148 160 162 167 173 174 255 0
65 137 138 144 151 160 169 174 182 200 0
68 136 155 165 169 192 197 200 240 258 0
75 138 139 140 144 174 177 219 228 258 0
76 84 140 149 189 208 214 226 279 293 0
76 138 139 208 218 221 229 255 277 287 0
78 82 142 143 146 149 192 216 240 247 0
79 136 149 167 174 201 205 208 213 298 0
82 84 106 143 150 151 168 173 180 233 0
82 84 132 143 150 151 168 173 180 233 0
82 102 138 144 157 162 166 202 226 277 0
82 102 138 144 162 166 198 202 226 277 0
82 104 106 139 159 197 258 263 281 287 0
82 104 139 149 159 197 246 258 281 287 0
82 106 139 144 158 171 177 188 283 295 0
82 106 143 150 151 166 168 173 180 233 0
83 84 149 157 160 165 168 177 258 265 0
84 85 106 123 159 171 172 224 264 300 0
84 120 139 142 161 163 166 220 276 283 0
85 120 153 168 173 177 180 184 272 295 0
85 134 150 151 154 155 158 162 190 201 0
86 91 137 165 169 211 218 237 293 297 0
86 142 145 150 155 156 163 193 195 215 0
88 89 139 160 162 164 197 220 258 265 0
88 161 230 240 244 262 274 279 283 298 0
93 150 167 168 193 201 205 212 231 232 0
94 152 154 165 191 198 240 248 257 268 0
96 102 153 168 174 188 199 258 261 295 0
96 102 169 186 210 234 248 277 283 300 0
98 142 143 145 158 162 163 165 193 293 0
104 133 136 142 143 150 163 168 184 202 0
120 139 142 161 163 183 220 276 283 286 0
121 141 144 145 156 186 199 204 270 295 0
126 132 142 143 145 146 156 177 180 241 0
133 136 141 146 202 203 218 255 268 301 0
133 136 141 146 203 207 218 255 268 301 0
133 136 142 143 144 164 165 168 170 193 0
133 143 146 163 181 198 239 270 274 286 0
1 3 6 7 8 17 62 65 69 98 128 0
1 3 9 12 17 18 72 74 84 85 135 0
1 4 6 16 18 37 38 54 79 81 122 0
1 5 7 18 19 42 65 66 77 79 95 0
1 5 7 18 41 66 85 101 128 130 133 0
1 5 17 22 51 63 65 74 75 81 120 0
1 5 23 41 66 69 75 88 128 130 133 0
1 5 36 42 51 55 60 62 74 75 85 0
1 7 12 14 38 68 72 79 82 133 135 0
1 7 12 15 37 42 75 81 83 100 131 0
1 7 12 45 60 68 77 79 81 122 131 0
1 7 15 19 42 43 48 54 77 127 130 0
1 7 20 40 47 58 75 77 81 100 122 0
1 7 23 140 145 153 155 159 232 238 258 0
1 8 13 18 53 72 77 83 97 102 130 0
1 9 16 20 53 58 68 72 73 122 127 0
1 11 16 39 48 53 81 95 101 127 128 0
1 12 36 38 39 54 63 71 79 123 131 0
1 12 50 224 250 260 269 285 292 293 300 0
1 13 49 55 64 74 75 89 125 126 128 0
1 15 17 23 42 43 73 79 85 120 124 0
1 15 19 42 43 48 54 66 77 127 130 0
1 36 51 52 60 69 77 79 85 95 100 0
1 36 156 197 205 212 213 239 240 253 266 0
1 38 44 68 69 75 77 83 84 85 122 0
2 3 4 15 23 60 69 74 77 81 100 0
2 3 6 17 38 42 49 77 99 100 130 0
2 3 6 37 50 62 75 77 79 84 125 0
2 3 9 38 44 47 69 79 124 125 129 0
2 3 10 20 37 38 44 68 82 128 131 0
2 4 9 11 23 63 65 83 85 123 126 0
2 4 16 23 40 43 56 62 73 100 129 0
2 4 16 155 193 198 205 225 258 268 293 0
2 5 7 9 11 44 62 63 81 85 127 0
2 5 7 9 11 44 62 63 81 85 128 0
2 5 9 36 39 40 56 74 81 85 135 0
2 7 9 23 37 51 62 73 77 123 135 0
2 7 10 16 71 73 79 83 98 120 125 0
2 7 15 37 40 44 56 62 79 82 123 0
2 9 11 13 23 36 56 78 83 124 133 0
2 9 11 19 23 40 43 74 75 81 95 0
2 9 13 18 23 48 51 83 97 100 134 0
2 9 13 22 37 77 83 101 102 132 134 0
2 9 15 19 20 63 79 92 101 102 133 0
2 9 15 23 71 72 78 130 132 134 135 0
2 11 13 17 20 23 60 63 79 102 122 0
2 13 18 39 40 49 51 58 68 121 128 0
2 13 18 40 52 72 85 97 101 129 130 0
2 14 23 41 46 48 54 77 79 102 135 0
2 16 40 55 66 72 73 76 80 129 133 0
2 146 166 204 210 212 248 277 283 288 300 0
2 166 191 197 204 211 234 253 265 280 297 0
2 166 191 197 204 211 239 251 253 280 297 0
2 166 197 204 210 212 248 277 283 288 300 0
3 4 5 6 9 13 18 19 20 38 124 0
3 5 7 11 13 18 65 67 77 80 127 0
3 5 7 11 13 48 65 67 77 80 127 0
3 5 7 17 22 65 77 122 129 130 131 0
3 5 11 13 21 63 99 121 122 125 128 0
3 5 13 48 51 52 55 70 74 78 130 0
3 5 16 22 53 73 75 76 84 127 128 0
3 6 16 19 20 51 54 58 66 68 85 0
3 6 21 52 58 60 77 83 89 106 128 0
3 8 13 14 19 46 74 77 84 85 132 0
3 9 10 38 62 63 76 77 79 128 129 0
3 11 14 17 19 38 48 65 72 73 74 0
3 11 15 17 21 64 68 80 84 128 132 0
3 15 169 212 239 240 248 253 257 262 283 0
3 23 48 50 68 69 72 74 82 84 85 0
3 40 42 47 58 75 81 121 123 131 135 0
3 170 172 188 191 240 250 262 274 279 298 0
3 170 172 188 209 213 239 240 247 253 262 0
4 5 6 9 12 18 36 40 46 83 121 0
4 5 13 17 19 22 65 74 75 77 85 0
4 7 8 19 38 46 49 74 77 106 127 0
4 9 11 15 37 38 40 56 79 82 123 0
4 14 36 37 38 67 77 83 128 131 135 0
4 16 18 20 68 69 75 77 85 120 127 0
4 16 18 52 81 87 92 98 121 124 130 0
4 16 18 65 68 69 75 77 85 120 127 0
5 6 7 15 17 18 40 62 63 66 129 0
5 6 7 15 17 18 40 63 66 97 129 0
5 6 22 39 74 79 81 83 128 129 130 0
5 10 11 13 20 36 62 63 77 82 128 0
5 11 18 22 38 46 49 68 74 78 84 0
5 12 19 20 40 66 73 74 77 81 83 0
5 17 46 58 66 74 77 81 83 106 123 0
5 18 20 54 55 62 65 74 75 81 85 0
5 18 22 72 77 80 84 88 95 100 102 0
6 7 11 13 19 52 60 63 69 77 92 0
6 7 15 43 49 66 81 100 106 128 130 0
6 8 18 22 40 45 54 63 69 104 129 0
6 8 40 43 60 63 69 99 100 121 123 0
6 9 11 23 37 42 54 77 79 128 129 0
6 11 13 37 38 50 62 75 79 84 125 0
6 12 14 22 38 43 50 74 78 81 121 0
6 12 20 37 48 70 77 80 81 99 128 0
6 13 18 23 78 99 100 124 127 130 133 0
6 78 79 106 136 139 146 153 156 216 232 0
6 172 197 204 208 221 224 227 268 286 300 0
7 9 10 13 36 48 63 74 78 128 129 0
7 11 18 23 38 52 55 71 81 120 129 0
7 16 44 51 74 100 101 102 106 133 134 0
7 22 141 147 149 156 157 177 197 216 218 0
7 23 36 63 74 80 81 98 106 129 135 0
8 9 13 36 65 69 72 74 75 125 127 0
8 13 46 53 63 68 79 80 102 122 125 0
8 15 17 21 38 66 76 77 78 80 128 0
8 20 42 43 62 65 76 77 83 122 127 0
8 20 47 48 51 72 73 79 82 126 133 0
8 44 102 136 142 148 152 156 188 200 255 0
8 49 51 53 63 68 78 80 102 130 132 0
9 10 13 18 38 44 48 69 77 83 98 0
9 10 18 36 53 54 55 69 80 124 131 0
9 11 12 21 41 73 76 78 124 129 134 0
9 11 20 53 68 70 77 101 102 132 134 0
9 13 15 23 37 52 77 79 83 98 106 0
9 13 22 37 48 51 55 75 93 120 127 0
9 140 146 147 150 167 175 187 189 197 271 0
10 13 18 36 69 84 85 98 99 101 104 0
10 13 18 37 38 40 74 79 102 120 124 0
10 13 36 68 74 77 80 81 121 125 131 0
10 17 18 43 50 53 66 69 79 83 87 0
10 17 41 80 84 85 98 121 123 124 134 0
10 170 172 188 212 261 265 280 283 288 298 0
10 170 172 188 212 261 265 280 283 298 299 0
10 170 172 188 261 265 274 280 283 288 298 0
11 13 16 42 51 56 76 77 81 120 129 0
11 16 18 20 40 56 63 78 85 130 135 0
11 18 20 23 53 54 62 72 75 101 121 0
11 19 23 44 68 79 82 85 98 129 133 0
11 21 36 37 48 58 66 77 100 123 130 0
11 52 147 153 168 172 177 178 198 238 294 0
11 52 161 178 191 211 261 265 280 283 288 0
11 138 143 148 160 163 174 200 224 247 275 0
11 140 145 146 149 172 175 177 205 245 275 0
11 154 210 212 240 244 248 250 260 279 280 0
11 159 191 240 250 257 262 269 274 292 298 0
11 210 212 240 244 248 250 260 262 279 280 0
12 19 72 154 161 175 176 190 199 225 292 0
12 46 71 82 151 154 184 245 255 270 286 0
12 50 139 141 156 178 197 198 208 224 269 0
12 136 144 149 158 165 168 170 171 208 276 0
12 140 142 151 155 161 164 172 199 258 284 0
12 144 149 158 165 168 170 171 208 241 276 0
13 16 17 19 20 43 49 77 85 99 100 0
13 16 18 23 38 44 78 79 100 133 135 0
13 16 20 51 54 66 73 121 128 130 131 0
13 17 18 19 38 46 58 74 77 95 121 0
13 18 20 23 38 68 85 101 102 106 133 0
13 18 23 38 39 44 51 84 85 100 123 0
13 18 23 54 63 71 72 74 76 101 102 0
13 20 23 38 48 56 63 73 74 79 123 0
13 23 37 38 48 71 73 79 121 123 131 0
13 212 240 248 250 256 257 259 260 262 279 0
14 71 79 142 143 144 148 149 158 162 165 0
14 93 136 145 146 151 152 219 241 268 272 0
14 106 123 136 145 149 152 153 166 168 197 0
14 136 145 146 151 152 219 241 245 268 272 0
15 204 213 240 248 254 260 277 283 299 300 0
15 213 240 248 254 256 260 277 283 299 300 0
16 44 132 140 145 146 162 175 177 188 243 0
16 82 143 151 155 164 168 169 170 226 239 0
16 82 151 164 169 172 198 213 226 242 248 0
16 132 140 145 146 175 177 188 243 253 293 0
17 18 38 74 184 195 199 205 225 271 293 0
17 23 52 60 67 69 77 79 100 127 129 0
17 39 40 46 47 48 56 58 63 81 127 0
17 69 133 134 146 147 173 236 239 286 294 0
17 69 133 140 145 147 159 177 205 226 294 0
18 36 40 41 47 48 52 58 66 74 75 0
18 48 53 74 79 83 98 101 122 123 134 0
19 49 154 165 183 191 240 248 257 264 299 0
19 72 137 139 140 151 165 177 198 214 258 0
19 82 141 157 162 174 180 218 223 289 292 0
20 21 139 156 157 158 164 172 213 224 225 0
20 42 74 163 165 174 177 187 233 239 275 0
21 22 146 147 153 159 168 173 180 223 272 0
22 52 67 69 70 75 77 83 121 129 134 0
22 146 147 153 168 172 173 180 223 272 287 0
23 82 138 140 145 147 159 172 184 255 270 0
36 37 71 191 200 207 250 260 270 279 286 0
36 37 200 207 261 265 270 280 283 286 299 0
36 38 152 156 213 235 239 253 262 283 299 0
36 208 209 221 234 240 247 253 262 266 271 0
36 208 209 221 239 240 247 253 262 266 271 0
36 208 212 221 239 240 247 253 262 266 271 0
36 209 213 240 247 260 277 283 287 294 299 0
37 38 189 191 201 206 213 225 239 261 265 0
37 52 161 178 220 239 253 260 268 279 300 0
37 159 212 240 248 250 257 259 262 279 280 0
38 200 207 210 248 270 277 283 286 288 300 0
39 80 147 148 155 160 163 190 202 237 288 0
40 46 145 149 151 152 158 183 198 243 286 0
40 79 136 142 149 156 158 171 207 258 269 0
40 81 104 139 163 174 176 178 188 219 228 0
42 43 50 68 69 71 74 81 82 84 125 0
42 82 106 150 157 180 197 200 202 232 262 0
42 82 123 136 140 148 164 218 236 281 291 0
43 44 48 58 62 63 73 74 122 127 135 0
43 100 138 140 147 159 174 258 264 295 301 0
44 52 139 142 161 163 195 220 276 283 286 0
44 136 138 143 149 150 155 166 197 264 270 0
45 47 155 158 159 172 176 204 221 286 293 0
45 51 154 159 172 218 240 248 250 259 279 0
45 54 152 156 161 197 209 239 253 262 299 0
45 154 159 209 218 239 247 253 277 299 300 0
46 138 144 150 157 158 163 188 199 270 301 0
46 154 165 191 239 253 256 261 265 277 300 0
50 60 143 145 166 168 198 202 218 270 292 0
50 60 143 145 168 198 202 218 268 286 292 0
50 65 90 139 171 218 221 266 275 286 287 0
50 82 159 161 196 198 208 258 271 287 294 0
50 92 159 161 196 198 208 258 271 287 294 0
51 169 211 212 213 239 240 248 253 257 269 0
52 74 142 161 163 171 197 206 220 276 283 0
52 154 159 165 176 235 274 279 283 288 298 0
54 82 142 145 150 154 172 197 202 205 286 0
54 159 167 169 212 239 247 253 262 277 300 0
56 60 82 143 155 165 172 200 240 247 258 0
58 104 121 161 176 177 178 208 214 222 225 0
58 139 144 151 158 160 174 178 288 290 295 0
60 65 138 144 149 160 174 191 232 249 258 0
60 82 84 145 146 156 175 179 198 226 236 0
60 143 145 168 198 202 218 268 270 277 292 0
62 138 150 152 160 174 204 224 264 288 293 0
64 75 137 138 139 140 141 164 218 275 291 0
66 69 144 145 171 188 205 217 281 287 293 0
66 139 140 144 159 174 177 188 197 250 258 0
69 102 144 146 160 174 197 200 211 251 288 0
69 140 149 153 155 157 159 164 177 208 248 0
70 75 146 150 154 167 170 175 243 253 288 0
70 140 146 150 154 162 175 177 224 243 253 0
71 82 138 165 166 174 198 202 226 239 277 0
71 136 145 146 152 181 188 194 207 272 281 0
72 139 144 165 171 173 188 199 240 283 295 0
74 154 165 191 205 206 239 253 256 261 293 0
75 138 139 140 152 159 219 228 250 269 297 0
76 82 123 140 173 208 219 222 246 279 293 0
76 147 156 157 158 163 173 178 198 226 266 0
76 208 221 250 254 256 257 260 269 287 292 0
77 82 141 146 157 162 168 180 194 205 281 0
77 92 137 198 208 224 241 264 269 281 297 0
77 136 145 147 159 166 172 184 255 270 275 0
78 136 142 145 146 154 170 197 199 202 205 0
79 97 142 153 154 158 162 167 190 253 271 0
79 149 155 166 167 174 201 205 208 213 298 0
80 142 148 154 155 169 173 177 195 237 276 0
80 151 153 155 163 164 171 176 182 232 267 0
80 151 153 155 163 164 176 182 232 267 271 0
82 90 139 146 150 157 175 199 204 208 258 0
82 91 149 161 176 192 199 222 224 225 247 0
82 106 139 144 146 171 173 188 199 283 295 0
84 132 136 146 156 171 180 192 200 272 281 0
84 132 139 159 172 178 224 238 258 264 265 0
85 120 141 149 150 158 165 195 258 280 295 0
88 156 161 178 240 244 262 274 283 288 298 0
88 161 230 240 244 262 269 274 283 292 298 0
89 138 142 143 155 160 188 204 233 258 264 0
91 120 139 142 147 176 184 198 236 255 258 0
91 151 157 159 164 165 192 208 214 245 264 0
94 154 165 240 248 257 259 261 265 283 299 0
96 136 137 152 155 169 184 194 206 214 228 0
97 137 140 145 162 163 176 193 195 215 249 0
98 136 155 167 176 201 204 205 241 268 284 0
102 138 150 160 178 255 264 265 267 288 293 0
106 136 138 140 147 159 163 174 223 258 264 0
106 136 138 140 147 159 173 174 223 258 301 0
106 136 138 140 147 159 174 223 258 264 301 0
124 138 150 160 178 255 264 265 270 276 293 0
132 135 137 143 144 168 173 177 195 206 266 0
134 136 155 156 165 168 243 244 248 266 268 0
134 137 138 140 150 161 179 226 245 287 303 0
1 2 3 16 17 22 43 47 81 85 130 131 0
1 2 6 9 13 38 42 43 76 84 123 129 0
1 2 146 166 204 210 212 235 239 248 253 269 0
1 3 6 15 43 66 72 77 78 83 101 129 0
1 3 8 9 21 70 72 78 132 133 134 135 0
1 4 5 14 36 46 49 51 60 69 74 85 0
1 4 7 14 16 42 48 54 58 74 79 125 0
1 4 37 40 66 74 79 80 84 91 123 135 0
1 6 9 16 23 42 43 83 122 129 130 135 0
1 6 9 19 20 23 76 78 83 84 120 127 0
1 7 8 68 69 70 82 83 100 101 131 133 0
1 7 9 13 17 23 52 67 76 79 100 130 0
1 7 12 13 20 21 40 44 60 81 99 129 0
1 7 13 14 21 56 62 66 73 76 81 129 0
1 7 15 47 51 72 77 79 101 126 131 133 0
1 7 19 20 43 52 69 74 75 97 100 131 0
1 11 13 38 40 48 56 69 76 79 82 123 0
1 11 18 36 37 42 47 52 98 99 130 134 0
1 12 15 43 50 51 67 69 72 76 77 129 0
1 12 18 38 63 71 72 82 84 85 98 102 0
1 12 37 41 45 75 80 81 84 97 98 121 0
1 17 18 39 50 54 65 72 83 84 88 90 0
1 67 140 143 145 146 166 208 233 247 270 274 0
1 82 140 145 147 151 155 159 174 258 271 275 0
1 136 139 140 145 147 158 159 166 172 255 270 0
1 136 140 145 147 158 159 166 172 224 255 270 0
1 164 191 205 212 224 259 261 265 280 288 293 0
1 191 205 212 224 251 259 261 280 283 293 299 0
1 191 205 212 224 259 261 265 278 280 293 299 0
1 205 212 224 251 257 259 261 280 283 293 299 0
1 205 212 224 257 259 261 265 278 280 293 299 0
1 205 212 224 257 259 261 265 280 283 288 293 0
1 205 212 224 257 259 261 265 280 283 293 299 0
2 3 5 11 12 17 22 49 51 78 84 125 0
2 3 13 17 45 50 53 55 56 77 101 129 0
2 4 9 11 43 45 53 58 75 98 104 121 0
2 4 15 22 23 44 50 56 62 77 79 100 0
2 6 14 23 37 38 55 69 80 83 125 130 0
2 6 20 42 46 49 68 75 76 78 81 89 0
2 7 9 11 15 23 51 62 73 122 123 135 0
2 7 16 19 58 66 74 75 76 81 85 121 0
2 7 23 46 50 54 66 77 79 101 102 125 0
2 8 9 54 60 79 80 83 85 102 124 129 0
2 8 12 20 23 36 51 53 75 80 128 129 0
2 9 10 16 17 18 37 38 40 102 123 134 0
2 9 11 16 20 40 56 63 78 100 120 135 0
2 9 21 23 39 44 51 54 68 84 85 123 0
2 10 12 40 54 55 67 75 85 90 94 101 0
2 10 15 46 73 74 80 81 89 99 104 135 0
2 11 12 14 19 22 43 46 49 74 78 127 0
2 11 13 36 37 40 51 66 91 99 121 123 0
2 18 42 44 65 68 77 81 100 120 121 128 0
2 146 166 172 204 210 212 239 240 248 253 262 0
2 159 166 191 197 204 211 250 277 279 297 300 0
2 166 189 191 197 201 204 211 239 265 280 297 0
2 166 197 204 210 212 239 240 248 253 257 262 0
2 166 197 204 212 213 239 240 248 253 257 262 0
3 4 8 9 11 38 83 85 125 128 129 135 0
3 4 12 15 19 20 47 51 53 78 92 125 0
3 5 6 7 11 13 52 65 67 77 80 81 0
3 5 6 11 13 23 53 70 73 75 80 133 0
3 5 7 9 11 14 36 38 42 52 104 129 0
3 5 8 16 37 68 75 83 85 95 122 131 0
3 5 11 13 18 20 22 36 68 125 127 130 0
3 5 21 22 37 49 51 80 84 122 127 132 0
3 6 7 19 21 66 87 94 99 106 121 129 0
3 6 8 9 11 16 43 51 78 83 85 125 0
3 6 15 18 22 38 53 55 69 79 80 83 0
3 8 9 16 21 70 72 78 132 133 134 135 0
3 9 10 13 48 51 63 69 74 128 129 130 0
3 10 13 18 38 52 74 85 99 121 124 125 0
3 11 15 18 38 44 58 65 75 102 127 134 0
3 11 17 22 36 40 67 69 75 76 98 100 0
3 11 19 22 43 44 52 56 69 85 127 128 0
3 11 22 37 42 44 69 77 81 100 120 127 0
3 12 13 15 20 38 66 70 75 79 82 133 0
3 13 16 17 36 55 56 67 75 85 128 129 0
3 38 170 172 188 213 244 274 277 283 299 300 0
3 170 172 188 209 213 235 247 277 278 299 300 0
4 5 17 36 41 67 74 75 78 93 97 104 0
4 6 7 12 14 42 63 79 80 81 85 104 0
4 6 9 13 62 77 83 84 127 128 129 130 0
4 6 11 37 38 63 67 77 97 121 128 130 0
4 6 13 21 37 38 66 75 125 126 128 130 0
4 6 16 143 155 156 164 168 180 182 258 268 0
4 6 23 37 38 63 77 84 98 126 128 131 0
4 6 123 139 147 148 159 161 163 222 275 302 0
4 9 19 54 63 77 81 82 85 98 102 129 0
4 10 11 17 18 54 62 85 87 104 120 124 0
4 11 13 15 20 37 38 45 51 63 72 74 0
4 12 17 21 22 42 46 81 83 84 121 130 0
4 17 20 47 56 58 74 75 76 97 99 124 0
5 6 7 11 17 40 47 54 68 85 121 129 0
5 6 7 20 38 43 58 65 66 68 77 82 0
5 6 8 13 17 62 70 72 76 79 126 129 0
5 6 9 18 20 42 76 79 91 97 99 121 0
5 6 9 19 36 38 66 69 75 126 128 130 0
5 6 13 19 20 22 49 65 77 127 128 129 0
5 6 19 50 62 65 69 74 77 100 124 127 0
5 7 9 17 19 46 49 79 85 121 128 133 0
5 7 11 15 18 37 40 49 51 54 121 130 0
5 8 11 17 38 43 47 69 83 84 95 122 0
5 9 14 16 36 37 42 51 60 69 85 135 0
5 9 15 16 40 52 77 81 92 100 122 135 0
5 11 13 41 63 68 72 73 75 124 128 133 0
5 12 19 20 48 66 73 74 75 77 81 83 0
5 20 40 42 62 81 98 100 121 123 128 135 0
6 7 12 18 19 40 49 67 85 120 125 127 0
6 11 13 16 38 44 48 58 71 81 84 133 0
6 12 17 41 47 68 69 75 76 97 121 130 0
6 13 17 21 22 72 77 78 80 94 101 102 0
6 13 18 51 75 78 79 80 95 127 129 131 0
6 16 17 20 23 49 62 68 74 79 99 126 0
6 16 23 36 42 54 58 66 69 79 99 133 0
6 37 47 69 74 77 85 99 100 122 127 129 0
6 52 169 178 189 201 211 239 260 279 292 293 0
7 8 15 19 47 51 66 69 70 80 95 133 0
7 8 15 22 23 37 48 69 77 81 101 131 0
7 9 17 37 51 69 72 77 81 84 128 131 0
7 10 17 41 53 60 75 76 81 97 121 131 0
7 11 13 17 20 63 74 77 81 84 100 131 0
7 12 14 17 22 38 67 72 75 76 97 127 0
7 18 19 42 46 51 68 70 72 78 82 133 0
7 77 136 137 141 148 149 152 157 218 245 264 0
7 106 123 136 146 152 154 162 174 192 232 245 0
8 9 16 38 52 77 80 82 83 100 125 128 0
8 9 16 51 63 68 69 78 85 123 125 130 0
8 9 20 23 40 53 78 79 81 97 98 106 0
8 12 18 23 38 43 53 72 85 101 121 122 0
8 15 22 69 70 83 101 121 129 130 131 132 0
8 36 197 209 213 239 253 274 277 283 299 300 0
9 11 12 19 23 43 49 60 81 83 85 121 0
9 13 17 20 37 40 53 60 75 79 90 124 0
9 13 48 49 53 77 80 83 98 101 132 134 0
9 17 40 43 54 72 81 85 101 102 121 135 0
10 11 154 165 239 253 256 261 265 277 280 300 0
10 14 18 43 51 53 72 83 97 124 131 134 0
10 15 160 176 211 239 250 253 260 265 279 280 0
10 89 164 165 174 200 220 239 243 258 260 286 0
11 13 15 18 36 38 44 51 73 79 130 135 0
11 13 15 37 40 48 58 62 66 74 75 97 0
11 16 18 20 36 40 44 56 78 98 100 135 0
11 17 18 19 23 53 54 72 74 90 102 106 0
11 18 19 20 37 38 39 40 51 77 121 128 0
11 36 37 44 48 68 75 85 100 123 131 135 0
11 45 50 154 159 165 212 218 240 292 293 300 0
11 47 136 138 141 148 171 176 199 207 218 255 0
11 52 147 153 160 168 174 177 178 198 238 288 0
11 136 138 140 145 147 156 166 172 184 255 270 0
11 154 165 191 212 240 250 257 260 279 283 299 0
12 13 18 23 39 42 48 55 72 79 83 101 0
12 14 19 42 46 48 49 58 68 83 99 122 0
12 17 22 51 52 69 77 81 100 121 129 130 0
12 46 139 147 154 155 157 160 172 175 188 258 0
12 84 141 146 154 157 168 189 194 205 269 281 0
12 140 142 155 161 164 184 199 258 266 271 284 0
13 14 38 39 54 55 56 81 83 97 101 102 0
13 36 154 206 212 225 240 248 250 260 279 285 0
13 45 167 169 212 250 260 261 265 279 280 299 0
14 17 18 48 72 74 81 84 97 98 104 121 0
14 50 136 159 161 196 198 208 258 271 287 294 0
14 58 136 137 141 157 173 178 226 238 287 294 0
14 79 136 145 146 152 184 219 241 245 268 272 0
14 120 136 141 142 152 156 167 171 188 255 266 0
14 166 197 204 213 250 260 277 279 285 297 300 0
15 82 138 160 163 166 173 174 197 255 259 301 0
16 70 142 143 149 154 162 169 193 270 275 284 0
16 130 150 151 156 165 168 193 233 240 269 271 0
16 137 142 143 145 149 162 169 193 270 275 284 0
16 137 142 143 149 154 162 169 193 270 275 284 0
16 141 143 149 151 153 155 158 162 165 182 201 0
16 141 143 149 151 155 158 162 165 182 201 240 0
16 142 143 145 149 154 160 162 193 270 275 284 0
16 142 145 149 150 154 160 162 193 270 275 284 0
16 142 145 149 150 154 162 169 193 270 275 284 0
16 142 145 149 150 154 162 193 261 270 275 284 0
18 36 166 197 200 204 207 270 277 283 286 300 0
18 166 197 204 210 212 239 240 248 253 257 262 0
18 166 197 204 212 213 239 240 248 253 257 262 0
19 65 70 144 151 160 169 174 176 178 182 237 0
19 65 126 138 144 149 151 160 174 178 191 228 0
20 22 45 46 47 62 72 74 81 89 98 106 0
20 23 58 66 68 74 77 81 84 85 106 127 0
20 74 138 140 147 159 160 173 215 258 265 301 0
20 82 142 148 197 204 210 212 213 283 288 300 0
20 124 138 150 155 178 255 264 265 270 288 293 0
20 138 139 140 161 163 208 214 223 255 291 303 0
20 138 139 140 161 208 214 223 255 291 301 303 0
20 142 166 191 197 204 211 239 253 265 280 297 0
20 142 166 197 204 210 212 248 277 283 288 300 0
21 136 138 139 141 150 199 207 221 255 258 275 0
21 138 139 141 150 199 207 218 221 255 259 275 0
21 170 172 188 209 213 234 240 247 253 262 300 0
21 170 172 188 212 213 239 240 247 253 262 300 0
36 38 167 169 212 235 239 253 262 277 287 294 0
36 71 152 197 209 213 239 253 274 277 283 299 0
36 79 156 209 213 235 247 262 277 283 299 300 0
37 38 159 161 178 191 234 250 253 277 279 300 0
37 38 160 184 189 198 199 201 239 241 265 280 0
37 204 208 221 250 254 260 266 271 277 279 300 0
38 184 198 199 213 241 250 260 277 279 297 300 0
38 200 207 213 239 240 248 253 257 262 270 286 0
40 42 50 53 136 140 143 161 164 229 286 291 0
40 48 139 144 146 152 155 159 172 177 208 221 0
40 60 138 140 141 153 164 168 218 286 291 302 0
42 78 143 146 163 168 181 186 198 266 270 286 0
42 84 138 139 140 146 147 162 199 241 258 266 0
42 84 141 143 146 163 181 198 238 239 270 286 0
42 130 143 145 166 168 198 200 202 218 270 277 0
42 134 136 155 165 168 208 243 244 248 266 268 0
43 82 139 145 146 147 156 171 173 275 286 302 0
44 152 153 156 197 209 239 244 262 277 283 299 0
44 152 156 161 197 209 239 240 244 262 283 299 0
44 152 156 197 209 239 240 244 262 277 283 299 0
45 47 146 159 172 173 176 197 204 221 286 293 0
46 138 144 150 157 158 163 188 199 230 270 296 0
46 154 159 165 239 253 254 256 261 265 277 300 0
47 82 138 142 144 147 159 163 172 204 218 284 0
49 52 78 166 198 200 210 218 220 264 283 300 0
49 85 106 142 143 148 156 165 168 193 233 274 0
50 53 160 170 210 240 253 257 262 283 288 300 0
50 53 170 172 210 240 253 261 262 283 288 300 0
51 82 143 148 149 172 184 192 216 239 240 258 0
52 71 146 162 164 170 175 184 203 218 266 286 0
52 154 159 165 176 240 244 274 279 283 288 298 0
52 161 169 178 211 239 253 260 277 279 297 300 0
52 161 178 211 234 253 260 277 279 280 297 300 0
52 161 178 211 239 253 260 277 279 280 297 300 0
56 136 155 156 165 239 243 244 248 255 266 268 0
56 136 155 156 165 239 243 244 248 258 266 268 0
60 62 142 148 150 151 169 176 195 206 233 266 0
64 78 139 153 155 164 165 168 169 180 238 257 0
64 81 145 164 169 208 215 218 266 268 292 301 0
69 82 139 145 146 147 156 171 173 275 286 302 0
70 83 140 146 148 154 175 177 188 243 253 293 0
70 140 145 146 150 154 175 177 243 253 275 293 0
71 132 139 159 167 172 184 224 238 264 265 293 0
72 136 155 156 165 239 243 244 248 255 266 268 0
74 150 151 170 175 176 195 199 258 265 266 275 0
74 150 151 170 175 195 199 224 258 265 266 275 0
78 141 146 166 170 171 198 200 207 238 258 260 0
80 124 146 154 166 173 189 195 197 269 275 287 0
80 139 144 151 153 163 167 176 193 232 267 271 0
80 139 151 153 155 163 167 176 193 232 267 271 0
80 151 153 155 163 164 167 176 193 232 267 271 0
82 87 138 145 153 166 171 173 174 200 237 293 0
83 84 149 154 188 189 194 196 205 219 270 289 0
84 138 139 140 146 162 170 175 199 241 255 266 0
84 141 143 146 163 181 198 238 239 270 286 292 0
85 142 145 149 150 154 160 162 193 270 275 284 0
86 91 152 156 167 211 248 250 260 266 279 297 0
88 141 148 162 180 198 204 236 238 265 277 300 0
89 138 142 147 155 163 173 176 195 225 226 242 0
92 156 166 239 246 256 260 261 265 268 279 280 0
94 136 138 139 141 150 199 207 221 255 258 275 0
96 139 154 163 168 192 194 205 220 232 266 286 0
98 141 142 143 150 158 162 163 232 249 266 293 0
101 139 144 147 148 149 151 153 155 242 266 284 0
102 138 150 152 160 204 224 255 264 265 288 293 0
102 142 149 151 152 154 155 158 162 165 166 167 0
104 140 143 149 150 155 159 167 168 172 233 249 0
104 140 143 149 150 155 159 168 172 180 188 258 0
106 142 143 145 148 156 165 200 233 236 239 240 0
121 136 141 144 145 156 161 186 198 199 270 295 0
130 132 137 145 146 150 166 167 200 207 247 262 0
130 138 144 150 155 162 163 169 172 174 221 296 0
134 136 155 161 165 168 208 243 244 248 266 268 0
135 138 150 160 178 182 204 255 264 265 288 293 0
1 2 3 6 9 21 79 80 81 99 104 106 129 0
1 2 3 12 36 37 55 56 75 77 81 85 122 0
1 2 7 14 17 36 37 56 75 77 81 85 122 0
1 2 13 17 18 22 36 40 52 55 56 127 135 0
1 2 166 172 197 204 210 212 239 240 248 253 269 0
1 3 5 7 40 53 65 66 75 80 102 121 132 0
1 3 6 7 68 69 71 76 77 81 82 84 104 0
1 3 8 13 17 23 50 67 84 101 104 129 131 0
1 3 14 36 37 38 54 62 63 77 122 126 127 0
1 4 12 18 20 22 70 74 83 101 104 125 134 0
1 4 20 22 39 43 54 69 76 77 97 130 133 0
1 5 7 9 11 43 66 68 85 106 121 133 134 0
1 5 7 11 16 17 19 22 36 52 65 67 121 0
1 6 12 13 42 46 49 51 58 60 78 79 127 0
1 7 11 13 53 69 70 72 78 79 83 130 134 0
1 8 11 13 15 36 43 48 51 53 83 98 123 0
1 9 12 42 45 60 69 77 81 102 123 131 134 0
1 16 19 21 56 73 75 78 80 83 94 98 106 0
1 19 72 83 150 154 156 166 168 180 189 232 292 0
1 23 38 44 56 68 77 78 79 98 100 133 135 0
1 42 51 54 72 77 85 97 102 123 128 129 133 0
1 81 177 191 205 212 259 261 265 280 283 293 299 0
1 81 177 205 212 257 259 261 265 280 283 293 299 0
1 136 138 140 145 146 147 158 159 166 172 200 255 0
1 143 212 224 257 259 261 265 269 280 283 293 299 0
1 205 206 212 224 225 257 259 261 265 283 293 299 0
1 205 212 224 235 250 257 259 260 269 280 292 293 0
2 3 6 18 23 37 72 79 81 85 99 102 127 0
2 3 6 47 58 62 65 66 77 91 100 121 135 0
2 4 5 9 17 62 75 79 80 87 104 124 125 0
2 4 5 11 23 38 41 51 66 76 78 80 129 0
2 5 11 17 36 37 51 58 63 66 74 85 127 0
2 6 7 13 14 16 21 37 41 53 55 73 81 0
2 6 9 16 37 40 52 55 62 69 77 83 135 0
2 9 10 12 18 45 51 55 68 72 81 128 131 0
2 13 17 19 38 43 49 50 55 72 77 99 100 0
2 37 166 184 197 198 199 204 234 241 253 265 280 0
2 50 166 191 197 210 212 239 240 248 253 257 262 0
2 147 155 166 191 197 211 250 260 277 279 297 300 0
3 4 5 8 18 20 51 72 74 75 83 106 122 0
3 4 16 37 51 63 76 77 80 85 122 130 131 0
3 5 11 13 16 18 20 42 62 124 125 127 130 0
3 6 8 11 14 18 23 46 74 77 78 102 134 0
3 6 11 15 19 23 38 69 78 99 100 130 135 0
3 7 8 11 13 16 18 75 78 121 128 130 131 0
3 7 13 55 80 94 95 98 106 124 127 131 133 0
3 9 10 13 17 18 46 51 69 121 128 129 130 0
3 9 13 23 37 42 51 68 74 77 78 85 123 0
3 10 17 18 40 53 55 58 72 85 97 104 124 0
3 12 13 15 46 51 60 75 90 93 121 128 131 0
3 49 154 165 170 172 188 191 240 250 261 283 288 0
4 5 7 18 46 65 66 74 81 85 102 121 129 0
4 8 12 39 40 47 74 75 79 81 85 91 123 0
4 9 19 23 38 55 56 62 73 83 87 100 129 0
4 10 14 18 42 68 69 74 76 80 82 84 85 0
4 11 13 23 41 62 72 75 78 79 124 125 134 0
4 13 18 23 40 48 54 71 72 76 85 101 102 0
4 14 18 39 40 41 46 72 80 81 101 121 129 0
4 16 137 142 143 146 149 154 160 173 193 284 287 0
4 17 18 38 50 53 55 67 69 97 99 104 130 0
4 17 20 21 22 74 75 76 80 84 89 102 128 0
4 18 19 23 43 63 77 81 83 85 124 127 130 0
5 6 11 16 23 42 44 52 65 79 82 102 133 0
5 6 13 15 20 66 68 74 76 77 122 124 126 0
5 6 13 18 19 20 22 42 62 75 124 126 129 0
5 7 19 51 52 58 60 65 77 85 95 100 131 0
5 8 10 16 23 45 55 73 75 78 132 133 134 0
5 8 11 17 19 38 41 76 77 78 79 128 130 0
5 8 20 41 49 55 74 75 77 78 99 132 135 0
5 9 20 23 38 39 40 51 79 80 122 130 135 0
5 11 13 15 22 23 54 71 74 75 76 81 120 0
5 22 23 40 62 65 69 77 81 98 121 131 135 0
6 7 8 23 38 46 49 68 77 82 84 106 128 0
6 7 15 18 20 51 69 74 78 83 122 125 130 0
6 7 16 18 19 20 23 40 54 56 58 85 127 0
6 7 16 40 41 43 48 67 80 85 99 104 135 0
6 8 20 21 45 47 64 68 84 106 126 128 129 0
6 8 20 37 48 49 69 75 77 78 99 126 128 0
6 9 11 15 20 21 79 81 85 101 129 130 135 0
6 9 15 20 44 49 51 68 85 98 99 123 133 0
6 13 50 55 69 81 97 99 104 121 129 130 131 0
6 16 17 21 23 66 74 75 76 79 124 125 132 0
6 78 79 138 139 142 166 175 188 199 207 218 255 0
6 78 136 146 155 164 165 188 203 207 218 235 268 0
6 106 129 143 145 146 152 208 233 239 262 270 292 0
7 9 13 37 38 44 52 63 79 81 82 123 128 0
7 11 14 15 50 72 75 81 85 97 98 101 124 0
7 13 19 36 43 48 69 72 74 99 104 129 135 0
7 14 53 67 68 74 79 84 98 104 129 130 131 0
7 16 19 20 74 75 77 83 122 126 129 130 135 0
7 17 18 19 23 38 47 74 75 84 106 127 131 0
7 19 77 138 141 147 160 163 174 214 223 255 258 0
7 22 139 140 141 157 177 197 216 218 221 258 275 0
8 9 10 11 20 38 52 55 58 78 81 97 99 0
8 9 13 18 19 43 48 69 85 125 126 128 130 0
8 10 14 17 38 42 50 66 69 75 98 121 129 0
8 11 15 17 19 21 38 49 99 104 128 130 133 0
8 15 19 22 23 50 64 67 69 76 77 83 101 0
8 18 49 51 53 68 78 80 98 101 102 130 132 0
8 80 137 144 149 150 154 169 195 199 232 249 295 0
8 82 138 141 149 159 167 175 188 196 200 238 257 0
8 123 136 140 145 147 152 159 164 208 214 246 264 0
8 136 146 149 156 157 164 171 175 219 240 301 302 0
8 159 176 200 207 218 250 257 259 261 265 279 280 0
9 10 11 13 15 16 38 44 66 67 76 79 130 0
9 10 16 36 44 66 100 101 106 123 130 133 134 0
9 10 17 18 20 41 45 53 54 55 66 69 124 0
9 11 13 20 23 51 56 63 68 75 83 85 122 0
9 11 15 20 38 47 51 52 58 60 75 81 97 0
9 11 15 20 42 47 52 58 60 75 81 83 97 0
9 13 22 46 68 74 77 83 84 98 101 122 129 0
9 16 23 54 55 56 68 77 81 98 99 127 133 0
9 17 51 67 68 76 83 99 101 121 122 130 131 0
9 142 155 166 171 190 200 202 208 239 275 293 297 0
10 11 106 146 149 156 164 214 262 266 286 292 293 0
10 13 17 37 38 40 62 72 74 79 90 98 101 0
10 15 101 106 146 147 149 151 153 155 193 266 275 0
10 83 122 142 153 155 156 162 166 174 193 197 241 0
11 17 18 19 22 54 55 74 79 81 100 127 131 0
11 48 144 146 159 166 172 173 204 217 224 225 287 0
11 50 142 143 150 160 178 199 211 212 233 271 287 0
11 154 165 191 213 239 253 256 261 265 277 280 300 0
11 208 221 250 254 256 260 266 269 271 277 292 300 0
12 19 20 136 147 154 155 172 175 188 205 224 255 0
12 37 137 140 141 144 158 177 208 241 258 276 297 0
12 60 191 205 224 244 259 261 265 280 283 293 299 0
12 72 80 150 151 163 167 174 242 270 271 288 293 0
12 84 138 139 141 146 150 178 199 207 255 259 266 0
12 205 224 248 257 259 261 262 265 280 283 293 299 0
12 205 224 248 257 259 261 265 269 280 283 293 299 0
13 15 17 22 23 36 51 58 76 77 97 131 134 0
13 15 19 20 38 51 56 74 75 79 97 120 128 0
13 17 21 40 42 44 48 54 56 58 79 106 130 0
13 19 40 44 46 48 56 58 62 73 74 127 135 0
13 23 37 40 56 62 63 74 78 98 123 130 133 0
13 154 160 176 210 212 240 248 257 277 283 288 300 0
13 154 165 191 212 240 248 250 257 260 279 283 299 0
13 169 170 200 211 212 213 239 240 253 257 269 274 0
14 53 101 144 148 149 151 153 175 193 202 207 288 0
14 58 138 145 156 160 208 218 239 267 268 270 297 0
14 101 106 123 136 143 146 150 168 172 175 199 247 0
14 132 136 145 146 156 173 176 177 180 204 221 258 0
14 136 145 146 148 156 173 176 177 180 204 221 258 0
14 140 141 145 147 152 156 178 202 208 224 241 274 0
15 16 136 143 146 151 171 184 203 207 208 271 275 0
15 69 138 140 147 149 153 157 159 177 208 255 264 0
15 159 188 212 218 239 253 261 274 277 283 288 300 0
15 159 212 213 218 239 247 253 256 277 283 299 300 0
15 160 176 191 211 213 239 250 253 260 265 279 280 0
16 18 20 22 36 39 54 75 76 81 120 130 131 0
16 18 138 142 144 157 163 169 172 174 175 202 221 0
16 19 22 143 164 177 184 188 197 221 255 275 286 0
16 19 22 148 150 151 166 207 224 258 271 275 286 0
16 23 41 81 140 155 157 160 188 204 205 208 258 0
16 137 188 205 212 224 257 261 265 280 283 288 293 0
17 37 200 206 207 225 257 259 261 270 278 286 299 0
17 134 139 144 165 171 173 188 191 199 240 283 295 0
19 22 81 126 139 160 162 163 178 197 216 265 301 0
19 48 159 160 172 218 238 239 240 248 253 277 300 0
19 50 69 160 176 238 240 248 253 257 262 288 300 0
19 81 89 138 142 146 151 171 200 202 203 205 266 0
20 22 42 51 52 58 60 63 78 94 99 101 132 0
20 23 42 47 55 58 62 74 75 121 122 128 131 0
20 124 138 142 150 152 155 224 264 265 270 288 293 0
20 142 166 170 172 197 204 212 213 239 240 253 262 0
20 142 166 197 204 212 213 239 240 248 253 257 262 0
21 170 172 188 209 213 220 240 247 268 283 299 300 0
22 23 145 155 164 166 170 175 184 203 241 286 296 0
22 94 140 145 164 168 184 198 203 218 241 266 275 0
22 129 139 140 141 145 157 159 175 203 221 245 258 0
23 37 38 44 56 68 77 78 79 98 100 133 135 0
23 41 138 140 142 159 173 178 181 184 188 199 300 0
23 136 140 145 147 158 159 166 172 175 224 255 270 0
23 143 146 151 165 171 174 183 200 203 207 271 293 0
36 37 154 165 191 240 250 260 261 269 283 288 292 0
36 71 191 250 251 260 261 274 279 280 283 298 299 0
36 159 208 209 221 240 247 266 271 277 283 299 300 0
37 38 172 189 200 201 210 212 239 240 248 269 280 0
37 154 165 191 213 234 253 256 261 265 277 280 300 0
37 154 165 191 213 239 251 253 256 261 277 280 300 0
37 159 191 208 221 250 254 266 269 271 277 292 300 0
37 189 191 201 208 221 239 256 261 265 266 271 280 0
38 154 160 176 210 212 213 235 277 283 287 288 294 0
38 160 184 189 198 199 201 211 213 239 241 265 280 0
42 48 68 77 79 80 84 90 95 100 102 106 129 0
42 72 136 155 165 208 239 243 244 248 258 266 268 0
42 130 143 145 146 166 168 198 202 218 270 275 277 0
44 84 150 155 160 167 178 188 230 239 255 283 288 0
45 54 161 178 261 262 265 269 274 280 288 292 298 0
45 64 144 145 158 160 162 207 239 255 267 270 302 0
46 77 140 144 161 164 167 170 199 221 266 271 288 0
46 140 144 161 164 167 170 199 218 221 266 271 288 0
46 154 161 178 191 240 248 257 259 261 265 283 288 0
46 160 161 178 240 248 250 257 259 262 265 283 299 0
47 136 142 143 146 151 171 184 203 207 271 275 293 0
48 51 154 160 165 240 248 250 257 259 260 278 279 0
48 156 167 169 188 250 257 260 261 265 279 280 283 0
49 154 161 178 183 191 239 253 254 260 264 277 300 0
50 160 176 177 210 240 248 253 257 262 283 288 294 0
52 106 138 145 146 167 177 189 197 239 263 275 292 0
52 154 165 176 205 240 244 260 269 283 288 292 298 0
52 154 165 176 240 244 260 269 274 283 288 292 298 0
52 154 165 205 240 244 260 269 280 283 288 292 298 0
52 161 178 211 239 253 260 269 277 280 292 293 300 0
52 161 178 211 239 253 260 277 279 280 292 293 300 0
52 161 199 210 211 241 248 264 277 279 287 294 297 0
55 156 161 178 240 244 261 262 274 280 283 288 298 0
56 75 104 138 144 160 174 184 187 255 280 282 288 0
58 82 138 141 146 168 203 207 218 233 238 244 290 0
58 82 146 148 155 156 157 160 161 168 208 275 288 0
60 136 138 152 155 161 165 200 202 240 258 270 289 0
64 75 142 143 144 151 158 160 165 172 200 283 288 0
70 76 82 141 142 145 147 172 173 224 241 263 274 0
70 76 82 141 142 145 160 172 173 205 224 241 263 0
71 126 155 164 165 169 171 198 200 240 247 258 266 0
78 137 138 140 147 148 159 174 223 246 258 264 301 0
79 126 136 137 140 146 149 152 154 156 171 179 274 0
79 136 137 145 146 154 159 171 177 180 189 245 255 0
79 138 140 142 148 170 175 180 195 211 221 257 297 0
80 85 144 145 149 150 154 169 195 199 232 249 295 0
80 101 149 151 155 163 164 165 176 248 258 267 271 0
80 123 138 139 150 151 166 198 200 258 271 275 286 0
80 138 139 140 150 164 177 184 197 198 200 258 275 0
80 138 139 150 164 171 177 184 197 198 200 275 286 0
80 138 139 150 164 177 184 197 198 200 258 275 286 0
82 84 136 137 138 139 146 150 199 221 258 266 275 0
82 106 141 147 153 157 159 168 177 180 223 226 264 0
82 123 135 140 146 150 173 208 219 246 275 279 293 0
84 104 136 137 145 146 159 165 168 171 192 272 287 0
84 122 138 139 145 146 150 199 221 241 255 259 275 0
84 136 137 145 146 159 165 168 171 192 219 228 287 0
84 138 139 141 146 148 188 199 207 221 255 266 275 0
84 138 139 141 146 150 199 207 221 255 259 266 275 0
84 143 146 151 165 171 172 200 203 207 208 271 293 0
84 143 146 151 165 171 174 200 203 207 208 271 293 0
85 137 142 143 149 154 162 169 193 206 270 275 284 0
88 89 139 146 153 160 168 215 220 230 242 258 297 0
88 154 161 165 195 205 230 240 244 269 283 292 298 0
88 159 167 169 218 230 250 261 265 274 279 280 298 0
88 159 210 218 239 240 248 253 257 261 277 283 300 0
95 142 156 185 193 209 240 244 247 262 277 283 299 0
95 159 160 176 206 211 225 250 253 265 279 297 298 0
99 136 138 141 146 168 170 171 207 218 233 238 268 0
99 136 138 141 146 168 203 207 218 233 238 244 268 0
99 144 151 158 159 160 163 172 174 199 268 288 295 0
102 106 138 144 150 152 157 162 202 226 264 277 289 0
104 140 143 149 150 155 158 159 167 168 172 233 286 0
104 140 143 150 155 159 168 172 188 226 233 245 258 0
1 2 3 14 17 19 36 37 48 56 77 81 85 122 0
1 2 3 37 50 53 55 56 66 75 77 81 102 123 0
1 2 4 8 9 13 46 51 53 58 63 84 132 134 0
1 2 6 13 20 36 38 39 43 72 74 76 84 135 0
1 3 5 11 12 22 42 46 68 77 80 83 84 132 0
1 3 7 11 15 20 22 40 67 69 76 80 81 131 0
1 4 5 7 9 11 15 17 43 52 76 77 121 131 0
1 4 7 13 17 18 20 22 52 65 75 76 100 121 0
1 6 11 16 23 36 42 52 58 63 74 77 81 127 0
1 7 13 15 18 23 48 69 74 83 102 125 133 134 0
1 7 13 18 23 44 48 63 68 74 82 85 123 133 0
1 9 145 191 201 212 224 259 261 265 280 283 293 299 0
1 11 15 16 18 43 48 49 51 78 79 101 102 106 0
1 13 65 210 212 239 240 248 253 257 269 277 283 300 0
1 36 37 161 178 191 206 225 240 261 265 269 283 288 0
1 36 156 189 201 205 208 209 221 235 239 247 266 271 0
1 50 53 140 141 145 152 156 178 202 208 224 241 274 0
1 140 162 205 212 224 240 248 250 257 259 260 269 280 0
1 143 191 212 224 240 248 250 257 260 269 285 292 293 0
1 143 212 224 240 248 250 257 259 260 269 280 292 293 0
1 191 205 212 224 240 248 250 257 260 269 285 292 293 0
1 205 212 224 240 248 250 257 259 260 269 280 292 293 0
2 3 5 6 15 17 38 65 67 76 81 125 127 129 0
2 3 166 183 191 197 204 211 264 277 279 287 294 297 0
2 4 14 18 36 41 42 74 76 77 80 81 82 135 0
2 6 8 12 13 14 17 19 36 38 46 49 83 135 0
2 6 9 11 16 23 37 49 68 78 120 129 130 135 0
2 6 14 36 40 46 50 71 74 76 85 102 123 133 0
2 7 9 11 20 39 48 70 74 77 79 83 101 134 0
2 7 9 15 40 50 52 62 76 77 83 92 123 134 0
2 7 13 17 18 40 43 72 84 85 97 101 122 130 0
2 9 11 13 15 38 43 44 73 77 78 85 123 133 0
2 9 13 20 22 48 52 55 72 74 75 83 101 127 0
2 10 18 45 52 69 75 83 97 99 122 128 130 134 0
2 11 16 19 48 49 66 77 83 122 124 125 128 129 0
2 45 159 166 197 204 212 218 239 253 274 277 288 300 0
2 147 155 166 191 197 206 211 225 239 253 265 297 298 0
3 4 8 10 15 21 23 47 53 58 60 66 76 85 0
3 5 6 9 11 19 64 68 73 78 80 84 126 129 0
3 5 11 16 18 42 62 63 65 74 76 124 127 130 0
3 7 14 15 37 40 51 55 75 76 83 87 106 133 0
3 16 18 20 23 43 49 51 66 74 77 78 85 122 0
3 36 154 165 176 191 240 250 261 274 278 279 288 298 0
4 5 8 9 11 16 18 43 62 63 75 83 123 125 0
4 5 8 9 40 43 46 49 82 83 84 93 106 121 0
4 5 8 11 16 17 19 41 72 75 78 79 124 125 0
4 7 68 69 71 74 77 81 82 84 102 123 131 133 0
4 8 9 43 49 53 55 65 74 81 97 99 106 123 0
4 11 16 18 20 40 43 51 68 69 83 85 126 135 0
4 11 20 42 51 72 76 77 80 81 97 101 128 133 0
4 16 19 138 143 164 177 188 197 221 241 255 275 286 0
5 6 17 18 20 45 46 47 54 75 79 80 91 128 0
5 9 17 20 22 40 56 62 74 80 81 121 122 129 0
5 9 38 39 51 65 75 79 81 83 85 95 97 123 0
5 12 18 40 42 50 51 66 68 75 79 83 121 130 0
5 13 14 18 19 42 46 48 56 58 74 84 98 128 0
6 7 15 17 49 70 72 77 78 84 128 129 132 134 0
6 11 15 23 38 42 66 77 85 99 100 102 130 135 0
6 13 15 16 54 66 68 77 79 99 100 101 130 133 0
6 19 37 42 51 66 68 69 74 77 79 99 122 128 0
6 23 37 42 65 68 69 75 76 77 123 127 128 130 0
6 136 143 146 151 171 184 203 204 207 208 242 271 293 0
7 14 104 146 157 162 194 215 224 246 269 270 281 286 0
7 23 140 143 151 165 177 183 192 203 204 207 216 271 0
7 104 137 139 140 145 152 177 192 198 218 250 260 303 0
7 104 139 145 149 165 184 192 200 239 240 248 265 295 0
7 136 138 139 141 148 199 207 216 221 255 258 275 279 0
7 138 139 143 144 147 152 160 178 188 230 233 264 268 0
8 9 11 16 19 51 69 77 83 123 126 129 130 135 0
8 9 11 19 51 72 75 77 78 82 100 101 133 134 0
8 9 18 43 53 69 72 74 75 85 99 121 122 128 0
8 11 15 16 17 18 48 68 69 72 77 78 101 122 0
8 13 17 37 40 55 65 67 74 81 98 101 121 134 0
9 17 40 54 72 79 81 83 84 85 102 121 123 124 0
9 36 37 71 189 196 212 250 260 261 266 271 274 292 0
9 71 138 139 141 146 150 166 199 207 221 255 259 266 0
9 136 137 163 170 172 180 189 195 224 245 266 275 293 0
10 11 156 161 178 239 250 253 254 260 269 277 292 300 0
10 16 138 140 143 164 167 171 177 188 197 221 241 275 0
11 13 15 16 18 23 40 43 77 78 123 125 130 133 0
11 13 23 48 56 58 78 81 85 106 120 123 130 133 0
11 20 21 37 47 51 68 81 82 98 99 104 127 134 0
11 21 23 40 42 48 58 68 77 81 98 104 124 131 0
11 52 106 147 153 156 160 168 174 177 178 192 198 288 0
11 136 140 145 147 156 158 159 166 171 172 211 255 270 0
11 154 165 210 212 240 244 250 260 261 265 279 283 299 0
11 159 167 169 191 212 250 261 265 279 280 283 298 299 0
11 159 167 169 210 212 250 261 265 274 279 280 283 299 0
11 159 209 213 239 240 244 247 253 262 277 283 299 300 0
12 23 138 139 141 146 148 166 178 188 199 207 255 266 0
12 49 136 143 149 151 172 199 232 241 255 264 283 299 0
12 49 136 144 147 154 158 159 166 174 255 258 270 275 0
12 50 139 141 156 162 174 197 198 207 208 222 269 301 0
13 95 143 159 167 170 241 250 253 255 274 279 284 298 0
13 139 142 150 164 167 169 172 174 202 204 258 274 298 0
14 70 136 143 146 156 173 176 177 180 204 221 241 258 0
14 80 93 138 139 152 164 168 184 199 248 266 275 286 0
14 82 147 159 161 173 196 198 208 258 271 277 287 294 0
14 141 145 147 152 156 164 175 178 202 208 224 270 274 0
15 17 22 36 43 48 51 55 69 72 75 129 131 134 0
15 160 166 176 213 220 240 248 260 262 268 283 299 300 0
15 169 210 212 239 240 248 253 257 262 277 283 288 300 0
16 18 21 37 39 48 51 68 75 85 122 123 127 131 0
16 19 138 143 164 177 184 188 197 221 241 258 275 286 0
16 23 37 63 66 68 69 78 80 81 99 120 121 127 0
16 70 142 143 149 154 160 162 173 177 193 270 275 284 0
16 137 142 143 145 149 160 162 173 177 193 270 275 284 0
16 142 150 154 155 158 162 176 190 201 205 221 233 245 0
16 142 150 154 155 158 162 176 190 201 221 233 245 275 0
18 96 146 166 168 186 204 210 212 248 253 277 283 300 0
18 96 146 166 186 204 210 212 239 248 253 277 283 300 0
19 50 137 140 147 169 170 176 204 211 214 221 239 253 0
19 106 123 136 137 138 147 148 160 174 258 264 295 301 0
20 23 36 54 58 66 68 74 77 81 85 100 122 127 0
20 42 74 136 143 146 168 169 195 198 204 206 255 265 0
21 42 63 136 138 141 150 155 170 207 255 258 267 271 0
22 82 133 138 149 165 166 174 198 199 202 226 255 277 0
22 82 137 140 141 156 173 178 226 266 275 287 295 302 0
22 139 144 151 158 160 163 172 174 178 226 272 288 295 0
23 49 205 212 224 257 259 261 265 269 280 283 293 299 0
23 138 139 141 146 150 166 199 207 221 255 259 266 275 0
23 145 149 165 174 184 192 193 200 222 226 239 240 248 0
23 145 149 165 174 184 192 200 222 226 239 240 248 249 0
36 38 161 183 184 198 199 211 241 264 277 279 297 300 0
36 49 50 139 140 156 165 189 197 198 201 208 281 301 0
36 152 156 197 209 213 220 235 239 253 262 268 283 299 0
36 154 159 209 213 220 235 239 247 253 268 283 299 300 0
36 154 165 191 240 250 260 261 274 279 280 283 288 298 0
36 156 209 213 235 239 247 253 262 277 283 287 294 299 0
36 159 191 240 250 261 262 265 274 279 280 283 288 298 0
36 159 191 240 250 261 262 265 274 279 280 283 298 299 0
36 159 209 213 235 239 247 253 262 277 283 287 294 299 0
36 191 240 250 260 261 262 265 274 279 280 283 288 298 0
36 191 240 250 260 261 262 265 274 279 280 283 298 299 0
37 38 154 160 165 191 220 239 251 253 260 268 280 300 0
37 38 169 172 200 207 210 239 240 248 253 269 270 286 0
37 147 155 191 206 208 221 225 239 253 261 265 266 271 0
37 154 159 165 213 239 253 254 256 261 265 277 280 300 0
37 154 200 207 240 248 250 257 259 260 261 270 279 286 0
37 156 208 221 234 253 254 256 261 265 266 271 279 280 0
37 160 208 221 239 253 254 256 262 265 266 271 279 280 0
37 189 201 208 221 239 254 256 260 261 265 266 271 280 0
37 206 208 221 225 239 253 254 256 260 261 265 266 271 0
37 208 221 250 254 256 260 266 269 271 277 287 292 294 0
38 48 210 212 235 239 248 253 261 262 277 283 287 294 0
38 159 160 176 183 191 211 239 253 264 265 279 280 297 0
40 67 80 82 141 144 159 176 195 204 228 260 280 283 0
42 80 139 144 151 153 157 163 164 165 182 232 267 271 0
44 50 156 160 176 239 250 254 256 260 265 269 280 292 0
44 156 160 176 204 218 234 250 254 260 265 269 280 292 0
44 156 160 176 204 239 250 254 260 265 269 277 280 292 0
44 160 168 176 204 250 254 260 262 265 269 277 280 292 0
46 49 167 169 172 188 240 248 250 260 261 265 283 299 0
46 58 81 88 140 144 146 170 174 199 208 212 284 290 0
47 74 152 156 166 220 239 250 256 260 261 268 269 292 0
48 159 169 210 218 239 240 248 253 257 277 283 287 294 0
49 50 152 156 160 167 211 250 260 265 280 287 294 297 0
50 53 136 145 146 148 156 173 176 177 180 204 221 258 0
51 154 159 218 240 248 250 257 259 261 265 279 280 283 0
51 159 172 218 240 248 250 259 261 262 265 278 279 280 0
51 159 188 218 240 248 250 257 261 262 265 279 280 283 0
52 138 140 145 146 152 154 167 175 189 193 195 197 239 0
52 138 140 145 146 152 167 175 193 195 197 239 245 253 0
52 138 145 146 152 167 189 193 195 197 239 245 275 292 0
52 161 169 178 211 239 253 260 277 279 287 292 293 294 0
52 161 178 211 239 253 260 277 279 280 287 292 293 294 0
53 166 191 197 200 204 213 250 260 277 279 285 297 300 0
54 60 82 143 150 153 164 168 175 176 184 207 258 286 0
55 156 161 178 199 209 240 244 262 274 280 283 298 299 0
58 60 62 137 138 140 149 152 177 201 205 214 258 275 0
58 136 138 141 146 168 203 207 218 233 238 244 268 283 0
60 82 106 147 153 157 159 168 177 180 223 226 241 264 0
60 82 138 156 165 166 174 198 202 226 238 239 260 277 0
60 85 142 150 154 155 158 162 176 190 201 205 221 237 0
60 140 147 152 154 157 159 164 177 183 208 214 228 264 0
64 65 80 147 150 164 171 177 184 197 200 267 275 286 0
64 84 138 141 146 150 199 207 221 255 259 266 271 275 0
64 136 145 146 151 152 178 219 230 241 245 255 272 299 0
64 139 142 144 146 155 164 172 174 192 199 217 226 295 0
68 120 136 138 143 155 166 171 184 197 203 255 286 293 0
69 76 82 144 145 161 174 177 188 198 205 217 286 294 0
69 82 140 146 154 173 175 177 188 194 243 253 263 293 0
70 83 84 139 148 159 178 186 203 224 238 258 264 265 0
71 126 143 165 167 171 184 198 200 237 240 242 247 266 0
76 82 159 161 196 197 198 204 208 258 271 286 287 294 0
77 84 85 144 146 150 154 185 199 206 208 249 266 295 0
77 137 138 140 147 148 149 159 163 174 258 264 274 295 0
78 136 146 147 164 165 203 207 218 240 241 244 255 268 0
79 88 97 137 144 149 150 154 165 173 177 240 284 295 0
79 97 136 141 145 150 157 177 190 205 236 238 239 275 0
80 129 138 142 147 155 162 170 174 195 205 215 286 298 0
80 135 147 150 155 160 163 169 193 232 266 267 288 295 0
82 85 140 150 154 159 165 193 198 226 232 258 260 266 0
82 85 140 150 154 159 193 198 226 232 240 241 258 266 0
82 137 139 141 142 145 151 160 162 172 173 208 263 275 0
84 85 106 142 143 145 152 156 168 175 177 208 233 272 0
84 106 140 159 163 172 221 224 230 258 264 277 283 289 0
84 132 136 140 142 159 161 163 164 199 224 238 264 289 0
84 138 139 146 164 170 174 175 199 205 241 258 266 286 0
85 106 143 144 154 156 158 169 206 241 266 270 275 295 0
85 106 144 145 150 154 156 158 169 206 241 266 270 295 0
88 97 139 142 144 146 158 164 172 174 192 226 284 295 0
90 167 169 172 188 240 248 250 260 261 265 279 280 283 0
91 157 159 160 176 209 220 239 240 244 247 262 283 299 0
92 156 160 166 176 204 239 246 260 265 268 279 280 301 0
95 145 148 156 157 172 176 177 189 207 208 225 270 274 0
99 144 151 157 158 159 160 163 174 192 199 277 288 295 0
100 139 142 143 148 149 165 166 168 173 233 240 247 265 0
102 140 141 142 149 151 154 155 158 162 165 167 176 283 0
104 137 138 142 144 160 169 174 200 247 249 255 282 288 0
106 136 138 140 145 156 177 197 198 216 241 268 272 301 0
106 143 145 148 156 165 172 184 200 207 233 236 239 240 0
125 138 139 149 157 164 208 212 223 225 248 266 276 302 0
125 138 139 149 164 208 212 223 225 248 266 276 277 302 0
132 143 145 148 156 165 172 184 200 207 233 236 239 240 0
133 136 141 146 147 154 164 203 207 218 232 245 255 268 0
135 138 140 147 150 157 172 200 204 205 208 258 275 288 0
1 4 8 9 11 17 19 51 62 64 72 75 78 79 80 0
1 4 9 37 51 58 65 75 79 81 85 97 101 124 134 0
1 5 7 9 18 37 51 53 66 78 81 85 122 127 128 0
1 6 9 13 15 18 65 70 72 81 85 101 121 130 134 0
1 6 9 23 42 48 51 76 77 85 98 124 126 127 129 0
1 6 11 16 23 40 48 52 58 77 81 100 123 130 133 0
1 6 11 17 20 21 48 65 74 77 81 84 122 127 129 0
1 7 10 12 17 23 50 53 75 79 80 83 87 98 131 0
1 9 11 16 23 43 45 53 58 78 79 97 98 99 106 0
1 13 152 156 169 172 212 213 239 240 248 253 269 283 288 0
1 46 50 208 221 224 250 260 266 269 270 271 292 293 300 0
1 145 205 206 212 224 225 240 248 250 257 259 260 292 293 0
1 191 205 208 221 224 239 251 253 256 261 266 271 280 293 0
1 191 205 208 221 224 239 253 256 261 265 266 271 280 293 0
1 200 205 207 224 257 259 261 265 270 280 283 286 293 299 0
2 3 6 17 19 20 36 49 71 73 77 78 82 91 127 0
2 4 5 18 19 20 37 40 44 51 73 75 79 123 127 0
2 4 6 8 19 37 49 68 77 80 82 83 102 128 129 0
2 11 159 191 240 250 257 262 265 274 279 280 283 288 298 0
2 16 55 140 143 162 164 170 188 197 221 241 258 270 275 0
2 67 139 144 158 159 160 163 172 174 178 207 226 288 295 0
2 147 155 166 184 197 198 199 211 239 241 253 265 280 297 0
3 5 6 9 11 13 16 23 41 47 70 78 80 132 133 0
3 5 16 23 36 63 64 65 76 84 99 102 120 125 128 0
3 6 13 15 18 56 58 65 66 69 77 79 99 100 130 0
3 9 23 36 37 38 42 44 63 68 69 76 81 124 128 0
3 21 136 140 143 151 171 184 197 207 208 242 255 267 271 0
3 22 170 188 191 240 250 257 261 265 274 280 283 288 298 0
3 71 170 172 188 191 250 261 265 274 279 280 283 298 299 0
3 170 172 188 191 212 224 225 240 261 265 280 283 285 288 0
4 5 13 19 23 36 49 62 63 65 66 74 124 127 130 0
4 9 11 16 18 43 62 63 83 85 120 122 123 125 126 0
4 10 13 23 69 72 74 76 80 82 84 85 102 125 135 0
4 16 79 143 155 167 168 205 237 240 249 258 282 284 293 0
4 16 144 147 148 150 151 154 158 160 163 169 173 177 217 0
4 19 100 138 146 156 164 176 218 221 266 275 291 292 302 0
4 20 40 47 54 60 68 72 74 75 85 97 98 101 134 0
4 20 120 139 147 150 153 160 161 173 188 193 196 258 302 0
5 6 7 9 11 15 17 19 20 49 63 66 76 79 128 0
5 6 8 9 20 21 37 65 79 81 83 98 102 129 134 0
5 6 9 14 16 38 51 63 75 76 78 79 85 99 122 0
5 6 19 22 43 63 65 69 75 76 84 121 122 128 130 0
5 7 9 11 13 15 16 43 54 65 77 98 120 133 135 0
5 7 15 16 19 23 44 56 69 73 79 85 98 120 131 0
5 9 11 17 18 37 40 49 75 79 81 85 102 121 134 0
5 11 13 16 18 38 42 76 79 80 83 101 102 104 121 0
6 8 9 15 20 41 42 49 69 75 76 91 121 133 135 0
6 9 11 13 39 44 48 54 68 78 101 106 129 130 135 0
6 10 17 20 23 40 42 63 69 74 77 99 124 125 127 0
6 11 19 23 37 51 63 74 75 78 83 85 124 128 129 0
7 14 16 17 18 40 41 43 71 80 81 82 84 121 131 0
7 14 133 136 146 149 150 151 168 173 218 219 247 255 272 0
7 104 106 136 138 139 141 159 161 162 178 215 222 270 289 0
7 104 138 139 147 161 162 178 215 222 223 228 258 270 289 0
8 44 102 137 143 144 148 151 152 155 159 179 188 200 224 0
8 80 150 151 155 163 164 168 171 176 182 233 240 267 275 0
8 82 138 139 146 150 152 162 170 184 199 240 255 263 266 0
9 11 18 23 36 38 48 63 74 78 83 98 120 133 135 0
9 13 15 20 38 49 54 55 65 71 74 85 98 101 133 0
9 22 36 37 38 43 44 48 65 67 68 75 128 129 135 0
9 43 48 49 55 62 74 75 79 81 97 99 100 126 134 0
9 56 138 139 144 146 155 166 168 174 181 199 201 221 255 0
10 18 22 139 150 164 167 176 177 197 198 201 224 275 286 0
10 23 100 148 149 158 163 188 195 198 205 219 237 258 275 0
10 53 122 153 156 162 166 167 174 193 198 218 249 268 292 0
10 53 152 156 166 197 200 204 250 260 277 279 285 297 300 0
11 12 14 19 36 37 48 52 72 77 85 97 123 129 134 0
11 15 20 23 40 48 56 58 69 77 78 79 81 127 133 0
11 16 17 23 38 45 47 49 75 79 85 92 106 123 124 0
11 50 159 160 161 178 191 211 218 240 257 262 265 280 300 0
11 52 141 145 147 156 160 174 178 197 198 200 208 224 288 0
11 146 156 159 170 172 175 188 212 213 239 240 247 253 262 0
11 154 212 240 248 250 257 259 260 261 265 279 280 283 299 0
11 156 160 167 169 183 210 212 260 264 265 279 280 283 299 0
11 156 209 213 220 239 240 244 247 253 262 268 283 299 300 0
11 159 191 211 240 250 257 261 262 265 279 280 283 288 297 0
11 159 191 240 250 257 261 262 265 274 279 280 283 298 299 0
11 191 240 250 257 260 261 262 265 274 279 280 283 288 298 0
11 212 240 248 250 257 259 260 261 262 265 279 280 283 299 0
12 49 79 136 143 149 172 184 199 232 241 255 264 283 299 0
12 84 137 140 141 146 154 157 168 175 189 194 205 281 293 0
13 17 36 41 54 55 67 76 78 83 85 99 104 124 129 0
13 80 139 150 164 177 184 197 198 200 202 258 275 281 286 0
13 154 212 240 248 250 257 259 260 261 265 279 280 283 299 0
13 212 240 248 250 257 259 260 261 262 265 279 280 283 299 0
14 80 130 136 142 156 159 167 188 207 263 266 274 281 292 0
14 80 130 138 144 150 158 163 172 174 204 221 266 295 296 0
14 80 142 147 148 150 158 160 163 169 195 237 270 276 288 0
14 84 136 138 139 146 150 152 175 199 221 258 259 266 268 0
15 166 204 213 239 240 248 253 260 262 268 277 283 299 300 0
15 166 213 239 240 248 253 256 260 262 268 277 283 299 300 0
16 18 147 148 150 151 154 155 164 176 195 258 271 275 295 0
16 56 142 147 148 150 151 154 160 163 169 173 176 177 288 0
16 62 76 84 143 153 154 160 167 172 214 226 242 255 258 0
16 137 143 191 212 224 240 248 250 257 260 269 280 292 293 0
18 42 151 153 155 157 163 164 165 175 176 182 202 232 271 0
18 84 146 150 151 171 172 174 203 207 208 255 270 271 293 0
19 23 143 146 151 165 171 172 183 200 207 208 222 271 293 0
19 37 50 140 169 176 184 204 214 221 239 240 248 253 303 0
19 37 106 212 240 248 257 259 261 262 264 265 279 280 299 0
19 49 85 138 147 150 157 172 200 204 205 208 258 275 288 0
19 77 138 142 144 145 150 172 199 203 205 224 241 255 270 0
19 106 126 138 155 166 170 178 191 199 202 226 227 260 272 0
19 106 138 143 150 151 166 168 177 180 214 224 226 229 233 0
20 40 63 89 139 147 149 159 167 193 198 215 226 255 275 0
20 41 104 138 139 161 177 178 208 214 222 223 255 291 301 0
20 102 138 139 140 155 160 161 208 214 223 265 291 301 303 0
21 136 139 143 151 155 166 184 197 203 207 258 271 275 286 0
21 159 170 172 188 209 212 213 218 239 253 277 283 299 300 0
21 170 172 188 209 213 239 240 247 253 262 277 283 299 300 0
22 42 82 138 139 142 144 163 164 204 213 218 284 297 300 0
22 82 94 137 140 146 173 178 208 224 226 266 287 295 302 0
22 139 141 143 145 147 151 157 164 204 208 224 258 271 303 0
22 139 141 147 151 157 164 204 207 208 224 258 271 275 303 0
23 205 213 224 239 253 254 256 261 265 269 280 285 292 293 0
23 205 213 224 250 253 254 256 260 269 277 285 292 293 300 0
36 38 136 167 169 189 201 212 227 239 240 262 277 287 294 0
36 156 189 201 209 213 239 240 247 262 277 278 287 294 299 0
36 156 209 213 220 235 239 247 253 262 268 283 287 294 299 0
36 159 167 169 212 213 220 235 239 247 253 262 268 287 294 0
36 159 208 209 212 218 221 239 253 266 271 277 283 299 300 0
36 191 240 250 251 260 261 262 269 274 280 283 288 292 298 0
37 38 44 152 156 188 208 220 221 250 260 266 268 279 300 0
37 154 159 188 212 240 248 250 257 261 265 279 280 283 299 0
37 154 159 212 218 240 248 250 257 259 261 265 279 280 283 0
37 154 170 212 240 250 257 259 260 261 265 279 280 283 299 0
37 156 159 167 169 188 212 250 257 261 265 279 280 283 299 0
37 159 170 212 218 240 250 257 259 261 262 265 279 280 283 0
37 170 212 240 250 257 259 260 261 262 265 279 280 283 299 0
38 152 156 160 191 213 250 260 265 277 279 280 287 294 297 0
38 160 183 191 211 239 253 260 264 265 277 279 280 297 300 0
38 191 211 220 239 250 251 253 260 261 268 279 280 297 300 0
42 80 139 144 151 153 157 161 163 165 176 182 232 267 271 0
42 87 90 138 139 144 155 157 172 191 214 223 258 261 270 0
42 89 142 155 164 167 170 176 201 218 219 221 249 282 284 0
42 102 141 142 149 151 154 155 157 158 162 165 167 176 221 0
44 50 142 143 150 159 160 162 172 212 233 271 287 293 299 0
44 142 143 150 160 162 199 209 212 233 271 277 287 293 299 0
44 143 152 155 159 166 188 191 195 224 236 266 268 277 294 0
45 106 142 143 144 151 165 199 200 207 218 224 258 275 288 0
45 142 143 144 151 162 165 198 199 200 207 218 224 264 275 0
45 142 143 144 151 165 199 200 207 218 224 258 264 275 288 0
46 58 88 140 143 144 150 170 174 190 199 208 218 284 290 0
46 88 137 142 150 160 172 174 178 184 249 259 264 277 287 0
46 92 136 137 141 143 145 149 151 177 207 219 232 241 292 0
47 152 156 166 220 239 250 256 260 261 265 268 269 280 292 0
49 205 208 212 224 248 251 257 259 261 269 280 283 293 299 0
49 205 208 212 224 248 257 259 261 265 269 280 283 293 299 0
50 75 127 138 139 140 159 160 161 162 228 248 266 289 301 0
50 136 137 141 142 145 147 173 202 205 224 241 255 258 263 0
52 104 137 148 150 154 157 160 167 174 197 224 255 275 288 0
52 138 139 143 147 151 157 164 165 204 208 258 271 298 303 0
52 138 140 145 146 152 154 173 175 193 195 215 239 253 301 0
55 156 161 178 224 225 240 244 261 262 274 280 283 285 299 0
56 70 136 155 161 165 208 238 239 244 248 258 263 266 268 0
58 80 137 142 150 157 166 167 197 199 216 218 224 249 289 0
58 136 138 141 146 161 165 168 203 207 218 233 238 244 268 0
66 77 82 138 140 160 166 174 177 197 229 255 264 288 303 0
68 136 140 146 147 152 164 168 177 202 214 233 238 244 264 0
70 71 137 146 155 156 157 165 177 200 240 247 255 270 281 0
70 72 136 155 161 165 208 238 239 244 248 258 263 266 268 0
70 83 84 139 148 159 167 186 203 224 238 258 264 265 293 0
71 138 139 146 164 170 174 175 184 199 205 241 255 266 286 0
75 123 136 137 146 147 156 159 162 171 236 245 255 287 303 0
76 139 147 161 164 172 177 208 218 221 229 255 270 275 283 0
79 81 97 126 137 142 149 150 154 158 160 176 184 190 247 0
79 152 156 161 189 209 240 244 247 262 266 271 274 283 299 0
80 82 92 140 144 160 176 195 199 206 208 219 258 293 295 0
80 82 140 144 158 159 160 164 195 206 208 214 258 293 295 0
80 84 141 146 150 177 202 204 207 208 224 258 267 270 271 0
80 135 144 147 150 160 163 169 193 232 261 266 267 288 295 0
82 84 137 145 146 148 156 180 195 198 226 236 246 262 263 0
82 106 140 147 152 156 157 161 164 177 197 216 218 219 264 0
84 123 136 141 146 154 168 194 205 207 218 268 269 281 301 0
85 137 142 149 150 154 155 158 162 175 176 190 201 202 205 0
86 138 139 153 164 175 177 184 197 198 200 241 258 275 286 0
88 89 138 142 150 167 194 198 199 201 219 221 228 279 298 0
88 89 154 165 174 198 199 205 215 230 240 244 274 279 298 0
88 97 148 154 161 195 205 230 232 240 244 269 283 292 298 0
89 143 145 147 151 153 157 164 165 171 224 236 242 267 271 0
102 143 145 157 160 166 167 193 233 239 262 270 274 275 288 0
102 143 145 157 160 166 167 193 233 247 262 270 274 275 288 0
106 136 138 139 140 145 156 173 177 216 241 258 268 272 301 0
106 139 143 145 148 156 165 178 184 200 233 236 239 240 265 0
123 136 137 145 146 159 165 168 171 183 184 192 219 287 302 0
123 136 137 145 146 159 165 168 171 183 184 192 272 287 302 0
134 142 151 154 155 158 162 166 167 189 190 201 205 224 269 0
1 3 4 6 14 18 38 40 48 72 74 76 77 101 102 135 0
1 3 5 8 19 21 68 70 73 76 77 78 80 84 99 132 0
1 3 10 14 50 53 54 62 67 69 84 121 122 124 129 131 0
1 4 6 14 38 48 63 68 72 74 76 77 81 101 102 135 0
1 4 8 13 16 21 41 49 74 75 79 80 99 124 126 133 0
1 11 159 191 211 240 250 257 261 265 269 280 283 288 292 293 0
1 16 70 82 139 140 141 144 173 177 202 205 208 241 260 263 0
1 37 172 212 240 248 250 259 260 261 265 269 280 283 292 299 0
1 86 162 200 205 207 224 257 259 261 265 270 283 286 293 295 0
1 205 206 213 224 225 250 254 256 260 269 277 287 292 293 294 0
1 205 208 221 224 250 254 256 260 266 271 277 279 280 293 300 0
2 3 47 170 172 188 213 220 239 240 247 253 262 277 283 299 0
2 3 159 170 172 188 212 213 218 220 239 253 277 283 299 300 0
2 3 170 172 188 213 220 239 240 247 253 262 277 283 299 300 0
2 4 5 9 15 16 22 40 56 74 79 81 121 127 133 135 0
2 4 5 15 19 22 23 43 44 62 69 73 79 127 129 135 0
2 4 8 11 12 13 17 21 49 76 77 79 80 84 128 133 0
2 5 6 9 13 14 16 19 23 38 75 78 84 85 126 128 0
2 6 13 15 16 19 43 58 65 66 69 77 85 99 100 130 0
2 15 17 18 23 40 53 55 58 71 72 75 76 83 85 98 0
2 166 184 197 198 199 204 206 211 225 239 241 253 265 297 298 0
3 4 7 12 19 20 37 46 48 66 73 75 82 83 126 134 0
3 36 38 191 199 240 250 262 265 274 277 278 279 280 288 298 0
3 37 167 170 172 188 191 206 213 225 240 261 265 283 298 299 0
3 38 152 156 183 191 213 261 264 265 277 279 280 287 294 297 0
3 80 172 188 209 213 239 240 247 248 253 262 277 283 299 300 0
3 86 91 152 156 162 167 183 211 261 264 265 279 295 297 303 0
3 150 170 172 191 240 250 261 262 265 274 279 280 283 288 298 0
3 152 156 161 170 172 188 197 209 213 239 240 253 262 283 299 0
3 170 172 184 188 198 199 240 241 261 265 274 280 283 288 298 0
3 170 172 188 209 213 235 239 247 253 262 277 283 287 294 299 0
4 5 7 15 37 39 44 52 60 69 76 77 90 100 129 131 0
4 6 10 16 17 20 21 23 72 75 76 79 128 129 134 135 0
4 7 11 13 16 17 18 22 36 54 75 77 79 100 121 131 0
4 8 13 47 49 62 68 73 76 78 79 80 124 125 130 132 0
4 9 16 18 20 23 41 49 79 87 106 120 121 123 124 133 0
4 16 145 149 150 152 154 155 158 176 190 201 202 205 232 242 0
4 16 154 165 184 199 218 223 224 239 253 265 270 277 297 300 0
4 19 100 138 146 153 156 164 168 176 218 225 284 286 292 302 0
4 40 79 136 141 145 157 165 171 177 180 238 239 242 244 249 0
5 6 8 11 19 49 64 68 70 75 77 78 84 124 129 133 0
5 6 19 23 42 43 48 49 51 65 68 76 77 126 127 130 0
5 8 9 46 49 63 79 80 83 98 101 102 122 125 132 134 0
5 8 11 19 20 43 47 48 58 66 69 75 77 81 83 100 0
6 7 14 17 50 54 72 74 79 84 85 102 104 121 125 133 0
6 11 13 15 16 18 20 23 38 42 68 78 79 98 130 133 0
6 13 15 17 19 21 23 38 70 71 74 76 77 80 99 128 0
6 42 106 129 141 147 152 162 174 177 180 218 223 226 268 284 0
6 79 139 144 158 160 161 163 172 174 178 226 272 288 289 295 0
6 79 143 146 153 160 165 171 195 200 211 239 255 275 286 297 0
6 123 136 137 145 146 159 165 168 171 183 184 192 272 294 302 0
6 138 139 140 146 158 162 163 164 178 204 215 258 270 277 300 0
6 139 140 141 147 156 167 169 173 197 208 211 212 224 241 253 0
7 23 42 141 145 151 154 159 161 172 198 199 207 224 245 299 0
7 46 77 137 140 145 154 156 177 240 248 259 261 265 283 288 0
7 50 77 136 140 146 152 156 159 169 198 206 218 241 258 264 0
7 77 137 140 141 146 149 153 156 159 177 184 228 238 244 248 0
7 159 160 170 172 188 191 192 212 218 240 262 264 265 274 280 0
7 170 172 183 188 198 209 213 239 240 247 253 262 277 299 300 0
8 12 14 17 37 38 48 54 67 69 79 84 104 122 129 130 0
8 15 20 38 48 51 67 68 69 70 74 77 78 100 130 132 0
8 75 137 165 191 205 207 224 250 257 260 269 270 286 292 293 0
8 89 136 137 144 145 151 165 170 184 188 200 245 247 295 298 0
8 152 161 170 172 188 197 209 213 239 244 253 266 274 283 299 0
8 159 200 205 207 213 224 239 253 254 256 261 265 269 280 293 0
9 52 137 146 160 167 204 213 219 241 245 249 265 268 280 298 0
9 130 136 142 146 147 150 155 202 208 218 226 237 258 301 303 0
9 140 142 143 144 149 150 155 174 184 195 199 200 219 284 302 0
9 142 145 148 152 155 159 160 176 202 250 253 265 279 280 297 0
10 11 45 142 146 150 151 152 156 166 175 188 202 205 232 248 0
10 11 167 169 170 172 188 212 261 265 266 274 280 283 297 299 0
10 14 137 140 169 176 184 204 211 214 221 239 240 248 253 303 0
10 83 122 142 153 155 156 162 166 174 193 197 198 218 268 292 0
10 130 143 146 147 150 156 172 218 226 237 255 266 269 301 303 0
11 143 152 155 159 166 188 191 195 224 236 248 266 268 277 294 0
11 154 167 169 206 210 212 225 250 260 261 265 279 283 285 299 0
11 159 160 183 191 211 240 257 262 264 265 279 280 283 297 299 0
12 13 15 20 21 22 40 46 47 60 72 76 81 83 101 128 0
12 17 20 36 37 58 66 71 72 74 75 81 85 94 98 101 0
12 46 82 149 151 155 157 158 160 184 193 197 199 232 243 255 0
12 82 139 147 162 166 174 177 197 198 202 210 275 277 286 297 0
12 83 123 136 137 146 159 165 168 171 183 184 192 272 287 302 0
12 144 148 155 161 190 199 208 218 250 254 257 260 269 291 293 0
13 156 213 239 250 253 254 256 260 261 265 269 277 280 292 300 0
14 18 93 146 166 168 204 208 213 240 248 253 257 266 274 283 0
14 58 80 142 147 148 150 158 160 163 169 195 237 270 283 288 0
14 64 139 142 144 146 164 172 174 192 199 217 226 255 261 295 0
14 80 142 143 154 156 165 167 176 195 197 205 225 240 244 270 0
14 84 101 106 143 144 149 150 158 168 170 179 187 213 242 276 0
14 101 106 136 145 146 149 150 169 202 206 240 241 248 255 257 0
14 101 136 140 144 145 147 150 163 166 175 198 202 208 230 245 0
14 136 145 146 147 148 156 173 176 177 180 193 221 255 258 284 0
15 159 191 240 244 250 261 262 265 269 274 280 283 292 298 299 0
16 81 137 177 191 205 208 239 253 256 261 265 266 269 271 293 0
16 137 141 142 150 154 155 158 162 176 190 201 202 221 237 275 0
17 102 121 139 141 145 156 171 186 188 199 204 261 270 291 295 0
18 152 156 166 172 197 204 210 212 239 240 248 253 262 283 300 0
19 37 84 156 167 169 188 212 246 257 261 264 265 279 280 299 0
19 76 138 142 147 155 161 163 173 176 195 220 225 230 249 302 0
19 78 82 128 136 139 146 147 161 180 198 200 230 236 246 260 0
19 84 106 126 138 139 152 156 159 161 177 204 207 214 258 262 0
20 37 154 165 183 213 239 253 254 256 260 264 265 268 280 300 0
20 45 98 139 161 163 165 187 200 239 240 258 283 286 288 291 0
20 96 102 143 160 166 176 197 204 210 212 213 277 283 288 300 0
21 159 170 172 188 209 213 218 239 247 253 262 277 283 299 300 0
21 160 170 172 176 188 209 213 239 240 247 262 277 283 299 300 0
22 37 136 137 141 143 145 149 151 159 177 207 219 232 241 292 0
36 154 165 191 204 206 225 240 250 260 274 279 283 285 298 299 0
36 156 189 201 209 213 220 239 240 247 262 268 283 287 294 299 0
36 159 167 169 191 206 212 225 250 261 265 279 283 285 288 298 0
36 159 208 209 212 218 220 221 239 253 266 268 271 283 299 300 0
36 167 169 189 201 212 213 220 239 240 247 260 262 268 287 294 0
37 38 161 167 169 200 210 212 235 239 248 253 269 277 287 294 0
37 38 169 170 200 210 212 239 240 253 257 269 277 283 288 300 0
37 50 152 156 159 208 221 250 261 265 266 269 271 280 292 300 0
37 154 159 206 212 225 240 248 250 257 259 261 265 279 283 299 0
37 154 160 183 188 212 240 248 257 260 264 265 279 280 283 299 0
37 154 160 183 212 240 248 257 259 260 264 265 279 280 283 299 0
37 154 165 189 191 201 206 213 220 225 239 256 261 265 268 300 0
37 154 206 212 225 240 248 250 257 259 260 261 265 279 283 299 0
37 159 160 167 169 212 240 248 250 257 259 265 279 280 283 299 0
37 159 167 169 188 212 240 248 250 251 257 261 279 280 283 299 0
37 159 167 169 212 240 248 250 257 259 261 265 279 280 283 299 0
37 159 206 212 225 240 248 250 257 259 261 262 265 279 283 299 0
38 183 189 191 201 211 239 260 261 264 265 277 279 280 297 300 0
40 74 142 147 148 150 153 158 160 161 163 169 176 184 195 217 0
42 60 82 90 147 159 161 173 198 223 226 241 287 293 294 303 0
42 68 137 140 146 152 159 163 164 166 183 214 224 264 281 287 0
42 90 139 145 162 165 183 184 198 214 217 221 240 248 265 283 0
44 56 142 150 160 172 178 181 209 212 233 240 264 271 277 287 0
44 69 136 139 142 153 159 160 162 166 172 173 174 224 258 293 0
44 136 141 143 145 147 149 150 157 166 167 175 212 262 274 275 0
44 136 141 143 145 149 150 155 157 166 167 175 262 270 274 275 0
44 142 143 150 160 162 199 209 212 220 233 268 271 287 293 299 0
44 143 148 152 155 159 178 188 191 195 205 254 266 277 293 300 0
44 143 152 155 158 159 166 188 195 220 224 236 256 266 268 300 0
44 143 152 155 158 159 166 188 195 224 236 256 266 268 277 294 0
45 54 106 142 143 145 148 156 160 165 233 236 239 243 288 295 0
45 64 106 142 143 144 151 158 165 200 207 224 230 275 288 301 0
47 138 147 167 189 191 193 195 205 216 221 239 256 292 298 301 0
48 74 140 142 143 144 150 161 164 170 199 218 221 266 271 293 0
48 139 144 152 154 155 158 159 165 172 208 221 240 248 286 295 0
49 50 136 137 141 169 196 226 238 256 259 261 265 271 280 287 0
50 70 136 143 146 156 170 173 176 177 180 193 204 221 258 284 0
50 136 137 141 142 144 145 147 173 202 205 224 241 255 260 263 0
52 78 136 137 146 154 157 171 174 200 207 218 240 246 255 258 0
52 82 138 139 143 144 147 151 157 164 208 242 255 267 298 303 0
52 137 146 160 167 204 211 213 219 241 245 249 265 268 280 298 0
52 138 139 141 143 147 151 157 164 204 208 255 258 271 298 303 0
52 138 145 146 152 154 170 174 175 189 193 195 197 215 239 292 0
52 138 145 146 152 170 174 189 193 195 197 215 239 245 275 292 0
56 75 78 160 163 169 175 178 184 198 207 218 268 275 292 293 0
58 82 137 138 140 141 156 161 173 178 226 266 275 287 295 302 0
58 88 136 139 140 145 154 159 167 188 205 226 238 272 284 287 0
60 69 70 76 82 140 146 151 156 164 171 197 246 260 264 279 0
60 76 82 145 147 149 156 159 172 197 199 224 241 264 287 303 0
60 136 141 145 146 152 153 156 179 181 188 194 202 262 272 281 0
68 89 136 140 146 147 152 164 177 198 199 202 214 232 246 264 0
69 70 76 82 141 146 147 161 168 172 178 197 207 238 263 294 0
70 82 141 142 144 145 160 173 202 205 208 224 241 258 260 263 0
71 126 136 143 157 165 167 171 184 198 200 208 237 240 242 247 0
72 83 137 139 145 150 151 155 160 166 180 200 233 258 285 301 0
77 85 137 143 144 154 156 171 185 199 206 224 241 249 275 295 0
82 91 137 144 145 150 155 163 173 174 177 202 246 250 270 295 0
82 94 123 136 139 145 146 147 159 168 173 178 226 230 260 275 0
82 120 137 139 140 141 142 160 162 172 173 175 177 208 246 275 0
82 137 139 140 141 142 151 160 162 172 173 175 177 208 263 275 0
82 137 139 141 142 144 145 160 162 173 208 249 260 263 275 291 0
82 137 140 141 142 160 172 173 175 177 202 205 208 241 258 263 0
95 137 145 148 156 162 172 177 178 180 192 200 207 239 272 294 0
104 106 136 138 139 140 159 161 162 178 215 222 223 264 270 289 0
1 2 4 5 6 13 19 38 43 47 51 58 65 74 97 122 123 0
1 3 4 9 11 18 51 53 80 81 83 101 102 121 130 132 134 0
1 3 6 11 20 38 42 63 65 72 76 77 78 101 127 128 130 0
1 6 7 9 15 18 19 21 36 58 65 66 71 79 81 85 130 0
1 6 10 11 38 44 47 56 65 73 77 79 85 91 99 130 133 0
1 7 12 14 18 19 23 36 37 55 58 72 79 84 85 100 130 0
1 8 11 12 15 19 20 46 66 79 84 99 102 122 128 129 131 0
1 11 52 146 147 153 156 168 172 178 180 192 198 224 238 281 294 0
1 13 15 17 23 52 55 56 60 67 75 76 78 82 100 120 121 0
1 13 160 176 197 208 221 239 250 253 260 265 266 269 271 279 280 0
1 15 20 23 43 47 48 56 58 65 68 74 77 78 81 127 133 0
1 50 139 140 141 156 174 197 198 208 240 241 248 253 257 281 301 0
1 50 139 140 141 156 174 197 198 208 240 241 248 253 260 281 301 0
1 81 177 205 208 239 253 254 256 261 265 266 269 271 280 292 293 0
1 81 177 205 208 250 254 256 260 266 269 271 277 280 292 293 300 0
1 139 205 208 221 224 239 253 254 256 260 261 265 266 271 280 300 0
1 140 162 205 208 221 224 250 254 256 260 266 269 271 277 285 300 0
1 154 159 165 191 205 212 224 240 248 250 257 269 283 292 293 299 0
1 191 205 208 221 224 250 254 260 266 269 271 277 285 292 293 300 0
1 205 208 221 224 239 251 253 254 256 261 266 269 271 280 292 293 0
1 205 208 221 224 250 254 256 260 266 269 271 277 280 292 293 300 0
2 3 5 9 12 20 21 40 48 63 70 74 76 81 84 99 132 0
2 3 160 170 172 176 188 213 220 239 240 247 262 277 283 299 300 0
2 4 5 9 11 13 17 72 73 77 79 80 84 124 125 130 132 0
2 4 16 18 40 44 49 54 65 68 74 78 102 125 127 128 135 0
2 4 19 43 65 66 74 75 76 77 78 120 122 126 128 129 135 0
2 5 6 7 20 23 47 49 62 66 73 79 82 87 93 106 126 0
2 5 8 9 13 41 49 75 77 78 80 84 99 125 129 132 134 0
2 6 9 11 13 23 37 42 51 63 65 69 74 83 85 126 129 0
2 9 13 15 21 37 51 55 56 66 78 80 81 82 94 106 131 0
2 9 13 20 39 48 53 55 69 72 74 75 77 79 81 95 127 0
2 11 143 146 150 156 160 175 178 199 211 212 220 233 242 268 271 0
2 147 155 166 197 210 212 239 240 248 253 257 262 277 283 288 300 0
2 166 191 197 204 211 239 250 253 260 265 277 279 280 292 293 300 0
3 4 5 6 8 13 16 17 37 72 75 78 79 124 125 126 133 0
3 5 23 37 38 44 51 58 77 81 84 100 101 106 121 127 131 0
3 6 11 12 17 20 21 46 48 49 53 70 78 98 99 102 129 0
3 9 37 71 160 166 183 207 257 259 264 265 270 279 280 283 286 0
3 17 18 20 37 40 47 55 58 66 72 74 85 98 101 121 134 0
3 22 159 170 188 191 212 218 240 250 257 261 262 265 274 279 280 0
3 22 170 188 191 240 250 257 261 262 265 274 279 280 283 298 299 0
3 42 150 170 172 191 240 250 261 262 265 269 274 280 283 288 298 0
3 150 170 172 191 240 250 261 262 265 269 274 280 283 292 298 299 0
3 170 172 188 209 213 220 235 239 247 253 262 268 283 287 294 299 0
4 5 11 16 17 19 23 39 49 64 79 80 84 102 126 128 130 0
4 7 14 43 48 52 54 58 63 72 74 76 77 104 121 130 135 0
4 16 79 136 142 143 149 150 155 160 166 176 205 238 265 270 271 0
4 16 139 143 149 160 162 166 167 193 205 215 242 265 293 301 303 0
4 16 148 150 151 154 155 167 176 198 202 205 242 265 270 271 293 0
4 139 142 144 147 155 163 165 169 171 173 182 188 199 240 283 298 0
4 154 161 178 191 205 223 240 248 257 259 261 270 280 283 293 299 0
4 166 197 199 204 210 212 239 240 248 253 257 262 268 283 288 300 0
4 166 197 199 204 210 212 239 240 248 253 257 262 268 283 299 300 0
5 6 11 13 19 23 37 38 41 62 68 75 76 78 79 128 129 0
5 13 14 36 38 42 58 60 72 74 77 80 81 84 98 100 102 0
6 7 8 16 19 51 53 67 72 73 79 83 101 130 131 132 134 0
6 7 13 15 16 17 18 22 40 65 70 72 74 75 77 131 132 0
6 11 13 16 36 37 40 42 58 62 63 65 74 91 98 127 130 0
6 13 16 20 23 56 58 62 65 71 77 78 79 80 81 98 123 0
6 67 136 141 143 146 150 165 168 203 208 233 238 244 255 268 275 0
6 78 79 106 155 177 180 182 188 202 205 208 220 226 230 253 258 0
6 136 141 146 158 163 164 168 175 180 203 207 218 238 244 268 276 0
6 139 142 144 145 147 155 164 174 181 184 199 217 238 249 268 295 0
7 16 106 123 136 138 141 145 159 168 177 212 218 224 228 230 272 0
7 20 136 137 140 141 145 146 153 159 166 175 204 258 267 275 283 0
7 77 137 140 141 145 146 152 188 192 199 202 207 216 255 258 263 0
7 154 170 172 183 188 198 209 213 220 239 240 247 253 268 299 300 0
7 154 170 172 188 198 209 213 239 240 241 247 253 264 277 299 300 0
7 170 172 188 198 209 213 239 240 241 247 253 262 264 277 299 300 0
8 9 16 18 23 37 42 51 62 65 68 83 120 124 127 130 135 0
8 14 17 42 43 66 69 75 76 79 80 81 87 97 98 121 131 0
8 42 52 89 146 160 164 168 179 181 188 199 202 218 219 220 268 0
8 75 138 140 141 158 160 177 181 188 199 207 218 219 233 241 255 0
8 102 127 138 139 141 147 155 169 178 184 198 206 233 265 273 291 0
8 138 139 146 164 170 174 175 184 199 233 240 241 245 255 266 286 0
9 11 13 15 38 42 52 77 81 85 97 98 101 102 130 131 134 0
9 52 138 140 141 144 145 164 165 166 170 201 203 221 236 239 258 0
10 11 42 143 146 147 148 164 172 188 224 247 255 266 275 283 300 0
10 12 13 36 38 42 48 50 69 71 74 77 79 85 102 123 133 0
10 15 106 138 147 156 157 164 177 197 216 240 241 244 269 292 301 0
11 13 37 38 47 56 58 63 68 73 74 78 79 81 85 98 130 0
11 13 48 136 141 142 147 155 157 175 176 203 207 218 255 271 275 0
11 18 21 45 47 58 66 74 75 76 97 98 99 121 124 128 131 0
11 143 152 155 158 159 166 188 195 224 236 248 256 266 268 277 294 0
11 154 206 208 221 225 239 253 254 256 261 265 266 269 271 285 292 0
12 13 48 50 54 68 71 72 74 77 80 81 82 84 85 102 131 0
12 18 19 20 144 161 162 163 176 205 218 219 223 270 284 286 292 0
12 46 82 137 139 142 143 161 164 188 197 198 220 224 256 270 271 0
12 46 82 137 139 143 161 164 188 197 198 220 224 256 270 271 276 0
12 46 82 137 139 152 161 164 188 197 198 220 224 256 270 271 276 0
12 46 136 137 150 154 158 165 168 175 177 226 240 241 255 266 271 0
12 49 137 142 150 160 174 176 184 199 205 221 249 259 277 287 293 0
12 49 137 142 150 160 176 184 199 205 221 249 259 265 277 287 293 0
12 50 139 141 147 156 163 165 174 178 197 198 200 208 230 239 240 0
12 84 123 136 137 141 146 152 154 159 168 177 199 207 218 264 292 0
12 137 142 150 160 176 184 199 205 221 224 249 259 265 277 287 293 0
13 15 18 20 22 39 48 51 72 74 79 81 83 121 122 131 134 0
13 45 80 149 157 160 164 169 184 192 199 206 208 227 266 286 288 0
13 156 159 160 176 197 208 221 239 250 253 265 266 269 271 280 292 0
13 167 169 172 200 210 211 212 239 240 248 253 269 274 277 283 300 0
14 17 37 38 43 48 49 51 67 69 79 84 104 122 129 130 134 0
14 18 50 127 136 137 139 141 145 150 173 175 188 199 224 260 263 0
14 40 70 80 142 147 148 150 158 160 163 173 177 190 237 270 288 0
14 80 129 138 142 147 162 170 174 195 197 205 215 268 284 286 298 0
14 101 106 123 136 140 144 145 148 149 152 177 197 198 216 218 268 0
14 104 136 145 146 148 153 170 173 175 176 180 204 221 222 258 300 0
14 141 145 147 152 156 164 165 169 175 178 184 202 206 208 224 274 0
14 141 145 147 152 156 164 169 175 178 184 202 206 208 224 241 274 0
15 40 101 123 136 141 145 151 155 157 165 183 194 218 239 255 281 0
15 184 198 199 211 239 241 250 253 260 261 265 277 279 280 297 300 0
16 81 137 177 191 205 208 250 254 260 266 269 271 277 292 293 294 0
16 143 146 149 151 155 158 162 165 168 176 182 201 212 221 240 247 0
19 21 22 70 136 162 163 178 218 221 226 241 245 266 272 275 296 0
19 37 154 183 206 212 225 240 248 257 259 261 264 265 269 292 299 0
19 84 136 137 140 142 156 165 169 177 211 213 239 253 258 264 279 0
20 39 102 123 138 139 140 160 161 208 214 223 265 275 291 301 303 0
20 48 142 159 166 197 204 210 218 239 240 248 253 257 268 283 300 0
20 82 142 148 152 156 191 197 204 213 250 260 265 279 280 297 300 0
20 82 142 148 197 204 210 212 239 240 248 253 257 262 283 288 300 0
20 142 154 160 166 172 176 197 204 210 212 240 248 268 283 288 300 0
21 65 138 139 147 167 191 205 216 221 239 253 256 266 271 292 298 0
22 39 144 151 157 158 159 160 163 174 178 226 238 242 288 294 295 0
22 106 147 156 157 163 164 173 216 218 240 241 244 266 269 292 301 0
36 159 184 198 199 240 241 250 261 262 265 274 279 280 283 288 298 0
37 50 152 156 206 208 221 225 250 260 261 265 266 269 271 292 300 0
37 145 154 206 212 225 240 248 250 257 259 260 261 265 283 292 299 0
37 154 206 212 225 240 248 250 257 259 260 261 265 269 283 292 299 0
38 154 160 165 189 191 201 211 218 239 260 265 277 280 287 294 297 0
38 160 189 191 201 211 239 250 260 265 269 277 280 287 292 294 297 0
38 161 169 178 189 191 201 211 239 250 260 277 279 287 292 293 294 0
42 60 136 140 146 147 152 156 161 164 177 197 199 214 232 264 279 0
42 82 138 139 142 144 147 163 164 172 204 213 218 264 284 297 300 0
44 52 56 140 141 142 144 145 146 164 166 168 181 203 218 221 258 0
44 102 142 144 150 151 160 168 172 178 209 212 215 233 264 277 287 0
44 143 144 151 152 155 159 161 166 178 195 200 224 243 266 277 294 0
44 143 144 151 152 155 159 161 166 178 195 200 224 243 266 277 300 0
44 143 152 155 159 166 178 188 191 195 205 220 236 266 268 293 294 0
45 64 65 75 131 138 139 145 147 174 188 197 205 218 239 253 271 0
46 48 140 142 144 155 158 160 161 163 176 178 193 283 285 288 291 0
47 74 138 142 163 166 171 195 204 207 240 248 258 262 268 284 293 0
48 74 144 151 160 164 173 176 177 195 199 206 222 232 271 293 302 0
48 139 144 146 152 154 159 172 191 204 205 217 240 248 269 293 303 0
48 139 144 151 152 159 172 204 208 217 228 240 248 259 261 262 286 0
48 139 144 154 159 172 173 191 197 204 208 217 240 248 250 286 303 0
50 70 136 141 142 144 145 147 173 199 202 205 224 249 255 260 263 0
50 92 137 140 145 156 161 162 172 174 177 200 226 238 239 272 294 0
50 136 137 139 141 142 144 145 160 162 173 246 249 255 260 275 291 0
50 139 140 156 165 169 174 189 197 198 201 208 211 212 248 281 301 0
51 142 143 144 151 159 160 166 170 172 175 197 208 240 261 268 271 0
52 138 139 145 146 152 170 189 195 197 215 234 242 245 265 275 292 0
53 101 145 149 152 160 183 184 196 197 198 210 211 243 248 265 288 0
53 152 156 166 191 197 200 204 213 250 260 277 279 285 292 293 300 0
54 154 159 165 170 172 188 191 250 261 266 274 279 280 283 288 298 0
58 60 136 138 145 146 152 153 156 181 188 218 262 268 272 281 290 0
60 69 70 76 82 140 146 156 164 168 171 197 238 244 260 264 292 0
60 82 87 137 143 145 148 151 160 172 173 175 199 208 224 241 258 0
60 82 106 146 148 157 160 166 168 177 218 219 275 279 288 292 293 0
60 136 140 146 147 152 156 164 168 177 202 214 233 244 260 264 292 0
64 82 100 102 142 149 160 162 167 174 193 219 223 270 275 276 286 0
69 70 82 140 146 147 149 151 156 164 168 171 216 240 246 260 264 0
69 76 136 139 143 145 146 156 161 166 168 171 191 197 202 204 275 0
71 82 125 126 138 140 146 149 156 159 203 204 226 246 276 289 302 0
74 166 197 199 204 210 212 239 240 248 253 257 262 268 278 288 300 0
74 166 197 199 204 210 212 239 240 248 253 257 262 268 278 299 300 0
75 131 136 138 139 141 145 146 147 156 158 172 173 208 255 275 283 0
76 136 139 145 147 161 169 172 174 194 208 210 214 221 229 270 295 0
77 136 141 145 146 149 150 153 156 159 181 183 188 202 262 287 292 0
77 170 172 183 188 198 209 213 239 240 247 253 262 277 287 288 294 0
79 81 138 139 140 142 160 161 195 208 214 223 249 265 291 301 303 0
79 88 97 136 143 144 145 156 165 198 199 238 240 266 268 284 295 0
79 120 137 139 143 149 154 155 165 171 173 182 188 199 240 283 295 0
80 82 137 139 141 143 145 148 158 160 172 173 208 258 263 275 288 0
81 82 137 141 142 144 145 160 173 205 208 220 249 258 260 263 275 0
82 126 138 140 146 149 153 156 159 172 175 204 208 226 246 289 302 0
82 137 139 140 141 142 144 147 173 175 177 202 205 208 241 260 263 0
82 137 139 140 141 142 144 160 173 175 177 202 205 208 241 257 263 0
82 143 145 148 149 156 165 172 184 200 212 216 233 236 239 240 289 0
84 102 104 136 144 145 146 167 168 173 188 207 253 271 272 294 295 0
84 123 136 141 146 147 154 164 168 194 205 207 218 255 268 269 281 0
85 137 142 143 146 149 154 160 162 173 193 221 266 270 275 284 287 0
89 102 127 138 140 144 150 159 160 170 177 197 249 255 275 288 303 0
96 102 143 149 150 152 153 154 172 192 194 207 236 237 260 266 270 0
98 139 142 145 161 163 165 183 184 187 220 240 248 275 276 283 286 0
101 106 145 152 160 169 184 198 202 210 211 232 243 248 265 267 288 0
106 136 141 145 146 149 152 153 156 159 179 181 188 207 262 281 287 0
106 137 138 139 141 145 152 159 167 168 177 188 207 228 230 233 293 0
123 136 137 145 146 147 159 164 165 168 171 175 183 184 192 272 287 0
134 142 146 151 154 155 158 166 167 178 189 190 197 201 205 224 269 0
135 136 137 145 146 159 165 168 171 183 184 188 192 233 272 287 302 0
1 2 6 20 37 40 43 44 47 58 65 68 74 77 98 99 120 130 0
1 2 166 197 204 210 212 239 240 248 253 257 269 277 283 287 288 294 0
1 3 11 13 15 16 19 44 56 63 77 78 79 81 123 130 133 135 0
1 4 5 6 11 13 16 38 42 51 62 63 74 77 84 125 129 130 0
1 5 7 15 18 19 20 43 52 56 69 73 74 75 79 81 100 127 0
1 6 11 12 42 46 47 51 52 58 60 74 76 77 94 99 101 128 0
1 11 50 152 154 159 160 161 172 178 208 212 218 240 248 265 280 300 0
1 11 160 161 178 183 208 212 240 248 253 257 264 265 269 280 283 299 0
1 19 183 205 212 224 240 248 257 259 261 264 265 269 280 288 292 293 0
1 36 154 200 205 207 213 224 240 250 257 260 269 270 280 286 292 293 0
1 46 159 172 205 212 218 224 240 248 250 259 261 265 269 283 292 293 0
1 48 90 139 144 152 159 164 172 204 208 221 240 248 259 261 269 286 0
1 138 159 205 212 218 235 250 257 259 261 265 269 280 283 292 293 298 0
1 138 205 212 235 250 257 259 260 261 265 269 280 283 292 293 298 299 0
1 139 154 165 205 213 224 239 250 253 254 256 260 261 265 277 280 300 0
1 143 154 188 212 224 240 248 250 257 260 261 265 279 280 283 293 299 0
1 143 159 172 212 218 224 240 248 250 259 261 265 269 280 283 292 293 0
1 159 172 176 205 212 218 224 240 248 250 259 261 265 269 280 292 293 0
1 205 213 224 239 250 253 254 256 260 261 265 269 277 280 292 293 300 0
2 3 66 77 166 191 197 204 206 211 224 225 239 253 265 277 292 293 0
2 4 6 9 15 16 18 20 48 72 74 81 101 102 121 125 129 134 0
2 5 12 19 36 40 46 47 48 54 58 63 74 77 83 106 127 135 0
2 8 191 197 200 204 211 218 220 239 250 251 253 260 279 280 297 300 0
2 12 147 155 160 166 176 197 210 220 240 248 257 262 268 283 288 300 0
2 13 154 165 191 206 211 218 220 224 225 239 253 260 265 268 297 300 0
2 45 50 142 143 144 151 165 177 198 199 200 202 207 218 255 275 288 0
2 50 54 140 142 147 150 154 157 161 164 177 198 199 205 258 266 275 0
2 147 155 160 166 172 176 197 210 212 240 248 253 262 277 283 288 300 0
3 5 6 16 20 48 49 62 75 77 78 84 85 123 124 127 129 135 0
3 6 13 16 17 20 42 52 55 56 60 78 85 98 99 100 120 124 0
3 15 50 139 140 147 156 161 165 167 169 197 208 211 212 224 253 258 0
3 22 167 169 170 188 191 212 250 257 261 265 269 280 283 292 298 299 0
3 82 133 140 142 147 148 151 154 164 173 177 198 202 205 255 258 303 0
3 95 142 170 172 188 193 209 213 220 235 247 253 262 268 283 299 300 0
3 167 169 170 172 188 209 213 220 235 239 247 253 262 268 287 294 299 0
3 170 172 188 191 206 225 235 250 261 262 265 274 279 283 285 288 298 0
3 170 172 188 191 206 225 235 250 261 262 265 274 279 283 285 298 299 0
3 170 172 188 191 224 225 240 250 261 262 265 274 279 280 283 285 288 0
3 170 172 188 191 224 225 240 250 261 262 265 274 279 280 283 285 299 0
4 5 6 8 12 38 49 66 74 77 78 81 83 84 85 106 127 129 0
4 5 6 9 18 19 20 63 67 74 80 81 82 102 106 121 127 128 0
4 6 9 11 16 20 37 38 49 68 74 75 77 126 128 129 130 135 0
4 8 9 13 16 18 19 37 44 47 69 70 74 76 84 85 123 126 0
4 11 13 16 17 44 49 62 76 77 78 79 84 99 124 126 132 133 0
5 6 11 13 17 18 22 38 65 74 77 80 81 83 101 121 128 129 0
5 7 13 17 19 20 42 48 51 58 68 74 75 84 106 121 123 127 0
5 9 11 13 19 22 42 44 48 52 63 65 69 77 81 85 98 128 0
6 7 9 11 13 15 16 19 22 43 44 48 56 67 79 85 128 135 0
6 82 132 136 139 146 147 161 171 173 178 180 192 200 226 230 286 303 0
7 14 40 138 139 147 159 160 173 174 198 218 221 266 275 277 286 287 0
7 14 104 139 141 146 166 175 192 204 218 230 258 265 268 286 291 292 0
7 23 136 137 138 139 141 146 148 166 199 207 221 241 255 258 266 275 0
7 23 137 140 146 152 154 165 169 177 194 211 213 218 239 241 248 253 0
7 160 170 172 176 188 198 209 213 239 240 241 247 262 264 277 299 300 0
8 44 136 141 142 144 148 152 156 160 167 174 188 198 200 245 288 293 0
8 102 137 139 155 162 165 169 170 173 184 197 199 206 217 221 225 284 0
9 23 145 196 213 224 250 254 256 260 261 265 271 277 280 292 293 300 0
9 37 71 189 212 250 257 259 260 261 265 266 271 274 280 283 292 299 0
10 11 166 197 199 204 210 212 239 241 242 248 257 268 280 283 288 300 0
10 12 20 141 147 154 155 159 171 172 175 188 205 207 224 250 255 275 0
10 16 106 149 158 163 170 188 189 195 198 203 205 237 255 258 275 289 0
10 23 82 145 146 152 154 157 165 169 172 211 218 234 241 245 253 289 0
11 12 142 143 150 159 160 162 170 205 209 233 244 271 277 287 293 299 0
11 16 150 151 153 154 155 158 162 176 197 202 205 211 213 239 253 258 0
11 50 138 146 156 159 160 164 167 172 189 191 204 205 221 239 275 283 0
11 122 142 143 146 150 156 160 175 178 199 209 211 233 247 271 274 277 0
11 146 156 170 172 175 188 209 213 239 240 247 253 262 277 283 299 300 0
12 19 138 144 147 151 169 170 173 174 177 188 199 206 228 270 271 294 0
12 46 82 136 137 139 140 141 150 154 155 160 173 175 177 188 257 263 0
12 50 139 141 156 162 163 165 174 178 197 198 200 208 222 229 239 240 0
12 137 142 150 160 172 176 178 184 205 221 224 249 259 264 265 277 287 0
12 144 148 155 156 161 190 199 218 250 254 257 260 266 269 271 291 293 0
13 45 80 106 147 155 166 167 176 177 197 205 220 230 263 288 293 298 0
13 54 139 144 151 154 159 172 173 183 197 204 208 217 220 247 286 303 0
13 152 156 183 208 209 221 260 261 264 265 266 269 271 277 280 292 300 0
13 154 160 176 197 208 221 239 250 253 260 265 266 269 271 274 280 292 0
13 159 160 197 208 209 221 239 250 253 262 265 266 271 277 279 280 300 0
13 169 172 200 210 211 212 239 240 248 253 269 274 277 283 288 298 300 0
13 169 200 210 211 212 239 240 248 253 257 269 274 277 283 288 298 300 0
14 18 138 139 143 145 152 164 176 177 184 197 198 201 236 258 275 286 0
14 80 129 138 142 145 147 162 170 174 177 195 197 205 215 268 284 298 0
15 21 23 36 41 47 53 55 60 66 68 83 85 97 101 123 131 134 0
16 44 137 160 168 176 204 205 218 224 225 250 254 260 265 269 292 293 0
16 50 69 136 139 143 145 146 156 161 166 168 174 191 202 230 275 286 0
16 106 143 150 151 164 166 169 170 172 173 198 226 232 240 255 260 266 0
16 137 205 208 221 224 225 250 254 256 260 266 269 271 277 292 293 300 0
16 137 205 212 224 225 235 250 257 259 260 261 262 265 279 283 293 299 0
16 137 205 212 224 225 235 250 257 259 260 261 265 269 283 292 293 299 0
19 21 22 138 139 152 153 154 164 188 197 208 212 239 253 271 289 302 0
19 36 38 183 189 191 201 211 239 261 264 265 277 279 280 287 294 297 0
19 77 137 143 145 150 151 166 180 194 197 200 216 218 229 232 233 239 0
19 135 143 145 146 157 160 166 167 193 208 233 239 262 270 274 288 292 0
20 21 65 82 102 137 140 143 155 159 162 174 177 184 258 271 275 284 0
20 40 137 138 140 141 147 159 174 175 176 222 228 255 258 264 271 294 0
20 40 138 140 147 153 159 172 174 176 226 228 238 255 263 264 271 294 0
20 82 142 148 159 165 197 204 210 212 218 239 248 253 274 283 288 300 0
22 106 147 156 157 163 164 177 197 216 218 240 241 244 266 269 292 301 0
22 139 143 145 147 151 153 157 164 165 171 177 178 203 207 224 242 267 0
23 81 82 137 139 140 141 155 160 173 175 177 188 200 208 257 258 263 0
36 38 82 136 137 140 145 157 161 176 205 224 245 261 265 270 280 293 0
36 38 161 183 191 198 211 220 239 251 253 261 264 268 279 280 297 300 0
36 50 139 140 141 156 197 198 200 206 208 211 240 241 253 260 281 301 0
37 38 156 208 221 239 250 253 260 261 265 266 269 271 277 280 292 300 0
37 145 156 167 169 188 206 212 225 250 257 260 261 265 274 283 292 299 0
37 154 159 188 200 207 240 248 250 257 261 265 270 279 280 283 286 299 0
37 156 161 178 191 208 221 239 250 253 254 260 266 269 271 277 292 300 0
37 156 208 221 239 250 253 254 256 260 261 265 266 271 277 279 280 300 0
37 159 208 221 234 250 253 254 256 261 262 265 266 271 277 279 280 300 0
37 159 208 221 239 250 251 253 254 256 261 262 266 271 277 279 280 300 0
37 159 208 221 239 250 253 254 256 261 262 265 266 271 277 279 280 300 0
38 49 136 141 154 160 168 175 181 196 200 226 238 259 265 271 280 287 0
38 136 140 141 145 154 169 175 188 196 205 225 226 238 261 265 287 293 0
44 106 143 144 151 155 159 161 166 178 196 200 220 224 243 266 268 294 0
44 143 149 155 159 166 188 191 195 222 224 232 245 263 266 268 277 294 0
45 134 136 150 156 157 165 168 174 218 241 243 244 248 255 266 270 286 0
46 138 139 144 147 150 158 163 169 171 173 188 199 221 266 270 275 283 0
46 138 139 145 153 155 165 168 172 174 178 184 217 266 270 286 288 295 0
46 142 143 144 150 152 156 161 170 172 195 199 218 250 260 269 288 293 0
47 138 147 170 174 189 191 193 195 205 215 216 221 239 256 292 298 301 0
49 82 136 137 141 147 169 173 188 196 205 225 226 238 256 261 265 293 0
50 69 136 140 141 145 169 196 205 226 256 259 261 265 271 280 287 293 0
50 139 140 156 165 169 174 189 197 198 201 208 211 248 270 281 286 301 0
50 139 140 156 165 170 174 197 198 200 208 211 240 253 260 280 281 301 0
51 101 145 149 152 160 174 183 196 198 200 202 210 211 243 262 267 288 0
51 142 143 144 151 159 160 166 170 172 175 202 208 240 247 261 268 271 0
52 100 142 143 144 149 151 157 160 174 177 197 232 255 275 280 282 288 0
52 102 139 142 145 149 151 152 160 198 200 211 215 220 243 258 275 288 0
53 79 160 166 191 197 204 211 212 250 260 265 277 279 280 297 298 300 0
54 159 170 172 183 188 191 261 262 264 265 266 274 279 280 283 288 298 0
54 159 170 172 188 191 250 261 262 265 266 269 274 280 283 288 292 298 0
54 159 170 172 188 191 250 261 262 265 266 269 274 280 283 292 298 299 0
56 139 142 145 161 163 165 181 183 184 220 240 248 275 276 283 286 291 0
58 82 138 140 157 159 178 197 203 204 208 226 258 264 271 287 289 294 0
65 75 131 134 147 149 150 152 154 170 174 175 190 202 224 245 249 253 0
75 80 131 134 139 142 147 148 151 155 171 174 190 230 236 258 295 302 0
76 139 142 147 163 166 172 207 208 218 221 240 248 262 264 272 284 287 0
77 80 92 137 155 160 169 174 198 204 208 224 226 241 269 275 286 297 0
77 136 145 146 149 150 153 156 157 181 188 192 202 241 262 264 279 281 0
77 170 172 188 198 209 213 239 240 241 247 253 262 264 277 287 288 294 0
78 79 106 136 146 152 154 155 165 173 195 205 212 232 245 258 263 270 0
79 97 136 140 145 152 153 163 165 175 176 196 205 224 236 238 239 283 0
79 126 136 142 143 146 147 152 154 156 164 170 177 180 184 198 253 255 0
80 102 142 148 150 151 153 154 160 163 164 167 176 195 206 224 271 288 0
80 137 142 147 148 150 153 154 155 160 163 169 173 177 193 276 288 295 0
82 96 102 136 145 148 149 150 156 159 162 168 212 216 218 247 277 300 0
82 132 136 139 146 147 161 173 174 178 180 192 198 200 226 230 286 303 0
82 142 143 145 148 149 156 160 165 212 216 233 236 239 240 288 289 295 0
88 136 137 142 145 148 154 155 167 170 174 177 180 201 221 253 258 282 0
102 104 106 136 137 138 141 145 159 167 168 188 212 218 224 228 233 287 0
102 136 137 145 146 159 165 167 168 171 183 184 188 192 219 233 287 302 0
102 139 142 145 149 151 152 155 183 198 200 202 211 215 220 243 258 288 0
102 139 142 145 149 151 152 160 183 198 200 202 211 215 220 243 258 288 0
104 106 136 137 140 145 152 159 163 164 188 192 203 218 224 264 272 289 0
106 136 145 148 150 156 178 184 200 207 218 233 236 239 240 272 277 287 0
134 142 146 151 154 155 158 166 167 173 189 190 197 201 205 224 269 287 0
1 3 13 17 23 36 40 41 43 55 67 72 76 85 99 104 123 124 131 0
1 4 5 9 11 17 19 20 22 39 43 56 67 71 74 75 78 81 121 0
1 5 6 11 13 18 23 38 54 58 63 77 79 81 98 99 100 106 133 0
1 9 143 144 145 151 152 155 159 161 166 178 200 243 274 277 285 293 300 0
1 13 67 140 141 146 150 166 168 169 191 198 202 212 218 248 257 277 303 0
1 90 152 154 172 198 199 205 212 223 224 240 248 259 261 265 280 283 293 0
1 90 172 205 212 223 224 240 248 250 259 260 261 265 269 280 283 292 293 0
1 138 161 178 191 205 212 240 248 257 259 261 265 269 280 283 293 298 299 0
1 138 167 169 188 205 212 235 250 257 260 261 265 279 280 283 293 298 299 0
1 145 159 172 205 206 212 218 224 225 240 248 250 259 261 265 283 292 293 0
1 154 159 165 188 205 212 224 240 248 250 257 261 265 269 283 292 293 299 0
1 159 160 172 183 205 212 218 224 240 248 259 264 265 269 280 283 292 293 0
2 3 5 8 13 20 38 63 70 73 75 76 78 80 99 129 130 132 133 0
2 4 6 8 11 22 38 48 51 68 74 77 78 80 83 98 101 102 132 0
2 5 6 7 16 17 19 20 64 71 75 77 78 79 80 83 124 128 131 0
2 8 36 102 136 137 144 145 150 160 165 177 184 197 239 245 249 275 288 0
2 19 50 140 142 147 150 154 157 161 162 164 168 177 203 205 258 266 275 0
2 97 146 152 156 160 166 176 204 210 212 235 239 248 253 262 283 288 300 0
2 159 166 184 197 198 199 204 211 234 241 250 253 265 277 279 280 297 300 0
3 5 6 20 22 38 40 48 53 55 74 75 78 79 80 81 128 129 130 0
3 5 9 17 19 20 22 23 37 38 40 44 52 60 76 81 92 100 120 0
3 38 160 183 184 198 199 211 220 239 241 251 253 264 268 279 280 297 300 0
3 38 170 172 188 191 199 235 250 262 265 269 274 277 280 283 292 298 299 0
3 65 145 170 172 188 191 224 225 240 250 261 262 265 274 280 283 285 292 0
3 92 167 169 170 172 188 191 224 225 246 261 265 274 279 280 283 285 288 0
3 159 170 172 188 191 218 224 225 240 250 261 262 265 274 279 280 285 299 0
4 6 8 15 17 19 20 21 38 49 71 73 76 77 99 128 130 132 134 0
4 6 9 11 15 19 21 23 55 70 72 75 76 77 79 124 130 132 133 0
4 16 42 130 143 144 146 149 155 165 168 174 182 201 212 240 247 284 293 0
4 16 137 204 205 212 224 240 248 250 257 259 260 269 283 285 292 293 299 0
4 161 166 167 169 172 184 197 204 210 212 239 240 248 253 262 265 268 300 0
5 6 13 16 18 19 23 38 62 63 68 69 77 81 99 101 126 127 128 0
5 10 16 17 21 45 49 62 68 71 72 74 76 78 79 99 125 134 135 0
6 79 156 189 208 209 221 240 244 247 262 266 271 274 280 283 294 298 299 0
6 132 137 140 146 150 154 160 167 172 174 178 204 219 277 281 288 294 301 0
7 19 46 77 137 140 145 170 172 177 188 191 192 240 261 262 264 265 288 0
7 80 133 146 157 160 165 169 177 181 204 211 239 249 270 271 275 280 282 0
8 44 102 136 141 142 143 148 149 152 157 175 179 188 200 205 255 263 270 0
8 159 200 205 213 224 239 250 253 254 256 261 265 269 277 280 292 293 300 0
9 11 13 16 18 22 38 43 54 55 68 75 83 85 100 120 122 127 129 0
9 23 134 137 142 146 155 166 167 171 190 202 236 239 245 262 266 275 293 0
9 138 140 151 164 165 170 177 181 184 188 190 197 221 237 241 253 258 275 0
9 142 149 150 153 159 162 172 193 209 212 220 259 268 271 293 295 300 303 0
10 11 106 146 152 154 156 165 169 170 201 205 218 224 239 240 285 292 297 0
10 11 146 156 167 169 170 172 175 188 212 220 239 240 247 253 262 268 300 0
10 12 138 151 165 169 170 173 177 178 199 223 228 239 240 266 270 294 302 0
10 16 101 123 149 159 167 171 199 201 209 211 221 241 247 263 264 287 298 0
11 50 138 146 156 159 160 164 170 172 174 204 221 239 253 254 270 275 283 0
11 154 160 176 204 208 218 221 239 250 253 254 260 265 266 269 271 280 292 0
12 130 140 142 160 164 167 174 176 197 202 212 219 221 224 249 277 286 293 0
13 156 159 160 208 221 239 250 253 254 256 265 266 269 271 277 280 292 300 0
14 17 93 136 145 146 150 152 161 178 212 219 220 223 268 272 284 286 301 0
14 53 138 139 140 144 153 154 171 172 174 178 198 200 218 275 277 289 303 0
14 60 139 140 141 169 174 197 198 208 211 222 240 241 248 253 270 286 301 0
14 79 138 139 140 144 153 154 171 172 178 198 200 218 232 275 277 289 303 0
14 80 82 137 138 142 144 145 148 156 157 167 174 197 200 202 226 233 277 0
14 80 139 142 143 150 151 154 156 167 195 197 205 225 231 240 244 249 276 0
14 80 142 143 150 151 154 156 167 176 195 205 225 231 240 241 244 249 270 0
14 127 136 139 141 146 147 156 161 166 171 173 175 178 198 226 286 291 303 0
15 139 160 161 184 198 199 211 239 241 250 253 258 260 277 279 280 297 300 0
15 159 161 167 169 191 199 209 212 242 250 254 256 265 279 280 283 298 299 0
16 137 143 212 224 240 248 250 257 259 260 261 265 269 280 283 292 293 299 0
16 137 152 161 178 205 212 224 240 248 257 259 261 265 269 280 283 288 293 0
16 137 156 167 169 205 212 224 250 257 259 260 261 265 279 280 283 288 293 0
16 137 161 178 191 205 212 224 240 248 257 259 261 265 269 280 283 288 293 0
16 137 191 205 208 221 224 250 254 260 266 269 271 277 280 287 292 293 294 0
16 137 205 212 224 240 248 250 257 259 260 261 265 269 280 283 288 292 293 0
19 21 66 137 140 145 146 150 175 190 208 214 219 222 224 241 243 244 275 0
19 50 136 139 156 161 175 181 196 198 200 225 261 265 266 283 285 287 302 0
19 50 137 140 142 147 169 170 176 189 193 201 211 214 221 239 255 282 284 0
19 60 76 123 146 155 162 163 166 171 191 197 218 236 245 255 268 274 275 0
20 21 82 142 148 183 191 197 204 210 211 239 253 264 265 279 280 297 300 0
20 142 166 184 197 198 204 211 239 241 250 253 260 265 268 279 280 297 300 0
20 142 166 184 197 198 204 211 239 241 250 253 260 265 277 279 280 297 300 0
20 142 166 191 197 204 206 211 225 239 250 253 260 265 277 279 297 298 300 0
22 82 146 147 148 156 157 160 164 168 178 208 216 258 263 275 288 292 293 0
22 138 141 145 146 152 157 167 187 197 204 239 245 250 253 254 257 275 292 0
37 152 156 166 169 208 221 250 256 260 261 265 266 268 271 277 279 280 300 0
37 154 159 208 221 234 250 253 254 256 261 265 266 269 271 277 280 292 300 0
37 154 160 166 176 204 208 218 221 239 250 253 260 265 266 268 271 279 280 0
37 154 183 200 207 240 248 257 259 260 261 264 265 270 279 280 283 286 299 0
37 154 208 220 221 239 250 251 253 254 256 260 261 266 268 271 279 280 300 0
37 159 160 176 204 208 221 239 250 253 254 262 265 266 269 271 277 280 292 0
37 159 160 208 221 239 250 253 254 256 262 265 266 269 271 277 280 292 300 0
37 159 208 221 234 250 253 254 256 261 262 265 266 269 271 277 280 292 300 0
37 159 208 221 239 250 253 254 256 261 262 265 266 269 271 277 280 292 300 0
37 166 208 221 239 250 253 256 260 261 262 265 266 268 271 277 279 280 300 0
38 152 156 160 189 200 201 207 210 239 240 248 257 262 270 283 286 288 300 0
42 56 75 123 142 148 157 161 164 169 220 229 236 270 280 281 284 291 295 0
42 78 138 139 142 144 147 163 164 166 172 200 204 213 264 268 284 297 300 0
46 82 139 143 145 148 149 156 162 165 173 184 200 216 233 236 239 240 265 0
49 82 136 137 147 154 165 169 175 205 225 226 241 256 259 261 265 271 293 0
49 154 159 172 176 205 208 212 218 224 240 248 250 251 259 261 269 280 293 0
49 154 159 172 205 208 212 218 224 240 248 250 251 259 261 269 280 283 293 0
49 154 160 172 205 212 213 224 240 248 250 259 260 265 269 280 283 288 293 0
49 154 170 205 212 213 224 240 250 257 259 260 261 265 269 280 283 293 299 0
50 136 137 139 140 141 145 169 188 196 205 225 226 238 256 261 265 287 302 0
50 136 137 140 141 145 169 196 205 226 238 256 259 261 265 271 280 287 293 0
50 139 140 141 156 163 174 197 198 200 208 211 240 241 248 253 260 280 281 0
52 60 142 143 144 149 151 157 160 174 177 197 216 232 255 275 280 282 288 0
52 123 137 146 180 188 200 201 211 213 219 241 245 247 249 261 265 268 280 0
53 64 138 142 144 149 150 158 161 164 174 220 249 255 258 264 266 281 286 0
60 65 136 140 146 152 156 163 164 168 177 202 204 214 233 244 260 264 292 0
70 82 140 146 147 149 155 156 157 159 161 164 168 171 226 236 240 246 302 0
76 139 142 147 154 159 166 172 205 207 218 221 224 240 248 253 269 287 302 0
77 84 85 142 143 156 157 160 167 168 174 192 233 255 258 266 269 275 289 0
78 137 159 165 200 205 213 224 239 253 254 256 261 265 274 277 280 293 300 0
78 160 176 200 204 205 213 218 224 239 250 253 254 260 265 269 280 292 293 0
78 200 205 213 224 225 239 250 253 254 256 260 261 265 269 277 292 293 300 0
78 200 205 213 224 239 250 253 254 256 260 261 265 269 277 280 292 293 300 0
82 83 136 139 146 147 161 173 178 180 192 194 198 200 226 230 286 291 303 0
82 88 142 143 145 148 149 156 160 165 167 173 174 216 233 236 239 240 272 0
84 102 104 106 139 140 142 144 150 159 160 164 172 174 215 224 258 259 264 0
89 102 127 140 144 151 159 160 170 193 197 255 275 280 282 288 293 298 303 0
95 138 140 150 151 157 159 166 167 168 171 176 195 208 233 262 273 282 297 0
106 136 138 145 156 165 167 177 189 197 198 216 236 239 241 268 272 286 292 0
106 137 142 143 145 148 152 153 156 160 165 177 233 235 236 239 272 288 295 0
106 139 143 145 150 155 160 166 180 197 200 233 236 242 258 262 271 285 301 0
120 130 138 139 146 147 170 189 191 205 215 222 239 256 266 275 292 298 301 0
1 4 5 6 13 16 19 49 60 70 72 75 79 80 81 83 89 124 128 134 0
1 5 6 8 11 17 21 46 48 49 51 53 63 68 77 80 83 84 128 134 0
1 6 20 40 47 48 49 58 68 71 74 77 78 81 85 98 99 100 101 127 0
2 3 8 11 13 23 45 49 53 56 62 76 79 85 97 100 106 120 129 133 0
2 3 152 156 166 183 191 197 204 206 213 225 264 265 277 279 285 287 294 297 0
2 4 6 7 9 14 39 42 50 54 68 69 74 77 82 84 101 129 133 135 0
2 5 6 8 11 13 19 41 49 62 68 72 73 75 79 124 129 130 132 133 0
2 6 9 11 16 18 23 36 48 58 63 66 74 77 79 81 99 100 127 130 0
2 37 147 155 161 166 178 184 197 198 199 220 239 241 250 253 260 268 279 300 0
2 37 166 197 200 204 206 210 212 239 240 248 253 257 269 277 283 287 288 294 0
2 160 166 176 197 200 204 207 210 213 240 248 257 262 270 277 283 286 288 300 0
2 166 184 197 198 199 204 211 239 241 250 253 260 265 277 279 280 292 293 300 0
3 4 5 8 9 10 12 17 18 41 74 75 78 79 81 85 91 121 130 134 0
3 23 49 154 156 167 169 183 188 205 212 224 257 261 264 265 280 283 293 299 0
3 38 161 170 172 188 191 199 206 225 235 250 262 265 274 279 283 285 298 299 0
4 5 7 11 13 16 17 18 38 54 55 60 69 74 76 77 79 82 127 131 0
4 6 9 11 16 17 23 42 43 60 69 77 78 79 81 85 97 99 121 123 0
6 11 13 16 18 19 20 23 36 38 63 65 68 69 74 77 81 82 98 128 0
6 42 79 106 136 145 146 148 155 160 163 167 173 174 204 205 213 221 258 275 0
6 42 79 136 142 145 146 148 160 164 167 173 174 201 204 205 221 236 255 275 0
6 106 129 136 137 139 141 145 159 162 168 174 212 218 224 228 230 258 264 293 0
7 104 142 143 156 160 163 165 166 171 184 192 198 200 202 237 238 240 264 284 0
7 106 138 139 142 152 156 161 166 171 177 198 204 207 214 240 248 258 262 302 0
7 152 166 172 205 208 221 224 239 256 261 265 266 268 271 277 280 285 293 300 0
8 37 52 102 136 137 138 143 145 151 154 161 172 177 207 218 232 237 241 292 0
9 11 12 17 20 46 48 51 67 70 74 78 80 81 83 84 98 101 102 121 0
9 23 145 196 208 221 224 250 254 256 260 261 265 271 277 280 285 292 293 300 0
10 16 44 142 143 154 155 165 171 172 173 174 184 197 208 240 249 286 297 298 0
10 16 122 142 148 150 151 157 161 176 200 221 232 237 241 248 255 258 266 268 0
10 101 139 140 145 148 172 178 198 207 208 218 224 245 258 271 277 289 292 303 0
11 52 146 147 157 168 170 178 198 204 224 238 247 253 261 274 280 285 298 299 0
11 136 141 143 146 152 160 166 167 188 200 205 237 245 257 269 270 271 283 286 0
11 160 183 208 221 239 253 254 256 260 262 264 265 266 269 271 277 280 292 300 0
12 19 23 136 138 141 142 146 147 152 162 168 175 183 199 207 238 258 268 286 0
12 20 22 23 137 140 144 146 151 153 157 159 162 163 174 255 262 270 275 286 0
12 20 22 138 140 148 159 162 166 205 218 230 240 255 266 269 270 271 296 298 0
12 22 46 82 136 137 139 140 141 154 155 157 160 173 175 177 188 250 257 263 0
12 22 136 137 140 154 165 169 175 188 205 207 218 224 225 241 256 261 265 293 0
12 46 49 136 144 151 154 159 163 164 166 169 174 177 184 224 255 270 275 286 0
13 65 143 146 152 154 159 163 166 171 172 174 176 177 189 220 221 269 274 293 0
14 17 93 139 142 144 146 164 171 172 174 188 192 199 217 222 255 261 270 295 0
14 18 80 93 143 146 151 153 159 171 173 178 199 202 209 212 224 258 272 284 0
14 53 136 137 140 141 145 154 165 169 175 177 205 225 226 259 261 265 271 293 0
14 53 140 141 145 150 154 175 176 177 189 193 201 204 208 221 247 258 284 303 0
14 136 139 143 145 148 149 156 165 166 173 184 200 216 224 233 236 239 240 265 0
14 136 139 145 148 149 150 156 166 173 178 184 200 216 233 236 239 240 265 286 0
15 16 144 146 151 160 169 176 177 189 190 204 210 213 224 244 268 283 288 300 0
15 161 191 199 209 240 244 250 254 256 260 262 265 269 274 280 283 292 298 299 0
16 23 81 82 137 139 140 141 155 173 177 188 199 202 205 208 241 246 257 258 0
16 23 136 141 143 146 152 160 166 167 188 205 237 245 257 269 270 271 283 286 0
16 137 138 170 205 212 240 250 257 259 260 261 265 269 280 283 292 293 298 299 0
16 137 138 205 212 240 248 250 257 259 260 261 265 269 280 283 292 293 298 299 0
17 18 80 93 148 150 154 158 159 166 184 195 198 205 212 241 259 264 266 284 0
18 22 23 139 145 147 150 157 164 165 170 175 202 203 204 224 267 270 296 297 0
19 49 106 138 142 143 150 151 155 160 168 177 180 197 204 214 226 229 233 255 0
19 60 74 140 146 155 164 176 195 204 208 214 219 224 258 266 276 281 292 293 0
19 60 76 140 142 144 149 160 174 191 197 202 230 232 249 268 275 282 288 301 0
19 60 76 142 144 149 151 160 174 178 191 197 202 230 268 275 280 282 288 301 0
19 77 170 172 183 188 208 209 221 239 240 247 253 262 266 271 277 287 288 294 0
20 46 82 136 137 140 145 149 161 164 177 178 198 204 205 220 224 275 286 293 0
21 22 42 63 138 139 144 152 154 164 167 188 197 199 208 210 239 253 266 302 0
21 42 137 138 140 141 152 154 158 161 166 174 208 219 255 258 268 271 283 301 0
21 138 139 147 170 189 191 193 195 215 216 221 239 256 266 270 271 292 298 301 0
22 138 141 145 146 152 157 167 189 195 197 204 239 242 245 250 254 257 275 292 0
23 46 154 208 221 224 250 254 256 260 266 269 270 271 277 285 287 292 293 294 0
23 136 141 143 146 152 160 166 167 178 188 200 205 212 237 245 257 269 283 293 0
23 161 178 205 213 224 239 250 253 254 256 260 265 269 277 285 287 292 293 294 0
36 38 160 161 183 184 198 199 211 220 239 241 251 253 264 268 279 280 297 300 0
36 82 84 137 140 145 161 176 198 205 208 224 245 256 261 265 270 272 280 293 0
37 84 156 208 221 239 253 254 256 260 261 264 265 266 269 271 277 280 292 300 0
37 154 160 183 208 221 239 253 254 256 260 264 265 266 269 271 277 280 292 300 0
37 154 161 178 189 191 201 208 221 239 250 254 260 266 269 271 277 287 292 294 0
37 156 161 178 183 189 191 201 208 221 239 254 260 264 266 269 271 277 292 300 0
37 160 166 176 204 208 218 221 239 250 253 260 262 265 266 268 269 271 280 292 0
38 54 159 161 170 172 183 188 191 199 262 264 265 266 274 279 280 283 288 298 0
39 55 80 140 141 148 159 166 184 195 212 232 248 264 266 269 270 274 284 293 0
43 82 123 136 140 145 161 176 198 205 224 245 256 259 261 265 270 272 280 293 0
44 52 56 60 142 144 145 146 147 164 165 166 168 184 203 218 221 258 275 286 0
44 136 142 145 150 153 156 160 172 178 184 207 218 233 238 264 271 272 277 287 0
45 54 166 199 200 204 205 212 213 224 241 253 260 264 268 269 280 286 288 300 0
48 136 141 143 144 145 156 164 186 191 221 226 230 268 270 275 276 285 295 298 0
48 136 141 144 145 156 161 164 178 186 198 199 221 230 270 275 276 285 295 298 0
49 50 82 139 140 143 146 149 150 169 185 190 206 208 224 225 258 261 265 293 0
49 95 205 206 212 213 224 225 235 248 250 257 259 260 261 265 279 283 293 299 0
49 154 159 172 176 205 206 208 212 218 224 225 240 248 250 259 261 265 269 293 0
50 136 140 141 145 154 160 169 175 196 205 226 238 256 259 265 271 280 287 293 0
53 152 156 160 166 167 191 197 200 204 211 250 260 265 277 279 280 297 298 300 0
54 159 167 169 170 172 183 188 191 261 264 265 266 269 274 280 283 288 292 298 0
60 82 139 142 143 145 148 149 156 165 173 178 200 226 233 236 239 240 265 292 0
60 136 140 146 147 148 152 156 157 158 161 164 168 176 177 197 214 258 264 279 0
65 77 82 138 139 147 151 157 164 177 191 208 224 255 257 258 264 270 271 296 0
69 82 136 140 141 145 147 169 177 196 205 225 226 246 256 259 261 265 271 293 0
71 82 136 137 140 141 145 147 165 169 173 188 205 225 226 256 261 265 287 293 0
78 137 165 200 205 213 224 225 239 250 253 254 256 260 261 265 274 277 293 300 0
78 142 143 144 146 151 160 166 170 172 175 192 200 202 213 240 247 261 268 271 0
80 106 145 154 155 157 170 174 188 194 196 203 205 208 213 243 258 275 286 288 0
82 83 85 140 142 147 148 150 154 164 173 177 198 199 202 205 221 258 275 303 0
82 123 136 137 140 145 161 162 176 198 205 224 245 256 259 261 265 270 272 280 0
82 136 138 140 142 145 148 149 150 156 159 161 173 200 216 233 236 239 240 287 0
82 136 139 145 148 149 150 156 162 173 174 184 200 212 216 233 236 239 240 293 0
106 136 138 140 142 145 148 150 156 161 167 174 200 226 233 236 239 240 272 287 0
132 137 139 142 143 145 150 151 166 180 202 212 215 221 232 233 270 275 285 301 0
1 2 3 52 140 146 149 164 167 200 206 219 225 232 237 241 245 249 265 297 298 0
1 2 74 78 138 140 150 151 171 172 195 198 199 215 232 238 255 266 270 275 280 0
1 4 9 11 16 17 19 21 37 41 51 55 64 73 75 77 78 98 125 128 130 0
1 6 8 9 13 20 47 52 60 63 69 74 77 79 83 98 99 100 102 123 124 0
1 11 13 15 16 18 19 39 40 52 56 60 69 73 74 75 77 79 85 100 131 0
1 36 154 159 200 205 207 208 218 224 240 250 257 261 265 269 270 280 286 292 293 0
1 52 65 106 138 139 145 146 154 170 173 174 189 221 222 239 256 271 275 292 301 0
1 81 104 142 145 148 152 155 160 169 184 197 198 202 204 212 230 248 265 276 293 0
1 139 160 176 204 205 208 218 221 224 239 250 253 254 260 265 266 269 271 280 292 0
1 140 162 205 208 221 224 239 250 253 254 256 260 261 265 266 269 271 277 280 300 0
1 160 176 204 205 208 218 221 224 239 250 251 253 254 260 266 269 271 280 292 293 0
2 3 16 70 161 178 183 205 212 224 240 248 257 259 263 264 265 280 283 293 299 0
2 4 9 11 13 16 19 42 51 62 63 69 74 76 77 83 84 98 120 124 128 0
2 8 36 161 183 191 197 198 200 204 211 218 239 251 253 264 277 279 280 297 300 0
2 14 18 136 137 138 139 152 161 164 175 177 198 208 217 219 225 226 230 286 290 0
2 21 22 137 155 167 172 174 176 188 197 201 216 218 221 224 249 255 282 284 293 0
2 36 166 183 184 197 198 199 204 211 234 241 253 264 265 277 279 280 283 297 300 0
2 37 166 197 200 204 207 210 234 240 248 253 257 269 270 277 280 283 286 288 300 0
2 161 166 169 178 184 197 198 199 204 211 234 241 250 253 260 277 279 292 293 300 0
3 52 137 138 140 146 149 159 161 167 200 211 236 241 249 251 255 261 266 280 297 0
3 77 142 145 148 154 155 158 167 174 175 176 177 180 201 226 249 253 258 272 280 0
4 5 7 11 16 18 19 20 22 36 39 52 55 60 74 76 77 78 100 127 131 0
4 6 9 16 19 20 23 37 48 51 62 63 65 74 75 76 78 85 126 128 130 0
4 16 137 205 212 223 224 240 248 250 257 259 260 261 269 270 283 292 293 298 299 0
5 8 13 15 17 19 20 23 43 48 55 67 69 75 80 99 122 123 128 129 131 0
5 8 13 15 21 49 55 64 68 70 72 76 77 79 99 125 126 129 130 133 135 0
6 52 136 150 154 164 169 173 175 184 200 206 213 216 224 232 237 242 260 266 286 0
7 20 22 138 139 141 145 156 157 172 174 175 178 188 198 216 218 220 241 270 295 0
7 50 77 136 138 139 142 144 147 152 163 164 172 208 213 222 264 284 286 287 297 0
7 77 136 137 145 154 156 165 167 171 186 189 202 205 218 224 239 241 246 264 298 0
8 75 80 136 141 143 145 149 150 155 157 166 167 168 171 233 266 267 269 270 275 0
9 75 123 138 142 144 145 149 150 163 170 198 201 202 204 215 229 242 249 265 303 0
10 11 152 166 197 199 204 210 212 239 240 241 248 253 257 262 268 280 283 288 300 0
10 16 106 143 144 146 152 171 174 188 196 199 208 232 241 245 248 249 255 266 295 0
10 56 139 140 145 148 172 178 198 207 208 218 224 245 249 258 271 277 289 296 297 0
11 159 166 170 199 204 210 212 213 240 241 253 257 262 264 268 279 280 283 299 300 0
12 84 124 137 138 140 161 165 174 177 184 193 199 205 218 238 255 258 270 283 286 0
12 84 137 138 140 144 161 165 174 177 184 199 205 218 238 249 255 258 270 283 286 0
12 133 140 141 146 147 159 173 178 185 186 198 204 207 208 214 226 232 247 255 266 0
12 144 148 155 156 163 190 199 218 250 254 257 260 266 269 271 281 284 293 294 302 0
13 15 16 23 37 44 47 56 58 62 68 74 77 78 79 85 98 100 121 123 133 0
13 139 145 146 156 158 159 162 172 174 200 207 208 209 221 239 263 264 281 287 293 0
15 82 138 146 147 148 156 157 160 164 168 178 208 216 255 258 263 275 288 292 293 0
16 23 62 76 136 139 141 143 144 146 152 154 156 167 173 174 186 226 241 258 266 0
16 23 76 142 145 148 152 155 160 161 165 176 184 196 197 204 210 268 271 275 293 0
16 76 137 143 208 212 221 240 248 250 257 259 260 261 265 269 283 292 293 294 299 0
17 82 134 140 144 145 150 153 161 168 173 177 187 200 205 211 224 228 246 263 293 0
18 45 106 145 154 155 157 175 188 194 203 205 208 213 243 253 258 271 275 280 281 0
19 49 62 138 149 153 155 160 167 174 175 193 200 204 212 232 233 258 288 293 296 0
19 50 136 137 139 145 161 169 175 188 196 198 205 225 238 256 261 265 281 287 302 0
19 62 138 142 153 155 160 167 174 175 177 193 200 204 212 224 241 264 288 293 296 0
19 104 106 136 141 150 152 154 158 161 162 168 173 177 203 214 221 255 258 266 295 0
21 22 136 138 139 151 152 155 157 158 163 169 174 178 200 218 226 288 292 294 295 0
21 22 144 149 151 154 158 159 160 163 172 174 178 190 205 226 242 248 288 294 295 0
22 81 139 144 145 157 158 160 163 169 174 178 207 226 239 255 266 267 270 288 295 0
23 43 84 143 146 159 168 177 181 204 207 210 213 224 247 265 270 283 286 288 300 0
37 38 160 170 172 183 188 191 198 199 205 212 213 239 240 262 266 277 292 299 300 0
37 38 160 172 183 184 188 198 199 205 212 213 239 241 262 265 266 277 292 299 300 0
37 50 136 140 141 145 154 175 176 181 196 200 221 225 226 238 256 259 261 265 287 0
37 50 154 160 176 183 189 201 204 208 221 239 254 260 264 265 266 269 271 280 292 0
38 54 137 138 139 142 143 145 147 152 155 171 175 178 186 188 189 211 230 233 264 0
45 54 166 199 200 204 205 207 213 224 241 253 260 264 268 269 270 280 286 288 300 0
46 79 138 139 147 150 158 163 167 169 171 173 180 189 199 221 266 270 271 275 283 0
46 82 136 142 150 159 160 166 167 172 174 176 216 221 224 249 258 259 277 293 300 0
46 88 144 150 163 170 174 177 199 208 218 250 254 257 260 269 270 284 293 294 302 0
46 92 142 143 144 150 156 163 170 195 199 207 221 266 269 271 281 288 293 294 302 0
47 52 138 145 146 152 167 193 195 197 205 221 222 239 245 253 256 275 292 298 301 0
50 100 139 140 165 169 174 186 197 198 208 211 222 232 237 248 253 263 270 286 301 0
50 139 140 141 156 169 174 189 197 198 201 208 211 240 241 248 260 270 281 286 301 0
53 79 160 166 184 197 198 199 204 211 212 241 250 260 265 277 279 280 297 298 300 0
56 75 78 146 149 150 160 163 165 170 188 193 194 213 239 243 248 255 275 284 288 0
58 60 65 136 140 146 152 153 156 157 161 177 199 202 204 214 221 232 233 244 264 0
60 74 138 140 143 146 157 158 176 178 193 204 207 208 258 268 272 275 280 293 294 0
60 84 136 137 146 147 149 150 152 156 171 180 200 216 226 232 236 255 268 272 303 0
64 78 139 142 144 146 149 155 164 171 172 177 188 192 199 217 222 263 264 284 295 0
69 82 136 140 141 145 147 177 181 196 200 205 225 226 246 256 259 261 265 271 293 0
70 82 84 120 139 140 147 148 155 157 184 198 200 210 211 248 258 275 276 288 297 0
77 80 84 137 141 145 146 150 152 173 192 194 202 207 208 222 258 267 270 271 275 0
77 80 138 152 154 155 157 170 174 188 196 205 208 213 216 243 245 258 286 288 292 0
79 81 82 97 137 138 139 141 145 148 158 161 173 175 188 202 208 258 260 263 270 0
80 106 145 150 152 154 155 157 170 174 196 203 205 208 213 243 245 258 275 286 288 0
80 132 137 145 152 154 155 157 170 174 188 196 203 205 208 213 243 245 255 286 288 0
82 84 137 140 145 154 156 161 176 198 205 208 224 256 259 261 265 270 272 280 293 0
82 102 106 143 145 150 151 157 160 166 167 193 197 233 236 243 262 270 274 275 288 0
82 136 137 140 141 145 147 162 169 173 196 205 226 238 256 259 261 265 271 280 287 0
82 136 137 140 145 147 154 165 168 175 177 188 200 205 225 226 241 256 261 265 293 0
82 136 137 140 145 147 154 165 169 175 177 205 226 241 256 259 261 265 271 280 293 0
84 132 137 138 140 146 147 152 156 157 159 161 164 179 208 214 224 246 255 281 287 0
89 137 140 145 164 166 177 204 205 207 208 212 224 230 248 259 261 265 280 293 299 0
130 138 139 146 147 167 191 193 195 205 221 222 239 253 256 266 271 275 292 298 301 0
131 136 139 145 148 149 150 156 162 174 184 200 207 216 233 236 239 240 272 293 300 0
132 137 139 142 143 145 146 150 155 166 180 202 212 232 233 258 270 271 275 285 301 0
1 8 13 17 19 20 21 23 38 41 55 70 72 75 77 78 79 99 124 125 130 133 0
1 10 102 154 159 172 184 188 205 212 218 224 233 250 261 265 269 280 283 291 292 293 0
1 52 138 139 145 146 152 167 193 195 197 205 213 221 222 239 245 253 256 275 292 301 0
1 102 144 154 165 174 205 212 224 240 248 250 257 259 260 261 269 283 291 292 293 299 0
2 3 5 10 13 40 51 52 55 70 72 74 75 77 79 81 83 95 101 128 129 130 0
4 5 6 11 16 19 37 43 48 49 51 62 63 68 76 77 78 83 125 126 128 130 0
4 6 8 9 13 15 16 18 19 23 40 52 55 67 73 75 80 81 101 122 130 134 0
4 6 8 11 17 19 21 49 62 68 70 72 75 77 84 101 122 126 128 129 130 132 0
4 16 20 79 136 140 143 150 154 155 157 161 164 166 168 170 171 177 198 199 221 249 0
5 6 9 12 18 20 40 66 74 77 80 82 83 84 85 93 102 106 121 123 127 128 0
6 72 138 139 145 146 151 156 158 159 164 165 173 174 200 208 229 270 277 286 289 297 0
6 129 137 139 142 144 145 155 171 181 184 188 198 199 217 238 249 258 265 284 286 295 0
7 14 80 104 133 137 152 154 157 160 169 175 178 204 216 232 247 249 270 271 282 285 0
7 16 146 147 154 162 165 166 167 172 175 188 197 198 205 211 219 224 237 242 255 284 0
7 137 140 145 154 177 205 212 213 224 240 248 250 259 260 261 265 269 280 283 288 293 0
8 200 205 208 221 224 225 239 250 253 254 256 260 261 265 266 269 271 277 292 293 300 0
10 15 16 159 161 167 171 199 209 243 244 250 254 256 265 269 274 280 283 292 298 299 0
10 23 152 156 166 168 183 205 224 256 260 261 264 265 268 269 277 280 285 292 293 300 0
11 12 142 146 157 160 167 168 174 176 197 202 212 219 221 224 249 266 277 286 293 294 0
12 18 20 138 147 151 153 155 167 171 176 177 193 198 201 202 221 254 258 264 270 275 0
12 19 80 136 140 141 144 146 147 151 152 164 168 169 177 180 202 221 238 258 268 301 0
13 66 136 137 146 149 150 155 156 165 167 168 175 207 208 233 239 246 248 249 270 272 0
13 95 136 146 155 156 159 163 164 165 166 172 185 195 199 209 212 256 262 264 275 296 0
13 136 140 141 145 154 166 169 175 176 196 205 209 221 225 226 238 259 261 265 287 293 0
13 156 206 208 209 220 221 225 239 247 250 253 260 261 265 266 268 269 271 285 292 300 0
13 172 183 184 188 198 205 209 212 213 239 247 253 261 262 265 266 277 280 292 299 300 0
14 60 70 136 137 138 146 147 156 157 161 163 171 175 178 198 236 238 279 286 287 303 0
14 64 136 137 138 139 152 164 172 175 177 198 199 208 212 219 226 230 286 290 295 298 0
14 70 136 137 138 146 147 149 156 157 161 163 168 171 175 178 198 236 240 286 287 303 0
14 80 130 136 144 146 147 156 159 164 167 176 199 224 237 241 266 274 275 276 280 292 0
14 80 136 139 142 144 145 146 148 154 156 158 167 170 173 177 180 221 249 255 261 270 0
16 43 44 82 150 154 158 159 164 166 169 175 191 198 226 232 237 242 258 286 292 295 0
16 137 205 208 221 224 239 250 253 254 256 260 261 265 266 269 271 277 280 292 293 300 0
18 138 139 144 152 154 158 159 160 164 172 191 204 205 212 225 240 248 269 286 293 295 0
19 60 84 142 153 166 169 172 178 181 188 197 202 205 207 208 218 222 224 262 300 303 0
20 41 137 138 144 153 155 161 174 199 218 233 250 255 257 260 266 269 270 283 288 292 0
20 142 160 161 166 178 184 197 198 204 211 239 241 250 253 260 277 279 280 292 293 300 0
21 22 138 139 141 157 160 164 167 189 204 205 216 221 239 254 257 266 271 290 292 297 0
22 36 136 137 140 145 154 165 169 175 177 205 207 218 224 241 256 261 265 271 280 293 0
23 81 177 205 208 239 250 253 254 256 260 261 265 266 269 271 277 280 285 292 293 300 0
23 160 168 176 204 205 208 218 221 224 250 253 254 260 265 266 269 271 280 285 292 293 0
23 205 208 221 224 234 250 253 254 256 260 261 265 266 269 271 277 280 285 292 293 300 0
23 205 208 221 224 239 250 253 254 256 260 261 265 266 269 271 277 280 285 292 293 300 0
36 37 166 199 204 208 212 221 240 241 253 260 262 264 266 268 271 279 280 283 288 300 0
36 166 197 198 199 200 204 205 212 213 224 240 241 253 263 269 278 280 288 292 293 300 0
36 166 199 200 204 205 207 213 224 240 241 253 260 264 268 269 270 280 283 286 288 300 0
40 70 75 82 123 138 139 140 145 146 148 163 173 208 219 263 274 285 286 291 295 302 0
42 78 137 139 159 188 200 205 213 224 239 240 250 253 254 256 261 265 266 269 277 280 0
42 82 138 139 146 156 159 160 164 170 172 174 204 205 221 239 253 254 266 271 275 297 0
45 52 54 122 142 148 150 155 156 159 160 169 172 174 198 199 208 218 261 263 292 295 0
47 136 138 145 156 157 160 165 170 174 204 205 216 221 236 239 241 245 253 281 290 292 0
50 75 80 136 138 145 146 147 164 169 200 213 215 223 224 246 261 266 270 292 293 301 0
53 64 80 139 142 144 145 146 148 154 156 164 170 180 197 204 241 249 261 270 282 288 0
54 100 142 143 145 149 157 159 171 180 197 198 207 209 219 220 224 228 230 241 281 299 0
56 75 78 104 138 139 144 145 155 172 178 198 208 218 232 249 258 271 277 286 289 292 0
56 75 78 138 139 144 145 155 172 178 198 208 218 232 249 258 271 277 286 289 292 303 0
58 65 80 142 148 150 153 154 155 160 161 163 169 174 178 193 232 258 271 288 290 295 0
69 70 82 102 139 145 146 147 148 155 156 173 176 202 213 223 233 257 275 286 301 302 0
69 76 138 139 145 147 157 161 164 169 172 174 194 200 208 218 229 246 266 270 279 286 0
72 138 139 145 151 156 158 159 164 165 172 174 200 208 218 220 229 268 270 286 289 297 0
77 137 139 142 143 145 146 150 151 163 164 166 180 202 215 232 233 239 264 270 275 285 0
78 200 205 208 221 224 225 239 250 253 254 256 260 261 265 266 269 271 277 292 293 300 0
78 200 205 208 221 224 239 250 253 254 256 260 261 265 266 269 271 277 280 292 293 300 0
79 82 136 137 140 145 149 161 164 189 198 204 205 221 224 259 261 265 272 280 290 293 0
82 90 136 145 148 149 150 156 159 167 173 174 184 200 212 216 224 233 236 239 240 287 0
82 106 123 136 137 140 145 161 162 176 177 198 205 206 230 256 259 261 265 270 275 295 0
82 138 140 142 143 148 149 156 163 165 168 193 195 216 218 221 233 240 247 269 271 283 0
83 137 139 143 145 146 150 155 160 166 180 185 212 232 233 242 258 270 271 275 285 301 0
106 137 139 143 145 146 150 151 155 160 166 180 197 212 232 233 242 258 270 275 285 301 0
130 138 139 146 147 170 189 191 193 195 205 215 221 222 239 256 266 271 275 292 298 301 0
132 137 143 145 148 153 156 162 165 172 177 178 184 200 207 233 235 236 238 239 272 294 0
1 3 4 5 6 11 18 40 42 46 49 63 65 66 70 74 77 81 84 99 102 128 132 0
1 13 67 140 141 146 150 152 168 169 191 198 202 212 218 248 255 257 277 283 288 289 303 0
1 19 40 44 137 139 140 151 154 159 161 172 174 177 184 200 208 214 239 241 242 266 270 0
1 139 152 156 166 205 208 221 224 239 250 256 260 261 265 266 268 269 271 277 280 292 300 0
2 3 95 142 152 156 160 166 176 183 191 193 197 204 206 211 213 225 253 264 265 279 298 0
2 4 5 11 15 16 19 20 22 23 38 43 44 52 60 63 69 77 79 81 120 127 135 0
2 8 36 161 183 184 197 198 199 200 204 211 218 220 239 241 251 253 264 279 280 297 300 0
7 19 50 77 136 137 139 140 146 149 150 152 154 167 177 188 189 190 194 207 244 270 293 0
10 20 89 137 140 145 146 152 155 161 165 166 170 172 174 183 184 186 200 236 239 243 283 0
10 42 126 137 144 151 154 164 165 166 170 173 175 178 184 185 188 197 200 247 286 295 298 0
12 19 138 144 147 151 164 165 169 170 173 177 178 188 199 223 228 239 240 244 266 270 294 0
12 83 84 137 140 144 152 153 156 165 166 174 177 184 185 199 200 239 249 255 266 275 283 0
12 83 137 146 152 155 163 165 166 174 183 184 186 200 236 239 243 257 262 266 275 286 290 0
14 40 136 138 140 142 145 148 149 150 156 159 161 167 170 173 199 200 216 233 236 240 287 0
14 40 136 138 140 142 145 148 149 150 156 159 161 167 173 174 199 200 216 233 236 240 287 0
15 16 142 144 146 151 155 169 176 177 189 190 204 210 213 224 242 244 268 273 283 288 300 0
15 143 146 149 151 153 163 166 171 178 197 199 202 208 218 223 225 248 259 266 284 293 296 0
15 166 191 197 199 200 204 205 212 213 224 239 242 250 260 262 268 279 280 283 286 288 300 0
16 17 81 137 138 155 156 162 165 176 178 184 205 218 249 250 254 257 260 270 271 286 292 0
16 137 205 208 221 224 239 250 253 254 256 260 261 265 266 269 271 277 280 287 292 293 294 0
17 69 82 146 151 154 168 176 178 199 212 219 221 224 225 230 241 245 266 269 275 286 291 0
19 37 82 106 123 137 140 145 146 147 150 155 157 161 166 172 173 195 197 208 277 279 294 0
19 77 137 141 143 145 146 150 151 166 180 194 197 198 200 218 232 233 239 242 268 275 281 0
20 46 82 137 139 140 145 150 154 161 165 173 175 177 193 198 224 241 246 249 255 258 271 0
21 94 126 140 141 145 153 157 158 168 176 207 208 210 221 222 260 270 275 276 280 283 298 0
21 138 139 140 143 144 170 172 180 212 216 221 266 270 271 283 285 288 291 292 298 301 303 0
22 46 138 139 155 156 159 163 165 172 174 178 184 205 217 218 226 250 254 270 286 288 292 0
22 136 137 140 145 147 154 165 169 173 175 205 207 225 226 241 256 259 261 265 271 287 293 0
22 136 137 140 145 154 165 169 173 175 205 207 218 225 226 241 256 259 261 265 271 287 293 0
23 67 136 140 141 143 146 160 166 167 168 188 194 200 205 208 212 226 269 283 293 300 303 0
23 183 205 208 221 224 239 253 254 256 260 261 264 265 266 269 271 277 280 285 292 293 300 0
23 205 208 221 224 239 250 253 254 256 260 261 265 266 269 271 277 280 285 287 292 293 294 0
37 38 160 170 172 183 188 191 198 205 212 213 239 240 253 262 265 266 277 280 292 299 300 0
37 38 170 172 183 188 191 198 206 212 213 221 224 234 240 253 261 262 265 277 279 299 300 0
52 136 137 140 145 154 165 168 175 177 200 205 207 218 225 226 241 256 259 261 265 271 293 0
52 138 139 145 146 152 170 189 193 195 197 205 213 215 221 222 239 245 256 275 292 298 301 0
60 65 136 139 140 145 154 165 169 172 175 176 205 208 221 226 233 241 259 261 265 280 287 0
75 78 200 205 208 221 224 239 250 253 254 256 260 261 265 266 269 270 271 277 280 286 300 0
75 78 200 205 208 221 224 239 250 253 254 256 260 261 265 266 269 271 277 280 286 288 300 0
77 80 92 138 141 147 154 155 170 172 188 191 194 196 199 205 208 213 243 246 260 281 292 0
77 84 136 137 139 145 146 152 156 165 170 174 189 202 205 222 236 238 239 241 245 292 298 0
78 166 200 205 207 208 221 224 225 239 250 256 260 261 265 266 268 269 271 277 292 293 300 0
80 140 141 153 159 160 169 175 198 199 204 207 208 211 214 232 249 255 268 270 271 280 282 0
81 146 151 156 159 160 167 172 198 199 208 212 215 224 258 263 268 270 271 274 275 281 292 0
81 146 151 156 159 160 167 172 198 199 208 212 215 224 258 263 270 271 274 275 277 281 292 0
82 140 142 143 148 149 153 156 163 165 168 176 193 195 212 216 233 235 247 269 271 286 289 0
102 106 138 139 143 145 146 150 151 160 163 166 190 197 212 215 233 236 242 270 271 275 285 0
104 140 142 144 146 154 159 166 167 171 172 173 189 190 197 224 226 253 269 275 287 291 293 0
1 2 166 172 183 184 188 189 197 198 201 204 212 213 224 239 265 266 277 280 292 293 299 300 0
1 52 65 106 136 138 139 145 146 147 154 156 165 170 174 213 221 222 239 241 253 275 292 300 0
1 82 150 154 157 158 159 164 169 175 184 200 206 213 226 232 237 242 258 260 266 286 292 295 0
3 22 166 170 188 199 200 204 205 207 213 224 240 241 248 253 268 269 270 280 283 286 288 300 0
3 22 166 170 188 199 200 204 205 212 213 224 240 241 248 253 268 269 280 283 288 292 293 300 0
3 22 166 170 188 199 200 204 205 212 213 224 240 241 253 257 268 269 280 283 288 292 293 300 0
3 37 38 172 174 184 188 198 201 212 213 239 250 251 253 261 262 266 277 280 287 292 294 299 0
3 37 166 170 172 188 189 198 199 204 208 212 235 241 262 264 266 271 277 279 280 283 294 299 0
3 150 166 170 172 199 200 204 205 212 213 224 240 241 253 264 268 269 280 283 288 292 293 300 0
4 79 136 137 142 145 146 154 156 159 163 169 177 180 187 189 202 211 232 245 249 255 266 274 0
6 74 78 137 138 140 150 169 172 175 198 206 219 222 224 228 255 258 270 286 289 295 301 303 0
6 82 138 139 140 146 159 160 161 164 168 173 178 200 204 225 229 258 259 265 271 285 291 303 0
6 106 123 129 136 137 141 144 145 159 163 165 168 184 198 204 212 218 220 225 230 264 287 294 0
8 82 127 139 145 147 148 151 154 155 162 177 183 184 197 200 211 239 248 258 265 275 276 286 0
8 136 138 139 140 147 159 170 188 191 193 195 203 205 213 215 216 221 239 253 256 297 298 301 0
10 11 166 197 199 200 204 205 210 212 224 239 240 248 253 257 265 268 269 280 283 288 293 300 0
10 14 83 141 142 150 154 166 171 176 177 189 193 201 204 208 221 231 266 273 274 275 292 303 0
10 89 137 140 150 154 157 175 189 205 206 207 208 212 221 224 225 250 260 266 269 277 281 293 0
10 137 138 139 143 146 147 154 156 159 166 171 178 186 188 197 211 216 230 233 243 260 264 275 0
10 137 140 145 146 152 155 163 165 166 174 183 184 186 200 224 236 239 243 249 257 286 287 290 0
11 166 199 200 204 205 210 212 213 224 240 241 248 253 257 260 264 268 269 280 283 286 288 300 0
12 123 136 138 140 146 147 150 152 159 160 161 166 174 207 208 245 258 264 271 283 284 295 301 0
12 136 137 138 139 154 160 165 169 175 177 178 204 216 225 226 241 259 265 271 285 291 300 302 0
13 14 16 17 23 36 37 38 42 56 58 62 63 66 69 74 76 77 78 84 123 124 130 133 0
16 23 81 142 144 150 154 161 162 169 170 177 195 199 208 218 250 254 257 260 269 270 288 293 0
17 133 134 140 144 145 150 153 154 157 161 168 173 175 187 200 205 208 224 228 255 258 260 293 0
19 48 74 140 144 156 167 168 170 178 181 187 193 198 199 207 210 221 224 250 257 260 266 279 0
19 84 106 138 140 145 150 152 156 157 180 198 200 216 218 224 227 229 232 236 245 255 257 297 0
20 46 82 137 139 140 145 150 154 158 161 165 173 175 177 193 198 224 241 246 249 258 270 271 0
20 46 82 137 139 140 145 150 161 165 173 175 177 193 195 198 224 237 241 246 249 255 258 271 0
21 22 144 149 151 153 154 158 159 160 163 169 172 174 178 181 195 200 205 226 248 288 294 295 0
23 43 84 122 140 143 145 146 157 159 160 167 188 200 226 237 245 250 254 257 270 283 293 300 0
44 54 82 142 145 149 150 156 159 160 166 168 172 178 180 212 216 218 220 240 247 258 271 300 0
46 48 142 143 146 147 154 159 163 166 171 172 173 174 176 189 197 204 221 224 269 284 287 293 0
49 82 150 154 155 159 164 166 169 175 184 198 199 200 206 213 226 232 237 242 266 286 290 295 0
49 82 150 154 159 164 166 169 175 178 191 198 200 206 213 226 232 237 242 257 258 266 286 290 0
52 74 78 136 137 138 145 146 148 160 161 168 172 177 184 188 199 218 255 262 265 274 279 298 0
53 64 80 136 137 139 142 144 145 148 157 164 167 170 171 192 197 198 204 208 249 261 270 282 0
54 56 82 146 150 151 159 161 162 165 169 170 193 204 208 239 241 243 246 248 258 266 268 275 0
62 137 140 141 145 148 152 159 161 163 164 168 172 183 188 192 207 218 224 255 264 265 272 289 0
65 66 82 136 137 139 140 145 154 163 165 168 175 177 200 205 241 259 261 265 271 280 291 303 0
65 106 136 139 140 145 154 165 169 172 175 177 205 214 225 226 241 259 261 265 271 291 300 302 0
77 84 137 139 145 146 152 170 193 195 197 202 205 215 221 222 229 239 245 253 256 271 286 298 0
78 138 139 140 149 154 155 165 168 171 172 174 178 188 198 218 220 241 244 246 266 275 289 303 0
1 52 136 140 145 149 166 169 177 196 205 207 218 225 226 233 238 241 243 256 259 261 265 271 293 0
1 81 104 142 145 148 152 155 160 184 197 198 200 202 204 212 230 239 248 265 276 277 291 293 300 0
1 82 150 154 155 159 164 166 168 169 175 184 198 199 206 212 213 226 232 237 242 266 286 292 295 0
3 36 137 166 189 199 200 201 204 205 212 213 224 225 240 241 264 266 268 269 278 288 292 293 294 0
4 142 144 150 152 156 162 163 170 183 195 199 218 221 257 260 264 266 269 271 281 288 293 294 302 0
6 42 78 79 106 139 146 155 156 159 160 164 172 174 178 202 205 213 224 232 237 242 266 295 299 0
6 48 74 136 140 143 146 152 154 156 162 163 164 167 173 194 204 213 218 224 240 248 255 257 296 0
6 60 67 82 136 140 145 147 154 165 169 175 177 205 225 228 233 241 256 259 261 265 271 293 303 0
7 12 136 138 143 144 146 149 159 161 162 163 166 177 199 209 219 220 221 231 241 246 255 283 293 0
7 14 104 136 138 139 146 160 167 172 173 177 198 204 205 213 221 239 253 263 268 275 292 293 295 0
7 14 133 136 137 143 145 152 154 159 161 167 169 176 177 188 189 194 198 204 224 250 261 265 280 0
8 50 75 80 136 141 146 150 154 155 156 158 165 167 168 200 205 207 224 233 248 257 267 270 293 0
8 136 142 145 146 155 156 175 194 195 199 200 204 232 243 266 268 275 284 286 292 297 300 301 302 0
10 12 18 137 141 143 144 147 149 150 163 167 173 176 177 180 182 195 212 239 242 247 261 266 273 0
10 15 40 138 141 146 166 168 170 172 174 175 178 180 198 204 205 240 259 277 286 289 292 293 303 0
11 36 136 140 141 143 157 159 160 166 167 175 188 194 200 205 226 237 245 264 269 270 283 293 300 0
11 136 140 141 143 157 159 160 166 167 175 179 188 194 200 205 226 236 245 264 269 270 283 293 300 0
12 22 137 140 146 155 163 165 171 174 183 184 198 205 224 236 243 245 248 249 255 281 286 287 303 0
12 82 123 137 138 140 146 150 160 161 166 172 173 174 197 208 245 258 264 271 283 284 295 301 303 0
12 82 136 137 147 149 154 168 175 181 196 200 205 225 226 233 241 243 246 256 259 261 265 271 293 0
13 95 136 141 144 145 156 164 166 178 186 197 199 221 230 256 258 268 270 275 276 285 286 295 298 0
14 42 80 142 143 145 149 154 158 165 167 169 176 180 195 208 225 237 240 241 244 249 261 270 275 0
14 79 136 142 144 145 146 153 156 157 162 166 167 175 177 180 181 193 199 253 255 258 270 280 286 0
16 44 48 56 136 137 141 143 145 146 149 155 160 166 167 168 181 188 210 266 274 283 286 287 294 0
16 44 56 145 147 148 152 155 161 165 176 184 197 210 217 236 257 268 271 275 286 287 292 294 297 0
19 82 136 137 139 145 147 154 161 165 169 175 177 198 205 216 225 241 256 259 261 265 271 277 302 0
19 84 106 138 140 145 150 152 156 157 161 180 198 200 216 218 224 229 231 245 255 257 262 287 294 0
22 136 138 139 141 145 146 152 154 170 189 195 197 198 215 239 242 250 254 256 257 268 272 275 292 0
36 37 166 170 189 191 197 199 204 208 212 239 240 250 260 262 265 266 271 277 279 280 283 299 300 0
36 38 50 189 191 200 201 205 207 208 221 224 239 240 250 260 261 265 266 269 270 271 280 286 288 0
36 38 166 198 199 200 205 207 213 224 235 241 253 260 264 265 268 269 270 280 283 286 287 288 294 0
37 38 160 170 172 183 188 191 198 205 206 212 213 221 239 240 253 262 265 266 277 287 292 299 300 0
37 38 160 170 172 183 188 191 198 205 207 212 213 220 239 240 253 262 264 265 266 280 292 299 300 0
38 82 136 137 140 145 149 154 165 175 177 181 196 200 205 226 233 241 243 259 261 265 271 280 293 0
45 54 166 191 199 200 204 205 208 212 221 224 241 253 260 264 265 266 269 271 277 280 286 288 300 0
49 64 82 136 137 139 140 147 154 165 169 175 177 198 222 241 256 259 261 265 271 277 280 284 302 0
49 136 137 138 139 154 160 165 168 175 177 178 200 204 205 216 225 226 241 251 259 271 291 300 302 0
50 58 60 136 139 140 145 154 159 175 181 196 200 204 205 225 229 238 241 259 261 265 271 281 287 0
52 58 138 139 145 146 152 160 170 174 189 197 204 205 221 222 239 245 271 275 281 289 290 292 293 0
65 66 138 144 155 161 169 172 174 199 200 218 233 240 250 255 260 263 266 269 270 283 288 292 302 0
68 138 139 140 143 144 146 171 172 174 175 180 212 222 266 270 271 283 285 288 292 298 300 301 303 0
72 80 82 137 138 139 148 149 150 151 157 159 165 168 171 173 175 180 184 188 198 200 237 240 286 0
80 84 104 106 136 140 141 142 143 152 153 159 160 163 164 168 188 192 203 224 240 258 264 271 289 0
82 106 136 137 138 139 146 147 150 154 161 171 173 178 180 192 197 198 200 226 230 232 236 255 303 0
82 135 136 137 140 143 145 161 162 165 169 176 188 194 198 206 224 233 240 241 256 261 265 270 272 0
1 46 82 150 154 159 164 166 169 175 191 198 200 213 226 230 232 237 242 257 258 266 286 292 295 298 0
2 11 161 165 166 169 172 174 178 183 184 188 197 198 199 204 211 239 241 253 264 277 279 292 293 300 0
3 15 16 50 70 136 143 144 147 160 166 169 176 192 195 213 224 226 230 241 266 275 283 288 294 301 0
3 22 166 169 170 188 197 199 200 204 205 207 213 224 241 249 257 262 268 269 270 280 283 286 288 300 0
3 136 166 170 188 198 199 200 204 205 212 213 224 240 241 253 264 265 268 269 280 283 286 288 294 300 0
3 150 166 170 172 199 200 204 205 207 213 224 240 241 253 262 264 268 270 279 280 283 286 293 299 300 0
6 106 129 142 145 150 152 155 160 168 197 198 200 202 204 218 227 255 265 276 277 284 286 288 292 303 0
8 17 123 136 146 149 152 154 168 176 178 199 212 219 221 224 225 230 241 258 266 269 272 275 286 291 0
8 80 137 140 141 154 159 160 169 175 198 199 204 207 208 214 232 240 249 255 266 268 270 271 280 282 0
11 50 136 143 146 152 155 156 165 166 179 188 200 210 233 258 270 280 283 284 286 288 298 300 301 302 0
12 18 20 136 137 140 142 143 144 150 151 153 158 177 195 207 221 225 236 245 258 260 266 274 280 295 0
12 132 137 140 142 150 155 157 159 167 170 171 172 176 177 194 197 201 205 208 221 249 280 282 297 298 0
13 16 54 63 100 143 145 148 149 159 160 161 165 166 167 175 200 204 205 207 224 228 230 247 281 285 0
13 54 82 140 142 145 148 149 150 156 159 161 167 173 174 200 216 218 233 236 239 243 248 258 287 301 0
15 16 123 139 144 149 151 154 160 163 166 167 169 174 176 190 191 202 213 217 242 253 283 285 288 298 0
15 16 123 139 144 149 151 154 160 163 166 167 169 174 176 190 191 202 217 242 253 271 283 285 288 298 0
19 82 136 138 139 147 156 161 175 181 196 197 198 200 239 256 261 264 265 266 277 280 283 287 289 302 0
21 22 42 82 138 139 159 163 170 189 193 195 204 215 221 223 226 239 254 257 266 270 271 276 297 301 0
36 37 38 159 184 199 200 204 207 208 221 234 240 241 253 266 268 270 271 274 280 283 286 289 299 300 0
36 38 166 198 199 200 205 213 224 235 239 241 253 260 261 264 265 269 270 277 280 283 286 287 288 294 0
42 50 53 138 139 146 156 159 163 170 172 193 195 204 215 221 223 253 266 270 271 275 276 282 297 301 0
45 54 166 191 197 199 200 204 205 208 212 221 224 239 250 253 260 265 266 269 271 277 280 286 288 300 0
50 60 100 138 140 146 150 159 161 163 167 171 197 199 201 205 209 212 226 247 272 279 283 289 298 303 0
50 77 92 136 137 140 145 148 149 150 152 156 159 162 177 184 200 202 207 216 218 233 236 240 274 287 0
52 56 60 138 140 142 144 150 153 155 157 161 162 163 169 172 174 199 207 208 216 266 274 286 289 297 0
54 56 60 82 145 146 150 151 159 161 162 165 170 193 204 208 211 238 241 246 248 258 268 275 276 298 0
71 82 136 139 140 141 145 147 154 165 173 175 181 196 200 205 225 226 256 259 261 265 271 279 287 302 0
77 82 84 136 139 143 145 148 149 150 152 156 167 173 192 200 202 207 212 216 236 240 258 265 274 293 0
82 83 123 136 137 140 143 161 162 165 176 194 198 206 224 232 236 240 241 256 259 261 265 270 272 275 0
82 136 137 139 140 145 147 154 161 165 168 175 177 198 200 205 216 220 225 241 256 259 261 265 271 302 0
82 138 139 140 142 143 148 149 156 162 163 165 167 168 173 176 178 195 215 216 233 240 265 269 271 286 0
1 22 138 139 141 145 146 152 157 167 193 195 197 205 221 222 229 239 245 250 253 254 256 257 271 275 292 0
1 82 136 139 140 145 147 149 161 169 176 177 196 198 205 222 225 233 241 243 246 251 256 259 261 271 277 0
1 106 136 138 150 154 164 166 169 175 184 198 200 202 206 213 226 232 237 242 260 264 266 286 289 292 298 0
3 23 49 136 140 141 143 146 148 157 159 160 166 167 175 178 191 194 200 224 236 245 257 262 264 270 283 0
3 92 166 170 172 188 197 199 200 204 205 212 213 224 240 241 246 253 268 269 280 283 287 288 292 293 294 0
3 137 139 166 170 172 188 199 200 204 205 207 213 224 240 241 253 264 266 268 269 270 280 283 286 288 292 0
6 78 79 106 139 142 144 145 155 164 165 166 172 174 182 191 199 207 217 224 227 248 250 255 287 293 295 0
7 12 18 20 143 149 151 153 155 158 159 160 166 178 188 190 195 224 231 243 256 265 268 275 292 293 294 0
10 12 13 15 20 21 22 37 38 47 51 52 58 60 63 72 73 76 77 78 80 81 89 98 104 128 134 0
10 12 18 137 143 144 149 150 163 165 167 168 171 176 177 182 195 197 204 212 239 240 241 242 261 266 273 0
10 137 159 166 170 172 179 189 197 199 200 204 205 212 224 239 251 253 266 268 271 274 280 283 288 293 294 0
10 137 159 166 170 172 179 189 199 200 204 205 212 224 241 251 253 264 266 268 271 274 280 283 288 293 294 0
10 137 159 166 170 172 188 197 199 200 204 205 212 224 239 242 250 251 262 266 277 279 280 283 288 293 300 0
12 19 20 22 136 137 139 147 154 161 165 169 175 176 177 198 205 207 216 241 256 259 261 265 266 275 277 0
12 44 50 139 141 150 151 154 156 157 162 163 164 174 178 193 197 198 200 207 210 223 229 239 269 289 292 0
12 52 126 139 142 148 152 155 156 158 159 160 166 176 184 197 199 204 218 225 230 265 270 271 275 276 279 0
12 132 137 140 141 142 150 155 167 170 171 176 177 194 199 201 205 208 221 247 249 257 280 282 297 298 303 0
14 140 141 142 144 150 167 170 171 176 177 194 199 201 208 221 241 249 255 257 261 270 274 280 282 297 298 0
15 16 123 139 142 144 149 151 154 155 163 166 169 176 190 191 202 215 217 248 253 271 273 283 285 288 298 0
16 44 142 145 147 148 152 155 158 165 172 176 184 197 199 210 223 268 271 275 276 283 286 292 297 300 301 0
22 136 137 140 145 149 154 166 175 177 178 181 188 196 200 205 207 218 233 241 243 246 256 261 265 280 293 0
36 37 166 197 198 199 200 204 207 208 221 240 241 250 253 260 262 266 270 271 277 279 280 283 286 288 300 0
36 38 189 191 200 201 205 208 221 224 239 240 250 260 261 265 266 269 270 271 277 280 283 286 287 288 294 0
36 166 191 197 199 200 204 205 208 212 221 224 239 240 251 253 260 264 266 269 271 277 280 283 286 288 300 0
40 104 124 138 139 140 144 146 148 151 152 154 159 163 172 177 189 190 191 198 204 212 253 259 261 269 275 0
45 54 166 191 197 199 200 204 205 207 208 221 224 239 253 260 264 265 266 269 270 271 277 280 286 288 300 0
48 56 84 136 144 154 156 160 164 178 182 186 198 199 200 205 221 225 230 236 241 266 268 269 270 275 295 0
80 140 141 143 144 145 146 158 159 160 169 173 175 204 205 207 208 211 219 247 255 263 268 271 280 293 295 0
82 83 123 136 137 140 143 161 162 164 165 169 177 194 198 206 221 224 240 241 256 259 261 265 270 275 290 0
1 2 138 172 183 184 188 197 198 199 200 205 207 213 239 241 253 264 265 266 270 277 280 286 292 293 298 300 0
1 2 138 172 183 184 188 197 198 199 201 207 212 213 239 241 253 264 265 266 270 277 280 292 293 298 299 300 0
1 2 170 172 183 188 191 197 198 204 205 207 212 213 221 239 240 253 264 265 266 277 280 287 292 293 299 300 0
1 7 10 12 18 22 142 143 144 147 149 155 159 163 171 176 195 208 224 225 239 241 247 249 263 266 287 292 0
2 16 137 172 183 184 188 197 198 199 201 204 207 212 213 221 239 241 253 264 265 266 277 287 292 293 299 300 0
2 37 166 169 172 174 178 183 184 188 197 198 199 200 201 204 207 213 234 242 253 262 266 270 277 286 292 300 0
3 166 170 172 188 198 199 200 204 205 208 212 221 224 225 240 241 253 264 266 269 271 277 283 288 292 293 300 0
8 102 136 145 146 155 156 158 160 175 176 181 194 199 204 210 232 237 266 268 271 275 276 283 286 292 297 300 0
10 14 83 137 140 146 152 161 162 163 165 166 174 183 184 186 200 236 239 243 248 249 255 258 262 266 286 290 0
10 14 83 137 140 146 152 161 162 163 165 166 174 183 184 186 200 236 239 243 249 255 257 258 262 266 286 290 0
10 80 101 139 140 141 149 150 151 172 178 184 198 207 208 218 224 237 239 241 242 248 258 275 277 289 297 303 0
12 46 82 136 137 150 154 159 164 166 169 175 177 178 191 198 200 213 226 232 237 242 257 266 274 286 292 298 0
13 67 136 139 141 154 156 169 175 176 184 186 198 205 207 211 221 225 240 241 247 259 261 265 266 270 293 298 0
14 53 106 136 139 143 144 145 146 147 150 151 159 173 175 178 180 188 192 197 200 226 230 232 233 254 255 260 0
14 136 140 142 144 150 156 167 170 171 176 177 194 199 201 221 238 241 249 255 261 270 274 280 281 282 298 303 0
15 50 69 136 143 146 149 151 153 155 158 163 166 171 177 178 202 208 218 247 248 258 259 264 266 284 293 296 0
19 83 137 138 142 154 156 159 161 166 171 172 174 176 177 186 189 204 205 208 214 224 236 255 269 293 294 302 0
20 21 22 63 139 144 152 154 160 164 177 188 204 208 209 210 222 224 228 239 247 253 266 270 284 291 295 299 0
37 38 170 172 183 188 189 191 198 200 201 207 208 221 239 240 261 262 265 266 270 271 277 280 286 292 299 300 0
42 56 75 78 104 136 137 146 150 165 169 170 188 198 208 218 239 243 246 248 255 266 268 270 275 282 286 295 0
42 64 81 126 137 138 139 144 146 147 152 155 162 164 166 169 172 174 183 184 196 199 213 217 232 268 297 300 0
42 75 78 138 139 145 146 152 157 160 167 168 173 175 181 184 186 204 205 208 212 241 248 258 266 275 288 303 0
47 82 138 141 145 146 152 157 160 170 172 174 197 204 205 221 222 226 239 245 250 253 254 260 275 290 292 296 0
49 82 136 137 139 140 147 149 154 161 169 175 176 177 196 198 216 233 238 241 243 256 259 261 265 271 277 280 0
56 75 78 104 144 146 149 150 161 165 168 172 191 199 200 202 204 205 207 223 237 240 242 249 258 261 270 286 0
65 66 77 137 139 140 143 144 145 171 172 174 175 177 180 194 202 212 222 225 266 270 271 275 283 285 288 296 0
75 82 138 139 141 145 146 152 157 160 164 170 172 174 175 191 204 221 222 250 260 270 271 281 288 290 292 293 0
82 84 102 137 139 140 145 146 147 150 155 156 158 160 161 166 173 176 177 197 208 225 233 238 258 270 271 275 0
82 97 126 137 139 140 145 150 151 154 158 161 165 168 173 175 176 177 198 205 224 241 246 249 258 270 271 293 0
84 102 104 106 136 143 145 146 147 150 151 152 156 159 160 167 171 193 200 233 236 243 262 272 275 281 287 288 0
1 11 64 138 151 154 155 156 160 169 183 184 188 199 200 208 210 218 230 239 241 242 254 257 260 264 271 286 292 0
3 16 50 144 160 166 170 172 184 189 199 205 208 212 221 224 240 241 250 264 266 269 271 280 283 286 293 299 300 0
3 88 136 137 166 170 188 198 199 200 204 205 212 213 224 230 240 241 253 264 265 266 268 269 280 283 292 293 294 0
4 6 139 142 144 151 152 156 161 162 163 170 191 195 199 204 218 221 227 250 257 258 260 266 270 271 279 281 288 0
4 16 20 79 137 142 166 170 172 183 184 188 197 198 204 205 212 213 224 232 241 269 270 277 284 292 293 298 300 0
4 16 20 79 137 142 166 172 174 183 184 188 197 198 204 205 211 212 213 224 232 241 266 270 277 284 292 293 300 0
7 12 18 22 136 137 141 144 149 150 163 165 167 173 175 176 177 182 204 208 216 224 239 242 247 261 270 273 296 0
10 137 159 165 166 170 172 189 199 200 204 205 212 224 237 240 241 253 264 265 266 268 271 274 280 283 288 293 294 0
11 159 166 198 199 200 204 205 207 208 210 221 224 240 241 248 253 257 264 266 269 270 271 277 280 283 286 288 300 0
12 82 136 137 139 140 147 149 154 161 169 175 177 196 198 205 222 225 233 238 241 243 256 259 261 265 271 277 302 0
14 60 136 138 139 140 142 143 148 149 156 162 163 165 166 167 168 173 176 178 195 215 218 226 233 240 265 269 271 0
14 80 82 133 136 142 145 149 150 159 165 166 172 193 209 212 216 220 221 231 237 240 258 259 271 293 295 300 303 0
15 106 136 139 146 151 161 168 173 176 178 190 199 212 219 221 224 225 230 241 245 258 262 266 269 272 275 286 291 0
16 23 62 76 142 144 148 150 162 163 165 177 184 195 196 199 201 208 218 233 239 250 254 257 260 269 270 288 293 0
22 138 139 141 145 146 152 157 160 170 174 175 189 197 204 205 221 222 226 230 239 245 250 254 257 271 290 292 293 0
52 74 78 136 137 138 143 145 146 148 149 160 161 165 168 172 177 184 199 206 212 218 237 262 265 266 274 279 295 0
82 104 138 139 141 145 146 152 154 157 160 170 172 174 176 189 197 204 205 222 239 250 254 260 271 275 292 295 297 0
82 104 138 139 141 145 146 152 157 160 170 172 174 176 189 197 204 205 222 239 245 250 254 260 271 275 292 293 295 0
82 136 137 139 140 145 147 149 154 161 169 175 177 196 198 205 216 233 238 241 243 256 259 261 265 271 277 280 302 0
82 138 139 141 145 146 152 157 160 164 167 172 197 204 205 221 222 226 239 245 250 253 254 260 271 275 290 292 293 0
1 82 138 139 141 145 146 152 154 157 160 170 172 174 189 197 204 221 222 224 226 239 250 254 260 271 275 290 292 296 0
2 10 11 50 148 155 160 164 168 169 170 172 184 188 198 207 212 222 226 249 266 271 275 280 282 283 288 292 293 298 0
3 42 137 166 170 189 191 197 199 200 204 205 208 212 221 224 239 240 250 253 265 266 269 271 277 280 283 288 293 294 0
3 137 166 167 170 188 191 197 199 200 204 205 208 212 221 224 230 239 240 250 253 261 266 269 271 277 283 292 293 294 0
3 166 170 188 191 197 199 200 204 205 208 212 221 224 239 240 250 253 265 266 269 271 277 280 283 286 293 294 299 300 0
3 166 170 188 191 199 200 204 205 208 212 221 224 240 241 250 253 264 265 266 269 271 277 280 283 286 293 294 299 300 0
3 166 170 189 191 199 200 204 205 208 212 221 224 240 241 250 253 264 265 266 269 271 277 280 283 286 293 294 299 300 0
4 16 20 79 137 142 166 172 183 184 188 197 198 204 205 211 212 213 224 232 241 265 266 270 277 284 291 292 293 300 0
12 70 72 139 142 148 151 155 158 160 164 165 166 172 176 184 197 199 204 210 211 240 248 265 266 268 275 297 300 302 0
19 22 136 137 138 139 145 147 154 161 165 169 175 197 198 205 207 216 241 256 259 261 265 271 277 280 281 287 289 302 0
19 69 166 169 170 188 191 197 199 200 203 204 205 208 212 221 224 238 249 262 265 266 271 277 279 280 286 288 294 300 0
22 42 138 139 141 145 146 152 154 163 170 189 193 195 197 204 205 215 221 226 239 250 254 257 271 275 276 295 296 297 0
40 75 138 139 142 144 146 151 154 159 163 166 167 172 173 189 190 191 197 204 212 224 253 259 261 269 275 287 293 303 0
71 82 136 137 139 140 145 147 149 154 161 165 175 177 181 196 198 200 205 216 225 241 243 256 259 261 265 271 277 302 0
71 82 136 137 139 140 145 147 149 154 161 175 177 181 196 198 200 205 216 238 241 243 256 259 261 265 271 277 280 302 0
82 138 139 141 145 146 152 154 157 160 170 172 174 183 197 204 221 222 226 239 253 254 260 270 271 275 290 292 293 296 0
82 138 139 141 145 146 152 154 157 160 170 172 174 189 197 204 221 222 226 230 234 250 254 260 270 271 275 290 292 297 0
82 138 139 141 145 146 152 157 160 164 170 172 173 174 189 204 221 222 239 245 250 254 257 270 271 275 281 290 292 297 0
82 138 139 141 145 146 152 157 160 164 170 172 174 189 197 204 205 221 222 226 239 245 250 254 257 271 275 290 292 293 0
2 36 37 154 166 172 174 184 197 198 201 204 206 208 212 220 221 239 241 250 253 260 265 266 268 271 283 287 292 293 299 0
3 42 137 150 161 166 167 170 184 198 199 200 204 205 208 212 221 224 240 241 250 253 261 264 266 269 271 277 293 294 303 0
3 88 136 137 166 170 188 198 199 200 204 205 207 213 224 230 240 241 253 264 265 266 268 269 270 280 283 286 292 293 294 0
3 88 137 166 170 189 191 199 200 204 205 208 212 221 224 230 240 241 250 253 264 265 266 269 271 277 280 283 292 293 294 0
3 166 170 188 191 197 199 200 204 205 207 208 221 224 239 240 250 253 265 266 269 270 271 277 280 283 286 293 294 299 300 0
7 16 106 142 145 148 149 152 155 160 161 165 171 176 177 184 186 197 204 205 210 236 250 260 271 272 275 277 286 294 297 0
8 17 102 136 144 146 149 152 154 168 172 176 178 191 212 219 221 224 225 230 232 233 241 266 268 269 272 275 284 286 291 0
10 137 159 166 170 172 184 188 197 199 200 204 205 207 224 239 242 262 264 265 266 268 269 270 280 283 286 288 292 293 300 0
14 132 136 139 143 145 146 147 150 151 161 166 167 173 178 180 192 198 200 211 226 230 232 233 242 243 253 275 286 291 303 0
82 136 137 139 140 145 147 149 154 161 169 173 175 196 198 205 216 225 233 241 243 246 256 259 261 265 271 277 281 287 302 0
1 7 10 18 22 137 139 143 144 152 155 157 160 163 166 170 172 175 185 187 193 197 198 205 208 221 225 241 245 246 250 258 0
3 88 166 170 188 191 197 199 200 204 205 207 208 221 224 230 239 240 250 253 265 266 269 270 271 277 280 283 286 293 294 300 0
3 88 166 170 188 191 197 199 200 204 205 207 208 221 224 230 239 242 250 262 265 266 269 270 271 277 280 283 286 293 294 300 0
7 12 18 22 136 137 141 143 144 149 150 163 165 167 173 175 176 177 182 195 204 224 239 240 242 247 261 266 270 273 296 297 0
7 12 18 138 140 141 142 144 153 155 157 158 163 172 174 183 191 192 199 202 207 208 216 221 230 242 245 266 286 289 295 297 0
7 22 138 139 140 143 144 146 152 156 164 168 171 172 174 175 177 180 183 197 212 218 222 229 270 271 283 285 288 289 297 298 0
10 53 123 137 152 159 170 172 184 197 199 200 204 205 207 224 242 262 264 265 266 268 269 270 271 280 283 286 288 292 293 294 0
16 81 82 137 138 139 141 145 146 152 157 160 167 172 197 204 205 222 226 230 239 245 250 253 254 260 269 271 275 290 292 303 0
19 22 136 137 139 145 147 149 150 154 161 175 177 181 196 198 200 205 207 216 225 231 233 243 246 256 259 261 265 271 277 302 0
22 136 137 139 140 145 147 149 150 154 161 163 166 175 177 181 196 198 200 205 207 216 225 233 243 246 256 259 261 265 271 277 0
47 82 138 141 145 146 152 157 163 167 172 189 193 195 197 199 204 205 221 222 226 239 245 250 254 260 275 276 290 292 295 296 0
75 136 137 140 144 145 146 147 152 156 162 165 166 168 172 174 183 186 204 214 215 224 227 246 258 261 264 270 281 283 287 293 0
82 104 138 139 141 145 146 152 157 163 167 172 189 193 195 197 199 204 205 221 222 223 239 245 250 254 260 271 275 276 292 297 0
82 136 137 139 140 145 147 149 154 161 173 175 176 181 196 198 200 205 216 233 238 241 243 256 259 261 265 271 277 280 281 287 0
82 136 137 139 140 145 147 149 154 161 173 175 181 196 198 200 205 222 233 241 243 246 256 259 261 265 271 277 280 281 287 302 0
7 10 12 18 22 137 141 142 143 144 149 150 163 165 167 171 173 176 177 182 195 204 208 212 219 222 224 239 240 247 261 266 273 0
56 75 78 137 138 142 144 145 146 156 158 160 161 166 171 172 186 197 198 199 200 205 220 221 227 232 238 256 270 284 287 293 302 0
56 75 138 139 142 144 146 154 158 159 163 166 167 170 172 173 189 191 197 204 212 224 248 253 261 269 275 287 288 291 293 298 303 0
47 82 138 141 145 146 152 154 157 163 170 172 174 193 195 197 199 204 205 215 221 222 226 239 250 253 254 260 275 276 290 292 295 301 0
82 138 139 140 141 145 146 152 157 163 170 172 175 189 193 195 197 199 204 205 215 221 222 223 239 245 250 254 260 271 276 281 290 301 0
82 138 139 141 145 146 152 157 163 167 172 189 193 195 197 199 204 205 221 222 226 239 245 250 254 260 271 275 276 290 292 293 295 296 0
22 136 137 138 139 140 145 147 149 154 161 166 175 181 188 196 197 198 200 205 207 216 225 233 238 241 243 256 261 265 277 281 287 289 302 0
82 138 139 141 145 146 152 154 157 163 170 172 175 189 193 195 197 199 204 215 221 222 226 239 250 254 260 270 271 276 290 292 293 295 301 0
1 82 138 139 141 145 146 152 157 163 170 172 175 189 193 195 197 199 204 205 215 221 222 224 226 239 245 250 254 260 271 276 290 292 295 296 0
16 43 82 142 147 150 154 156 159 162 169 170 172 174 178 188 195 197 201 202 205 221 228 231 232 244 263 264 266 271 275 276 281 287 293 294 0
82 84 102 106 136 137 138 139 143 145 146 147 150 151 152 154 156 159 171 178 188 189 190 192 193 197 198 200 211 226 230 233 243 245 275 286 0
