21 98
0 2
0 4
0 5
0 6
0 8
0 9
0 10
0 13
0 19
0 20
1 7
1 8
1 9
1 10
1 11
1 14
1 16
1 18
1 20
2 5
2 9
2 11
2 12
2 14
2 15
2 17
2 19
2 20
3 10
3 11
3 13
3 15
3 18
3 19
3 20
4 6
4 8
4 11
4 12
4 14
4 17
4 20
5 6
5 7
5 10
5 11
5 13
5 14
5 18
6 7
6 9
6 11
6 14
6 15
6 16
6 19
7 12
7 13
7 15
7 16
7 18
7 20
8 11
8 13
8 15
8 17
8 19
9 10
9 12
9 13
9 14
9 16
10 12
10 17
10 18
10 19
10 20
11 12
11 13
11 16
11 18
11 19
11 20
12 15
12 16
12 17
12 18
13 14
13 15
13 16
13 17
14 17
14 18
14 20
15 19
15 20
16 17
17 19
