p cnf 60 600
1 0
2 0
3 0
4 0
5 0
6 0
7 0
8 0
9 0
10 0
11 0
12 0
13 0
14 0
15 0
16 0
17 0
18 0
19 0
20 0
21 0
22 0
23 0
24 0
25 0
26 0
27 0
28 0
29 0
30 0
31 0
32 0
33 0
34 0
35 0
36 0
37 0
38 0
39 0
40 0
41 0
42 0
43 0
44 0
45 0
46 0
47 0
48 0
49 0
50 0
51 0
52 0
53 0
54 0
55 0
56 0
57 0
58 0
59 0
60 0
1 6 0
1 9 0
2 10 0
2 11 0
2 14 0
2 38 0
3 20 0
3 48 0
4 17 0
4 23 0
4 49 0
4 57 0
5 11 0
5 15 0
6 7 0
6 16 0
6 19 0
6 43 0
8 50 0
9 21 0
9 51 0
9 59 0
10 12 0
10 20 0
11 13 0
11 23 0
12 15 0
12 34 0
14 52 0
15 53 0
16 17 0
17 20 0
17 47 0
18 48 0
20 25 0
20 26 0
20 35 0
21 27 0
21 49 0
22 50 0
23 27 0
24 29 0
24 32 0
25 33 0
25 34 0
25 37 0
26 43 0
26 55 0
27 40 0
27 46 0
27 52 0
27 56 0
28 34 0
28 38 0
29 30 0
29 39 0
29 42 0
31 57 0
32 44 0
32 58 0
33 35 0
33 43 0
34 36 0
34 46 0
35 38 0
37 59 0
38 60 0
39 40 0
40 43 0
40 54 0
41 55 0
44 48 0
44 56 0
45 57 0
47 50 0
48 51 0
48 52 0
49 52 0
50 53 0
54 57 0
55 58 0
55 59 0
56 59 0
57 60 0
1 2 5 0
1 3 7 0
1 4 8 0
1 6 16 0
1 9 21 0
2 3 12 0
2 4 13 0
2 10 20 0
3 4 47 0
4 16 17 0
4 21 49 0
4 49 52 0
5 6 10 0
5 7 12 0
5 8 13 0
5 9 14 0
6 8 17 0
6 9 18 0
7 8 47 0
7 9 48 0
8 9 49 0
10 11 16 0
10 12 20 0
10 13 17 0
10 14 18 0
10 15 19 0
11 14 21 0
11 15 22 0
12 13 47 0
12 14 48 0
12 15 53 0
13 14 49 0
13 15 50 0
14 15 51 0
16 18 21 0
16 19 22 0
16 20 23 0
17 18 49 0
17 19 50 0
17 20 47 0
18 19 51 0
18 20 52 0
19 20 53 0
21 22 51 0
21 23 52 0
22 23 53 0
24 25 28 0
24 26 30 0
24 27 31 0
24 29 39 0
24 32 44 0
25 26 35 0
25 27 36 0
25 33 43 0
26 27 54 0
27 39 40 0
27 44 56 0
27 56 59 0
28 29 33 0
28 30 35 0
28 31 36 0
28 32 37 0
29 31 40 0
29 32 41 0
30 31 54 0
30 32 55 0
31 32 56 0
33 34 39 0
33 35 43 0
33 36 40 0
33 37 41 0
33 38 42 0
34 37 44 0
34 38 45 0
35 36 54 0
35 37 55 0
35 38 60 0
36 37 56 0
36 38 57 0
37 38 58 0
39 41 44 0
39 42 45 0
39 43 46 0
40 41 56 0
40 42 57 0
40 43 54 0
41 42 58 0
41 43 59 0
42 43 60 0
44 45 58 0
44 46 59 0
45 46 60 0
47 48 49 0
47 50 53 0
49 50 51 0
51 52 53 0
54 55 56 0
54 57 60 0
56 57 58 0
58 59 60 0
1 2 5 11 0
1 6 9 18 0
2 3 10 12 0
2 4 11 13 0
2 10 11 16 0
2 11 14 21 0
5 11 15 22 0
6 8 16 17 0
7 9 48 51 0
12 14 48 52 0
13 15 50 53 0
17 19 47 50 0
18 20 48 52 0
20 25 26 35 0
21 23 27 52 0
21 23 49 52 0
24 25 28 34 0
24 29 32 41 0
25 26 33 35 0
25 27 34 36 0
25 33 34 39 0
25 34 37 44 0
28 34 38 45 0
29 31 39 40 0
30 32 55 58 0
35 37 55 59 0
36 38 57 60 0
40 42 54 57 0
41 43 55 59 0
44 46 56 59 0
47 48 49 52 0
48 51 52 53 0
54 55 56 59 0
55 58 59 60 0
1 2 5 6 10 0
1 2 5 9 14 0
1 3 7 9 48 0
1 4 6 8 17 0
2 3 10 12 20 0
2 3 12 14 48 0
2 4 10 13 17 0
2 4 11 13 23 0
2 4 13 14 49 0
3 4 17 20 47 0
3 4 47 48 49 0
3 18 20 48 52 0
4 16 17 20 23 0
4 21 23 49 52 0
5 6 7 10 12 0
5 6 10 11 16 0
5 6 10 15 19 0
5 8 13 15 50 0
5 9 11 14 21 0
6 7 8 17 47 0
6 7 9 18 48 0
6 8 17 19 50 0
6 9 16 18 21 0
6 9 18 19 51 0
8 9 49 50 51 0
10 11 13 16 17 0
10 11 16 20 23 0
10 12 14 18 48 0
10 14 18 20 52 0
11 13 14 21 49 0
11 13 15 22 50 0
11 14 21 23 52 0
11 15 22 23 53 0
12 13 15 47 50 0
12 14 15 48 51 0
14 15 51 52 53 0
16 17 19 22 50 0
17 18 20 49 52 0
17 18 47 48 49 0
17 19 20 50 53 0
21 22 49 50 51 0
24 25 28 29 33 0
24 25 28 32 37 0
24 26 30 32 55 0
24 27 29 31 40 0
25 26 33 35 43 0
25 26 35 37 55 0
25 27 33 36 40 0
25 27 34 36 46 0
25 27 36 37 56 0
26 27 40 43 54 0
26 27 54 55 56 0
26 41 43 55 59 0
27 39 40 43 46 0
27 44 46 56 59 0
28 29 30 33 35 0
28 29 33 34 39 0
28 29 33 38 42 0
28 31 36 38 57 0
28 32 34 37 44 0
29 30 31 40 54 0
29 30 32 41 55 0
29 31 40 42 57 0
29 32 39 41 44 0
29 32 41 42 58 0
31 32 56 57 58 0
33 34 36 39 40 0
33 34 39 43 46 0
33 35 37 41 55 0
33 37 41 43 59 0
34 36 37 44 56 0
34 36 38 45 57 0
34 37 44 46 59 0
34 38 45 46 60 0
35 36 38 54 57 0
35 37 38 55 58 0
37 38 58 59 60 0
39 40 42 45 57 0
40 41 43 56 59 0
40 41 54 55 56 0
40 42 43 57 60 0
44 45 56 57 58 0
47 48 49 50 51 0
49 50 51 52 53 0
54 55 56 57 58 0
56 57 58 59 60 0
1 2 3 5 7 12 0
1 2 4 5 8 13 0
1 4 6 8 16 17 0
1 4 8 9 21 49 0
1 6 9 16 18 21 0
2 3 4 12 13 47 0
2 3 12 14 48 52 0
2 4 10 13 17 20 0
2 4 13 14 49 52 0
2 10 11 16 20 23 0
2 10 14 18 20 52 0
2 11 14 21 23 52 0
3 4 47 48 49 52 0
4 16 17 18 21 49 0
4 17 18 20 49 52 0
5 6 8 10 13 17 0
5 6 9 10 14 18 0
5 7 9 12 14 48 0
6 8 9 17 18 49 0
7 8 9 47 48 49 0
10 11 14 16 18 21 0
10 11 15 16 19 22 0
10 12 13 17 20 47 0
10 12 15 19 20 53 0
10 13 15 17 19 50 0
11 14 15 21 22 51 0
12 13 14 47 48 49 0
12 13 15 47 50 53 0
13 14 15 49 50 51 0
16 18 20 21 23 52 0
17 18 19 49 50 51 0
17 19 20 47 50 53 0
18 19 20 51 52 53 0
21 22 23 51 52 53 0
24 25 26 28 30 35 0
24 25 27 28 31 36 0
24 27 29 31 39 40 0
24 27 31 32 44 56 0
24 29 32 39 41 44 0
25 26 27 35 36 54 0
25 26 35 37 55 59 0
25 27 33 36 40 43 0
25 27 36 37 56 59 0
25 33 34 39 43 46 0
25 33 37 41 43 59 0
25 34 37 44 46 59 0
26 27 54 55 56 59 0
27 39 40 41 44 56 0
27 40 41 43 56 59 0
28 29 31 33 36 40 0
28 29 32 33 37 41 0
28 30 32 35 37 55 0
29 31 32 40 41 56 0
30 31 32 54 55 56 0
33 34 37 39 41 44 0
33 34 38 39 42 45 0
33 35 36 40 43 54 0
33 35 38 42 43 60 0
33 36 38 40 42 57 0
34 37 38 44 45 58 0
35 36 37 54 55 56 0
35 36 38 54 57 60 0
36 37 38 56 57 58 0
39 41 43 44 46 59 0
40 41 42 56 57 58 0
40 42 43 54 57 60 0
41 42 43 58 59 60 0
44 45 46 58 59 60 0
1 2 4 5 8 11 13 0
1 2 5 6 10 11 16 0
1 2 5 9 11 14 21 0
1 3 6 7 9 18 48 0
2 3 10 12 14 18 48 0
2 4 10 11 13 16 17 0
2 4 11 13 14 21 49 0
2 10 11 14 16 18 21 0
3 4 17 18 47 48 49 0
5 6 7 10 12 15 19 0
5 8 11 13 15 22 50 0
6 7 8 17 19 47 50 0
6 7 9 18 19 48 51 0
6 8 16 17 19 22 50 0
8 9 21 22 49 50 51 0
10 11 13 16 17 20 23 0
10 12 14 18 20 48 52 0
11 13 14 21 23 49 52 0
11 13 15 22 23 50 53 0
12 13 14 47 48 49 52 0
12 14 15 48 51 52 53 0
17 18 20 47 48 49 52 0
18 19 20 48 51 52 53 0
24 25 27 28 31 34 36 0
24 25 28 29 33 34 39 0
24 25 28 32 34 37 44 0
24 26 29 30 32 41 55 0
25 26 33 35 37 41 55 0
25 27 33 34 36 39 40 0
25 27 34 36 37 44 56 0
25 33 34 37 39 41 44 0
26 27 40 41 54 55 56 0
28 29 30 33 35 38 42 0
28 31 34 36 38 45 57 0
29 30 31 40 42 54 57 0
29 30 32 41 42 55 58 0
29 31 39 40 42 45 57 0
31 32 44 45 56 57 58 0
33 34 36 39 40 43 46 0
33 35 37 41 43 55 59 0
34 36 37 44 46 56 59 0
34 36 38 45 46 57 60 0
35 36 37 54 55 56 59 0
35 37 38 55 58 59 60 0
40 41 43 54 55 56 59 0
41 42 43 55 58 59 60 0
47 48 49 50 51 52 53 0
54 55 56 57 58 59 60 0
1 2 3 5 6 7 10 12 0
1 2 5 6 9 10 14 18 0
1 3 4 6 7 8 17 47 0
1 4 6 8 9 17 18 49 0
2 3 4 10 12 13 17 47 0
2 4 10 13 14 17 18 49 0
5 6 8 10 11 13 16 17 0
5 6 10 11 15 16 19 22 0
5 7 8 12 13 15 47 50 0
5 7 9 12 14 15 48 51 0
5 8 9 11 13 14 21 49 0
5 9 11 14 15 21 22 51 0
6 8 9 16 17 18 21 49 0
6 9 16 18 19 21 22 51 0
7 8 9 47 48 49 50 51 0
10 12 13 15 17 19 47 50 0
10 12 14 15 18 19 48 51 0
10 13 14 17 18 20 49 52 0
10 13 15 17 19 20 50 53 0
13 14 15 49 50 51 52 53 0
16 17 18 20 21 23 49 52 0
16 17 19 20 22 23 50 53 0
17 18 19 47 48 49 50 51 0
21 22 23 49 50 51 52 53 0
24 25 26 28 29 30 33 35 0
24 25 28 29 32 33 37 41 0
24 26 27 29 30 31 40 54 0
24 27 29 31 32 40 41 56 0
25 26 27 33 35 36 40 54 0
25 27 33 36 37 40 41 56 0
28 29 31 33 34 36 39 40 0
28 29 33 34 38 39 42 45 0
28 30 31 35 36 38 54 57 0
28 30 32 35 37 38 55 58 0
28 31 32 34 36 37 44 56 0
28 32 34 37 38 44 45 58 0
29 31 32 39 40 41 44 56 0
29 32 39 41 42 44 45 58 0
30 31 32 54 55 56 57 58 0
33 35 36 38 40 42 54 57 0
33 35 37 38 41 42 55 58 0
33 36 37 40 41 43 56 59 0
33 36 38 40 42 43 57 60 0
36 37 38 56 57 58 59 60 0
39 40 41 43 44 46 56 59 0
39 40 42 43 45 46 57 60 0
40 41 42 54 55 56 57 58 0
44 45 46 56 57 58 59 60 0
1 2 3 5 7 9 12 14 48 0
1 2 4 5 6 8 10 13 17 0
1 2 4 5 8 9 13 14 49 0
1 3 4 7 8 9 47 48 49 0
2 3 4 12 13 14 47 48 49 0
5 6 7 8 10 12 13 17 47 0
5 6 7 9 10 12 14 18 48 0
5 6 8 10 13 15 17 19 50 0
5 6 9 10 11 14 16 18 21 0
5 6 9 10 14 15 18 19 51 0
5 8 9 13 14 15 49 50 51 0
6 7 8 9 17 18 47 48 49 0
6 8 9 17 18 19 49 50 51 0
10 11 13 14 16 17 18 21 49 0
10 11 13 15 16 17 19 22 50 0
10 11 14 16 18 20 21 23 52 0
10 11 15 16 19 20 22 23 53 0
10 12 13 14 17 18 47 48 49 0
10 14 15 18 19 20 51 52 53 0
11 13 14 15 21 22 49 50 51 0
11 14 15 21 22 23 51 52 53 0
12 13 14 15 47 48 49 50 51 0
16 17 18 19 21 22 49 50 51 0
17 18 19 20 49 50 51 52 53 0
24 25 26 28 30 32 35 37 55 0
24 25 27 28 29 31 33 36 40 0
24 25 27 28 31 32 36 37 56 0
24 26 27 30 31 32 54 55 56 0
25 26 27 35 36 37 54 55 56 0
28 29 30 31 33 35 36 40 54 0
28 29 30 32 33 35 37 41 55 0
28 29 31 33 36 38 40 42 57 0
28 29 32 33 34 37 39 41 44 0
28 29 32 33 37 38 41 42 58 0
28 31 32 36 37 38 56 57 58 0
29 30 31 32 40 41 54 55 56 0
29 31 32 40 41 42 56 57 58 0
33 34 36 37 39 40 41 44 56 0
33 34 36 38 39 40 42 45 57 0
33 34 37 39 41 43 44 46 59 0
33 34 38 39 42 43 45 46 60 0
33 35 36 37 40 41 54 55 56 0
33 37 38 41 42 43 58 59 60 0
34 36 37 38 44 45 56 57 58 0
34 37 38 44 45 46 58 59 60 0
35 36 37 38 54 55 56 57 58 0
39 40 41 42 44 45 56 57 58 0
40 41 42 43 56 57 58 59 60 0
-39 -41 -42 -43 -44 -45 -46 -58 -59 -60 0
-33 -36 -37 -38 -40 -41 -42 -56 -57 -58 0
-33 -34 -37 -38 -39 -41 -42 -44 -45 -58 0
-28 -30 -31 -32 -35 -36 -37 -54 -55 -56 0
-28 -29 -31 -32 -33 -36 -37 -40 -41 -56 0
-24 -25 -26 -27 -28 -30 -31 -35 -36 -54 0
-16 -18 -19 -20 -21 -22 -23 -51 -52 -53 0
-10 -13 -14 -15 -17 -18 -19 -49 -50 -51 0
-10 -11 -14 -15 -16 -18 -19 -21 -22 -51 0
-5 -7 -8 -9 -12 -13 -14 -47 -48 -49 0
-5 -6 -8 -9 -10 -13 -14 -17 -18 -49 0
-1 -2 -3 -4 -5 -7 -8 -12 -13 -47 0
1 2 3 4 5 7 8 12 13 47 0
5 6 8 9 10 13 14 17 18 49 0
5 7 8 9 12 13 14 47 48 49 0
10 11 14 15 16 18 19 21 22 51 0
10 13 14 15 17 18 19 49 50 51 0
16 18 19 20 21 22 23 51 52 53 0
24 25 26 27 28 30 31 35 36 54 0
28 29 31 32 33 36 37 40 41 56 0
28 30 31 32 35 36 37 54 55 56 0
33 34 37 38 39 41 42 44 45 58 0
33 36 37 38 40 41 42 56 57 58 0
39 41 42 43 44 45 46 58 59 60 0
