41
0 1
0 2
0 3
0 6
0 7
0 9
0 10
0 12
0 15
0 17
0 18
0 20
0 22
0 26
0 28
0 29
0 30
0 32
0 35
0 36
1 2
1 4
1 7
1 8
1 10
1 11
1 13
1 15
1 16
1 18
1 19
1 23
1 24
1 27
1 29
1 30
1 31
1 35
1 36
2 5
2 6
2 8
2 9
2 11
2 14
2 16
2 17
2 19
2 20
2 21
2 25
2 27
2 28
2 31
2 32
2 35
2 36
3 4
3 5
3 7
3 8
3 10
3 11
3 13
3 14
3 15
3 17
3 18
3 20
3 21
3 23
3 24
3 25
3 27
3 30
3 32
3 33
3 38
4 5
4 6
4 8
4 9
4 11
4 12
4 14
4 15
4 16
4 18
4 19
4 21
4 22
4 25
4 26
4 28
4 30
4 31
4 33
4 38
5 6
5 7
5 9
5 10
5 12
5 13
5 16
5 17
5 19
5 20
5 22
5 23
5 24
5 26
5 29
5 31
5 32
5 33
5 38
6 7
6 8
6 9
6 11
6 13
6 15
6 20
6 22
6 25
6 29
6 30
6 31
6 33
6 34
6 35
6 37
7 8
7 9
7 10
7 14
7 16
7 18
7 23
7 26
7 27
7 31
7 32
7 33
7 34
7 35
7 37
8 10
8 11
8 12
8 17
8 19
8 21
8 24
8 28
8 30
8 32
8 33
8 34
8 35
8 37
9 10
9 11
9 12
9 16
9 18
9 22
9 26
9 27
9 28
9 30
9 32
9 34
9 36
9 40
10 11
10 13
10 17
10 19
10 23
10 24
10 28
10 29
10 30
10 31
10 34
10 36
10 40
11 14
11 15
11 20
11 21
11 25
11 27
11 29
11 31
11 32
11 34
11 36
11 40
12 15
12 17
12 19
12 20
12 21
12 23
12 26
12 27
12 29
12 30
12 32
12 34
12 36
12 38
12 39
13 15
13 16
13 18
13 20
13 21
13 22
13 24
13 27
13 28
13 30
13 31
13 34
13 36
13 38
13 39
14 16
14 17
14 18
14 19
14 22
14 23
14 25
14 28
14 29
14 31
14 32
14 34
14 36
14 38
14 39
15 19
15 22
15 23
15 24
15 26
15 27
15 32
15 33
15 35
15 36
15 38
15 40
16 20
16 21
16 23
16 24
16 25
16 28
16 30
16 33
16 35
16 36
16 38
16 40
17 18
17 21
17 22
17 25
17 26
17 29
17 31
17 33
17 35
17 36
17 38
17 40
18 21
18 22
18 26
18 27
18 30
18 31
18 33
18 36
18 37
18 39
19 22
19 23
19 24
19 28
19 31
19 32
19 33
19 36
19 37
19 39
20 21
20 23
20 25
20 29
20 30
20 32
20 33
20 36
20 37
20 39
21 24
21 26
21 27
21 28
21 29
21 31
21 34
21 37
21 38
21 40
22 24
22 25
22 27
22 28
22 29
22 32
22 34
22 37
22 38
22 40
23 25
23 26
23 27
23 28
23 29
23 30
23 34
23 37
23 38
23 40
24 28
24 29
24 32
24 33
24 35
24 39
24 40
25 27
25 29
25 30
25 33
25 35
25 39
25 40
26 27
26 28
26 31
26 33
26 35
26 39
26 40
27 32
27 34
27 35
27 37
27 39
27 40
28 30
28 34
28 35
28 37
28 39
28 40
29 31
29 34
29 35
29 37
29 39
29 40
30 35
30 37
30 38
30 39
31 35
31 37
31 38
31 39
32 35
32 37
32 38
32 39
33 35
33 36
33 37
33 39
33 40
34 35
34 36
34 37
34 38
34 39
35 38
35 39
36 38
36 39
37 38
37 39
37 40
38 40
39 40
