p cnf 40 3864
38 -36 -32 39 0
-34 -33 -32 37 35 0
-33 35 37 -32 -31 0
38 -30 -32 -36 0
-30 39 -36 -32 0
-34 -33 -32 35 -30 0
-30 -33 -32 35 -31 0
-30 -33 37 -32 -31 0
-30 -31 -32 35 37 0
-33 -29 37 -32 35 0
-30 -29 35 -32 -33 0
-30 -33 37 -32 -29 0
40 31 -29 34 0
39 -36 -28 -32 0
-33 37 -28 -31 -32 0
-29 -36 -28 39 0
35 -38 -28 -29 -33 0
-29 -32 -28 37 0
40 -29 -28 34 0
-27 -31 39 -36 -30 0
-33 -27 -29 35 37 0
-27 -30 -29 39 -36 0
-33 -27 -28 40 35 0
-27 -29 -28 35 37 0
-26 -36 -32 39 0
-30 -26 -36 39 0
-26 -29 -36 39 0
-26 -29 -32 -36 0
40 31 -29 -26 0
-33 -40 -25 -39 0
-25 -32 -28 35 -31 0
-25 -32 -28 39 -31 0
-25 -37 39 -36 -26 0
-40 -25 32 -33 0
40 -27 -38 35 -24 0
-25 -24 -36 -37 -26 0
-24 29 33 28 -37 0
-40 -33 30 -24 0
-40 -23 -38 -37 0
-34 -37 -38 -23 0
-30 -37 -28 -23 36 0
-40 -23 -27 -37 0
-34 -23 -27 -37 0
-23 -27 36 -37 0
-40 -23 -28 -26 32 0
-26 -23 -28 36 -40 0
-40 -25 -27 -23 0
-23 -27 36 -25 0
-25 -23 32 -40 0
-40 -23 36 -25 0
-23 37 26 -39 25 0
-40 -23 35 32 0
-40 -23 35 -37 0
-40 -23 36 -37 0
38 -22 -36 -35 0
38 -22 -36 -30 0
-40 -27 36 -22 -25 0
-23 -31 -36 -22 38 0
-22 -23 -39 28 25 0
-22 -23 25 -35 28 0
38 -22 25 -23 28 0
-23 -22 29 27 28 0
38 -23 -22 28 29 0
-23 38 -31 29 -22 0
38 -22 -35 24 0
-22 24 34 25 0
-22 37 25 24 0
24 -22 25 38 0
-22 27 -35 24 0
38 -22 24 27 0
-22 34 -35 24 0
-33 -22 25 -30 37 0
-22 37 25 -30 0
38 -22 25 -30 0
29 -39 -22 27 28 0
38 -22 29 27 28 0
38 -22 29 28 -35 0
-39 29 -22 28 32 0
-22 29 32 -35 28 0
-22 34 -36 -35 0
-34 -21 -38 -37 0
-21 -37 36 -31 0
-40 -21 36 -27 0
-21 -27 36 -37 0
-40 -21 30 -24 0
-40 -21 36 -24 0
38 -21 -36 -23 -35 0
38 -21 -32 -36 -23 0
38 -23 26 -21 -35 0
-21 -23 26 -39 37 0
-21 -23 -36 34 -35 0
38 -21 -36 -23 -22 0
-22 -21 29 -23 28 0
-21 -22 29 28 27 0
-22 -21 29 28 -39 0
-22 -21 29 38 28 0
-21 -39 37 24 26 0
-26 -21 -31 30 25 0
-40 -21 35 32 0
-20 -22 37 25 0
21 -20 -28 39 0
21 -20 33 -26 0
21 -26 39 -20 0
-20 36 32 21 23 0
21 -20 33 23 0
21 -20 23 39 0
40 -20 -36 28 22 0
-20 22 -36 -33 28 0
-20 23 -28 39 0
23 -26 39 -20 0
-20 36 -38 23 32 0
-19 -37 -39 -33 0
-19 -37 -39 -31 0
-34 -40 37 -30 -19 0
-34 -19 39 -26 -30 0
-33 -19 -39 -24 0
-24 -39 -28 -19 38 0
-33 -19 30 -24 0
-34 -19 -20 39 -40 0
-19 -20 36 32 23 0
-19 -40 39 23 -20 0
-22 -24 -28 -19 20 0
-22 -19 30 -24 20 0
-33 -19 -39 21 -36 0
-19 -33 34 21 29 0
-19 -27 -29 39 22 0
-34 22 39 -25 -19 0
-19 23 36 22 31 0
-40 23 33 22 -19 0
-40 22 39 23 -19 0
-34 23 -26 -19 -25 0
23 -25 33 -26 -19 0
23 -26 39 -19 -25 0
31 -19 32 -38 23 0
31 36 32 -19 23 0
-19 36 -38 23 31 0
40 -31 25 27 -19 0
-18 -29 -32 37 0
-18 -29 -32 39 0
-18 -32 -28 37 0
-18 -32 -28 39 0
-21 -31 25 -37 -18 0
-34 -18 -20 39 -40 0
-18 -20 33 21 0
21 -18 39 -20 0
-18 -25 -38 -19 22 0
-18 31 -19 22 36 0
-18 36 -38 31 -19 0
-18 24 19 -30 32 0
-34 21 39 -40 -18 0
-18 21 -29 39 0
-18 39 -28 21 0
-34 -18 36 21 22 0
-18 -40 33 22 21 0
21 -40 39 22 -18 0
-34 -40 39 22 -18 0
-18 22 39 -32 -34 0
-18 22 39 -25 -34 0
-18 22 -38 30 31 0
-18 22 30 36 31 0
-18 36 -38 22 31 0
-18 31 -35 27 0
-17 40 -28 35 -27 0
-17 40 -27 35 -24 0
-17 -25 -29 -22 -40 0
-26 -21 -31 30 -17 0
-17 23 -31 30 -21 0
-17 -20 -28 21 0
21 -20 -17 25 0
-17 -20 33 21 0
-17 31 33 22 -19 0
-19 -17 36 22 31 0
-18 -26 -31 34 -17 0
-17 -21 -31 -18 32 0
-21 -26 -31 -18 -17 0
-18 -21 -31 -17 23 0
-18 23 -31 -17 34 0
-18 23 34 28 -17 0
-17 -27 18 35 -30 0
-17 40 18 35 -27 0
40 18 -39 -17 35 0
-17 -26 -35 37 19 0
19 -17 -35 -25 37 0
19 -40 -25 32 -17 0
19 -40 -21 -17 -38 0
19 -17 -26 -40 -21 0
19 -40 -21 32 -17 0
-17 19 37 -35 23 0
19 -17 37 28 23 0
19 -17 39 37 28 0
19 -17 39 37 32 0
-17 20 37 -26 32 0
-17 35 -28 21 -27 0
-17 22 -28 21 -27 0
-17 23 -31 34 27 0
23 -17 -31 34 28 0
-17 37 -36 30 23 0
-16 29 -28 -30 31 0
-16 40 -29 35 -26 0
-16 -25 32 -33 0
-24 37 27 34 -16 0
-16 -30 -28 -23 32 0
-16 -23 -25 32 0
-40 -16 -21 -38 0
-16 -21 -24 -40 0
-40 -21 32 -16 0
-19 23 -29 -26 -16 0
-34 -17 35 21 -16 0
-16 -17 35 -27 21 0
-16 21 -27 25 -17 0
38 -16 33 -17 -37 0
-17 -16 40 35 36 0
31 17 -28 29 -16 0
-16 -24 26 17 0
17 -16 -23 22 -20 0
-16 17 18 -24 0
-16 17 18 -23 0
-16 17 18 22 0
-16 18 26 17 0
17 -16 -23 22 0
-16 17 22 29 0
-16 18 26 -24 0
-40 -23 18 -16 0
31 -23 18 39 -16 0
31 18 26 -16 39 0
38 -16 -37 28 20 0
-16 21 -31 35 -27 0
21 -16 35 -26 -34 0
21 -16 -29 35 -26 0
-34 -16 35 21 23 0
-16 23 35 -29 21 0
-16 21 35 -27 23 0
-16 22 -36 32 37 0
-16 23 -29 -26 35 0
-16 32 -36 27 37 0
38 -16 33 28 -37 0
-15 40 -28 -29 0
-40 -15 -27 -23 31 0
-15 36 32 -20 23 0
-15 -20 33 23 0
-15 -19 30 -24 25 0
-15 -19 -22 -24 20 0
-15 -19 -22 20 21 0
-33 -19 34 21 -15 0
-15 21 -32 -19 -22 0
-18 -29 -28 -15 0
-34 -18 -15 36 22 0
-15 40 -28 -17 0
-15 -17 33 -20 0
-17 -15 -28 22 35 0
-15 -17 33 38 0
-15 36 -39 35 -17 0
-15 -16 40 -29 35 0
-15 -16 35 -17 -34 0
-15 -17 40 35 -16 0
38 -16 33 -37 -15 0
-15 -27 30 28 16 0
-15 21 -32 28 16 0
-15 17 18 -23 31 0
-15 31 17 21 18 0
-15 17 -23 21 31 0
-15 18 -32 -38 -35 0
-15 -24 -32 -35 18 0
-15 -24 18 37 30 0
-40 -15 18 -23 31 0
-15 18 39 -23 31 0
21 -15 18 -23 -19 0
21 -15 18 -35 37 0
21 -15 18 -23 31 0
-15 40 -28 19 0
-15 20 -27 -26 -40 0
-15 20 -38 -40 -22 0
-15 20 39 -38 -22 0
-33 21 34 28 -15 0
-15 21 -32 34 28 0
-15 22 -28 -29 35 0
-15 23 35 -29 22 0
-15 -29 -28 23 0
23 -15 -29 24 0
38 27 24 -15 0
-15 38 33 27 0
-34 -14 -38 -23 0
-34 24 33 -23 -14 0
24 -14 35 33 -23 0
38 -21 -14 28 -35 0
38 -21 -14 28 -30 0
31 -21 -14 28 -35 0
-27 -14 39 -20 -24 0
-19 20 -31 -14 0
21 20 -14 -22 -19 0
20 -14 30 -19 0
21 -19 -39 -14 -36 0
-19 40 -32 21 -14 0
-22 -19 26 -14 21 0
21 -19 -32 -14 26 0
21 -19 -14 -36 27 0
40 -19 -32 -14 26 0
-19 35 26 -14 0
-19 -14 27 40 -36 0
-16 -25 26 -14 0
-23 -14 -38 -16 0
-16 -23 -25 -14 0
-15 -21 -14 38 -30 0
-15 -14 32 23 -20 0
-15 23 -37 -14 22 0
23 -15 36 -14 22 0
-15 23 -37 -14 32 0
-14 33 -28 15 -34 0
15 -25 -39 -14 0
15 -25 26 -14 0
-18 15 -14 24 40 0
-17 15 -29 -14 -25 0
-16 15 -25 -14 0
-16 15 26 -14 0
-34 15 -14 24 40 0
-14 24 -31 33 15 0
15 24 -31 -14 40 0
15 -14 33 24 -34 0
15 -14 33 24 35 0
15 -14 33 24 40 0
-34 15 26 -14 0
15 35 26 -14 0
16 -21 -14 -35 31 0
34 31 -21 16 -14 0
16 17 39 -35 -14 0
16 17 -21 -14 34 0
16 -21 18 -14 34 0
-33 -14 19 18 16 0
19 16 34 -14 18 0
16 -14 32 18 34 0
16 -14 32 -35 31 0
34 31 32 16 -14 0
23 -26 39 -14 17 0
17 -14 32 -35 28 0
17 34 -35 -14 32 0
-14 32 34 18 -27 0
19 -37 18 -14 38 0
19 -37 18 -14 34 0
-37 -14 32 18 29 0
20 -14 -28 -22 -34 0
-34 -14 30 20 0
20 -14 30 -31 0
31 -37 -14 22 23 0
23 22 36 -14 31 0
31 -14 32 -37 23 0
-40 -14 -35 25 28 0
-40 -30 -14 28 25 0
-40 29 -35 28 -14 0
38 -40 -14 28 29 0
31 -37 32 28 -14 0
31 -14 32 -35 28 0
-37 29 -14 -35 32 0
-34 -21 -38 -13 0
-13 -21 -31 32 0
-34 -13 -21 -27 0
-13 -31 25 33 -21 0
-13 -21 35 25 33 0
-34 -13 -21 32 0
-13 -21 35 32 0
-13 -19 -29 22 39 0
-13 -19 39 -25 22 0
-19 -13 39 22 -40 0
-18 -13 -21 19 -27 0
-18 -13 40 29 23 0
-13 -21 -38 -16 0
-16 -21 -24 -13 0
-13 -21 32 -16 0
-16 17 26 -13 0
-13 -16 17 29 0
-16 37 -36 32 -13 0
-15 17 -27 -13 29 0
-13 -15 -24 25 17 0
38 -14 39 -37 -13 0
-13 -37 -35 -14 38 0
-40 -13 -14 -35 39 0
-13 -26 -14 28 -37 0
16 -13 34 -14 18 0
-13 22 39 -14 16 0
16 -13 -14 -35 31 0
16 -13 34 -14 31 0
-13 16 39 -14 -40 0
-13 -37 18 -14 38 0
-13 -37 -14 28 18 0
-13 38 -37 28 -14 0
-40 -13 -14 -35 28 0
-13 -37 -35 28 -14 0
-13 31 -14 28 -35 0
-40 -13 -14 28 38 0
38 -14 39 -40 -13 0
-15 -13 17 14 -24 0
-15 -13 17 25 14 0
17 -20 -30 -13 14 0
-13 -21 14 19 -27 0
15 -33 39 -32 -13 0
15 -33 -32 -23 -13 0
-23 -13 34 30 15 0
-13 -19 39 15 -35 0
16 15 39 -33 -13 0
16 15 -23 -13 -35 0
16 15 34 -13 31 0
16 -40 39 15 -13 0
-13 20 -23 15 28 0
15 -13 34 30 31 0
16 22 39 -25 -13 0
16 -40 39 22 -13 0
-13 17 -28 -30 -39 0
-13 17 -27 -39 0
-34 -13 17 -27 0
-13 -24 -39 17 0
-13 -24 26 17 0
17 -20 -30 -39 -13 0
-34 -13 33 25 17 0
-13 17 35 33 25 0
-34 -13 17 26 0
-13 17 35 26 0
-13 -37 18 28 38 0
-13 20 -37 38 28 0
-13 22 39 21 -37 0
-37 22 30 -13 21 0
21 -13 36 22 30 0
-13 22 39 -40 21 0
23 40 29 25 -13 0
40 29 -36 23 -13 0
40 29 37 -13 23 0
38 -40 -13 24 -35 0
-33 -13 -29 24 -32 0
-40 -13 -35 24 27 0
-40 -13 -32 24 27 0
38 -40 27 -13 24 0
-13 34 -35 24 30 0
-34 40 -36 -13 25 0
25 -31 -38 33 -13 0
40 -31 25 33 -13 0
25 33 -28 -34 -13 0
-34 33 -38 25 -13 0
-34 -13 33 25 40 0
-34 -13 -38 26 0
-30 33 26 40 -13 0
-13 40 33 26 -34 0
27 -13 30 -35 31 0
-13 38 -37 28 -35 0
40 37 -36 29 -13 0
-37 34 30 -13 31 0
31 34 30 -35 -13 0
38 -12 39 -35 0
-12 -25 -24 -31 39 0
-34 -23 24 -12 -38 0
-34 -12 24 -27 -23 0
24 -12 33 -27 -23 0
24 -12 33 -23 -38 0
24 -12 33 -34 -23 0
24 -12 33 35 -23 0
38 -22 -12 -35 0
-22 27 -35 -12 0
38 -22 -12 27 0
-22 -12 -35 34 0
-21 -26 22 25 -12 0
-19 40 -12 25 -36 0
-18 -12 39 -35 0
-18 21 39 -12 0
-18 27 -35 -12 0
-18 -16 30 -12 21 0
16 -15 -27 -12 28 0
-15 18 -38 -23 -12 0
17 -40 -14 -35 -12 0
17 -14 32 -35 -12 0
17 34 -35 -14 -12 0
-24 -14 19 -12 29 0
-37 -14 32 -12 23 0
-14 36 32 -12 23 0
38 -37 -14 -12 29 0
-40 29 -14 -35 -12 0
-37 -14 32 -12 29 0
-14 32 34 -35 -12 0
-40 -13 -35 -12 38 0
-40 -13 -14 -35 -12 0
-13 -12 -35 -14 34 0
38 -40 -14 -12 -13 0
-12 -14 39 -40 -13 0
-40 15 -12 -13 -35 0
-13 -12 39 -35 15 0
15 -13 39 -33 -12 0
15 -12 30 21 -13 0
15 -13 34 30 -12 0
-37 -12 30 21 -13 0
21 -12 30 36 -13 0
-13 -37 30 -12 34 0
-17 13 28 -12 16 0
13 24 -12 16 28 0
13 24 -12 -23 22 0
13 24 -12 22 28 0
-21 14 -26 -12 22 0
-12 -20 14 28 22 0
16 -15 14 -12 28 0
-40 15 -12 -35 39 0
15 29 -12 -35 -22 0
17 15 -35 -12 39 0
15 -33 -12 17 39 0
-40 29 -12 -35 15 0
16 24 -12 -17 28 0
40 24 -12 16 -34 0
-34 -12 24 -27 16 0
16 24 -12 -27 28 0
16 24 35 -12 28 0
40 24 -12 16 28 0
24 -12 33 35 16 0
-40 -12 39 -35 17 0
-40 17 -12 -35 -18 0
-40 27 -35 -12 17 0
38 -22 -12 19 0
21 23 -28 -12 0
23 -37 32 21 -12 0
21 23 36 32 -12 0
21 -12 39 23 0
-37 -12 30 32 21 0
36 -12 30 32 21 0
-12 37 -36 28 22 0
-12 39 -28 23 0
23 -12 39 -25 -28 0
24 40 -36 28 -12 0
-40 29 -12 -35 26 0
29 -12 30 26 36 0
-40 38 26 -12 29 0
-40 29 -12 -35 38 0
29 -12 30 32 -35 0
-27 28 -11 30 0
-25 -27 -11 28 0
-25 28 26 -11 0
-21 -29 -31 -11 33 0
-21 -29 30 -11 -40 0
-40 -21 -27 -11 0
-40 -21 30 -11 0
-21 -31 30 -11 0
-21 35 30 -11 0
-40 -21 35 -11 0
-20 22 -36 -11 28 0
-20 28 -32 26 -11 0
-19 32 -38 -11 31 0
31 -19 32 -11 -35 0
31 -19 36 32 -11 0
-18 -19 36 31 -11 0
-18 36 -38 31 -11 0
-17 -23 -39 -11 25 0
-17 -19 36 -11 31 0
31 40 -39 -17 -11 0
31 36 -39 -17 -11 0
-15 18 -32 30 -11 0
-15 18 30 -11 37 0
-29 -14 -31 33 -11 0
-34 -14 33 -29 -11 0
-25 -14 26 -11 0
-34 -14 33 24 -11 0
-34 -14 26 -11 0
-34 33 26 -14 -11 0
-14 35 26 -11 0
-34 -14 30 -11 0
-14 -31 30 -11 0
-14 35 30 -11 0
-13 -19 36 -11 31 0
-13 -19 -35 15 -11 0
-22 29 -12 -35 -11 0
15 29 -12 -11 -35 0
-37 29 -35 -12 -11 0
-12 29 32 -35 -11 0
12 -25 26 -11 0
12 -25 -11 -14 0
12 -14 26 -11 0
12 -14 30 -11 0
12 17 26 -11 0
38 -29 30 -11 13 0
16 13 30 -11 28 0
22 24 13 -11 28 0
24 13 -11 39 28 0
40 14 -38 -11 -39 0
-22 40 -39 -11 14 0
-17 14 40 -11 -39 0
15 -19 -38 14 -11 0
15 14 -38 -11 21 0
40 -39 14 -11 20 0
31 -19 -35 15 -11 0
16 -29 -31 33 -11 0
-34 24 33 16 -11 0
16 24 35 33 -11 0
-34 18 33 -11 17 0
-34 17 -11 26 0
-34 -29 33 18 -11 0
-40 -25 18 -11 0
-20 18 -29 26 -11 0
-34 18 26 -11 0
-40 18 30 -11 0
-34 18 30 -11 0
18 37 39 33 -11 0
19 -25 -29 -11 28 0
19 -25 37 -11 28 0
-40 -21 -29 -11 19 0
-20 -25 -29 -11 19 0
-20 -25 19 28 -11 0
19 -20 22 -21 -11 0
-20 24 19 -11 22 0
-20 22 19 -11 28 0
-20 -25 19 24 -11 0
31 40 -39 20 -11 0
22 37 -36 28 -11 0
22 -31 28 -11 0
-25 -27 24 28 -11 0
-34 -29 33 26 -11 0
35 28 26 -11 0
31 36 -39 27 -11 0
-31 28 30 -11 0
-37 29 32 -35 -11 0
31 36 -39 32 -11 0
31 40 34 -11 -39 0
-10 31 -37 28 -26 0
-10 31 40 -26 0
40 -25 -26 -37 -10 0
-10 40 -22 -26 0
-10 -22 29 -39 28 0
-10 -21 -22 28 -35 0
-10 -21 29 -22 28 0
-10 -21 34 31 24 0
-10 -20 -22 -26 0
-10 -20 -26 23 0
-10 -19 -28 -24 38 0
-18 -10 -20 -35 0
-18 -10 -35 31 0
-18 -10 36 31 -38 0
-10 -17 -29 32 27 0
-10 -16 -26 -37 40 0
-10 -16 -26 28 -37 0
-10 -15 -21 -25 40 0
-10 -21 -39 24 -15 0
-10 -15 23 -20 0
-10 -15 40 -37 -16 0
-10 -15 -16 36 40 0
-10 -15 40 19 0
-10 -15 24 23 0
-10 -37 -26 -14 28 0
-10 -21 -14 28 29 0
-10 -21 -14 -35 31 0
-10 -15 -37 19 -14 0
-10 29 -37 28 -14 0
-10 -31 25 33 -13 0
-10 -13 35 33 25 0
-10 -13 33 -30 26 0
-10 -12 -35 29 -22 0
-10 -12 34 -22 0
-10 -18 -12 -35 0
17 -10 -14 -12 23 0
19 -37 -12 -14 -10 0
-12 29 -14 19 -10 0
-10 -12 -14 23 -37 0
23 36 -12 -14 -10 0
-10 -12 -14 -35 34 0
17 -25 -12 23 -10 0
29 -12 30 19 -10 0
-37 29 -35 -12 -10 0
-10 29 30 -35 -12 0
-10 -34 -29 33 -11 0
12 -10 -11 26 39 0
16 -10 -31 33 -11 0
-10 16 33 -34 -11 0
-10 16 35 33 -11 0
-34 18 33 -10 -11 0
-10 37 -36 -11 22 0
-10 38 37 -11 22 0
-10 33 39 -11 37 0
-10 -20 11 23 0
-10 23 13 11 0
-10 -32 11 24 0
-10 -24 26 27 12 0
-18 -10 13 -20 0
-10 -15 13 -20 0
-10 -15 13 19 0
-10 23 13 -15 0
-10 -15 13 40 0
-10 19 13 40 0
19 40 34 -10 0
-10 23 -26 31 0
-10 34 -35 24 0
37 32 -36 -10 27 0
-9 40 -29 34 0
-9 -27 -32 31 29 0
40 -25 30 -37 -9 0
-24 -37 32 -9 28 0
-9 -23 -35 28 27 0
-9 -39 30 -23 40 0
-23 40 34 30 -9 0
31 -22 -9 35 -40 0
-21 -33 -9 -23 40 0
-21 -9 -39 -23 26 0
-21 -39 27 -23 -9 0
-21 -23 -35 27 -9 0
-21 -23 -35 -9 28 0
-21 -9 34 40 -23 0
-9 -21 -35 28 27 0
-20 36 -38 -9 32 0
-19 -20 32 -38 -9 0
-19 -20 36 32 -9 0
-19 -9 -38 -25 22 0
-18 24 19 -9 -30 0
24 -9 -36 29 -18 0
-17 -23 -24 40 -9 0
-17 -9 26 -39 -23 0
-17 -37 18 40 -9 0
-17 36 26 22 -9 0
-16 -9 -28 29 -30 0
31 -9 -28 -16 29 0
-16 -9 -28 29 17 0
-16 17 -9 29 31 0
-9 -16 -36 37 29 0
-9 -16 37 31 29 0
-16 37 39 29 -9 0
-15 40 -29 -9 0
-15 -21 27 -9 -39 0
-15 -17 -9 -20 0
-15 -17 -37 22 -9 0
-15 -17 -9 22 26 0
-17 -15 40 -9 0
-21 -9 -14 28 -35 0
-21 -9 -14 -35 34 0
-21 -9 34 16 -14 0
16 -9 34 -14 32 0
-37 34 32 -14 -9 0
-13 -9 -35 27 -23 0
-13 -23 27 28 -9 0
-9 -23 30 27 -13 0
-19 -13 -9 36 22 0
16 -13 34 -14 -9 0
-13 -37 34 -9 -14 0
16 -13 -23 27 -9 0
-13 -9 18 28 -37 0
-13 -9 -37 28 27 0
-9 -13 -35 28 27 0
-13 -9 27 36 28 0
27 -13 30 -35 -9 0
-13 -37 -35 -9 28 0
24 -12 33 -9 -30 0
-9 24 -12 -27 -34 0
-9 24 33 -27 -12 0
24 -12 33 -34 -9 0
24 -12 33 -9 35 0
-34 -9 33 -27 -11 0
-34 17 -9 -11 33 0
19 -9 33 -11 -34 0
19 37 39 -9 -11 0
-9 37 39 33 -11 0
-10 -9 33 -11 -34 0
-10 -9 -11 39 37 0
-10 -9 33 -30 15 0
-10 -9 -36 25 -34 0
-17 -23 -24 10 -9 0
10 -13 27 -23 -9 0
10 -13 -23 -9 16 0
-9 -29 11 -15 0
-15 -21 11 -9 -25 0
-15 -21 11 26 -9 0
-15 -20 -9 11 0
-15 -9 11 22 -25 0
-15 -9 26 22 11 0
-21 -14 11 -9 28 0
12 -21 11 -9 16 0
-21 -9 11 16 26 0
16 -20 11 -9 0
16 -21 18 11 -9 0
16 26 11 22 -9 0
12 -21 40 -23 -9 0
12 -23 -39 -17 -9 0
-17 12 -23 40 -9 0
12 -21 -39 -15 -9 0
-15 -17 -9 22 12 0
21 31 -32 13 -9 0
14 -9 25 29 39 0
15 -9 24 19 -30 0
16 -9 -35 27 0
-9 16 -35 34 0
31 17 -9 -27 29 0
17 -9 25 35 29 0
17 -9 -32 29 31 0
31 17 -9 29 35 0
-9 18 -39 32 28 0
18 -37 32 -9 28 0
-9 18 -39 34 40 0
19 -9 33 -30 24 0
-34 -22 -28 -9 20 0
-9 -40 20 -22 -27 0
23 -9 29 37 20 0
24 -9 -36 29 21 0
-9 23 -36 37 29 0
24 -9 -36 29 35 0
24 35 39 -9 29 0
-9 29 39 25 35 0
-37 -9 32 -35 28 0
-39 32 36 -9 28 0
31 37 39 -9 29 0
-37 34 32 40 -9 0
-27 -8 -36 -29 34 0
-8 -29 -38 -27 37 0
-8 37 -38 35 -27 0
38 31 -28 -24 -8 0
-8 -24 -28 36 38 0
-8 -22 -39 28 -23 0
-22 -23 34 -8 -36 0
-21 -24 36 -8 0
-8 -21 -37 36 0
-8 -20 -27 -31 21 0
-20 21 33 30 -8 0
-8 -19 26 -24 0
-8 -19 20 -24 0
-8 -19 29 20 0
-8 -19 -28 25 29 0
-8 40 25 27 -19 0
-8 -19 26 -37 0
-17 23 27 -33 -8 0
-18 -8 -16 -29 21 0
-18 -16 33 21 -8 0
-8 21 -31 35 -16 0
-8 21 -29 35 -16 0
-8 -16 -31 -27 21 0
-8 -20 -27 32 -14 0
-8 -40 -13 28 -14 0
-19 40 -12 25 -8 0
-8 31 13 -32 -12 0
31 18 -32 -12 -8 0
-34 -8 -21 -11 0
-8 -21 22 -11 0
-8 16 -32 13 -11 0
-8 18 26 -11 0
-34 -8 26 -11 0
-10 -17 27 39 -8 0
-10 -8 22 -11 38 0
-8 27 18 22 -10 0
-8 18 39 -10 26 0
-9 -20 30 -38 -8 0
-15 -9 -25 -31 -8 0
-8 -20 32 -14 -9 0
-8 -15 -14 -20 -9 0
-8 -14 32 -9 28 0
-9 -8 -14 34 32 0
-8 -13 -14 28 -9 0
-8 -13 34 -9 -14 0
-8 -31 11 -20 -9 0
-9 -20 30 -8 11 0
-8 -9 11 28 -14 0
12 -15 -9 -8 11 0
9 -8 -24 26 0
9 -21 -37 -8 0
9 -21 -24 -8 0
9 -21 22 -8 0
9 -21 36 -8 0
16 9 40 -19 -8 0
9 22 18 -8 0
9 18 26 -8 0
-8 -33 9 22 0
-8 9 -37 26 0
-8 9 -37 36 0
-8 10 33 -40 -36 0
-8 -36 11 -31 -27 0
-8 -31 11 37 -27 0
-8 -36 11 -25 -31 0
-20 33 11 30 -8 0
-15 -25 11 -31 -8 0
-8 -20 -31 -15 11 0
-8 19 11 -15 -31 0
-8 -20 -27 -14 11 0
12 37 11 -29 -8 0
12 -36 11 -8 -27 0
12 -8 -29 -27 11 0
12 -8 -27 35 11 0
12 -8 11 -27 37 0
12 -20 11 37 -8 0
12 -8 11 -20 -15 0
12 -8 11 33 -15 0
12 -8 11 37 24 0
12 -8 11 37 35 0
12 37 -38 -29 -8 0
-8 -29 -38 -27 12 0
12 35 -38 -8 -27 0
12 37 -38 -8 -27 0
12 -8 -26 -29 -38 0
12 -8 -26 -29 -36 0
-8 12 -29 35 -26 0
12 -26 -38 -8 -20 0
12 -8 37 24 -29 0
12 24 -39 -8 37 0
12 -8 -39 28 33 0
-17 -8 13 39 20 0
-19 -8 -32 13 16 0
22 18 -35 13 -8 0
-8 31 14 -24 38 0
15 -21 -37 -8 0
-34 -8 15 -21 0
-8 15 -21 22 0
-8 15 -21 36 0
-17 23 27 15 -8 0
-8 23 27 26 15 0
-8 40 26 23 15 0
-8 -37 26 15 0
-34 -8 26 15 0
15 -30 26 40 -8 0
-8 15 -37 36 0
-8 -19 40 25 16 0
-22 17 -36 -8 34 0
-24 18 26 -8 0
-8 -24 18 -19 0
-8 -19 18 26 0
-34 18 26 -8 0
-8 20 36 -24 -35 0
21 -29 -38 -8 35 0
-8 21 -31 35 -27 0
-8 27 22 -30 40 0
-8 -33 29 22 0
-8 40 26 23 -32 0
-8 40 26 27 39 0
-7 -30 -29 -36 0
-7 -30 37 -29 0
-7 31 -29 34 0
-7 -29 34 -36 0
-7 -36 -28 -29 0
-7 -29 34 -28 0
-7 -38 -28 -29 35 0
-7 37 -28 -29 0
-7 -27 36 -32 -35 0
-7 38 -26 -27 36 0
-7 -22 -36 -30 0
-7 -22 37 -30 0
-7 -22 -36 34 0
-7 -20 -28 37 0
-7 -20 -22 37 0
-7 -40 -19 23 -20 0
-7 -19 -38 -25 23 0
-7 -20 -28 -17 0
-17 -20 33 -7 0
18 -39 35 -7 -17 0
-7 31 33 -17 0
-7 -15 -30 -17 0
-7 -15 -17 -20 0
-15 -17 33 -7 0
-7 -15 -30 23 0
-15 -39 33 27 -7 0
-7 -15 33 32 -39 0
-7 21 24 -14 -23 0
-7 -40 27 16 -13 0
-7 -22 -12 27 0
-7 -12 -28 23 0
-7 -19 -38 31 -11 0
-7 31 32 -19 -11 0
-7 31 -19 -11 -17 0
-7 -17 -39 31 -11 0
31 -39 -38 -11 -7 0
-7 20 -9 13 21 0
-7 -9 -32 13 21 0
-7 21 -9 13 38 0
-7 -9 39 25 29 0
-7 -8 36 -32 -35 0
-8 -7 -32 13 -37 0
-8 -7 -32 13 36 0
-7 15 36 -8 -37 0
-7 -8 36 -35 20 0
-7 8 -28 -17 0
-7 31 8 -17 0
-7 -12 -28 8 0
-7 8 -12 23 0
-7 8 -12 27 0
-7 31 -19 8 -11 0
-7 14 -28 8 0
-7 -17 8 14 0
-7 14 27 8 0
-7 31 8 16 0
-7 23 8 -30 0
-7 23 -28 8 0
-7 31 23 8 0
-7 -40 9 -30 -36 0
-7 18 35 10 -17 0
-7 10 14 -17 35 0
-7 10 14 37 26 0
12 19 15 -7 36 0
12 21 17 -7 29 0
12 -7 19 -35 36 0
-7 12 39 19 36 0
-7 -26 24 -23 13 0
-7 13 -14 21 20 0
20 13 30 -7 -14 0
21 -7 -32 13 -14 0
-7 -23 -14 13 21 0
-7 13 24 21 -14 0
-7 13 30 -32 -14 0
-7 -29 14 -36 0
-7 -29 37 14 0
14 -36 -28 -7 0
-7 37 -28 14 0
-7 -22 -36 14 0
-7 -22 14 37 0
-7 37 -38 14 -19 0
-17 14 -28 -7 35 0
-17 14 33 -7 0
-7 14 35 -17 -39 0
-7 37 -28 26 14 0
-7 14 26 -39 37 0
-7 33 -36 14 0
-7 37 -38 14 -39 0
-7 16 -30 -36 0
16 -7 37 -30 0
16 34 -28 -7 0
16 34 -28 -7 -36 0
-7 16 -20 37 0
-7 16 34 31 0
-7 19 36 -35 -27 0
-7 19 -26 -27 36 0
-7 -27 36 -35 20 0
-7 38 -26 22 -33 0
-7 31 23 -29 0
-6 -32 -28 -36 0
-6 37 -28 -32 0
-6 -27 -28 35 37 0
-6 -26 -32 -36 0
-6 33 -36 -26 0
-6 -27 -38 -24 35 0
-23 -6 -39 34 25 0
-23 -39 37 -6 25 0
-6 -21 34 -36 -23 0
-6 -21 37 -39 -23 0
-19 22 -38 -6 -27 0
31 -19 22 -38 -6 0
-18 -6 37 -32 0
-18 -6 22 -19 -40 0
-18 31 -19 22 -6 0
-17 -6 -27 -24 35 0
-17 -19 22 -6 -27 0
31 -19 22 -17 -6 0
-17 -6 -32 35 22 0
-17 -6 -28 22 -32 0
-17 -6 -28 22 35 0
-17 -6 -28 22 -27 0
-17 -6 -27 35 22 0
-17 -6 -24 22 33 0
31 -17 25 -6 0
31 -6 33 -17 0
-6 -21 34 31 -14 0
-15 -13 17 14 -6 0
-13 17 -30 14 -6 0
-6 -30 26 40 -13 0
-12 29 -14 -6 -24 0
-40 29 -14 -12 -6 0
-6 -20 -25 28 -11 0
12 -6 -31 -11 23 0
12 -6 39 -11 26 0
16 -6 -11 -31 23 0
19 -6 -20 -11 28 0
-6 23 -11 26 28 0
-6 23 -31 28 -11 0
-6 28 39 26 -11 0
-10 -6 -21 29 -39 0
-10 -6 -21 -39 31 0
-18 -10 -6 -32 0
-18 -10 31 -6 0
-6 -21 -14 -10 29 0
-10 31 -14 -6 -21 0
-18 -10 -12 -6 0
-10 -12 -14 -6 29 0
-6 -21 11 -10 -14 0
-18 -10 13 -6 0
17 -6 -30 -9 14 0
19 -6 -9 24 -30 0
-8 -6 23 26 -11 0
-8 -6 39 26 -11 0
-8 -6 14 -33 23 0
-8 -6 27 26 23 0
-8 -6 23 26 40 0
-6 36 -31 -37 -7 0
-7 -8 36 -35 -6 0
-8 -6 36 -37 -7 0
-7 -6 36 -35 12 0
12 -7 -6 -37 17 0
12 21 -6 -7 17 0
12 -6 36 -7 17 0
-7 -6 39 36 12 0
-18 7 22 -6 -32 0
7 -6 -14 -26 -10 0
7 -6 -14 29 -10 0
-6 22 -14 11 7 0
7 -32 11 22 -6 0
7 -6 30 -23 15 0
-23 7 -32 -6 20 0
20 22 -32 -6 7 0
31 -19 22 8 -6 0
-17 8 -28 -6 0
-17 -6 -32 8 22 0
-17 -6 8 25 0
8 -12 -28 -6 0
-10 31 8 -6 0
8 13 -28 -6 0
20 8 -32 22 -6 0
31 -6 8 25 0
9 -6 -28 -27 35 0
9 -6 -27 37 35 0
-12 -10 29 9 -6 0
-6 -25 10 28 24 0
-6 -32 11 -36 0
-6 37 11 -32 0
-6 -27 11 35 37 0
-6 -36 11 13 0
-6 33 11 -36 0
12 23 -22 -6 26 0
-13 -6 23 -31 12 0
12 -13 -6 23 26 0
12 23 -31 -35 -6 0
-6 23 27 -31 12 0
-6 13 -28 -36 0
-24 -27 13 -6 35 0
-21 -6 -39 13 37 0
-18 -6 13 37 0
-6 13 37 25 0
-6 33 -36 13 0
-6 -20 14 -33 28 0
-15 -6 -33 14 28 0
19 -6 14 23 -35 0
-23 -6 37 15 -32 0
-23 15 37 25 -6 0
-6 -23 34 30 15 0
38 -6 40 16 21 0
16 -6 24 -31 -37 0
-6 -20 18 26 -25 0
-6 -30 -25 24 21 0
35 -38 -28 22 -6 0
22 -38 -28 -27 -6 0
-6 -27 22 35 -24 0
23 40 -31 -35 -6 0
-6 40 -31 28 23 0
-39 29 33 30 -6 0
-6 33 -36 34 0
-37 -5 -35 38 -36 0
-33 -24 30 -5 0
38 -21 -5 -36 -30 0
38 -21 -5 -35 24 0
24 31 -21 -5 -35 0
-19 -33 -5 -24 0
-19 -24 -32 34 -5 0
-19 -24 -5 30 0
-19 -23 -5 35 0
-19 -24 -32 -5 -22 0
-19 -33 34 21 -5 0
-19 40 -5 25 -31 0
-19 40 25 27 -5 0
-19 -31 27 -5 34 0
-19 -31 30 -5 0
-18 22 -5 33 31 0
-17 -5 39 -38 28 0
-17 -5 39 30 28 0
-23 -16 -5 18 0
-18 -34 22 -15 -5 0
-18 22 -28 -15 -5 0
-18 -15 -5 22 33 0
23 -37 -5 -15 22 0
-15 -37 32 23 -5 0
-15 23 -5 33 -37 0
-21 31 -5 -35 -14 0
-15 23 -37 -14 -5 0
23 -15 -5 -14 32 0
19 17 -5 -14 16 0
19 16 -5 -14 29 0
17 32 -5 -35 -14 0
22 23 -5 -14 31 0
31 -14 32 23 -5 0
29 -37 -5 -14 38 0
-14 32 -5 -37 29 0
31 -14 32 -35 -5 0
-37 -5 -14 -35 32 0
-13 -31 -38 -5 0
-13 -16 -24 -5 0
40 -12 -32 -5 -19 0
-17 -12 -29 28 -5 0
-10 -24 37 -5 27 0
-17 -5 39 27 -10 0
-10 -13 14 -5 25 0
-16 -9 -5 39 37 0
-10 -9 -5 25 14 0
-26 -9 -5 25 14 0
-9 -5 25 39 14 0
-9 -5 25 39 35 0
-8 -39 33 -15 -5 0
12 -5 -36 -27 -8 0
12 -8 -5 33 -39 0
-8 17 -36 -5 -40 0
-8 17 -36 -5 -25 0
19 17 -36 -5 -8 0
-16 -9 -5 39 -7 0
-7 -5 39 25 -9 0
-7 15 -31 -5 40 0
-7 -6 -33 -5 21 0
21 -6 40 -5 28 0
-6 40 -31 28 -5 0
-15 -5 6 38 19 0
-15 -37 6 23 -5 0
-15 -5 6 23 24 0
38 10 -5 26 6 0
17 -5 6 16 19 0
19 -5 6 38 26 0
38 24 26 -5 6 0
38 26 -5 -35 6 0
7 19 -5 -14 17 0
7 19 -5 -14 29 0
19 7 -14 38 -5 0
7 -27 -5 -14 22 0
7 -27 -5 -14 -8 0
7 -8 -5 -14 19 0
-8 -27 -5 12 7 0
12 -8 24 7 -5 0
17 7 24 -8 -5 0
-34 12 7 13 -5 0
12 13 -5 7 -27 0
-34 13 -5 7 -18 0
20 7 -5 24 17 0
7 17 -35 -5 24 0
20 7 -5 24 38 0
-9 21 37 8 -5 0
-22 8 11 -5 21 0
-40 9 -5 -30 -36 0
-40 9 -5 -34 -30 0
-40 9 -5 -30 38 0
9 -5 -36 17 20 0
-40 9 -5 24 38 0
-40 9 -5 33 38 0
12 -21 -5 31 24 0
-21 13 -5 -36 17 0
23 -30 13 -27 -5 0
15 27 -31 -5 40 0
17 -21 -36 -5 -35 0
17 19 -5 -36 20 0
17 -25 -36 20 -5 0
20 17 -5 24 -21 0
-24 18 30 -5 0
-24 18 36 -5 0
-23 -5 -38 18 0
-23 18 -5 36 0
18 -24 -32 -19 -5 0
-19 -23 18 -5 0
19 -37 -5 38 -36 0
20 -5 26 24 38 0
-33 21 34 28 -5 0
21 -5 -32 28 34 0
21 40 -32 -5 28 0
23 22 -5 33 31 0
31 -37 32 -5 23 0
38 26 -5 -35 24 0
-26 25 -5 30 -31 0
40 -5 25 39 27 0
28 -31 -38 -5 0
28 -31 30 -5 0
38 -36 -5 33 -37 0
-4 -37 -36 -35 38 0
38 -40 -32 -36 -4 0
-4 -25 32 -33 0
-4 38 -32 -36 -23 0
-4 -21 -31 32 0
-21 -4 36 -31 0
-4 -21 35 32 0
21 -4 -20 25 -40 0
-4 -20 -27 25 21 0
-4 20 -31 -19 0
-4 -19 29 20 0
-4 40 -31 27 -19 0
-4 -21 -26 -31 -18 0
-18 -21 -31 23 -4 0
-18 20 -26 -31 -4 0
-18 20 29 -26 -4 0
-18 23 29 20 -4 0
-4 -17 25 26 -23 0
-4 38 25 -23 -17 0
21 -4 -20 25 -17 0
21 -4 25 -17 -27 0
-4 -16 -25 -33 0
-4 -16 -25 32 0
-16 -25 37 34 -4 0
-4 -16 -21 -38 0
-21 32 -28 -4 -16 0
-4 -16 34 -30 27 0
-4 27 -28 32 -16 0
-4 27 37 34 -16 0
-4 -16 -33 29 0
-4 -16 -33 32 0
-15 20 -38 -4 -22 0
-19 -4 -31 -14 40 0
-4 27 -14 -19 40 0
-18 -4 -31 20 -14 0
-4 -16 -14 -25 0
27 -14 -28 -4 -16 0
-4 -40 -32 38 -13 0
-4 -13 -32 -23 38 0
-4 -17 22 -13 21 0
-4 -40 -32 -13 15 0
-4 15 -32 -23 -13 0
-4 -40 22 -13 21 0
-4 -40 22 -13 -32 0
-4 -13 31 -35 28 0
38 -40 -13 28 -4 0
-4 -13 30 -35 -37 0
-4 -21 -31 -11 0
-4 -21 35 39 -11 0
-4 -14 -31 -11 0
-4 -25 -11 -14 0
-4 24 -11 13 -14 0
13 24 -25 -11 -4 0
24 13 -11 39 -4 0
-4 -10 31 -35 28 0
-18 -9 -22 -4 20 0
-16 -9 -28 -4 29 0
-4 -16 -9 37 29 0
-4 -9 -12 13 -26 0
13 24 -12 -9 -4 0
-9 24 -12 -26 -4 0
-9 24 -11 13 -4 0
-9 13 39 -11 -4 0
-4 37 39 -9 -11 0
13 -26 24 -9 -4 0
-4 -9 -28 20 -22 0
-4 23 -9 -22 20 0
-4 20 -9 39 -22 0
-9 20 37 -4 29 0
-4 -9 37 23 29 0
-4 -8 -21 36 0
-4 -19 -28 29 -8 0
-8 -4 20 -19 0
-8 -4 27 40 -19 0
-4 -8 -12 -19 40 0
-8 -4 -21 23 -11 0
-8 -4 20 -19 13 0
-4 -8 29 20 0
-6 -25 10 24 -4 0
-4 -31 -38 -5 0
-19 -33 -5 -4 0
-4 -19 -5 -31 0
-4 -16 -33 -5 0
-4 -16 39 -5 37 0
-4 -12 37 -26 -5 0
40 -12 37 -5 -4 0
-16 -9 -5 39 -4 0
-9 37 39 -5 -4 0
-4 -6 -31 -5 40 0
27 -4 37 -5 34 0
-4 37 39 27 -5 0
-4 37 39 -5 34 0
-4 -5 39 40 37 0
5 -4 25 -20 21 0
5 -4 -32 -23 -13 0
5 -4 30 -23 -13 0
5 -4 -23 -13 -17 0
5 15 -23 -4 -13 0
5 -13 15 21 -4 0
5 -4 30 21 -13 0
-7 -4 -29 -13 5 0
-7 -4 -13 18 5 0
5 -4 30 14 21 0
5 15 -23 -4 25 0
-4 15 25 21 5 0
-4 -37 -35 6 38 0
-4 -13 6 38 -35 0
38 -13 6 -4 18 0
-13 -4 -37 21 6 0
-13 -4 -29 6 21 0
-4 -13 6 18 -7 0
-7 -4 14 6 26 0
-34 -4 14 21 6 0
-37 -4 18 6 38 0
-37 -4 18 28 6 0
-4 6 -37 19 38 0
-4 19 26 6 38 0
-4 38 -35 6 26 0
38 -37 6 28 -4 0
-4 -37 -35 6 28 0
-4 7 -25 32 0
7 -25 37 34 -4 0
-4 -15 -38 7 -22 0
7 -15 34 37 -4 0
-15 7 -38 -12 -4 0
7 -4 37 34 23 0
-4 7 34 27 -30 0
-4 27 -28 32 7 0
-4 9 -36 -32 38 0
38 -40 9 -4 -32 0
15 9 25 21 -4 0
-4 9 25 21 19 0
-4 9 25 -27 21 0
-4 -40 9 33 38 0
-21 10 -38 -4 0
-21 36 10 -4 0
-4 -16 10 -33 0
-4 -16 -25 10 0
-16 17 10 -4 0
-4 -14 -38 10 0
-16 -4 -14 10 0
-4 -26 10 -12 -15 0
10 -26 13 -12 -4 0
13 24 -12 10 -4 0
24 10 -38 -12 -4 0
10 24 -12 -26 -4 0
40 24 -12 10 -4 0
10 -25 13 -4 36 0
10 24 -14 13 -4 0
13 -26 24 10 -4 0
10 36 34 13 -4 0
-4 10 -38 29 0
-4 -36 11 16 12 0
12 -20 11 16 -4 0
12 18 11 -4 16 0
12 22 11 -4 16 0
12 -4 22 -27 11 0
-4 -40 -36 16 11 0
12 -27 -36 -29 -4 0
12 -4 -32 -36 -23 0
12 -4 -20 25 -27 0
12 -4 25 -23 -17 0
12 -17 22 -27 -4 0
12 -39 14 -23 -4 0
-4 14 -36 -23 12 0
12 -4 25 -27 -29 0
13 -26 34 36 -4 0
-4 -25 13 34 36 0
-4 36 34 13 39 0
-4 -29 14 -32 -36 0
-4 14 -32 -36 -23 0
-4 -39 14 26 -23 0
15 14 -36 -4 -23 0
-4 15 30 21 14 0
-40 15 25 -4 21 0
-4 15 25 21 -27 0
15 31 25 -4 28 0
-4 17 -19 35 0
-4 -37 -36 38 19 0
-4 -23 -32 19 -36 0
-4 20 36 -26 -31 0
-26 -4 -28 20 36 0
-34 -4 22 -40 21 0
-4 -40 33 22 21 0
-4 21 -29 -27 25 0
-30 -25 32 -4 24 0
-4 31 25 -35 28 0
-4 37 39 27 32 0
-4 31 -37 28 -35 0
-4 31 33 -35 28 0
-37 33 -36 -4 38 0
-3 -29 -28 -36 0
-3 -26 -29 -36 0
38 -3 -22 -36 0
-22 -3 -36 -26 0
-22 -3 -35 24 0
24 -22 25 -3 0
-22 27 24 -3 0
38 -3 -22 25 0
-3 -20 -25 26 28 0
-3 -20 -30 31 -23 0
-3 -20 -30 26 31 0
-34 23 -26 -3 -19 0
-3 23 -26 -19 33 0
-40 -19 23 -3 24 0
-40 -3 23 -19 33 0
-3 24 -16 -19 23 0
-16 -3 -29 23 24 0
-16 -3 33 -37 38 0
16 -3 -27 -15 28 0
-18 -3 -21 -13 -27 0
19 -3 -21 -13 -27 0
-3 -13 -30 40 26 0
38 -40 -12 -35 -3 0
-3 -22 -12 -35 0
38 -3 -12 -22 0
-40 17 -35 -3 -12 0
-3 -12 -28 21 0
-3 -12 30 32 21 0
-3 27 -35 -12 0
-3 -27 -32 -11 28 0
-15 -3 -32 -11 -27 0
-3 -25 37 -11 -14 0
-3 12 39 26 -11 0
16 -3 -27 -11 28 0
19 -3 39 -21 -11 0
-3 -20 -25 19 -11 0
19 -3 39 -11 28 0
-3 28 39 26 -11 0
-10 -13 -3 -30 26 0
-10 -3 39 26 12 0
-3 -9 -35 27 0
-10 -8 -3 -24 26 0
-10 -8 -3 -30 26 0
-8 -3 39 26 40 0
-8 -3 -32 29 31 0
-7 -3 -23 36 -27 0
-7 -8 -3 22 29 0
-7 19 -3 36 12 0
-7 -3 39 12 19 0
-7 19 -3 28 -27 0
-7 -3 39 29 40 0
-6 -36 -28 -3 0
-6 -26 -36 -3 0
-16 -3 -26 -6 -19 0
-16 -3 33 -6 -19 0
-6 -36 11 -3 0
-3 33 11 -6 0
-6 33 -36 -3 0
-10 -3 39 -5 -17 0
-13 -10 -5 35 -3 0
-10 -3 39 -5 37 0
-7 -3 36 -5 -32 0
-3 -30 36 -25 -4 0
-3 -4 35 -5 34 0
-3 37 39 -4 -5 0
-3 27 -26 4 0
4 -22 -26 -3 0
-3 23 32 -19 4 0
-16 -3 -26 4 23 0
4 -12 -28 -3 0
4 -22 -12 -3 0
-16 -3 -12 4 23 0
-3 23 -12 4 0
4 27 -12 -3 0
-3 -9 32 -19 4 0
4 -3 -26 -6 0
-3 10 32 -19 4 0
-3 13 -28 4 0
-3 23 13 4 0
17 23 -26 4 -3 0
4 24 -3 23 0
24 4 -28 -3 0
5 -3 -26 -29 0
5 -3 -26 27 0
5 -3 -22 -26 0
5 -3 -22 25 0
5 -3 -12 -22 0
5 -3 -12 21 0
5 -3 -9 -29 0
5 -3 18 -9 -31 0
5 -3 -26 -6 0
5 -3 -12 -6 0
5 -3 8 -6 0
5 -3 11 -6 0
5 -3 -6 25 0
5 -3 8 -12 0
5 14 8 -3 0
5 -3 -19 15 8 0
5 -3 25 8 0
5 -3 11 -29 0
5 -3 -22 14 0
5 -3 -16 -19 14 0
5 14 -3 21 0
5 21 -26 -3 0
31 -27 6 -3 29 0
-16 38 20 -3 7 0
38 8 -35 -3 0
-3 8 -12 -35 0
8 -12 -28 -3 0
-3 23 13 8 0
9 -3 -38 28 -15 0
-13 9 -21 -24 -3 0
-15 9 -38 -3 -13 0
38 -36 11 -3 0
-3 -36 11 -29 0
-3 -36 11 13 0
33 -36 11 -3 0
-3 -24 36 34 12 0
12 -3 -25 26 -14 0
-3 13 -28 -36 0
-3 -22 13 -36 0
-3 -22 13 25 0
-3 14 -36 13 0
-3 -29 14 -36 0
21 -3 -29 14 0
24 -3 14 -29 0
-3 33 -36 14 0
19 -3 39 -21 36 0
31 -20 19 -3 -30 0
-3 -29 -28 21 0
21 -3 -26 -29 0
21 -3 -29 25 0
24 -3 -28 23 0
-3 38 -35 24 0
38 24 25 -3 0
38 -3 27 24 0
-3 -35 33 -36 0
-2 -29 -38 -26 35 0
-23 -39 28 25 -2 0
-22 -2 -26 27 0
-22 -2 -26 -30 28 0
-22 -2 25 -30 0
-18 -34 -2 21 36 0
-18 -2 -38 21 36 0
-18 31 27 -2 0
-18 36 -38 -2 31 0
-17 -25 37 -35 -2 0
-17 -25 37 34 -2 0
-21 -17 -31 -2 30 0
-17 23 -31 -2 34 0
-16 -25 37 34 -2 0
-16 -2 18 22 -35 0
-18 -15 27 -2 0
19 -15 27 -2 0
-15 -39 35 -2 19 0
-2 40 -36 -14 -19 0
-19 -2 -14 -36 26 0
-2 -14 30 -19 -36 0
-17 -2 -14 15 -25 0
-2 -14 33 24 15 0
40 -2 -14 24 15 0
-13 20 -2 27 28 0
-13 -2 -26 -37 21 0
-12 -22 -2 27 0
-18 -2 -12 21 0
-18 27 -12 -2 0
-40 -13 -2 27 -12 0
-21 23 -31 -2 -11 0
-25 -2 37 -11 -14 0
-2 24 -25 -14 -11 0
-2 -14 33 24 -11 0
-2 18 -32 13 -11 0
-2 22 18 -11 13 0
-2 24 -11 13 22 0
24 13 -25 -11 -2 0
24 13 -11 -2 39 0
-20 -2 18 -11 22 0
-2 22 37 -11 18 0
-2 37 -36 -11 22 0
38 -2 37 -11 22 0
24 -2 33 39 -11 0
-2 37 39 33 -11 0
-10 -37 -26 28 -2 0
-10 -15 -2 -18 0
-10 -15 -2 19 0
-16 -9 -28 29 -2 0
-16 -2 37 -9 29 0
-9 37 39 -2 -16 0
-2 24 -11 13 -9 0
-9 13 39 -11 -2 0
23 -9 29 -2 37 0
24 -9 -36 29 -2 0
-8 -2 -28 -19 29 0
-8 23 -2 -21 -11 0
-2 22 18 -11 -8 0
23 -8 -32 -2 -11 0
-8 -2 26 -11 39 0
38 -19 13 -8 -2 0
-8 -17 13 -2 -35 0
-8 -2 -28 -21 15 0
-8 -17 -2 15 23 0
-8 -2 26 15 23 0
-8 -2 18 22 -35 0
-8 -2 18 26 39 0
-8 40 26 39 -2 0
-7 -2 -29 31 0
-7 -22 -2 -30 0
-7 -22 -2 27 0
-7 -15 27 -2 0
-7 -40 -2 -13 16 0
-7 16 -2 31 -13 0
-12 -22 -2 -7 0
-7 -2 -12 8 0
-7 -2 8 14 0
-7 -2 8 27 0
-7 9 14 35 -2 0
-29 14 -38 -2 -7 0
14 -39 35 -7 -2 0
-7 35 -38 14 -2 0
-7 16 27 -2 0
-6 40 -35 -31 -2 0
-6 -20 -2 -25 -11 0
-8 -6 -2 -11 18 0
-8 -6 -2 26 -11 0
38 -6 -2 -11 -8 0
-8 -6 -2 26 23 0
-6 12 -35 -31 -2 0
-19 -2 -5 34 -32 0
40 -2 -32 -5 -19 0
-19 -2 -5 -31 34 0
-19 40 -5 -2 -31 0
-19 -2 -5 -32 30 0
-16 -9 -5 39 -2 0
-16 -2 -5 15 -9 0
-2 37 39 -5 -9 0
15 -2 -31 -5 40 0
-20 -2 18 -32 -5 0
-4 -23 -24 28 -2 0
-4 -13 -23 -2 28 0
-4 -40 -2 -13 21 0
-13 -4 -37 -2 21 0
-4 -13 -2 21 -29 0
-4 31 -2 -13 28 0
-4 28 11 -10 -2 0
-4 -10 28 -2 -37 0
-4 31 -2 -10 28 0
-7 9 -2 -4 14 0
-7 -4 14 -2 -39 0
5 -4 -13 -2 -23 0
5 -4 -13 -2 21 0
5 -4 -13 -2 -7 0
-4 -13 -2 6 21 0
-7 -4 14 6 -2 0
-4 14 -2 21 6 0
-4 6 -37 -2 28 0
-4 9 14 21 -2 0
-4 9 -2 21 -40 0
-40 -4 11 -2 16 0
-4 19 25 -23 -2 0
-4 31 25 -2 28 0
31 -2 -39 28 -4 0
-4 31 -37 28 -2 0
-3 -2 -29 -26 0
-3 -2 -26 27 0
-3 -22 -2 -26 0
-22 -3 -2 25 0
21 -3 -2 -12 0
-3 27 -12 -2 0
5 -3 -26 -2 0
5 -3 11 -2 0
5 -3 -2 21 0
-3 -2 11 -29 0
-3 -2 -29 14 0
21 -3 -2 14 0
-3 14 27 -2 0
-3 -2 -29 21 0
21 -3 -26 -2 0
38 3 30 -2 -19 0
-16 15 -2 3 -9 0
38 -9 3 -2 23 0
-6 3 -35 -31 -2 0
-6 -2 18 -35 3 0
3 -6 -2 -31 23 0
4 -2 30 3 18 0
-2 23 -36 3 7 0
-2 10 3 24 13 0
38 -19 13 3 -2 0
15 -31 3 -2 23 0
4 -2 -32 30 -27 0
4 -2 18 -35 22 0
-2 18 -32 30 4 0
5 -2 -29 -26 0
5 -2 -26 27 0
5 -2 25 28 -23 0
5 -22 -2 -26 0
-12 -13 -2 -33 5 0
5 -2 -12 21 0
5 27 -12 -2 0
5 -2 -12 -10 0
-7 5 27 -2 0
5 -29 11 -2 0
5 14 -2 21 0
5 14 27 -2 0
5 -2 -26 21 0
5 -2 25 21 0
-22 -2 6 -30 28 0
-13 -2 -29 6 21 0
-7 -29 14 6 -2 0
-2 14 6 21 -34 0
17 19 6 16 -2 0
17 -2 6 -22 28 0
-34 21 36 -2 6 0
-37 32 6 28 -2 0
7 -25 37 34 -2 0
-20 -2 7 26 -25 0
-17 23 -2 7 -36 0
23 7 -2 34 -17 0
-20 -25 7 -2 18 0
7 -2 26 -36 23 0
-2 8 -12 27 0
-2 8 -12 -10 0
-10 31 8 -2 0
14 -2 8 27 0
16 -2 8 31 0
31 -2 8 27 0
21 9 -2 35 14 0
-34 -2 -26 9 21 0
40 -2 -32 -35 10 0
-27 -2 -32 -35 10 0
10 -2 -32 -35 13 0
10 -2 -32 13 34 0
13 -2 -32 -14 10 0
-2 10 -32 30 13 0
23 -2 -32 -35 10 0
19 -15 -2 11 0
19 16 -2 11 0
12 -25 26 -14 -2 0
12 -2 26 23 15 0
38 13 30 -2 -19 0
38 -2 34 -19 13 0
-17 24 13 -2 39 0
-2 13 -32 -14 -19 0
-2 -14 30 -19 13 0
-19 -2 -32 18 13 0
-2 22 18 -35 13 0
14 -22 -2 27 0
-18 -29 14 -2 0
-18 14 -2 21 0
-18 14 27 -2 0
-2 22 37 18 -35 0
-22 -2 25 19 0
19 -22 -2 27 0
19 -2 25 21 0
-34 21 36 -2 35 0
21 -2 -29 -26 0
21 -2 -26 -24 -34 0
-2 32 -38 36 21 0
21 36 -38 35 -2 0
-39 32 36 -2 28 0
-33 35 -28 -32 -1 0
-22 -26 -1 27 0
-22 27 24 -1 0
-21 -1 27 -25 -32 0
-21 -33 -32 -1 24 0
-20 -22 -1 -26 0
-1 -20 -28 23 0
-20 -26 -1 23 0
-18 -1 40 -36 28 0
-17 -1 35 -39 36 0
-1 -23 32 -30 -16 0
19 16 -14 18 -1 0
-1 -37 -14 18 -26 0
-21 -33 -14 -1 18 0
-21 29 -14 18 -1 0
40 -1 -36 -13 37 0
-15 17 -27 -13 -1 0
-13 17 -30 14 -1 0
-1 25 -31 33 -13 0
40 -1 33 25 -13 0
-30 -1 26 40 -13 0
-12 -22 -1 27 0
19 -37 -12 -14 -1 0
-12 29 -14 19 -1 0
-40 29 -14 -12 -1 0
15 29 -1 -22 -12 0
15 29 -12 -1 30 0
-33 -22 -1 19 -12 0
-1 -12 -28 23 0
29 -12 30 -37 -1 0
29 -12 30 36 -1 0
-29 -1 -31 33 -11 0
-15 -27 -1 28 -11 0
12 -1 39 26 -11 0
-1 37 -36 -11 22 0
38 22 37 -11 -1 0
-1 28 39 26 -11 0
-1 -29 -31 28 -11 0
-1 37 39 33 -11 0
-10 -23 33 -30 -1 0
-10 -13 -31 -1 32 0
-10 -13 33 -1 -31 0
-10 -30 -1 32 -13 0
-10 -13 33 -30 -1 0
-10 -13 14 -1 32 0
-10 -13 -30 26 -1 0
-10 -13 -36 32 -1 0
-10 -13 37 -1 32 0
12 -10 -11 26 -1 0
12 -10 39 26 -1 0
-9 -20 30 -38 -1 0
-9 -20 30 -1 36 0
-17 -9 -1 -20 0
-17 -9 -39 -1 36 0
-20 -9 -14 -1 36 0
-1 -9 11 -20 0
-1 -21 11 16 -9 0
-21 18 11 -1 -9 0
-21 -9 -25 16 -1 0
-21 -9 18 -1 16 0
-21 18 -39 -1 -9 0
-33 -21 -9 -1 18 0
27 -1 -39 -9 36 0
-9 -39 30 36 -1 0
-9 -39 -38 -1 36 0
-8 38 22 -11 -1 0
-10 -24 -1 -8 26 0
-10 -24 -1 38 -8 0
-8 -24 -1 -10 -19 0
-8 38 -1 -10 -11 0
-8 -10 -1 20 -24 0
-8 38 22 -1 -10 0
25 -1 39 -8 -10 0
-10 -8 -30 26 -1 0
9 40 22 -1 -8 0
-7 17 -23 -16 -1 0
-16 17 -1 22 -7 0
-10 21 -23 -7 -1 0
-10 -7 39 25 -1 0
-7 -1 21 17 12 0
-7 17 22 -1 38 0
-6 -38 -28 30 -1 0
-6 -26 -32 -1 0
-1 31 -26 -6 0
-6 -21 -1 29 -39 0
-21 31 -39 -6 -1 0
-17 -6 -32 -1 0
31 -6 -39 -17 -1 0
-17 -1 35 -6 -39 0
-6 -21 -14 29 -1 0
-6 -21 -14 31 -1 0
-6 -40 -14 -1 -12 0
-6 29 -12 15 -1 0
7 -26 -32 -6 -1 0
7 -6 -14 -26 -1 0
-1 8 13 -6 0
-1 31 8 -6 0
-6 -21 11 -14 -1 0
-1 13 -28 -6 0
-1 -39 35 13 -6 0
-1 35 -38 -39 -6 0
29 -25 -5 -37 -1 0
-21 -25 -5 -1 29 0
-21 29 -5 -14 -1 0
19 16 -5 -14 -1 0
29 -37 -5 -14 -1 0
-21 13 -5 29 -1 0
16 -25 -5 29 -1 0
16 -21 -5 29 -1 0
16 29 -5 19 -1 0
16 -40 -5 -1 29 0
31 23 -37 -5 -1 0
-4 -1 32 -30 -16 0
-1 -3 -22 -26 0
-3 -22 24 -1 0
-1 -3 -22 27 0
-1 -3 -22 -12 0
-1 -3 -12 23 0
-1 -3 27 -12 0
-1 -9 11 -3 0
-3 -9 18 -37 -1 0
-1 -3 -9 27 0
-1 -3 -26 -6 0
-1 -3 -12 -6 0
-1 -3 13 -6 0
-1 4 -28 -3 0
-1 4 -26 -3 0
-1 4 -22 -3 0
-1 4 -22 -3 -26 0
-1 -3 -12 4 0
-1 -3 -9 4 0
-1 4 -3 -6 0
4 -1 -3 13 0
8 -1 -12 -3 0
-1 -3 11 13 0
24 -3 11 -1 0
-1 -3 -28 13 0
-1 -3 -22 13 0
-3 23 13 -1 0
-3 -26 18 -37 -1 0
-1 -3 -26 23 0
-3 24 -1 23 0
24 -1 -28 -3 0
38 -2 -1 -11 -27 0
-1 12 -31 -2 -11 0
12 -2 26 -1 -11 0
-2 -1 -36 -11 22 0
-1 22 -31 -2 -11 0
38 -2 22 -11 -1 0
-8 38 -19 -1 -2 0
38 -2 -1 -11 -8 0
-8 22 -35 -1 -2 0
-8 38 22 -1 -2 0
3 -1 -31 -35 -2 0
-1 -2 -31 33 3 0
-2 -19 -36 3 -1 0
-19 -31 3 -2 -1 0
38 -19 3 -2 -1 0
12 -1 -31 -2 -35 0
12 -16 -1 -2 26 0
-1 40 -31 -2 22 0
40 -2 37 -1 22 0
38 -1 40 22 -2 0
2 -21 -25 -1 -32 0
2 -21 -25 -1 29 0
2 -32 -28 -1 -17 0
2 -1 -28 -20 -17 0
-21 29 -14 -1 2 0
2 -20 30 -9 -1 0
2 -17 18 -1 -9 0
2 -20 -14 -1 -9 0
-21 -9 18 -1 2 0
2 -21 -1 -6 29 0
2 -6 -28 -1 -17 0
2 -6 -14 -1 -21 0
2 -6 -14 -1 7 0
7 2 -6 13 -1 0
-6 -21 -1 2 13 0
2 -21 -1 -5 29 0
2 29 -5 -14 -1 0
7 29 -1 2 -5 0
2 29 -25 -1 4 0
4 -21 29 -1 2 0
2 4 -25 -9 -1 0
2 4 -14 -1 -9 0
2 -21 -1 4 -5 0
2 4 13 -1 -5 0
4 -1 2 -9 7 0
2 4 13 -1 29 0
29 2 13 -1 7 0
7 -1 -32 2 24 0
2 18 10 -1 -17 0
-21 -1 13 29 2 0
2 13 -28 -20 -1 0
2 -21 18 -1 29 0
38 -1 -29 32 3 0
5 38 -1 17 3 0
5 -1 32 20 3 0
5 -1 -36 32 3 0
5 38 -1 32 3 0
38 -1 14 32 3 0
20 -31 3 -35 -1 0
20 -1 32 -31 3 0
-1 4 -26 27 0
-1 4 -22 -26 0
4 -21 -25 29 -1 0
4 -21 29 -14 -1 0
-1 4 -28 -12 0
4 -1 -22 -12 0
-1 4 29 -12 -14 0
-1 4 -12 23 0
4 27 -12 -1 0
-1 4 -21 -25 -9 0
4 -1 -26 -6 0
-1 -6 -21 4 29 0
23 4 -5 -14 -1 0
4 -1 -5 -14 29 0
-1 4 13 23 0
4 24 -1 23 0
24 4 -28 -1 0
5 38 -27 -11 -1 0
5 38 -11 -1 -8 0
-18 -1 -36 6 5 0
5 -1 9 12 32 0
5 -18 -1 12 32 0
5 12 38 -18 -1 0
5 12 -1 20 32 0
-16 -1 6 -23 22 0
7 29 -14 19 -1 0
7 -32 11 24 -1 0
7 -33 -32 -1 24 0
-17 8 -32 -1 0
-1 8 -28 -17 0
-1 29 18 -17 8 0
-34 29 -1 8 -17 0
-1 31 8 -17 0
-1 8 -28 -12 0
-12 29 8 15 -1 0
8 36 -12 29 -1 0
-1 8 13 23 0
-1 31 8 16 0
-1 -37 18 29 8 0
31 23 8 -1 0
-1 -37 8 27 29 0
-34 8 -1 27 29 0
-1 31 8 27 0
-1 -29 -31 28 9 0
-1 18 35 10 -17 0
-21 -32 11 -25 -1 0
-21 -32 11 -1 24 0
-1 23 11 -20 0
-21 -14 11 18 -1 0
-1 13 11 -20 0
19 -1 11 13 0
16 -20 11 -1 0
16 19 11 -1 0
-1 19 11 -32 0
24 -32 11 -1 0
-16 -1 39 12 26 0
12 20 -31 -35 -1 0
-1 13 -28 -20 0
-1 -22 13 -20 0
23 -1 13 -20 0
-1 19 -28 13 0
-1 -22 13 19 0
-15 -27 14 -35 -1 0
16 -33 18 -1 15 0
16 15 29 18 -1 0
31 -1 30 15 -38 0
-1 16 -28 -20 0
-1 19 -28 16 0
19 16 27 -1 0
-21 -33 18 -1 24 0
-1 19 -28 -32 0
19 -22 -1 27 0
19 -1 27 -32 0
40 -1 -36 21 28 0
-1 21 34 28 37 0
21 -1 40 37 28 0
-1 37 -36 28 22 0
40 -1 -36 28 22 0
-1 31 -26 23 0
31 24 23 -1 0
24 -1 -28 -32 0
27 -1 -32 24 0
31 36 -39 -1 24 0
40 -1 -36 26 28 0
-1 40 26 39 33 0
-1 35 -38 -39 36 0
-40 -37 -39 1 0
-40 -37 1 -38 0
-34 -39 1 -37 0
-34 -37 -38 1 0
-40 -39 1 -33 0
-40 -37 1 -33 0
-37 -39 1 -33 0
-27 -31 39 -36 1 0
-27 -31 -36 -30 1 0
-27 1 -36 -29 39 0
1 -27 -36 -29 -30 0
-26 -39 -28 -40 1 0
-40 -25 -39 1 0
-33 -40 -25 1 0
-33 -25 -39 1 0
-40 36 1 -25 0
-23 -31 -36 1 38 0
-23 1 37 25 26 0
38 -23 1 28 25 0
-23 34 -36 1 -35 0
-22 1 30 -32 23 0
-40 -21 -38 1 0
-40 -26 -28 1 -21 0
-26 1 -28 -21 36 0
-40 -21 30 1 0
-21 35 1 30 0
-40 -21 35 1 0
-21 35 1 -37 0
-40 -21 36 1 0
1 -27 39 -29 -19 0
-19 -27 39 22 1 0
-19 32 -35 28 1 0
-19 33 -35 1 28 0
-18 -19 39 1 -35 0
-18 22 -29 1 -19 0
-18 1 33 -24 21 0
-18 -24 39 1 21 0
-18 1 33 22 21 0
-18 22 39 1 -29 0
-40 -17 -25 1 -22 0
19 -25 1 -17 -40 0
19 -21 -26 -17 1 0
-16 21 -27 25 1 0
-18 -15 -29 1 22 0
-18 -15 33 22 1 0
-15 -16 33 38 1 0
-34 -14 -38 1 0
1 -25 -39 -14 0
15 -39 1 -14 0
-34 15 -14 1 0
15 -25 1 -14 0
15 35 1 -14 0
-34 -14 30 1 0
-14 35 1 30 0
38 -13 39 1 -35 0
-13 -23 -35 1 28 0
-13 -23 34 -35 1 0
-13 1 39 -35 -19 0
-13 1 -29 22 -19 0
-13 1 -35 28 -19 0
-13 1 -29 22 20 0
-13 1 -29 22 21 0
-13 22 39 1 21 0
-20 1 -32 -39 -12 0
-20 18 -12 31 1 0
-19 32 -35 -11 1 0
-18 -19 -35 1 -11 0
-13 1 -35 -11 -19 0
-16 20 -11 1 14 0
31 -9 -28 1 29 0
-9 31 -32 -22 1 0
-9 24 -12 1 -34 0
-9 24 -12 35 1 0
15 -9 -28 1 -34 0
-9 29 -32 1 31 0
31 -9 1 35 29 0
-8 -27 -36 -31 1 0
1 -8 -27 37 -31 0
-27 1 -36 34 -8 0
-23 -8 -36 34 1 0
-18 -8 -16 1 21 0
-8 -16 -31 21 1 0
21 -16 -29 1 -8 0
-8 -16 33 21 1 0
-13 -23 34 1 -8 0
-8 -13 -29 21 1 0
12 1 -29 37 -8 0
12 1 -29 -8 -27 0
-8 -27 -31 21 1 0
-8 1 -29 -27 21 0
-8 1 -27 32 21 0
-7 -29 34 -13 1 0
-7 37 1 14 26 0
-7 34 26 32 1 0
-7 33 -36 34 1 0
-6 -20 -37 10 1 0
-6 1 -20 -33 10 0
-20 -25 1 -6 10 0
-6 -20 24 1 10 0
19 -6 -20 1 10 0
-6 23 10 1 19 0
-6 -20 24 1 19 0
-26 -33 30 1 -5 0
15 1 11 -17 -5 0
15 36 1 11 -5 0
15 -5 1 35 0
18 -5 -38 1 0
18 -5 30 1 0
18 36 1 -5 0
-33 -5 30 1 0
-4 -23 -24 1 28 0
38 -13 28 -4 1 0
-13 -4 -29 1 -7 0
5 -4 -24 28 1 0
5 -4 -29 1 -13 0
5 -4 -23 1 -13 0
5 -4 -13 28 1 0
5 -7 -4 1 -13 0
5 14 -29 1 -4 0
-4 -13 6 1 21 0
-7 14 6 -4 1 0
-4 1 14 21 6 0
-4 38 26 6 1 0
9 -27 1 -10 -4 0
12 -27 -36 1 -4 0
12 -4 25 28 1 0
12 -4 1 33 28 0
-4 14 -36 -23 1 0
21 -29 1 25 -4 0
-4 1 -27 22 -29 0
-3 31 -20 1 -25 0
-3 31 -20 1 -33 0
-3 31 -20 1 -32 0
-3 -20 35 31 1 0
19 -3 -21 1 -17 0
-3 19 -25 31 1 0
19 -3 -21 -38 1 0
19 -3 -21 1 36 0
31 -20 19 -3 1 0
-3 1 -32 29 31 0
-2 -30 28 1 -24 0
-2 32 1 -24 28 0
1 -23 -24 -2 28 0
-18 21 -29 1 -2 0
-13 -23 -2 1 28 0
-13 20 -2 1 -23 0
-2 -29 1 21 -13 0
-10 -2 1 28 17 0
-7 -2 -29 1 -13 0
-4 -2 25 -23 1 0
-4 -13 -2 28 1 0
-10 -2 1 -4 28 0
-4 -23 14 -2 1 0
5 -2 28 1 -24 0
5 -23 1 -24 -2 0
-13 -2 -29 1 5 0
5 -13 -23 1 -2 0
5 -2 28 1 25 0
-2 -29 1 6 -15 0
6 -13 -2 1 21 0
17 -2 1 28 6 0
-2 32 6 28 1 0
9 -2 14 1 21 0
20 17 28 -2 1 0
17 -2 32 1 28 0
20 -23 1 28 -2 0
20 -30 28 1 -2 0
-2 -30 28 25 1 0
-2 32 1 28 25 0
-40 -39 1 2 0
-40 2 -38 1 0
-37 -39 1 2 0
2 -37 -38 1 0
-34 2 -38 1 0
-33 -40 1 2 0
-33 -39 1 2 0
2 -37 1 -33 0
1 -26 -39 -12 2 0
16 2 -12 -39 1 0
16 -3 35 1 2 0
8 -39 1 -26 2 0
1 -33 11 2 -26 0
1 -38 11 -12 2 0
31 -12 11 1 2 0
16 2 36 -26 1 0
16 2 35 -22 1 0
19 2 36 -26 1 0
-40 2 35 1 0
-40 2 36 1 0
2 -37 1 36 0
1 -27 3 -30 37 0
1 -27 39 -24 3 0
1 -30 3 28 -24 0
-23 37 26 1 3 0
-23 1 34 3 40 0
-18 -23 37 1 3 0
-13 3 -23 1 28 0
-13 3 -23 1 34 0
-13 1 22 3 39 0
3 -8 37 1 -27 0
3 -8 37 1 -23 0
-4 1 -27 -24 3 0
3 -4 22 1 -13 0
3 -4 6 1 -13 0
-4 3 6 1 28 0
3 -4 9 -27 1 0
3 -4 1 -27 12 0
3 -4 1 -27 22 0
-13 3 1 6 28 0
1 -13 39 3 6 0
3 -8 -13 1 6 0
-8 3 1 6 28 0
-13 -7 1 6 3 0
12 6 3 28 1 0
-30 6 3 28 1 0
-18 -10 1 3 9 0
12 40 -27 1 3 0
1 -27 3 22 12 0
1 -27 3 22 -24 0
4 -39 11 1 15 0
4 -20 18 31 1 0
5 -23 37 1 -31 0
5 -23 1 -24 -31 0
5 -23 1 -24 40 0
5 34 25 1 -23 0
5 -23 37 1 25 0
5 -16 1 28 25 0
5 -13 -29 1 39 0
5 -13 -23 1 28 0
5 -13 -19 28 1 0
5 -13 39 1 -19 0
-7 34 1 -13 5 0
5 14 37 -23 1 0
5 14 -16 1 -19 0
-16 40 14 1 5 0
5 -24 39 1 21 0
-15 -29 1 6 40 0
-15 32 1 26 6 0
-15 40 6 32 1 0
-13 1 39 -35 6 0
-13 6 -29 1 21 0
-13 6 -35 1 28 0
38 -13 6 1 28 0
-13 6 -35 1 -11 0
-8 1 -31 21 6 0
-8 1 -29 6 21 0
-8 21 32 1 6 0
1 -30 -29 6 -7 0
-7 -15 -29 6 1 0
21 -29 1 39 6 0
7 -39 1 -40 0
1 -39 -28 -40 7 0
7 -25 1 -40 0
7 -39 1 -25 0
-40 -22 -28 7 1 0
7 -40 -21 1 -28 0
7 -21 35 1 0
-20 27 35 7 1 0
-20 7 -12 1 -39 0
-20 1 35 7 -12 0
7 31 -12 1 35 0
7 -22 8 1 35 0
-20 8 35 1 7 0
7 -39 1 10 8 0
7 -22 8 1 10 0
-20 7 8 1 10 0
7 -39 1 10 0
7 10 1 -38 0
7 -25 1 10 0
7 -21 10 1 0
7 -39 1 -12 10 0
-20 7 -12 1 10 0
7 18 1 -25 0
31 -20 18 1 7 0
-40 35 1 7 0
8 -39 1 -26 10 0
8 10 -38 -22 1 0
10 -22 1 8 -25 0
-20 -25 8 10 1 0
-20 8 24 1 10 0
24 -14 1 10 8 0
10 -26 11 1 8 0
19 -20 8 10 1 0
8 24 -38 10 1 0
24 -25 1 8 10 0
-20 24 19 1 8 0
9 -27 39 1 -36 0
9 -27 -36 1 -30 0
9 21 33 1 -18 0
9 21 39 1 -18 0
9 21 -27 1 -16 0
21 -16 25 9 1 0
9 21 33 1 -16 0
21 -16 1 -11 9 0
9 21 -11 1 14 0
9 21 25 1 -11 0
9 21 33 1 14 0
33 14 -36 1 9 0
9 21 -27 25 1 0
9 -30 37 1 25 0
-37 -39 1 10 0
-37 10 -38 1 0
10 -33 1 -39 0
10 -37 1 -33 0
10 -25 1 -33 0
10 36 1 -25 0
10 1 -32 -22 -38 0
-22 10 30 1 23 0
1 10 -32 30 -22 0
10 31 -32 -22 1 0
-21 -37 10 1 0
-21 10 30 1 0
-20 1 -32 -39 10 0
-20 -37 -32 10 1 0
-20 24 10 1 -25 0
31 -20 -32 10 1 0
10 -14 1 -39 0
10 -25 1 -14 0
-14 10 30 1 0
10 1 -32 -12 13 0
-12 -26 11 10 1 0
10 -12 11 31 1 0
-37 10 -32 13 1 0
13 -14 -32 1 10 0
24 -14 1 13 10 0
24 10 13 1 -37 0
19 -20 24 1 10 0
31 -20 19 10 1 0
10 1 -32 29 31 0
-28 1 11 -26 -39 0
-28 15 11 1 -39 0
12 40 -27 1 -29 0
12 1 -23 28 25 0
12 1 37 25 -23 0
12 14 -36 1 -23 0
12 1 37 14 -23 0
33 14 -36 1 12 0
12 1 -29 22 -27 0
12 1 37 25 -30 0
-40 -17 30 13 1 0
-17 -25 1 -14 13 0
-17 -14 30 13 1 0
24 -37 1 13 15 0
16 -26 36 1 13 0
-23 1 37 -31 14 0
-37 -39 1 15 0
-34 15 -39 1 0
-34 15 -28 1 -37 0
1 -25 -39 15 0
15 36 1 -25 0
15 -21 -37 1 0
-34 15 -21 1 0
1 -21 -28 -34 15 0
-21 35 1 15 0
15 -20 35 1 -37 0
15 -17 -21 1 19 0
15 19 1 23 -17 0
19 -20 24 1 15 0
15 -37 1 35 0
15 -37 1 36 0
17 -29 1 -36 39 0
-18 17 39 -29 1 0
-40 18 1 -38 0
-40 18 1 -25 0
1 -25 36 18 0
31 -20 18 1 -25 0
18 36 1 -40 0
38 -30 -36 1 20 0
20 -23 34 1 -36 0
21 -27 1 -29 39 0
21 -27 1 -29 22 0
21 -29 1 25 -27 0
38 1 33 28 -35 0
-33 1 30 -40 0
-40 35 1 -37 0
-40 -37 36 1 0
-40 -37 -38 2 0
38 2 39 -36 -35 0
-34 2 -37 -38 0
-40 -33 2 -39 0
-33 2 -37 -40 0
2 -33 -37 -39 0
2 37 -28 -32 -31 0
2 39 -28 -32 -31 0
2 -36 -28 39 -27 0
2 -31 39 -25 -32 0
-40 -33 -24 2 0
-40 2 36 -24 0
-40 2 -38 -23 0
-34 2 -38 -23 0
2 -34 -23 -37 0
-34 2 -23 32 0
2 -23 32 35 0
-40 2 35 -23 0
2 -23 35 -37 0
-40 2 -23 36 0
2 -22 -37 35 -40 0
38 2 -21 24 -35 0
2 38 -21 24 -32 0
38 24 26 -21 2 0
-19 -21 -35 24 2 0
2 22 39 -25 -19 0
2 22 -28 -17 -32 0
2 22 -28 -17 -27 0
22 26 -28 2 -17 0
38 -16 -31 -32 2 0
38 -16 2 -17 33 0
2 -16 -32 24 38 0
-40 31 2 -23 -15 0
-40 2 -38 -22 -15 0
-15 2 17 31 -23 0
-40 -15 2 -26 20 0
-15 20 -38 2 -22 0
-27 -14 39 -20 2 0
-34 2 -38 -13 0
2 -24 -39 -13 0
-15 2 17 25 -13 0
-13 17 -30 14 2 0
2 17 -39 -13 0
-34 -13 17 2 0
-13 2 -24 17 0
2 -13 35 17 0
-34 -13 2 32 0
-13 2 35 32 0
2 -23 -12 -30 31 0
2 -15 -26 -23 -12 0
16 -15 2 -26 -12 0
16 2 -12 28 -15 0
-15 2 28 -38 -12 0
-15 2 14 -12 25 0
16 2 -12 -39 -29 0
2 -19 -35 15 -11 0
-10 -40 -24 2 14 0
-40 32 14 -10 2 0
-19 -21 -35 2 -9 0
-21 -9 34 -14 2 0
2 -9 -35 -14 34 0
-17 -19 -9 10 2 0
2 -9 26 30 -35 0
-9 2 -35 34 26 0
2 34 30 -35 -9 0
-8 -27 37 -31 2 0
-8 -25 -36 2 -31 0
-8 2 -20 -14 -27 0
-8 2 -20 -31 -9 0
-9 -20 30 -8 2 0
-8 2 34 -9 -14 0
12 -8 10 33 2 0
12 -8 37 2 -27 0
12 -8 37 2 24 0
-7 -23 -26 36 2 0
-7 2 -37 -23 11 0
-7 -26 11 -23 2 0
-7 36 11 -23 2 0
-7 2 -23 21 11 0
-7 -26 36 19 2 0
2 -17 22 -6 -32 0
-17 -6 -28 22 2 0
-6 2 -14 34 -21 0
2 -27 -14 -6 7 0
2 22 -14 7 -6 0
2 -6 -14 7 29 0
2 -27 13 -6 7 0
7 -16 -6 2 13 0
7 -6 29 2 13 0
-6 -21 37 2 13 0
38 -21 -5 24 2 0
-27 -5 -36 2 -8 0
12 -5 -36 -8 2 0
-8 -27 -5 12 2 0
7 2 -5 -35 -14 0
7 2 -5 -14 -27 0
7 22 -5 -14 2 0
7 -27 -5 -8 2 0
7 2 -5 -14 -8 0
12 7 -5 -8 2 0
12 7 -5 -27 2 0
12 13 -5 7 2 0
7 2 13 -5 -27 0
7 22 -5 2 -27 0
7 38 -5 24 2 0
10 -5 -28 -11 2 0
12 -5 -36 -27 2 0
2 -5 -36 13 -27 0
2 23 13 -5 -27 0
2 -27 13 -5 26 0
-4 -15 -38 -22 2 0
-4 20 -38 2 0
-4 20 32 2 0
2 20 36 -4 0
-4 -33 32 2 0
-15 2 -3 16 28 0
-15 2 -3 -33 28 0
-15 2 -3 -13 -38 0
-7 -3 -23 36 2 0
-7 19 -3 28 2 0
-15 -3 -38 2 -4 0
-3 6 -24 2 31 0
9 2 -3 28 -15 0
9 2 -3 16 28 0
2 -25 -32 39 3 0
-17 40 3 -27 2 0
-17 -20 -27 3 2 0
-17 22 3 -27 2 0
2 29 3 -17 -11 0
12 -8 37 3 2 0
3 -8 -5 -27 2 0
22 -5 3 2 -27 0
12 40 3 -27 2 0
12 -20 3 37 2 0
2 22 39 -27 3 0
4 -19 39 -25 2 0
-16 4 23 2 -19 0
4 24 -16 2 23 0
2 4 -25 -9 40 0
4 -21 34 -9 2 0
2 4 34 40 -9 0
4 -8 -31 2 -9 0
2 4 -25 -9 -8 0
2 -8 4 -14 -9 0
4 -8 10 2 -9 0
-8 4 34 24 2 0
4 7 -14 2 -6 0
2 -6 13 4 7 0
-16 4 13 2 -6 0
-21 -25 -5 2 4 0
24 4 -21 2 -5 0
4 -25 -5 -8 2 0
4 -8 -5 -14 2 0
-8 10 -5 4 2 0
2 7 4 -8 -5 0
7 4 29 2 -5 0
4 -21 13 2 -5 0
2 4 13 23 -5 0
24 -5 -28 2 4 0
2 7 4 -8 24 0
7 4 29 2 -31 0
-16 4 23 2 13 0
-18 16 2 20 5 0
5 19 32 2 -30 0
-40 2 -39 6 0
-40 2 -24 6 0
2 -23 -38 6 0
2 35 6 -23 0
2 -23 6 -12 31 0
8 -39 6 -26 2 0
-18 2 -39 6 8 0
2 -39 11 6 8 0
9 -39 6 2 0
2 9 6 -24 0
2 -39 11 6 -12 0
6 -26 11 -12 2 0
2 -23 11 6 -12 0
-12 25 11 2 6 0
2 6 11 31 -12 0
2 6 11 25 20 0
20 2 -38 6 0
2 20 6 -24 0
-40 2 35 6 0
38 2 39 -35 7 0
38 2 39 7 -32 0
7 -14 39 22 2 0
2 7 -14 -35 -9 0
2 -9 22 7 12 0
12 -8 2 -9 7 0
12 -8 2 7 24 0
12 2 40 7 13 0
2 22 -32 12 7 0
12 7 -32 2 24 0
7 15 39 2 -35 0
-15 -23 8 17 2 0
-40 8 -38 19 2 0
-40 19 32 2 8 0
2 9 -37 -38 0
-33 9 2 -39 0
-33 9 -37 2 0
-33 9 -24 2 0
2 9 36 -24 0
9 2 -38 -23 0
9 2 -23 32 0
9 2 36 -23 0
-13 9 -38 2 0
-13 9 -24 2 0
9 -13 2 32 0
9 2 -38 28 0
-33 9 2 28 0
2 -17 -28 22 10 0
2 -23 11 -30 -37 0
2 -23 11 -30 36 0
2 -13 11 -30 14 0
2 -13 11 25 14 0
-23 -12 -38 11 2 0
2 -23 -12 -30 11 0
31 -23 11 -12 2 0
2 -24 11 25 14 0
2 -37 11 25 14 0
2 25 11 -26 20 0
12 -19 37 -27 2 0
12 2 18 -17 -27 0
12 2 18 40 -17 0
12 13 -27 40 2 0
2 37 -28 13 -31 0
2 13 37 26 -27 0
-15 2 14 16 25 0
-15 2 14 -26 25 0
16 -26 14 25 2 0
17 31 2 -30 14 0
17 2 36 -30 14 0
15 2 -36 39 -35 0
2 15 -32 -36 39 0
-27 15 -36 39 2 0
-19 15 39 -35 2 0
2 -37 -39 17 0
-34 2 -37 17 0
2 -24 36 17 0
2 17 -23 -37 0
-34 17 -23 2 0
17 2 -23 35 0
2 17 -23 36 0
21 17 -23 -30 2 0
2 17 35 -37 0
-40 20 -38 2 0
-34 20 -38 2 0
2 -24 36 20 0
-40 20 32 2 0
38 2 26 -35 24 0
2 34 26 30 -35 0
33 34 30 -35 2 0
-40 -33 32 2 0
-40 2 35 32 0
-40 -37 -39 3 0
-34 -37 -39 3 0
-33 40 3 36 35 0
40 36 -38 3 -33 0
-33 37 -32 3 35 0
-33 35 -32 3 -30 0
-33 -30 37 3 -32 0
40 -24 3 35 -27 0
40 -24 3 -25 35 0
-33 -21 37 3 -32 0
-19 -39 3 -31 0
-19 -31 3 -37 0
-22 -37 -28 -19 3 0
-19 -31 3 20 0
3 20 -28 -19 25 0
20 -19 30 3 25 0
-18 3 -38 22 31 0
-18 22 3 36 31 0
-17 22 3 36 31 0
-16 17 18 3 0
-40 -16 18 3 0
-40 -16 32 3 0
-15 36 3 35 40 0
-27 -14 39 -20 3 0
-33 40 3 36 -11 0
-33 -23 3 40 -11 0
-18 3 -38 31 -11 0
-18 31 3 36 -11 0
-17 40 -11 3 31 0
40 3 -38 31 -11 0
40 3 34 31 -11 0
31 40 3 36 -11 0
-10 40 3 -33 36 0
-10 -20 29 3 36 0
-20 36 -38 3 -10 0
-18 -10 36 3 -20 0
-10 -15 3 -20 36 0
-10 -14 3 36 -20 0
40 36 -38 3 -10 0
13 24 -12 -9 3 0
24 -12 -36 3 -9 0
-9 24 3 -12 -34 0
-9 24 -12 -26 3 0
21 -9 24 13 3 0
38 -9 3 21 17 0
-9 -40 20 3 -22 0
-9 -26 3 20 25 0
-27 37 -38 3 -8 0
-8 37 -38 3 -20 0
-8 -20 -27 -14 3 0
12 -27 -38 -8 3 0
12 -8 37 3 -27 0
12 37 -38 3 -8 0
-8 37 -38 3 35 0
-13 31 3 -7 16 0
-7 -17 -11 3 31 0
-7 31 3 -38 -11 0
38 -6 -29 3 32 0
-6 3 18 17 21 0
21 -6 18 -35 3 0
18 21 3 27 -6 0
-6 23 -35 -31 3 0
-18 22 3 -5 31 0
-18 -15 3 22 -5 0
3 16 -5 -14 19 0
-18 3 -5 -11 31 0
-15 -5 6 3 -30 0
-15 -25 -5 6 3 0
-15 -5 3 19 6 0
9 -5 3 -30 -11 0
-4 -13 -32 -23 3 0
3 -4 -13 6 -7 0
15 4 -39 11 3 0
4 15 -37 11 3 0
5 32 -28 -34 3 0
5 23 -36 3 7 0
5 -39 3 23 10 0
5 23 10 -35 3 0
40 -33 3 6 36 0
-8 3 -15 -20 6 0
-8 12 6 3 28 0
-7 -13 3 6 16 0
7 -19 -39 3 0
7 33 3 -12 -29 0
7 33 3 -12 18 0
-40 8 -39 3 7 0
7 8 -36 -39 3 0
7 8 -39 3 -29 0
7 -39 3 10 8 0
7 -39 3 -12 10 0
-40 7 18 3 0
7 23 27 3 -36 0
8 -39 3 -26 10 0
8 -39 11 3 10 0
3 10 11 -26 8 0
-18 31 3 9 -11 0
-37 -39 3 10 0
-39 -26 -35 10 3 0
-12 -26 -39 10 3 0
-35 -39 11 10 3 0
-26 -35 11 10 3 0
3 10 11 -26 -12 0
17 -39 3 10 0
-37 10 3 17 0
23 -39 3 -35 10 0
3 -19 11 -22 -37 0
3 20 11 -19 25 0
-28 27 11 3 -16 0
3 -12 11 -39 -19 0
-28 15 11 3 -39 0
-28 -37 11 15 3 0
3 -16 11 15 27 0
-26 3 11 20 32 0
-26 25 11 20 3 0
12 35 3 40 -27 0
38 13 30 3 -29 0
38 -19 13 21 3 0
38 13 30 -19 3 0
15 -37 -39 3 0
-34 15 -39 3 0
15 -39 -31 3 0
15 -31 3 -37 0
15 32 -31 3 0
38 15 -29 32 3 0
3 -16 -28 15 27 0
-16 15 32 3 0
16 3 -33 37 -23 0
16 -21 34 3 31 0
16 3 -38 31 22 0
-34 17 3 -37 0
-19 -39 3 17 0
17 -19 3 -37 0
3 17 -28 38 -19 0
-40 18 3 30 0
19 29 3 -24 -23 0
3 20 -28 32 -26 0
-40 20 32 -26 3 0
20 23 -31 3 25 0
-26 3 -28 20 25 0
-34 20 3 32 0
31 36 3 -38 22 0
-33 39 -28 -31 4 0
4 -26 39 -30 0
38 -24 -39 4 -29 0
4 -22 -26 -30 0
4 -22 -26 40 0
4 -22 24 27 0
4 24 34 -22 0
4 -22 24 37 0
4 40 34 -22 0
4 -21 -22 37 24 0
4 -20 -36 28 22 0
-19 23 -25 4 -26 0
-19 23 36 4 24 0
-19 32 -38 4 23 0
-19 23 36 4 32 0
-16 4 -26 -19 23 0
-15 4 27 -18 0
-15 -16 36 23 4 0
-15 4 -30 23 0
-15 4 -28 23 0
4 -15 24 23 0
-15 4 27 24 0
4 -14 32 23 -15 0
4 -26 39 17 -14 0
-34 4 33 26 -13 0
4 34 -28 -12 0
4 -12 39 -28 0
4 27 -12 -22 0
4 -22 34 -12 0
4 27 -12 -18 0
4 -12 39 -18 0
4 -14 32 23 -12 0
4 -12 39 23 0
-19 32 -38 -11 4 0
4 -19 -11 32 36 0
-10 16 25 14 4 0
-10 -23 18 -40 4 0
-10 4 -36 25 22 0
-19 32 -38 4 -9 0
4 36 32 -19 -9 0
-15 4 27 -9 0
4 -15 40 -9 0
4 17 -14 -8 -26 0
4 -9 -25 -31 -8 0
-8 4 34 -14 -9 0
-8 -26 -38 17 4 0
4 -8 -25 17 -26 0
4 -8 -26 17 -22 0
-8 4 34 32 17 0
-6 34 -28 4 0
-18 -6 -28 4 0
-18 4 -12 -6 0
-6 4 34 -12 0
-6 13 -28 4 0
-18 -6 13 4 0
-6 13 37 4 0
4 7 24 -5 17 0
23 13 -5 17 4 0
17 -21 -5 20 4 0
5 -40 6 4 -39 0
5 9 -39 6 4 0
4 8 30 6 -27 0
4 -40 6 8 30 0
7 4 39 -31 -33 0
4 7 -14 -8 -9 0
7 -8 17 4 -26 0
4 -26 39 7 17 0
-40 12 8 4 30 0
4 8 30 28 -29 0
8 4 -36 30 28 0
9 18 26 4 -20 0
-19 4 -11 10 32 0
4 13 37 -30 0
4 13 -28 40 0
4 -22 13 -30 -31 0
-18 13 -28 4 0
4 13 -38 -18 -28 0
-16 4 13 23 -15 0
4 -15 40 13 0
4 23 13 -30 0
14 31 4 -24 38 0
38 4 -39 15 -29 0
16 4 -32 21 28 0
4 17 39 -25 -26 0
21 4 18 31 26 0
4 23 -30 39 0
4 23 -28 39 0
4 23 -26 39 0
24 4 -28 23 0
24 4 -28 37 0
5 35 37 -32 -33 0
5 35 37 -32 -31 0
5 37 -32 -29 0
5 -29 -32 39 0
5 40 -29 34 0
5 -26 39 -32 0
5 -26 -29 -32 0
5 -26 -29 39 0
5 40 -29 -26 0
5 -26 -32 27 0
5 40 -22 -26 0
5 -22 25 34 0
5 -22 25 37 0
5 -20 -22 -26 0
5 21 -31 39 -20 0
5 21 39 -20 0
5 37 -38 36 -19 0
-18 19 32 -30 5 0
5 -18 24 -30 32 0
5 -17 -20 21 0
5 -17 35 40 18 0
5 21 -17 25 0
5 -16 35 -26 -29 0
-16 21 -31 35 5 0
5 -16 35 -29 21 0
5 -16 35 21 -26 0
5 -13 39 -33 -32 0
5 -23 -32 27 -13 0
5 -13 -29 -19 39 0
5 -13 -32 -23 -17 0
5 15 -23 -32 -13 0
5 18 -13 -26 15 0
5 18 15 -13 34 0
5 -16 30 -12 21 0
5 -33 -12 -13 39 0
5 15 -12 -13 -33 0
5 15 -12 -13 21 0
5 15 30 -13 -12 0
5 15 -12 -13 34 0
5 -12 30 -13 21 0
5 15 39 -33 -12 0
5 15 30 21 -12 0
21 -12 30 36 5 0
5 -12 39 21 0
5 24 -14 -34 -11 0
5 24 -25 -11 -14 0
5 12 23 26 -11 0
5 -25 13 -14 -11 0
16 24 13 -11 5 0
5 -34 33 26 -11 0
5 -10 -22 40 0
5 -10 -16 -26 28 0
5 -22 -12 -10 0
5 -9 -29 40 0
5 -9 30 -23 40 0
5 -17 40 -9 0
5 -13 27 -23 -9 0
5 -29 11 -9 0
5 -20 11 -9 0
5 34 -38 40 -9 0
5 -9 34 40 0
5 31 -28 -8 38 0
-8 9 -37 26 5 0
5 20 29 23 -8 0
-7 5 -29 34 0
5 -7 37 -29 0
5 -7 18 -17 35 0
5 -7 8 -17 0
5 8 -12 -7 0
5 14 8 -7 0
5 14 -7 -29 0
5 14 -22 -7 0
5 14 -17 35 -7 0
5 14 37 -7 0
5 -6 37 -32 0
5 -26 -32 -6 0
5 -17 -6 25 0
5 -6 34 -12 0
5 -10 -6 -32 0
5 -10 11 -6 0
5 -17 -6 8 0
5 -6 -12 8 0
5 -32 11 -6 0
5 -6 11 37 0
5 -6 -23 15 25 0
5 -6 34 25 0
5 -6 37 25 0
-21 -27 6 33 5 0
5 -18 -39 -36 6 0
5 -18 6 29 -36 0
5 7 -39 -36 6 0
5 6 -28 -39 7 0
5 7 -21 -40 6 0
5 6 -28 7 -21 0
5 20 6 -14 13 0
5 -40 -28 6 20 0
5 20 6 33 -27 0
5 7 -25 32 -30 0
5 8 39 -32 0
5 8 -32 -17 0
5 -17 25 8 0
5 -17 40 8 0
5 8 39 -12 0
5 14 -17 8 0
5 14 40 8 0
5 15 -33 8 39 0
5 9 -35 -15 10 0
5 39 11 -32 0
5 -29 11 -32 0
-18 5 20 12 29 0
12 17 -28 38 5 0
5 -40 -28 12 20 0
5 14 37 -32 0
5 14 -29 -32 0
5 14 -22 37 0
5 14 -22 40 0
5 14 -17 21 0
5 14 -17 40 0
5 15 37 -23 14 0
5 15 30 21 14 0
5 14 -29 21 0
5 14 30 21 -38 0
5 35 -38 21 14 0
5 15 -23 28 25 0
5 15 37 -23 25 0
5 -23 -22 25 15 0
5 -22 25 15 28 0
5 -18 20 -27 16 0
5 -30 -39 -37 17 0
5 17 -28 38 31 0
5 -34 33 -27 17 0
5 17 -39 22 38 0
5 19 -30 32 22 0
5 24 -30 19 32 0
5 32 -28 20 -40 0
5 21 -29 -38 35 0
5 21 -29 39 0
5 21 -29 -26 0
5 -26 39 21 0
5 24 -30 32 22 0
5 24 -25 -30 32 0
-27 6 -32 31 29 0
-40 -39 6 -24 0
-23 -27 6 -40 0
-40 35 6 -23 0
-40 -21 -27 6 0
-21 -27 30 6 0
-24 -21 30 6 0
-40 -21 35 6 0
-20 36 32 23 6 0
-19 -39 6 -24 0
-24 -19 30 25 6 0
-19 35 6 -23 0
-19 20 6 -24 0
-19 35 6 29 0
6 -16 -28 29 31 0
-40 -16 -24 6 0
31 -24 -28 6 -16 0
-16 31 37 6 -24 0
-16 37 6 34 -24 0
-23 6 -38 -16 0
-16 -21 -38 6 0
-16 -21 -24 6 0
-16 22 6 29 0
-23 6 35 -14 0
-19 -39 6 -14 0
-19 -23 -14 6 0
-19 -14 6 35 0
-23 -14 6 -16 0
15 35 6 -14 0
20 -14 30 6 0
-14 35 6 30 0
38 -13 6 -35 -37 0
-13 6 18 38 -37 0
-13 -37 18 6 28 0
21 -37 6 39 -13 0
-13 6 -29 39 21 0
38 -13 6 -35 24 0
38 -13 6 -37 28 0
-27 -12 6 -32 31 0
-12 33 6 -27 -23 0
-23 -26 -12 6 -27 0
31 35 6 -23 -12 0
-21 -12 33 25 6 0
-23 31 -12 13 6 0
-23 22 13 -12 6 0
22 -12 -36 25 6 0
-12 33 6 25 -38 0
-12 35 6 33 25 0
-15 -25 6 -9 -31 0
-15 -9 -25 27 6 0
40 -25 6 -15 -9 0
-13 -9 -35 27 6 0
-13 6 -37 28 -9 0
16 6 -33 26 -9 0
-9 18 -31 -33 6 0
-37 32 6 -9 28 0
-8 -20 -31 6 -15 0
-8 -15 32 -20 6 0
-8 -13 -29 6 21 0
-8 -9 -25 6 -31 0
-8 -20 -31 6 -9 0
-8 -20 32 6 -9 0
-15 -25 6 -8 -9 0
-8 -15 -9 -20 6 0
12 -8 -20 -9 6 0
-8 -15 6 -20 12 0
17 -8 -25 -31 6 0
17 -8 -22 6 28 0
-7 18 6 16 -13 0
-7 -13 6 16 27 0
16 -7 10 6 -13 0
7 -24 37 34 6 0
7 -21 -38 6 0
7 -21 -24 6 0
-21 7 35 6 0
7 -39 6 -19 0
7 -39 6 -36 -12 0
7 -21 33 6 -12 0
33 7 -38 6 -12 0
7 33 6 35 -12 0
7 9 6 -21 0
7 9 6 -19 0
9 -24 -39 6 0
9 -39 6 -19 0
9 -19 -23 6 0
9 -19 30 6 0
9 -23 6 -14 0
9 -14 30 6 0
-13 10 39 21 6 0
21 10 6 32 -11 0
31 -24 11 6 -16 0
-16 6 11 29 31 0
6 -23 11 -12 31 0
-17 6 30 13 -40 0
-19 13 30 6 -14 0
-17 -14 30 13 6 0
-26 6 30 20 13 0
6 -26 13 -23 22 0
-21 35 6 15 0
15 -16 -21 6 0
15 -39 6 22 0
19 -33 6 16 17 0
17 19 27 6 16 0
16 6 18 19 -33 0
17 -22 -35 6 28 0
-33 18 6 19 -22 0
20 -24 30 6 25 0
38 24 -35 6 26 0
-37 32 -35 28 6 0
7 38 39 -31 -32 0
7 -40 -39 -25 0
7 -40 -25 32 0
7 -24 37 34 27 0
-40 -21 -24 7 0
-20 -30 26 7 -25 0
7 -19 -39 -24 0
7 -19 26 -24 0
7 35 26 -19 0
-34 -18 22 7 39 0
-17 -25 37 34 7 0
-40 -17 -25 7 -22 0
7 -17 37 -36 23 0
-17 23 27 7 -36 0
-17 23 34 7 37 0
-16 20 -32 7 38 0
38 -16 20 7 28 0
7 -16 -27 25 21 0
38 7 -16 25 28 0
7 -15 34 37 -24 0
7 -15 -38 -40 -22 0
7 -15 18 37 -24 0
7 -15 18 37 31 0
7 -14 39 22 -37 0
38 -37 7 28 -14 0
7 -24 -39 -13 0
7 -13 -24 26 0
-13 -22 -28 -24 7 0
-13 -22 26 7 -24 0
7 -21 -38 -13 0
7 -13 -21 -24 0
7 -13 -21 35 0
-15 7 -36 -38 -13 0
7 -15 -36 37 -13 0
7 -15 -24 37 -13 0
7 37 -36 23 -13 0
7 23 37 -13 -24 0
7 23 -36 26 -13 0
7 -13 -38 26 0
7 35 26 -13 0
7 -13 32 37 -36 0
7 -20 -36 -39 -12 0
-20 7 -12 -29 -39 0
-15 7 18 -12 37 0
-15 18 14 -12 7 0
-40 -21 -29 -11 7 0
7 -21 35 -11 0
-20 -25 26 -11 7 0
7 -15 18 37 -11 0
-40 7 18 -11 0
-10 -37 7 40 -26 0
7 29 -14 19 -10 0
7 -23 30 -9 40 0
-37 -9 -14 7 -35 0
-9 7 -14 28 -35 0
12 7 22 11 -9 0
-9 7 -14 28 -8 0
12 -8 11 7 -9 0
12 -8 11 7 -27 0
12 -8 24 7 11 0
-8 -27 -31 21 7 0
7 -25 8 34 37 0
8 -13 -36 -38 7 0
7 8 -36 -13 37 0
7 8 -38 -22 -13 0
-13 7 -22 35 8 0
7 -25 -39 9 0
7 9 32 -25 0
7 9 -21 -24 0
7 9 -25 26 -20 0
7 9 -19 -39 0
7 9 26 -19 0
7 9 -39 -13 0
7 -13 9 -24 0
7 -13 -21 9 0
7 9 26 -13 0
7 9 -39 10 0
7 9 10 -21 0
9 18 26 7 -20 0
7 -20 -12 -39 10 0
7 -32 11 39 38 0
-14 39 11 22 7 0
12 7 -32 11 22 0
7 -32 11 24 12 0
12 13 -27 40 7 0
-34 22 -32 7 12 0
-34 7 -16 -18 13 0
-15 18 14 -40 7 0
7 18 14 31 -15 0
7 -33 -32 15 39 0
7 18 26 -25 0
-24 18 26 7 0
7 -24 18 -19 0
-19 18 26 7 0
20 -23 -32 7 38 0
20 7 -32 24 38 0
7 -24 37 34 23 0
7 23 -36 26 27 0
7 37 27 -36 32 0
38 8 39 -32 0
8 39 -28 -32 0
-34 -19 39 8 -30 0
-17 8 -32 38 0
-17 8 -32 -30 0
-34 -17 -24 8 29 0
-17 -37 8 29 38 0
-25 8 37 34 -16 0
-15 -23 8 17 -27 0
-15 -23 8 17 21 0
8 -15 -36 -38 28 0
-25 8 -29 -14 -23 0
24 -23 -14 8 -38 0
24 -23 33 8 -14 0
8 -25 -39 -14 21 0
8 -13 -36 -38 -16 0
-15 -13 -36 -38 8 0
-13 8 -36 32 37 0
8 39 -28 -12 0
-12 8 39 15 -35 0
15 8 39 -33 -12 0
15 8 -35 29 -12 0
-12 8 39 23 0
-37 8 -12 38 29 0
8 29 -35 -12 -11 0
-19 8 -35 -11 15 0
20 -37 8 40 -11 0
31 8 -35 25 -11 0
-10 -12 8 23 0
-10 29 8 -35 -12 0
-10 23 13 8 0
-10 13 8 40 0
-10 23 8 31 0
-12 29 8 9 -10 0
-34 38 9 29 8 0
-18 -26 10 11 8 0
19 -20 8 10 24 0
14 40 8 13 0
23 8 13 -30 0
40 14 -28 8 0
-17 14 -32 8 0
15 8 -32 -33 39 0
-19 8 39 -35 15 0
16 8 39 15 -35 0
15 8 39 -33 16 0
16 8 -28 39 0
16 8 39 -24 -30 0
16 31 8 27 0
16 8 -35 31 0
-20 8 24 19 28 0
-34 23 36 8 22 0
-34 23 22 39 8 0
38 8 -35 25 0
38 -37 8 27 29 0
-33 9 -37 -39 0
-40 -30 39 9 -36 0
-34 -40 9 -30 37 0
-34 -40 9 -30 39 0
-40 -30 -36 9 -32 0
9 -25 26 28 0
-33 9 -24 -39 0
9 -37 -38 -23 0
9 -23 -29 36 -37 0
9 -23 -37 36 0
9 -24 30 -21 0
9 -21 -31 30 0
-33 9 -19 -39 0
40 9 26 27 -19 0
9 40 -31 27 -19 0
-34 -40 9 -18 -32 0
-34 21 39 -18 9 0
-16 9 35 -27 21 0
-16 23 -27 9 21 0
-16 9 -27 25 21 0
9 -25 -39 -14 0
9 -14 -38 -23 0
-23 9 -25 -14 0
9 -19 -14 -31 0
9 -19 -14 26 0
9 -14 30 -31 0
9 -24 -39 -13 0
9 -13 -21 32 0
9 15 -12 -22 17 0
-12 -22 29 9 -10 0
9 17 -12 23 -10 0
-10 -18 -16 9 13 0
9 -37 -39 10 0
9 -25 -39 10 0
9 -21 -37 10 0
9 10 30 -21 0
9 -21 36 10 0
9 10 -39 -14 0
9 -14 -38 10 0
10 9 -14 30 0
-19 9 40 27 11 0
12 9 -37 -33 0
12 9 -37 -31 0
9 12 -31 32 0
12 9 -25 26 0
12 9 -25 36 0
12 9 -24 26 0
12 9 -14 -31 0
12 9 -14 26 0
9 12 30 -14 0
9 -13 -31 12 0
12 9 26 -13 0
12 9 -37 26 0
9 12 -31 30 0
12 9 32 -33 0
9 -27 13 35 37 0
9 14 -36 15 20 0
9 15 -36 -26 39 0
-40 9 15 -36 17 0
9 -22 37 17 15 0
-40 9 37 17 15 0
15 9 25 21 -40 0
16 9 40 -19 -31 0
9 -24 18 26 0
9 -24 18 30 0
9 18 26 -25 -20 0
-20 27 18 9 22 0
18 -20 26 27 9 0
9 -19 18 -23 0
9 18 26 -38 0
19 9 -36 38 20 0
38 9 -36 20 -32 0
9 21 35 23 -27 0
9 -23 22 32 0
9 22 -31 28 0
23 -26 39 9 -30 0
9 -31 -38 28 0
9 -31 28 30 0
-33 -37 -39 10 0
38 -30 10 39 -36 0
-27 29 -32 10 31 0
-33 -25 -39 10 0
10 -22 -37 -27 -32 0
-22 10 -32 30 -27 0
10 31 -32 -22 -27 0
-22 -27 36 -25 10 0
-21 -37 10 -27 0
-21 10 30 -27 0
-21 36 10 -27 0
-21 36 10 -37 0
-18 24 10 28 -27 0
-34 10 -30 -17 -24 0
-30 18 10 35 -17 0
21 10 35 -17 -24 0
21 10 35 22 -17 0
-16 -21 10 -38 0
10 31 17 29 -16 0
-15 10 -32 28 -27 0
-15 -27 -32 10 29 0
-15 -22 -38 10 -32 0
10 -25 -39 -14 0
-16 -25 -14 10 0
16 10 39 15 -13 0
16 10 39 22 -13 0
16 -40 10 27 -13 0
10 -13 39 21 22 0
10 -12 -32 28 -27 0
-20 24 -12 10 28 0
-20 10 -32 28 -12 0
10 -12 -32 28 13 0
10 24 -12 28 -27 0
10 24 -12 28 -38 0
40 -12 -32 28 10 0
15 -23 10 -11 25 0
21 10 32 -11 -24 0
21 10 32 -11 25 0
-26 -35 11 10 -39 0
-26 -35 11 10 -33 0
12 14 -36 -23 10 0
12 10 -23 37 14 0
12 10 33 -36 14 0
12 10 35 37 14 0
-30 18 10 25 12 0
12 10 -30 37 25 0
13 -26 -35 36 10 0
10 14 -36 -23 15 0
15 -23 10 37 14 0
-19 10 37 15 14 0
-40 15 10 25 21 0
17 -37 -39 10 0
17 -27 -39 10 0
10 17 -37 -27 0
10 17 -27 29 0
10 17 36 -27 0
19 -26 36 -35 10 0
-34 -40 10 21 39 0
38 -36 11 39 0
38 -32 11 -36 0
39 -36 11 -32 0
-31 -32 11 37 35 0
-29 -36 11 39 0
-29 -32 11 -36 0
-29 -32 11 37 0
-27 -29 11 35 37 0
-25 -32 11 35 -31 0
-25 -32 11 39 -31 0
-28 32 11 -26 -23 0
-21 -32 11 -36 38 0
38 24 26 -21 11 0
-34 -40 -20 39 11 0
23 -20 11 39 0
-22 -19 11 -24 20 0
-19 40 25 27 11 0
-30 -38 11 -23 -16 0
-16 29 11 -30 31 0
-15 -29 11 22 35 0
23 -29 11 -15 0
-27 -14 39 -20 11 0
-15 -14 11 23 22 0
16 17 -14 11 39 0
19 -14 11 16 18 0
23 -14 11 39 17 0
31 -23 -12 -30 11 0
12 37 11 35 -29 0
19 -15 13 11 0
13 33 11 -15 0
19 13 -36 11 0
16 39 11 -36 0
19 -36 11 16 0
-40 26 11 16 37 0
18 35 11 19 -31 0
38 -36 11 19 0
20 -24 36 -35 11 0
-28 -26 11 20 25 0
21 -30 11 40 29 0
-34 39 11 -25 22 0
-34 23 11 22 39 0
24 -32 11 37 0
-40 12 -33 -37 0
12 36 -31 -37 0
12 -30 37 35 -29 0
12 -27 -38 -29 40 0
12 40 -29 35 -27 0
12 40 -38 -27 35 0
12 40 -38 -29 -26 0
12 31 -26 40 -29 0
12 -40 -25 36 0
-40 -33 -24 12 0
12 38 -28 -24 36 0
-33 -24 30 12 0
12 -23 -39 37 25 0
12 -21 -39 -23 37 0
12 -21 -39 37 24 0
12 -34 -19 -26 -30 0
12 31 -19 -26 -38 0
12 -17 25 -39 -23 0
12 31 33 -17 -19 0
12 40 -27 -17 18 0
-17 31 33 22 12 0
12 31 33 -17 -39 0
-16 12 -24 -33 0
12 -16 26 -24 0
12 -16 17 -24 0
12 -16 17 26 0
12 -16 17 29 0
12 -15 33 -17 -39 0
12 -15 35 -29 22 0
12 -25 26 -14 0
12 -16 -14 26 0
12 15 -14 -31 0
12 15 -25 -14 0
12 15 -14 -16 0
12 15 -14 26 0
20 12 -31 -14 0
20 -14 30 12 0
12 -14 30 -31 0
-18 23 -31 -13 12 0
12 -16 17 -13 0
12 -16 26 -13 0
12 -13 32 -16 0
-13 12 -24 17 0
12 17 26 -13 0
12 40 -38 13 -39 0
12 40 -38 13 -27 0
12 13 -27 40 35 0
12 40 -39 13 -15 0
12 -15 40 35 13 0
12 13 -39 14 40 0
12 40 -38 14 13 0
-34 12 37 13 14 0
12 14 13 37 35 0
12 14 40 35 13 0
12 13 37 -39 14 0
12 37 -38 13 14 0
12 40 -39 35 13 0
12 40 -38 13 35 0
-34 14 37 35 12 0
12 14 -32 -34 37 0
12 14 -32 35 37 0
12 14 -32 -36 -23 0
12 14 -32 -23 37 0
12 -23 37 14 -39 0
-17 12 33 14 -39 0
12 24 -39 14 37 0
12 14 35 37 -39 0
12 15 -31 -37 0
12 15 -31 32 0
12 -25 26 15 0
12 15 36 -25 0
12 -16 -25 15 0
12 -16 15 26 0
12 23 27 15 26 0
12 -37 26 15 0
12 17 26 -24 0
12 17 36 -24 0
12 17 26 -37 0
12 17 36 -37 0
12 18 35 40 -27 0
12 20 32 -31 0
12 20 36 -31 0
12 20 36 -24 0
12 -40 30 20 0
12 20 30 -31 0
-40 12 20 32 0
12 -29 -38 22 -27 0
12 24 -39 25 37 0
12 -30 -29 25 37 0
-40 12 -33 32 0
-34 13 -31 35 37 0
35 -38 -28 -27 13 0
-27 13 -28 40 35 0
37 -38 -28 13 -27 0
40 -27 13 35 -24 0
-37 -23 -29 13 36 0
13 -22 -36 -30 0
13 -22 37 -30 0
13 -22 37 25 0
-20 -22 13 37 0
-20 13 37 25 0
-19 21 34 13 -33 0
38 -19 -33 21 13 0
38 21 34 -19 13 0
38 13 30 -33 -19 0
-18 -20 13 37 0
-40 -33 -17 13 -25 0
-40 20 30 -17 13 0
13 35 -28 -15 40 0
-15 13 -28 40 0
-15 -16 40 35 13 0
-15 13 -28 19 0
-15 19 40 13 0
-23 -25 -29 -14 13 0
-19 21 -32 -14 13 0
21 -23 -14 13 -19 0
-19 -14 27 13 21 0
-17 -25 -29 13 -14 0
20 13 30 -14 -17 0
14 13 -31 35 37 0
13 37 -28 14 0
13 14 -28 40 0
14 13 -22 -36 0
14 13 -22 37 0
-22 14 13 40 0
-18 13 37 14 0
-18 13 37 14 -38 0
-16 14 35 13 40 0
14 13 33 -36 0
13 -39 37 14 35 0
13 37 -38 35 14 0
14 13 -38 37 -39 0
38 13 30 -29 16 0
38 -19 13 16 21 0
38 13 30 16 -19 0
21 16 -32 13 28 0
-40 18 13 -23 31 0
31 13 18 39 -23 0
21 -23 18 13 -19 0
21 -19 18 27 13 0
19 13 -28 -36 0
19 13 -28 40 0
13 -22 -36 19 0
19 40 -22 13 0
19 13 26 -39 25 0
-33 21 34 28 13 0
21 34 -32 28 13 0
13 -26 34 -33 22 0
13 -26 24 -23 22 0
23 -38 -28 13 -27 0
-27 13 -38 32 23 0
-30 13 37 25 0
-27 37 26 13 25 0
13 -39 32 25 26 0
-27 26 -28 13 37 0
-29 14 -32 -36 0
14 -32 -28 37 0
-29 37 -28 14 0
40 14 -28 -29 0
-25 14 -32 -31 35 0
24 -22 14 27 0
-22 24 37 14 0
-18 -29 14 -32 0
-18 21 -29 14 0
-18 14 -28 21 0
-18 14 -38 21 30 0
-18 21 33 14 0
-17 14 40 -28 0
-17 14 -28 21 0
-17 14 33 21 0
14 40 -29 35 -16 0
-34 -18 -16 -19 14 0
-18 -16 14 -19 -29 0
-18 -16 33 14 -19 0
-16 14 35 -34 -17 0
-17 -16 40 35 14 0
15 14 -36 -32 -23 0
-23 15 37 -32 14 0
-22 14 -36 15 -23 0
15 14 -36 20 -23 0
38 31 -24 17 14 0
21 -31 -28 35 14 0
14 -38 -28 30 21 0
24 -29 14 -32 0
24 -29 14 37 0
24 37 -28 14 0
15 36 -31 -37 0
15 -24 -36 39 -26 0
15 -22 25 -23 28 0
-22 -23 29 15 28 0
-22 15 -35 25 28 0
15 -22 -35 29 28 0
15 -21 22 -31 0
15 -21 35 32 0
15 -21 36 -37 0
-20 -37 -29 -21 15 0
-18 19 32 -30 15 0
-17 -29 -31 15 -21 0
-17 -21 -31 -18 15 0
-18 19 -21 15 -17 0
15 19 -29 -17 -21 0
-16 -25 26 15 0
15 -21 22 -16 0
15 -21 32 -16 0
15 17 -35 16 39 0
17 15 -36 39 -35 0
15 29 18 -22 28 0
19 15 32 22 -30 0
-30 -25 32 24 15 0
-34 -37 26 15 0
16 -35 -36 39 0
-30 16 -36 39 0
16 39 -28 -36 0
34 31 -21 -35 16 0
16 -20 -35 39 0
16 40 -31 25 -19 0
16 38 -19 35 30 0
-26 24 -31 -17 16 0
19 -36 -28 16 0
19 16 -36 34 0
-40 16 29 -35 27 0
17 -37 -39 -30 -28 0
17 -30 -28 36 -37 0
-27 36 -32 33 17 0
31 -24 -28 17 38 0
38 -24 -28 17 36 0
17 -23 -27 -37 0
-34 -23 -27 17 0
-23 -27 36 17 0
17 -20 -30 -39 22 0
17 -20 40 22 38 0
-19 -37 -39 17 0
-19 -37 26 17 0
-24 18 26 17 0
-34 17 18 -23 0
-19 -23 18 17 0
-19 18 26 17 0
21 -23 18 31 17 0
21 18 26 17 31 0
17 -23 18 22 0
-34 18 26 17 0
18 33 -32 26 17 0
18 -30 -36 38 -31 0
-40 -25 18 36 0
-40 -24 18 30 0
-34 18 -38 -23 0
18 -23 -28 31 -40 0
-23 -25 18 31 -40 0
-23 -25 36 18 0
-39 29 18 28 -22 0
18 29 32 28 -22 0
-22 29 18 28 38 0
-20 -25 18 26 31 0
-24 18 26 -19 0
-24 18 30 -19 0
19 18 -31 29 -22 0
21 18 26 -25 31 0
21 -23 -25 31 18 0
31 18 26 -32 21 0
-34 18 26 -38 0
18 -37 32 28 29 0
19 38 -32 -36 0
19 34 -28 -36 0
19 34 -28 40 0
19 -23 -39 34 25 0
38 -22 -36 19 0
-22 34 25 19 0
38 -22 25 19 0
-22 34 -36 19 0
38 20 -23 19 26 0
19 24 32 22 -30 0
-30 19 -25 24 32 0
-34 20 30 -27 0
20 -35 -28 -24 36 0
38 -21 -36 -32 20 0
38 -21 -36 -23 20 0
38 -23 26 -21 20 0
20 -21 34 31 24 0
20 33 -38 25 -31 0
35 -38 -28 -29 21 0
21 35 -28 -31 -27 0
-27 39 -28 21 -31 0
-27 39 -28 21 -29 0
21 -25 26 -30 31 0
-33 21 -25 34 28 0
31 -25 -23 -30 21 0
-34 -40 39 22 21 0
21 -29 -38 22 35 0
21 -29 -38 22 -27 0
21 -29 -28 22 -27 0
-34 23 36 21 22 0
21 22 -28 23 -27 0
23 21 39 -29 0
21 -26 39 23 0
-37 33 30 21 32 0
-27 22 -38 -29 35 0
-29 -38 -28 22 -27 0
-33 -26 -35 -39 22 0
-34 22 39 -25 -32 0
23 -29 -38 22 31 0
23 -27 -38 -29 22 0
23 22 35 -29 -27 0
23 36 -38 22 31 0
27 32 37 22 -36 0
40 37 -36 28 22 0
23 -29 -38 -26 35 0
23 31 33 -26 0
23 -25 -38 -26 35 0
40 23 -36 26 28 0
34 31 -29 24 0
24 -32 -28 37 0
24 37 25 -29 0
38 24 25 26 -35 0
24 31 34 25 0
24 34 -35 25 0
24 26 -28 30 34 0
24 34 30 -35 26 0
38 27 -35 24 0
-40 38 -35 27 24 0
38 27 -32 24 0
-33 -30 -29 37 25 0
31 34 25 -35 0
-34 -37 -38 26 0
-39 29 33 28 27 0
29 -37 33 27 28 0
-39 29 36 27 28 0
38 -37 -35 27 33 0
29 32 33 -39 28 0
29 -37 33 28 32 0
38 -37 33 28 29 0
29 -37 33 28 -35 0
31 33 30 34 -35 0
-37 34 30 -35 31 0
-40 33 -35 38 -36 0
