p cnf 1828 12517
1 2 3 4 0
-1 -2 0
-1 -3 0
-1 -4 0
-2 -3 0
-2 -4 0
-3 -4 0
5 6 7 8 0
-5 -6 0
-5 -7 0
-5 -8 0
-6 -7 0
-6 -8 0
-7 -8 0
9 10 11 12 0
-9 -10 0
-9 -11 0
-9 -12 0
-10 -11 0
-10 -12 0
-11 -12 0
13 14 15 16 0
-13 -14 0
-13 -15 0
-13 -16 0
-14 -15 0
-14 -16 0
-15 -16 0
17 18 19 20 0
-17 -18 0
-17 -19 0
-17 -20 0
-18 -19 0
-18 -20 0
-19 -20 0
21 22 23 24 0
-21 -22 0
-21 -23 0
-21 -24 0
-22 -23 0
-22 -24 0
-23 -24 0
25 26 27 28 0
-25 -26 0
-25 -27 0
-25 -28 0
-26 -27 0
-26 -28 0
-27 -28 0
29 30 31 32 0
-29 -30 0
-29 -31 0
-29 -32 0
-30 -31 0
-30 -32 0
-31 -32 0
33 34 35 36 0
-33 -34 0
-33 -35 0
-33 -36 0
-34 -35 0
-34 -36 0
-35 -36 0
37 38 39 40 0
-37 -38 0
-37 -39 0
-37 -40 0
-38 -39 0
-38 -40 0
-39 -40 0
41 42 43 44 0
-41 -42 0
-41 -43 0
-41 -44 0
-42 -43 0
-42 -44 0
-43 -44 0
45 46 47 48 0
-45 -46 0
-45 -47 0
-45 -48 0
-46 -47 0
-46 -48 0
-47 -48 0
49 50 51 52 0
-49 -50 0
-49 -51 0
-49 -52 0
-50 -51 0
-50 -52 0
-51 -52 0
53 54 55 56 0
-53 -54 0
-53 -55 0
-53 -56 0
-54 -55 0
-54 -56 0
-55 -56 0
57 58 59 60 0
-57 -58 0
-57 -59 0
-57 -60 0
-58 -59 0
-58 -60 0
-59 -60 0
61 62 63 64 0
-61 -62 0
-61 -63 0
-61 -64 0
-62 -63 0
-62 -64 0
-63 -64 0
65 66 67 68 0
-65 -66 0
-65 -67 0
-65 -68 0
-66 -67 0
-66 -68 0
-67 -68 0
69 70 71 72 0
-69 -70 0
-69 -71 0
-69 -72 0
-70 -71 0
-70 -72 0
-71 -72 0
73 74 75 76 0
-73 -74 0
-73 -75 0
-73 -76 0
-74 -75 0
-74 -76 0
-75 -76 0
77 78 79 80 0
-77 -78 0
-77 -79 0
-77 -80 0
-78 -79 0
-78 -80 0
-79 -80 0
81 82 83 84 0
-81 -82 0
-81 -83 0
-81 -84 0
-82 -83 0
-82 -84 0
-83 -84 0
85 86 87 88 0
-85 -86 0
-85 -87 0
-85 -88 0
-86 -87 0
-86 -88 0
-87 -88 0
89 90 91 92 0
-89 -90 0
-89 -91 0
-89 -92 0
-90 -91 0
-90 -92 0
-91 -92 0
93 94 95 96 0
-93 -94 0
-93 -95 0
-93 -96 0
-94 -95 0
-94 -96 0
-95 -96 0
97 98 99 100 0
-97 -98 0
-97 -99 0
-97 -100 0
-98 -99 0
-98 -100 0
-99 -100 0
101 102 103 104 0
-101 -102 0
-101 -103 0
-101 -104 0
-102 -103 0
-102 -104 0
-103 -104 0
105 106 107 108 0
-105 -106 0
-105 -107 0
-105 -108 0
-106 -107 0
-106 -108 0
-107 -108 0
109 110 111 112 0
-109 -110 0
-109 -111 0
-109 -112 0
-110 -111 0
-110 -112 0
-111 -112 0
113 114 115 116 0
-113 -114 0
-113 -115 0
-113 -116 0
-114 -115 0
-114 -116 0
-115 -116 0
117 118 119 120 0
-117 -118 0
-117 -119 0
-117 -120 0
-118 -119 0
-118 -120 0
-119 -120 0
121 122 123 124 0
-121 -122 0
-121 -123 0
-121 -124 0
-122 -123 0
-122 -124 0
-123 -124 0
125 126 127 128 0
-125 -126 0
-125 -127 0
-125 -128 0
-126 -127 0
-126 -128 0
-127 -128 0
129 130 131 132 0
-129 -130 0
-129 -131 0
-129 -132 0
-130 -131 0
-130 -132 0
-131 -132 0
133 134 135 136 0
-133 -134 0
-133 -135 0
-133 -136 0
-134 -135 0
-134 -136 0
-135 -136 0
137 138 139 140 0
-137 -138 0
-137 -139 0
-137 -140 0
-138 -139 0
-138 -140 0
-139 -140 0
141 142 143 144 0
-141 -142 0
-141 -143 0
-141 -144 0
-142 -143 0
-142 -144 0
-143 -144 0
145 146 147 148 0
-145 -146 0
-145 -147 0
-145 -148 0
-146 -147 0
-146 -148 0
-147 -148 0
149 150 151 152 0
-149 -150 0
-149 -151 0
-149 -152 0
-150 -151 0
-150 -152 0
-151 -152 0
153 154 155 156 0
-153 -154 0
-153 -155 0
-153 -156 0
-154 -155 0
-154 -156 0
-155 -156 0
157 158 159 160 0
-157 -158 0
-157 -159 0
-157 -160 0
-158 -159 0
-158 -160 0
-159 -160 0
161 162 163 164 0
-161 -162 0
-161 -163 0
-161 -164 0
-162 -163 0
-162 -164 0
-163 -164 0
165 166 167 168 0
-165 -166 0
-165 -167 0
-165 -168 0
-166 -167 0
-166 -168 0
-167 -168 0
169 170 171 172 0
-169 -170 0
-169 -171 0
-169 -172 0
-170 -171 0
-170 -172 0
-171 -172 0
173 174 175 176 0
-173 -174 0
-173 -175 0
-173 -176 0
-174 -175 0
-174 -176 0
-175 -176 0
177 178 179 180 0
-177 -178 0
-177 -179 0
-177 -180 0
-178 -179 0
-178 -180 0
-179 -180 0
181 182 183 184 0
-181 -182 0
-181 -183 0
-181 -184 0
-182 -183 0
-182 -184 0
-183 -184 0
185 186 187 188 0
-185 -186 0
-185 -187 0
-185 -188 0
-186 -187 0
-186 -188 0
-187 -188 0
189 190 191 192 0
-189 -190 0
-189 -191 0
-189 -192 0
-190 -191 0
-190 -192 0
-191 -192 0
193 194 195 196 0
-193 -194 0
-193 -195 0
-193 -196 0
-194 -195 0
-194 -196 0
-195 -196 0
197 198 199 200 0
-197 -198 0
-197 -199 0
-197 -200 0
-198 -199 0
-198 -200 0
-199 -200 0
201 202 203 204 0
-201 -202 0
-201 -203 0
-201 -204 0
-202 -203 0
-202 -204 0
-203 -204 0
205 206 207 208 0
-205 -206 0
-205 -207 0
-205 -208 0
-206 -207 0
-206 -208 0
-207 -208 0
209 210 211 212 0
-209 -210 0
-209 -211 0
-209 -212 0
-210 -211 0
-210 -212 0
-211 -212 0
213 214 215 216 0
-213 -214 0
-213 -215 0
-213 -216 0
-214 -215 0
-214 -216 0
-215 -216 0
217 218 219 220 0
-217 -218 0
-217 -219 0
-217 -220 0
-218 -219 0
-218 -220 0
-219 -220 0
221 222 223 224 0
-221 -222 0
-221 -223 0
-221 -224 0
-222 -223 0
-222 -224 0
-223 -224 0
225 226 227 228 0
-225 -226 0
-225 -227 0
-225 -228 0
-226 -227 0
-226 -228 0
-227 -228 0
229 230 231 232 0
-229 -230 0
-229 -231 0
-229 -232 0
-230 -231 0
-230 -232 0
-231 -232 0
233 234 235 236 0
-233 -234 0
-233 -235 0
-233 -236 0
-234 -235 0
-234 -236 0
-235 -236 0
237 238 239 240 0
-237 -238 0
-237 -239 0
-237 -240 0
-238 -239 0
-238 -240 0
-239 -240 0
241 242 243 244 0
-241 -242 0
-241 -243 0
-241 -244 0
-242 -243 0
-242 -244 0
-243 -244 0
245 246 247 248 0
-245 -246 0
-245 -247 0
-245 -248 0
-246 -247 0
-246 -248 0
-247 -248 0
249 250 251 252 0
-249 -250 0
-249 -251 0
-249 -252 0
-250 -251 0
-250 -252 0
-251 -252 0
253 254 255 256 0
-253 -254 0
-253 -255 0
-253 -256 0
-254 -255 0
-254 -256 0
-255 -256 0
257 258 259 260 0
-257 -258 0
-257 -259 0
-257 -260 0
-258 -259 0
-258 -260 0
-259 -260 0
261 262 263 264 0
-261 -262 0
-261 -263 0
-261 -264 0
-262 -263 0
-262 -264 0
-263 -264 0
265 266 267 268 0
-265 -266 0
-265 -267 0
-265 -268 0
-266 -267 0
-266 -268 0
-267 -268 0
269 270 271 272 0
-269 -270 0
-269 -271 0
-269 -272 0
-270 -271 0
-270 -272 0
-271 -272 0
273 274 275 276 0
-273 -274 0
-273 -275 0
-273 -276 0
-274 -275 0
-274 -276 0
-275 -276 0
277 278 279 280 0
-277 -278 0
-277 -279 0
-277 -280 0
-278 -279 0
-278 -280 0
-279 -280 0
281 282 283 284 0
-281 -282 0
-281 -283 0
-281 -284 0
-282 -283 0
-282 -284 0
-283 -284 0
285 286 287 288 0
-285 -286 0
-285 -287 0
-285 -288 0
-286 -287 0
-286 -288 0
-287 -288 0
289 290 291 292 0
-289 -290 0
-289 -291 0
-289 -292 0
-290 -291 0
-290 -292 0
-291 -292 0
293 294 295 296 0
-293 -294 0
-293 -295 0
-293 -296 0
-294 -295 0
-294 -296 0
-295 -296 0
297 298 299 300 0
-297 -298 0
-297 -299 0
-297 -300 0
-298 -299 0
-298 -300 0
-299 -300 0
301 302 303 304 0
-301 -302 0
-301 -303 0
-301 -304 0
-302 -303 0
-302 -304 0
-303 -304 0
305 306 307 308 0
-305 -306 0
-305 -307 0
-305 -308 0
-306 -307 0
-306 -308 0
-307 -308 0
309 310 311 312 0
-309 -310 0
-309 -311 0
-309 -312 0
-310 -311 0
-310 -312 0
-311 -312 0
313 314 315 316 0
-313 -314 0
-313 -315 0
-313 -316 0
-314 -315 0
-314 -316 0
-315 -316 0
317 318 319 320 0
-317 -318 0
-317 -319 0
-317 -320 0
-318 -319 0
-318 -320 0
-319 -320 0
321 322 323 324 0
-321 -322 0
-321 -323 0
-321 -324 0
-322 -323 0
-322 -324 0
-323 -324 0
325 326 327 328 0
-325 -326 0
-325 -327 0
-325 -328 0
-326 -327 0
-326 -328 0
-327 -328 0
329 330 331 332 0
-329 -330 0
-329 -331 0
-329 -332 0
-330 -331 0
-330 -332 0
-331 -332 0
333 334 335 336 0
-333 -334 0
-333 -335 0
-333 -336 0
-334 -335 0
-334 -336 0
-335 -336 0
337 338 339 340 0
-337 -338 0
-337 -339 0
-337 -340 0
-338 -339 0
-338 -340 0
-339 -340 0
341 342 343 344 0
-341 -342 0
-341 -343 0
-341 -344 0
-342 -343 0
-342 -344 0
-343 -344 0
345 346 347 348 0
-345 -346 0
-345 -347 0
-345 -348 0
-346 -347 0
-346 -348 0
-347 -348 0
349 350 351 352 0
-349 -350 0
-349 -351 0
-349 -352 0
-350 -351 0
-350 -352 0
-351 -352 0
353 354 355 356 0
-353 -354 0
-353 -355 0
-353 -356 0
-354 -355 0
-354 -356 0
-355 -356 0
357 358 359 360 0
-357 -358 0
-357 -359 0
-357 -360 0
-358 -359 0
-358 -360 0
-359 -360 0
361 362 363 364 0
-361 -362 0
-361 -363 0
-361 -364 0
-362 -363 0
-362 -364 0
-363 -364 0
365 366 367 368 0
-365 -366 0
-365 -367 0
-365 -368 0
-366 -367 0
-366 -368 0
-367 -368 0
369 370 371 372 0
-369 -370 0
-369 -371 0
-369 -372 0
-370 -371 0
-370 -372 0
-371 -372 0
373 374 375 376 0
-373 -374 0
-373 -375 0
-373 -376 0
-374 -375 0
-374 -376 0
-375 -376 0
377 378 379 380 0
-377 -378 0
-377 -379 0
-377 -380 0
-378 -379 0
-378 -380 0
-379 -380 0
381 382 383 384 0
-381 -382 0
-381 -383 0
-381 -384 0
-382 -383 0
-382 -384 0
-383 -384 0
385 386 387 388 0
-385 -386 0
-385 -387 0
-385 -388 0
-386 -387 0
-386 -388 0
-387 -388 0
389 390 391 392 0
-389 -390 0
-389 -391 0
-389 -392 0
-390 -391 0
-390 -392 0
-391 -392 0
393 394 395 396 0
-393 -394 0
-393 -395 0
-393 -396 0
-394 -395 0
-394 -396 0
-395 -396 0
397 398 399 400 0
-397 -398 0
-397 -399 0
-397 -400 0
-398 -399 0
-398 -400 0
-399 -400 0
401 402 403 404 0
-401 -402 0
-401 -403 0
-401 -404 0
-402 -403 0
-402 -404 0
-403 -404 0
405 406 407 408 0
-405 -406 0
-405 -407 0
-405 -408 0
-406 -407 0
-406 -408 0
-407 -408 0
409 410 411 412 0
-409 -410 0
-409 -411 0
-409 -412 0
-410 -411 0
-410 -412 0
-411 -412 0
413 414 415 416 0
-413 -414 0
-413 -415 0
-413 -416 0
-414 -415 0
-414 -416 0
-415 -416 0
417 418 419 420 0
-417 -418 0
-417 -419 0
-417 -420 0
-418 -419 0
-418 -420 0
-419 -420 0
421 422 423 424 0
-421 -422 0
-421 -423 0
-421 -424 0
-422 -423 0
-422 -424 0
-423 -424 0
425 426 427 428 0
-425 -426 0
-425 -427 0
-425 -428 0
-426 -427 0
-426 -428 0
-427 -428 0
429 430 431 432 0
-429 -430 0
-429 -431 0
-429 -432 0
-430 -431 0
-430 -432 0
-431 -432 0
433 434 435 436 0
-433 -434 0
-433 -435 0
-433 -436 0
-434 -435 0
-434 -436 0
-435 -436 0
437 438 439 440 0
-437 -438 0
-437 -439 0
-437 -440 0
-438 -439 0
-438 -440 0
-439 -440 0
441 442 443 444 0
-441 -442 0
-441 -443 0
-441 -444 0
-442 -443 0
-442 -444 0
-443 -444 0
445 446 447 448 0
-445 -446 0
-445 -447 0
-445 -448 0
-446 -447 0
-446 -448 0
-447 -448 0
449 450 451 452 0
-449 -450 0
-449 -451 0
-449 -452 0
-450 -451 0
-450 -452 0
-451 -452 0
453 454 455 456 0
-453 -454 0
-453 -455 0
-453 -456 0
-454 -455 0
-454 -456 0
-455 -456 0
457 458 459 460 0
-457 -458 0
-457 -459 0
-457 -460 0
-458 -459 0
-458 -460 0
-459 -460 0
461 462 463 464 0
-461 -462 0
-461 -463 0
-461 -464 0
-462 -463 0
-462 -464 0
-463 -464 0
465 466 467 468 0
-465 -466 0
-465 -467 0
-465 -468 0
-466 -467 0
-466 -468 0
-467 -468 0
469 470 471 472 0
-469 -470 0
-469 -471 0
-469 -472 0
-470 -471 0
-470 -472 0
-471 -472 0
473 474 475 476 0
-473 -474 0
-473 -475 0
-473 -476 0
-474 -475 0
-474 -476 0
-475 -476 0
477 478 479 480 0
-477 -478 0
-477 -479 0
-477 -480 0
-478 -479 0
-478 -480 0
-479 -480 0
481 482 483 484 0
-481 -482 0
-481 -483 0
-481 -484 0
-482 -483 0
-482 -484 0
-483 -484 0
485 486 487 488 0
-485 -486 0
-485 -487 0
-485 -488 0
-486 -487 0
-486 -488 0
-487 -488 0
489 490 491 492 0
-489 -490 0
-489 -491 0
-489 -492 0
-490 -491 0
-490 -492 0
-491 -492 0
493 494 495 496 0
-493 -494 0
-493 -495 0
-493 -496 0
-494 -495 0
-494 -496 0
-495 -496 0
497 498 499 500 0
-497 -498 0
-497 -499 0
-497 -500 0
-498 -499 0
-498 -500 0
-499 -500 0
501 502 503 504 0
-501 -502 0
-501 -503 0
-501 -504 0
-502 -503 0
-502 -504 0
-503 -504 0
505 506 507 508 0
-505 -506 0
-505 -507 0
-505 -508 0
-506 -507 0
-506 -508 0
-507 -508 0
509 510 511 512 0
-509 -510 0
-509 -511 0
-509 -512 0
-510 -511 0
-510 -512 0
-511 -512 0
513 514 515 516 0
-513 -514 0
-513 -515 0
-513 -516 0
-514 -515 0
-514 -516 0
-515 -516 0
517 518 519 520 0
-517 -518 0
-517 -519 0
-517 -520 0
-518 -519 0
-518 -520 0
-519 -520 0
521 522 523 524 0
-521 -522 0
-521 -523 0
-521 -524 0
-522 -523 0
-522 -524 0
-523 -524 0
525 526 527 528 0
-525 -526 0
-525 -527 0
-525 -528 0
-526 -527 0
-526 -528 0
-527 -528 0
529 530 531 532 0
-529 -530 0
-529 -531 0
-529 -532 0
-530 -531 0
-530 -532 0
-531 -532 0
533 534 535 536 0
-533 -534 0
-533 -535 0
-533 -536 0
-534 -535 0
-534 -536 0
-535 -536 0
537 538 539 540 0
-537 -538 0
-537 -539 0
-537 -540 0
-538 -539 0
-538 -540 0
-539 -540 0
541 542 543 544 0
-541 -542 0
-541 -543 0
-541 -544 0
-542 -543 0
-542 -544 0
-543 -544 0
545 546 547 548 0
-545 -546 0
-545 -547 0
-545 -548 0
-546 -547 0
-546 -548 0
-547 -548 0
549 550 551 552 0
-549 -550 0
-549 -551 0
-549 -552 0
-550 -551 0
-550 -552 0
-551 -552 0
553 554 555 556 0
-553 -554 0
-553 -555 0
-553 -556 0
-554 -555 0
-554 -556 0
-555 -556 0
557 558 559 560 0
-557 -558 0
-557 -559 0
-557 -560 0
-558 -559 0
-558 -560 0
-559 -560 0
561 562 563 564 0
-561 -562 0
-561 -563 0
-561 -564 0
-562 -563 0
-562 -564 0
-563 -564 0
565 566 567 568 0
-565 -566 0
-565 -567 0
-565 -568 0
-566 -567 0
-566 -568 0
-567 -568 0
569 570 571 572 0
-569 -570 0
-569 -571 0
-569 -572 0
-570 -571 0
-570 -572 0
-571 -572 0
573 574 575 576 0
-573 -574 0
-573 -575 0
-573 -576 0
-574 -575 0
-574 -576 0
-575 -576 0
577 578 579 580 0
-577 -578 0
-577 -579 0
-577 -580 0
-578 -579 0
-578 -580 0
-579 -580 0
581 582 583 584 0
-581 -582 0
-581 -583 0
-581 -584 0
-582 -583 0
-582 -584 0
-583 -584 0
585 586 587 588 0
-585 -586 0
-585 -587 0
-585 -588 0
-586 -587 0
-586 -588 0
-587 -588 0
589 590 591 592 0
-589 -590 0
-589 -591 0
-589 -592 0
-590 -591 0
-590 -592 0
-591 -592 0
593 594 595 596 0
-593 -594 0
-593 -595 0
-593 -596 0
-594 -595 0
-594 -596 0
-595 -596 0
597 598 599 600 0
-597 -598 0
-597 -599 0
-597 -600 0
-598 -599 0
-598 -600 0
-599 -600 0
601 602 603 604 0
-601 -602 0
-601 -603 0
-601 -604 0
-602 -603 0
-602 -604 0
-603 -604 0
605 606 607 608 0
-605 -606 0
-605 -607 0
-605 -608 0
-606 -607 0
-606 -608 0
-607 -608 0
609 610 611 612 0
-609 -610 0
-609 -611 0
-609 -612 0
-610 -611 0
-610 -612 0
-611 -612 0
613 614 615 616 0
-613 -614 0
-613 -615 0
-613 -616 0
-614 -615 0
-614 -616 0
-615 -616 0
617 618 619 620 0
-617 -618 0
-617 -619 0
-617 -620 0
-618 -619 0
-618 -620 0
-619 -620 0
621 622 623 624 0
-621 -622 0
-621 -623 0
-621 -624 0
-622 -623 0
-622 -624 0
-623 -624 0
625 626 627 628 0
-625 -626 0
-625 -627 0
-625 -628 0
-626 -627 0
-626 -628 0
-627 -628 0
629 630 631 632 0
-629 -630 0
-629 -631 0
-629 -632 0
-630 -631 0
-630 -632 0
-631 -632 0
633 634 635 636 0
-633 -634 0
-633 -635 0
-633 -636 0
-634 -635 0
-634 -636 0
-635 -636 0
637 638 639 640 0
-637 -638 0
-637 -639 0
-637 -640 0
-638 -639 0
-638 -640 0
-639 -640 0
641 642 643 644 0
-641 -642 0
-641 -643 0
-641 -644 0
-642 -643 0
-642 -644 0
-643 -644 0
645 646 647 648 0
-645 -646 0
-645 -647 0
-645 -648 0
-646 -647 0
-646 -648 0
-647 -648 0
649 650 651 652 0
-649 -650 0
-649 -651 0
-649 -652 0
-650 -651 0
-650 -652 0
-651 -652 0
653 654 655 656 0
-653 -654 0
-653 -655 0
-653 -656 0
-654 -655 0
-654 -656 0
-655 -656 0
657 658 659 660 0
-657 -658 0
-657 -659 0
-657 -660 0
-658 -659 0
-658 -660 0
-659 -660 0
661 662 663 664 0
-661 -662 0
-661 -663 0
-661 -664 0
-662 -663 0
-662 -664 0
-663 -664 0
665 666 667 668 0
-665 -666 0
-665 -667 0
-665 -668 0
-666 -667 0
-666 -668 0
-667 -668 0
669 670 671 672 0
-669 -670 0
-669 -671 0
-669 -672 0
-670 -671 0
-670 -672 0
-671 -672 0
673 674 675 676 0
-673 -674 0
-673 -675 0
-673 -676 0
-674 -675 0
-674 -676 0
-675 -676 0
677 678 679 680 0
-677 -678 0
-677 -679 0
-677 -680 0
-678 -679 0
-678 -680 0
-679 -680 0
681 682 683 684 0
-681 -682 0
-681 -683 0
-681 -684 0
-682 -683 0
-682 -684 0
-683 -684 0
685 686 687 688 0
-685 -686 0
-685 -687 0
-685 -688 0
-686 -687 0
-686 -688 0
-687 -688 0
689 690 691 692 0
-689 -690 0
-689 -691 0
-689 -692 0
-690 -691 0
-690 -692 0
-691 -692 0
693 694 695 696 0
-693 -694 0
-693 -695 0
-693 -696 0
-694 -695 0
-694 -696 0
-695 -696 0
697 698 699 700 0
-697 -698 0
-697 -699 0
-697 -700 0
-698 -699 0
-698 -700 0
-699 -700 0
701 702 703 704 0
-701 -702 0
-701 -703 0
-701 -704 0
-702 -703 0
-702 -704 0
-703 -704 0
705 706 707 708 0
-705 -706 0
-705 -707 0
-705 -708 0
-706 -707 0
-706 -708 0
-707 -708 0
709 710 711 712 0
-709 -710 0
-709 -711 0
-709 -712 0
-710 -711 0
-710 -712 0
-711 -712 0
713 714 715 716 0
-713 -714 0
-713 -715 0
-713 -716 0
-714 -715 0
-714 -716 0
-715 -716 0
717 718 719 720 0
-717 -718 0
-717 -719 0
-717 -720 0
-718 -719 0
-718 -720 0
-719 -720 0
721 722 723 724 0
-721 -722 0
-721 -723 0
-721 -724 0
-722 -723 0
-722 -724 0
-723 -724 0
725 726 727 728 0
-725 -726 0
-725 -727 0
-725 -728 0
-726 -727 0
-726 -728 0
-727 -728 0
729 730 731 732 0
-729 -730 0
-729 -731 0
-729 -732 0
-730 -731 0
-730 -732 0
-731 -732 0
733 734 735 736 0
-733 -734 0
-733 -735 0
-733 -736 0
-734 -735 0
-734 -736 0
-735 -736 0
737 738 739 740 0
-737 -738 0
-737 -739 0
-737 -740 0
-738 -739 0
-738 -740 0
-739 -740 0
741 742 743 744 0
-741 -742 0
-741 -743 0
-741 -744 0
-742 -743 0
-742 -744 0
-743 -744 0
745 746 747 748 0
-745 -746 0
-745 -747 0
-745 -748 0
-746 -747 0
-746 -748 0
-747 -748 0
749 750 751 752 0
-749 -750 0
-749 -751 0
-749 -752 0
-750 -751 0
-750 -752 0
-751 -752 0
753 754 755 756 0
-753 -754 0
-753 -755 0
-753 -756 0
-754 -755 0
-754 -756 0
-755 -756 0
757 758 759 760 0
-757 -758 0
-757 -759 0
-757 -760 0
-758 -759 0
-758 -760 0
-759 -760 0
761 762 763 764 0
-761 -762 0
-761 -763 0
-761 -764 0
-762 -763 0
-762 -764 0
-763 -764 0
765 766 767 768 0
-765 -766 0
-765 -767 0
-765 -768 0
-766 -767 0
-766 -768 0
-767 -768 0
769 770 771 772 0
-769 -770 0
-769 -771 0
-769 -772 0
-770 -771 0
-770 -772 0
-771 -772 0
773 774 775 776 0
-773 -774 0
-773 -775 0
-773 -776 0
-774 -775 0
-774 -776 0
-775 -776 0
777 778 779 780 0
-777 -778 0
-777 -779 0
-777 -780 0
-778 -779 0
-778 -780 0
-779 -780 0
781 782 783 784 0
-781 -782 0
-781 -783 0
-781 -784 0
-782 -783 0
-782 -784 0
-783 -784 0
785 786 787 788 0
-785 -786 0
-785 -787 0
-785 -788 0
-786 -787 0
-786 -788 0
-787 -788 0
789 790 791 792 0
-789 -790 0
-789 -791 0
-789 -792 0
-790 -791 0
-790 -792 0
-791 -792 0
793 794 795 796 0
-793 -794 0
-793 -795 0
-793 -796 0
-794 -795 0
-794 -796 0
-795 -796 0
797 798 799 800 0
-797 -798 0
-797 -799 0
-797 -800 0
-798 -799 0
-798 -800 0
-799 -800 0
801 802 803 804 0
-801 -802 0
-801 -803 0
-801 -804 0
-802 -803 0
-802 -804 0
-803 -804 0
805 806 807 808 0
-805 -806 0
-805 -807 0
-805 -808 0
-806 -807 0
-806 -808 0
-807 -808 0
809 810 811 812 0
-809 -810 0
-809 -811 0
-809 -812 0
-810 -811 0
-810 -812 0
-811 -812 0
813 814 815 816 0
-813 -814 0
-813 -815 0
-813 -816 0
-814 -815 0
-814 -816 0
-815 -816 0
817 818 819 820 0
-817 -818 0
-817 -819 0
-817 -820 0
-818 -819 0
-818 -820 0
-819 -820 0
821 822 823 824 0
-821 -822 0
-821 -823 0
-821 -824 0
-822 -823 0
-822 -824 0
-823 -824 0
825 826 827 828 0
-825 -826 0
-825 -827 0
-825 -828 0
-826 -827 0
-826 -828 0
-827 -828 0
829 830 831 832 0
-829 -830 0
-829 -831 0
-829 -832 0
-830 -831 0
-830 -832 0
-831 -832 0
833 834 835 836 0
-833 -834 0
-833 -835 0
-833 -836 0
-834 -835 0
-834 -836 0
-835 -836 0
837 838 839 840 0
-837 -838 0
-837 -839 0
-837 -840 0
-838 -839 0
-838 -840 0
-839 -840 0
841 842 843 844 0
-841 -842 0
-841 -843 0
-841 -844 0
-842 -843 0
-842 -844 0
-843 -844 0
845 846 847 848 0
-845 -846 0
-845 -847 0
-845 -848 0
-846 -847 0
-846 -848 0
-847 -848 0
849 850 851 852 0
-849 -850 0
-849 -851 0
-849 -852 0
-850 -851 0
-850 -852 0
-851 -852 0
853 854 855 856 0
-853 -854 0
-853 -855 0
-853 -856 0
-854 -855 0
-854 -856 0
-855 -856 0
857 858 859 860 0
-857 -858 0
-857 -859 0
-857 -860 0
-858 -859 0
-858 -860 0
-859 -860 0
861 862 863 864 0
-861 -862 0
-861 -863 0
-861 -864 0
-862 -863 0
-862 -864 0
-863 -864 0
865 866 867 868 0
-865 -866 0
-865 -867 0
-865 -868 0
-866 -867 0
-866 -868 0
-867 -868 0
869 870 871 872 0
-869 -870 0
-869 -871 0
-869 -872 0
-870 -871 0
-870 -872 0
-871 -872 0
873 874 875 876 0
-873 -874 0
-873 -875 0
-873 -876 0
-874 -875 0
-874 -876 0
-875 -876 0
877 878 879 880 0
-877 -878 0
-877 -879 0
-877 -880 0
-878 -879 0
-878 -880 0
-879 -880 0
881 882 883 884 0
-881 -882 0
-881 -883 0
-881 -884 0
-882 -883 0
-882 -884 0
-883 -884 0
885 886 887 888 0
-885 -886 0
-885 -887 0
-885 -888 0
-886 -887 0
-886 -888 0
-887 -888 0
889 890 891 892 0
-889 -890 0
-889 -891 0
-889 -892 0
-890 -891 0
-890 -892 0
-891 -892 0
893 894 895 896 0
-893 -894 0
-893 -895 0
-893 -896 0
-894 -895 0
-894 -896 0
-895 -896 0
897 898 899 900 0
-897 -898 0
-897 -899 0
-897 -900 0
-898 -899 0
-898 -900 0
-899 -900 0
901 902 903 904 0
-901 -902 0
-901 -903 0
-901 -904 0
-902 -903 0
-902 -904 0
-903 -904 0
905 906 907 908 0
-905 -906 0
-905 -907 0
-905 -908 0
-906 -907 0
-906 -908 0
-907 -908 0
909 910 911 912 0
-909 -910 0
-909 -911 0
-909 -912 0
-910 -911 0
-910 -912 0
-911 -912 0
913 914 915 916 0
-913 -914 0
-913 -915 0
-913 -916 0
-914 -915 0
-914 -916 0
-915 -916 0
917 918 919 920 0
-917 -918 0
-917 -919 0
-917 -920 0
-918 -919 0
-918 -920 0
-919 -920 0
921 922 923 924 0
-921 -922 0
-921 -923 0
-921 -924 0
-922 -923 0
-922 -924 0
-923 -924 0
925 926 927 928 0
-925 -926 0
-925 -927 0
-925 -928 0
-926 -927 0
-926 -928 0
-927 -928 0
929 930 931 932 0
-929 -930 0
-929 -931 0
-929 -932 0
-930 -931 0
-930 -932 0
-931 -932 0
933 934 935 936 0
-933 -934 0
-933 -935 0
-933 -936 0
-934 -935 0
-934 -936 0
-935 -936 0
937 938 939 940 0
-937 -938 0
-937 -939 0
-937 -940 0
-938 -939 0
-938 -940 0
-939 -940 0
941 942 943 944 0
-941 -942 0
-941 -943 0
-941 -944 0
-942 -943 0
-942 -944 0
-943 -944 0
945 946 947 948 0
-945 -946 0
-945 -947 0
-945 -948 0
-946 -947 0
-946 -948 0
-947 -948 0
949 950 951 952 0
-949 -950 0
-949 -951 0
-949 -952 0
-950 -951 0
-950 -952 0
-951 -952 0
953 954 955 956 0
-953 -954 0
-953 -955 0
-953 -956 0
-954 -955 0
-954 -956 0
-955 -956 0
957 958 959 960 0
-957 -958 0
-957 -959 0
-957 -960 0
-958 -959 0
-958 -960 0
-959 -960 0
961 962 963 964 0
-961 -962 0
-961 -963 0
-961 -964 0
-962 -963 0
-962 -964 0
-963 -964 0
965 966 967 968 0
-965 -966 0
-965 -967 0
-965 -968 0
-966 -967 0
-966 -968 0
-967 -968 0
969 970 971 972 0
-969 -970 0
-969 -971 0
-969 -972 0
-970 -971 0
-970 -972 0
-971 -972 0
973 974 975 976 0
-973 -974 0
-973 -975 0
-973 -976 0
-974 -975 0
-974 -976 0
-975 -976 0
977 978 979 980 0
-977 -978 0
-977 -979 0
-977 -980 0
-978 -979 0
-978 -980 0
-979 -980 0
981 982 983 984 0
-981 -982 0
-981 -983 0
-981 -984 0
-982 -983 0
-982 -984 0
-983 -984 0
985 986 987 988 0
-985 -986 0
-985 -987 0
-985 -988 0
-986 -987 0
-986 -988 0
-987 -988 0
989 990 991 992 0
-989 -990 0
-989 -991 0
-989 -992 0
-990 -991 0
-990 -992 0
-991 -992 0
993 994 995 996 0
-993 -994 0
-993 -995 0
-993 -996 0
-994 -995 0
-994 -996 0
-995 -996 0
997 998 999 1000 0
-997 -998 0
-997 -999 0
-997 -1000 0
-998 -999 0
-998 -1000 0
-999 -1000 0
1001 1002 1003 1004 0
-1001 -1002 0
-1001 -1003 0
-1001 -1004 0
-1002 -1003 0
-1002 -1004 0
-1003 -1004 0
1005 1006 1007 1008 0
-1005 -1006 0
-1005 -1007 0
-1005 -1008 0
-1006 -1007 0
-1006 -1008 0
-1007 -1008 0
1009 1010 1011 1012 0
-1009 -1010 0
-1009 -1011 0
-1009 -1012 0
-1010 -1011 0
-1010 -1012 0
-1011 -1012 0
1013 1014 1015 1016 0
-1013 -1014 0
-1013 -1015 0
-1013 -1016 0
-1014 -1015 0
-1014 -1016 0
-1015 -1016 0
1017 1018 1019 1020 0
-1017 -1018 0
-1017 -1019 0
-1017 -1020 0
-1018 -1019 0
-1018 -1020 0
-1019 -1020 0
1021 1022 1023 1024 0
-1021 -1022 0
-1021 -1023 0
-1021 -1024 0
-1022 -1023 0
-1022 -1024 0
-1023 -1024 0
1025 1026 1027 1028 0
-1025 -1026 0
-1025 -1027 0
-1025 -1028 0
-1026 -1027 0
-1026 -1028 0
-1027 -1028 0
1029 1030 1031 1032 0
-1029 -1030 0
-1029 -1031 0
-1029 -1032 0
-1030 -1031 0
-1030 -1032 0
-1031 -1032 0
1033 1034 1035 1036 0
-1033 -1034 0
-1033 -1035 0
-1033 -1036 0
-1034 -1035 0
-1034 -1036 0
-1035 -1036 0
1037 1038 1039 1040 0
-1037 -1038 0
-1037 -1039 0
-1037 -1040 0
-1038 -1039 0
-1038 -1040 0
-1039 -1040 0
1041 1042 1043 1044 0
-1041 -1042 0
-1041 -1043 0
-1041 -1044 0
-1042 -1043 0
-1042 -1044 0
-1043 -1044 0
1045 1046 1047 1048 0
-1045 -1046 0
-1045 -1047 0
-1045 -1048 0
-1046 -1047 0
-1046 -1048 0
-1047 -1048 0
1049 1050 1051 1052 0
-1049 -1050 0
-1049 -1051 0
-1049 -1052 0
-1050 -1051 0
-1050 -1052 0
-1051 -1052 0
1053 1054 1055 1056 0
-1053 -1054 0
-1053 -1055 0
-1053 -1056 0
-1054 -1055 0
-1054 -1056 0
-1055 -1056 0
1057 1058 1059 1060 0
-1057 -1058 0
-1057 -1059 0
-1057 -1060 0
-1058 -1059 0
-1058 -1060 0
-1059 -1060 0
1061 1062 1063 1064 0
-1061 -1062 0
-1061 -1063 0
-1061 -1064 0
-1062 -1063 0
-1062 -1064 0
-1063 -1064 0
1065 1066 1067 1068 0
-1065 -1066 0
-1065 -1067 0
-1065 -1068 0
-1066 -1067 0
-1066 -1068 0
-1067 -1068 0
1069 1070 1071 1072 0
-1069 -1070 0
-1069 -1071 0
-1069 -1072 0
-1070 -1071 0
-1070 -1072 0
-1071 -1072 0
1073 1074 1075 1076 0
-1073 -1074 0
-1073 -1075 0
-1073 -1076 0
-1074 -1075 0
-1074 -1076 0
-1075 -1076 0
1077 1078 1079 1080 0
-1077 -1078 0
-1077 -1079 0
-1077 -1080 0
-1078 -1079 0
-1078 -1080 0
-1079 -1080 0
1081 1082 1083 1084 0
-1081 -1082 0
-1081 -1083 0
-1081 -1084 0
-1082 -1083 0
-1082 -1084 0
-1083 -1084 0
1085 1086 1087 1088 0
-1085 -1086 0
-1085 -1087 0
-1085 -1088 0
-1086 -1087 0
-1086 -1088 0
-1087 -1088 0
1089 1090 1091 1092 0
-1089 -1090 0
-1089 -1091 0
-1089 -1092 0
-1090 -1091 0
-1090 -1092 0
-1091 -1092 0
1093 1094 1095 1096 0
-1093 -1094 0
-1093 -1095 0
-1093 -1096 0
-1094 -1095 0
-1094 -1096 0
-1095 -1096 0
1097 1098 1099 1100 0
-1097 -1098 0
-1097 -1099 0
-1097 -1100 0
-1098 -1099 0
-1098 -1100 0
-1099 -1100 0
1101 1102 1103 1104 0
-1101 -1102 0
-1101 -1103 0
-1101 -1104 0
-1102 -1103 0
-1102 -1104 0
-1103 -1104 0
1105 1106 1107 1108 0
-1105 -1106 0
-1105 -1107 0
-1105 -1108 0
-1106 -1107 0
-1106 -1108 0
-1107 -1108 0
1109 1110 1111 1112 0
-1109 -1110 0
-1109 -1111 0
-1109 -1112 0
-1110 -1111 0
-1110 -1112 0
-1111 -1112 0
1113 1114 1115 1116 0
-1113 -1114 0
-1113 -1115 0
-1113 -1116 0
-1114 -1115 0
-1114 -1116 0
-1115 -1116 0
1117 1118 1119 1120 0
-1117 -1118 0
-1117 -1119 0
-1117 -1120 0
-1118 -1119 0
-1118 -1120 0
-1119 -1120 0
1121 1122 1123 1124 0
-1121 -1122 0
-1121 -1123 0
-1121 -1124 0
-1122 -1123 0
-1122 -1124 0
-1123 -1124 0
1125 1126 1127 1128 0
-1125 -1126 0
-1125 -1127 0
-1125 -1128 0
-1126 -1127 0
-1126 -1128 0
-1127 -1128 0
1129 1130 1131 1132 0
-1129 -1130 0
-1129 -1131 0
-1129 -1132 0
-1130 -1131 0
-1130 -1132 0
-1131 -1132 0
1133 1134 1135 1136 0
-1133 -1134 0
-1133 -1135 0
-1133 -1136 0
-1134 -1135 0
-1134 -1136 0
-1135 -1136 0
1137 1138 1139 1140 0
-1137 -1138 0
-1137 -1139 0
-1137 -1140 0
-1138 -1139 0
-1138 -1140 0
-1139 -1140 0
1141 1142 1143 1144 0
-1141 -1142 0
-1141 -1143 0
-1141 -1144 0
-1142 -1143 0
-1142 -1144 0
-1143 -1144 0
1145 1146 1147 1148 0
-1145 -1146 0
-1145 -1147 0
-1145 -1148 0
-1146 -1147 0
-1146 -1148 0
-1147 -1148 0
1149 1150 1151 1152 0
-1149 -1150 0
-1149 -1151 0
-1149 -1152 0
-1150 -1151 0
-1150 -1152 0
-1151 -1152 0
1153 1154 1155 1156 0
-1153 -1154 0
-1153 -1155 0
-1153 -1156 0
-1154 -1155 0
-1154 -1156 0
-1155 -1156 0
1157 1158 1159 1160 0
-1157 -1158 0
-1157 -1159 0
-1157 -1160 0
-1158 -1159 0
-1158 -1160 0
-1159 -1160 0
1161 1162 1163 1164 0
-1161 -1162 0
-1161 -1163 0
-1161 -1164 0
-1162 -1163 0
-1162 -1164 0
-1163 -1164 0
1165 1166 1167 1168 0
-1165 -1166 0
-1165 -1167 0
-1165 -1168 0
-1166 -1167 0
-1166 -1168 0
-1167 -1168 0
1169 1170 1171 1172 0
-1169 -1170 0
-1169 -1171 0
-1169 -1172 0
-1170 -1171 0
-1170 -1172 0
-1171 -1172 0
1173 1174 1175 1176 0
-1173 -1174 0
-1173 -1175 0
-1173 -1176 0
-1174 -1175 0
-1174 -1176 0
-1175 -1176 0
1177 1178 1179 1180 0
-1177 -1178 0
-1177 -1179 0
-1177 -1180 0
-1178 -1179 0
-1178 -1180 0
-1179 -1180 0
1181 1182 1183 1184 0
-1181 -1182 0
-1181 -1183 0
-1181 -1184 0
-1182 -1183 0
-1182 -1184 0
-1183 -1184 0
1185 1186 1187 1188 0
-1185 -1186 0
-1185 -1187 0
-1185 -1188 0
-1186 -1187 0
-1186 -1188 0
-1187 -1188 0
1189 1190 1191 1192 0
-1189 -1190 0
-1189 -1191 0
-1189 -1192 0
-1190 -1191 0
-1190 -1192 0
-1191 -1192 0
1193 1194 1195 1196 0
-1193 -1194 0
-1193 -1195 0
-1193 -1196 0
-1194 -1195 0
-1194 -1196 0
-1195 -1196 0
1197 1198 1199 1200 0
-1197 -1198 0
-1197 -1199 0
-1197 -1200 0
-1198 -1199 0
-1198 -1200 0
-1199 -1200 0
1201 1202 1203 1204 0
-1201 -1202 0
-1201 -1203 0
-1201 -1204 0
-1202 -1203 0
-1202 -1204 0
-1203 -1204 0
1205 1206 1207 1208 0
-1205 -1206 0
-1205 -1207 0
-1205 -1208 0
-1206 -1207 0
-1206 -1208 0
-1207 -1208 0
1209 1210 1211 1212 0
-1209 -1210 0
-1209 -1211 0
-1209 -1212 0
-1210 -1211 0
-1210 -1212 0
-1211 -1212 0
1213 1214 1215 1216 0
-1213 -1214 0
-1213 -1215 0
-1213 -1216 0
-1214 -1215 0
-1214 -1216 0
-1215 -1216 0
1217 1218 1219 1220 0
-1217 -1218 0
-1217 -1219 0
-1217 -1220 0
-1218 -1219 0
-1218 -1220 0
-1219 -1220 0
1221 1222 1223 1224 0
-1221 -1222 0
-1221 -1223 0
-1221 -1224 0
-1222 -1223 0
-1222 -1224 0
-1223 -1224 0
1225 1226 1227 1228 0
-1225 -1226 0
-1225 -1227 0
-1225 -1228 0
-1226 -1227 0
-1226 -1228 0
-1227 -1228 0
1229 1230 1231 1232 0
-1229 -1230 0
-1229 -1231 0
-1229 -1232 0
-1230 -1231 0
-1230 -1232 0
-1231 -1232 0
1233 1234 1235 1236 0
-1233 -1234 0
-1233 -1235 0
-1233 -1236 0
-1234 -1235 0
-1234 -1236 0
-1235 -1236 0
1237 1238 1239 1240 0
-1237 -1238 0
-1237 -1239 0
-1237 -1240 0
-1238 -1239 0
-1238 -1240 0
-1239 -1240 0
1241 1242 1243 1244 0
-1241 -1242 0
-1241 -1243 0
-1241 -1244 0
-1242 -1243 0
-1242 -1244 0
-1243 -1244 0
1245 1246 1247 1248 0
-1245 -1246 0
-1245 -1247 0
-1245 -1248 0
-1246 -1247 0
-1246 -1248 0
-1247 -1248 0
1249 1250 1251 1252 0
-1249 -1250 0
-1249 -1251 0
-1249 -1252 0
-1250 -1251 0
-1250 -1252 0
-1251 -1252 0
1253 1254 1255 1256 0
-1253 -1254 0
-1253 -1255 0
-1253 -1256 0
-1254 -1255 0
-1254 -1256 0
-1255 -1256 0
1257 1258 1259 1260 0
-1257 -1258 0
-1257 -1259 0
-1257 -1260 0
-1258 -1259 0
-1258 -1260 0
-1259 -1260 0
1261 1262 1263 1264 0
-1261 -1262 0
-1261 -1263 0
-1261 -1264 0
-1262 -1263 0
-1262 -1264 0
-1263 -1264 0
1265 1266 1267 1268 0
-1265 -1266 0
-1265 -1267 0
-1265 -1268 0
-1266 -1267 0
-1266 -1268 0
-1267 -1268 0
1269 1270 1271 1272 0
-1269 -1270 0
-1269 -1271 0
-1269 -1272 0
-1270 -1271 0
-1270 -1272 0
-1271 -1272 0
1273 1274 1275 1276 0
-1273 -1274 0
-1273 -1275 0
-1273 -1276 0
-1274 -1275 0
-1274 -1276 0
-1275 -1276 0
1277 1278 1279 1280 0
-1277 -1278 0
-1277 -1279 0
-1277 -1280 0
-1278 -1279 0
-1278 -1280 0
-1279 -1280 0
1281 1282 1283 1284 0
-1281 -1282 0
-1281 -1283 0
-1281 -1284 0
-1282 -1283 0
-1282 -1284 0
-1283 -1284 0
1285 1286 1287 1288 0
-1285 -1286 0
-1285 -1287 0
-1285 -1288 0
-1286 -1287 0
-1286 -1288 0
-1287 -1288 0
1289 1290 1291 1292 0
-1289 -1290 0
-1289 -1291 0
-1289 -1292 0
-1290 -1291 0
-1290 -1292 0
-1291 -1292 0
1293 1294 1295 1296 0
-1293 -1294 0
-1293 -1295 0
-1293 -1296 0
-1294 -1295 0
-1294 -1296 0
-1295 -1296 0
1297 1298 1299 1300 0
-1297 -1298 0
-1297 -1299 0
-1297 -1300 0
-1298 -1299 0
-1298 -1300 0
-1299 -1300 0
1301 1302 1303 1304 0
-1301 -1302 0
-1301 -1303 0
-1301 -1304 0
-1302 -1303 0
-1302 -1304 0
-1303 -1304 0
1305 1306 1307 1308 0
-1305 -1306 0
-1305 -1307 0
-1305 -1308 0
-1306 -1307 0
-1306 -1308 0
-1307 -1308 0
1309 1310 1311 1312 0
-1309 -1310 0
-1309 -1311 0
-1309 -1312 0
-1310 -1311 0
-1310 -1312 0
-1311 -1312 0
1313 1314 1315 1316 0
-1313 -1314 0
-1313 -1315 0
-1313 -1316 0
-1314 -1315 0
-1314 -1316 0
-1315 -1316 0
1317 1318 1319 1320 0
-1317 -1318 0
-1317 -1319 0
-1317 -1320 0
-1318 -1319 0
-1318 -1320 0
-1319 -1320 0
1321 1322 1323 1324 0
-1321 -1322 0
-1321 -1323 0
-1321 -1324 0
-1322 -1323 0
-1322 -1324 0
-1323 -1324 0
1325 1326 1327 1328 0
-1325 -1326 0
-1325 -1327 0
-1325 -1328 0
-1326 -1327 0
-1326 -1328 0
-1327 -1328 0
1329 1330 1331 1332 0
-1329 -1330 0
-1329 -1331 0
-1329 -1332 0
-1330 -1331 0
-1330 -1332 0
-1331 -1332 0
1333 1334 1335 1336 0
-1333 -1334 0
-1333 -1335 0
-1333 -1336 0
-1334 -1335 0
-1334 -1336 0
-1335 -1336 0
1337 1338 1339 1340 0
-1337 -1338 0
-1337 -1339 0
-1337 -1340 0
-1338 -1339 0
-1338 -1340 0
-1339 -1340 0
1341 1342 1343 1344 0
-1341 -1342 0
-1341 -1343 0
-1341 -1344 0
-1342 -1343 0
-1342 -1344 0
-1343 -1344 0
1345 1346 1347 1348 0
-1345 -1346 0
-1345 -1347 0
-1345 -1348 0
-1346 -1347 0
-1346 -1348 0
-1347 -1348 0
1349 1350 1351 1352 0
-1349 -1350 0
-1349 -1351 0
-1349 -1352 0
-1350 -1351 0
-1350 -1352 0
-1351 -1352 0
1353 1354 1355 1356 0
-1353 -1354 0
-1353 -1355 0
-1353 -1356 0
-1354 -1355 0
-1354 -1356 0
-1355 -1356 0
1357 1358 1359 1360 0
-1357 -1358 0
-1357 -1359 0
-1357 -1360 0
-1358 -1359 0
-1358 -1360 0
-1359 -1360 0
1361 1362 1363 1364 0
-1361 -1362 0
-1361 -1363 0
-1361 -1364 0
-1362 -1363 0
-1362 -1364 0
-1363 -1364 0
1365 1366 1367 1368 0
-1365 -1366 0
-1365 -1367 0
-1365 -1368 0
-1366 -1367 0
-1366 -1368 0
-1367 -1368 0
1369 1370 1371 1372 0
-1369 -1370 0
-1369 -1371 0
-1369 -1372 0
-1370 -1371 0
-1370 -1372 0
-1371 -1372 0
1373 1374 1375 1376 0
-1373 -1374 0
-1373 -1375 0
-1373 -1376 0
-1374 -1375 0
-1374 -1376 0
-1375 -1376 0
1377 1378 1379 1380 0
-1377 -1378 0
-1377 -1379 0
-1377 -1380 0
-1378 -1379 0
-1378 -1380 0
-1379 -1380 0
1381 1382 1383 1384 0
-1381 -1382 0
-1381 -1383 0
-1381 -1384 0
-1382 -1383 0
-1382 -1384 0
-1383 -1384 0
1385 1386 1387 1388 0
-1385 -1386 0
-1385 -1387 0
-1385 -1388 0
-1386 -1387 0
-1386 -1388 0
-1387 -1388 0
1389 1390 1391 1392 0
-1389 -1390 0
-1389 -1391 0
-1389 -1392 0
-1390 -1391 0
-1390 -1392 0
-1391 -1392 0
1393 1394 1395 1396 0
-1393 -1394 0
-1393 -1395 0
-1393 -1396 0
-1394 -1395 0
-1394 -1396 0
-1395 -1396 0
1397 1398 1399 1400 0
-1397 -1398 0
-1397 -1399 0
-1397 -1400 0
-1398 -1399 0
-1398 -1400 0
-1399 -1400 0
1401 1402 1403 1404 0
-1401 -1402 0
-1401 -1403 0
-1401 -1404 0
-1402 -1403 0
-1402 -1404 0
-1403 -1404 0
1405 1406 1407 1408 0
-1405 -1406 0
-1405 -1407 0
-1405 -1408 0
-1406 -1407 0
-1406 -1408 0
-1407 -1408 0
1409 1410 1411 1412 0
-1409 -1410 0
-1409 -1411 0
-1409 -1412 0
-1410 -1411 0
-1410 -1412 0
-1411 -1412 0
1413 1414 1415 1416 0
-1413 -1414 0
-1413 -1415 0
-1413 -1416 0
-1414 -1415 0
-1414 -1416 0
-1415 -1416 0
1417 1418 1419 1420 0
-1417 -1418 0
-1417 -1419 0
-1417 -1420 0
-1418 -1419 0
-1418 -1420 0
-1419 -1420 0
1421 1422 1423 1424 0
-1421 -1422 0
-1421 -1423 0
-1421 -1424 0
-1422 -1423 0
-1422 -1424 0
-1423 -1424 0
1425 1426 1427 1428 0
-1425 -1426 0
-1425 -1427 0
-1425 -1428 0
-1426 -1427 0
-1426 -1428 0
-1427 -1428 0
1429 1430 1431 1432 0
-1429 -1430 0
-1429 -1431 0
-1429 -1432 0
-1430 -1431 0
-1430 -1432 0
-1431 -1432 0
1433 1434 1435 1436 0
-1433 -1434 0
-1433 -1435 0
-1433 -1436 0
-1434 -1435 0
-1434 -1436 0
-1435 -1436 0
1437 1438 1439 1440 0
-1437 -1438 0
-1437 -1439 0
-1437 -1440 0
-1438 -1439 0
-1438 -1440 0
-1439 -1440 0
1441 1442 1443 1444 0
-1441 -1442 0
-1441 -1443 0
-1441 -1444 0
-1442 -1443 0
-1442 -1444 0
-1443 -1444 0
1445 1446 1447 1448 0
-1445 -1446 0
-1445 -1447 0
-1445 -1448 0
-1446 -1447 0
-1446 -1448 0
-1447 -1448 0
1449 1450 1451 1452 0
-1449 -1450 0
-1449 -1451 0
-1449 -1452 0
-1450 -1451 0
-1450 -1452 0
-1451 -1452 0
1453 1454 1455 1456 0
-1453 -1454 0
-1453 -1455 0
-1453 -1456 0
-1454 -1455 0
-1454 -1456 0
-1455 -1456 0
1457 1458 1459 1460 0
-1457 -1458 0
-1457 -1459 0
-1457 -1460 0
-1458 -1459 0
-1458 -1460 0
-1459 -1460 0
1461 1462 1463 1464 0
-1461 -1462 0
-1461 -1463 0
-1461 -1464 0
-1462 -1463 0
-1462 -1464 0
-1463 -1464 0
1465 1466 1467 1468 0
-1465 -1466 0
-1465 -1467 0
-1465 -1468 0
-1466 -1467 0
-1466 -1468 0
-1467 -1468 0
1469 1470 1471 1472 0
-1469 -1470 0
-1469 -1471 0
-1469 -1472 0
-1470 -1471 0
-1470 -1472 0
-1471 -1472 0
1473 1474 1475 1476 0
-1473 -1474 0
-1473 -1475 0
-1473 -1476 0
-1474 -1475 0
-1474 -1476 0
-1475 -1476 0
1477 1478 1479 1480 0
-1477 -1478 0
-1477 -1479 0
-1477 -1480 0
-1478 -1479 0
-1478 -1480 0
-1479 -1480 0
1481 1482 1483 1484 0
-1481 -1482 0
-1481 -1483 0
-1481 -1484 0
-1482 -1483 0
-1482 -1484 0
-1483 -1484 0
1485 1486 1487 1488 0
-1485 -1486 0
-1485 -1487 0
-1485 -1488 0
-1486 -1487 0
-1486 -1488 0
-1487 -1488 0
1489 1490 1491 1492 0
-1489 -1490 0
-1489 -1491 0
-1489 -1492 0
-1490 -1491 0
-1490 -1492 0
-1491 -1492 0
1493 1494 1495 1496 0
-1493 -1494 0
-1493 -1495 0
-1493 -1496 0
-1494 -1495 0
-1494 -1496 0
-1495 -1496 0
1497 1498 1499 1500 0
-1497 -1498 0
-1497 -1499 0
-1497 -1500 0
-1498 -1499 0
-1498 -1500 0
-1499 -1500 0
1501 1502 1503 1504 0
-1501 -1502 0
-1501 -1503 0
-1501 -1504 0
-1502 -1503 0
-1502 -1504 0
-1503 -1504 0
1505 1506 1507 1508 0
-1505 -1506 0
-1505 -1507 0
-1505 -1508 0
-1506 -1507 0
-1506 -1508 0
-1507 -1508 0
1509 1510 1511 1512 0
-1509 -1510 0
-1509 -1511 0
-1509 -1512 0
-1510 -1511 0
-1510 -1512 0
-1511 -1512 0
1513 1514 1515 1516 0
-1513 -1514 0
-1513 -1515 0
-1513 -1516 0
-1514 -1515 0
-1514 -1516 0
-1515 -1516 0
1517 1518 1519 1520 0
-1517 -1518 0
-1517 -1519 0
-1517 -1520 0
-1518 -1519 0
-1518 -1520 0
-1519 -1520 0
1521 1522 1523 1524 0
-1521 -1522 0
-1521 -1523 0
-1521 -1524 0
-1522 -1523 0
-1522 -1524 0
-1523 -1524 0
1525 1526 1527 1528 0
-1525 -1526 0
-1525 -1527 0
-1525 -1528 0
-1526 -1527 0
-1526 -1528 0
-1527 -1528 0
1529 1530 1531 1532 0
-1529 -1530 0
-1529 -1531 0
-1529 -1532 0
-1530 -1531 0
-1530 -1532 0
-1531 -1532 0
1533 1534 1535 1536 0
-1533 -1534 0
-1533 -1535 0
-1533 -1536 0
-1534 -1535 0
-1534 -1536 0
-1535 -1536 0
1537 1538 1539 1540 0
-1537 -1538 0
-1537 -1539 0
-1537 -1540 0
-1538 -1539 0
-1538 -1540 0
-1539 -1540 0
1541 1542 1543 1544 0
-1541 -1542 0
-1541 -1543 0
-1541 -1544 0
-1542 -1543 0
-1542 -1544 0
-1543 -1544 0
1545 1546 1547 1548 0
-1545 -1546 0
-1545 -1547 0
-1545 -1548 0
-1546 -1547 0
-1546 -1548 0
-1547 -1548 0
1549 1550 1551 1552 0
-1549 -1550 0
-1549 -1551 0
-1549 -1552 0
-1550 -1551 0
-1550 -1552 0
-1551 -1552 0
1553 1554 1555 1556 0
-1553 -1554 0
-1553 -1555 0
-1553 -1556 0
-1554 -1555 0
-1554 -1556 0
-1555 -1556 0
1557 1558 1559 1560 0
-1557 -1558 0
-1557 -1559 0
-1557 -1560 0
-1558 -1559 0
-1558 -1560 0
-1559 -1560 0
1561 1562 1563 1564 0
-1561 -1562 0
-1561 -1563 0
-1561 -1564 0
-1562 -1563 0
-1562 -1564 0
-1563 -1564 0
1565 1566 1567 1568 0
-1565 -1566 0
-1565 -1567 0
-1565 -1568 0
-1566 -1567 0
-1566 -1568 0
-1567 -1568 0
1569 1570 1571 1572 0
-1569 -1570 0
-1569 -1571 0
-1569 -1572 0
-1570 -1571 0
-1570 -1572 0
-1571 -1572 0
1573 1574 1575 1576 0
-1573 -1574 0
-1573 -1575 0
-1573 -1576 0
-1574 -1575 0
-1574 -1576 0
-1575 -1576 0
1577 1578 1579 1580 0
-1577 -1578 0
-1577 -1579 0
-1577 -1580 0
-1578 -1579 0
-1578 -1580 0
-1579 -1580 0
1581 1582 1583 1584 0
-1581 -1582 0
-1581 -1583 0
-1581 -1584 0
-1582 -1583 0
-1582 -1584 0
-1583 -1584 0
1585 1586 1587 1588 0
-1585 -1586 0
-1585 -1587 0
-1585 -1588 0
-1586 -1587 0
-1586 -1588 0
-1587 -1588 0
1589 1590 1591 1592 0
-1589 -1590 0
-1589 -1591 0
-1589 -1592 0
-1590 -1591 0
-1590 -1592 0
-1591 -1592 0
1593 1594 1595 1596 0
-1593 -1594 0
-1593 -1595 0
-1593 -1596 0
-1594 -1595 0
-1594 -1596 0
-1595 -1596 0
1597 1598 1599 1600 0
-1597 -1598 0
-1597 -1599 0
-1597 -1600 0
-1598 -1599 0
-1598 -1600 0
-1599 -1600 0
1601 1602 1603 1604 0
-1601 -1602 0
-1601 -1603 0
-1601 -1604 0
-1602 -1603 0
-1602 -1604 0
-1603 -1604 0
1605 1606 1607 1608 0
-1605 -1606 0
-1605 -1607 0
-1605 -1608 0
-1606 -1607 0
-1606 -1608 0
-1607 -1608 0
1609 1610 1611 1612 0
-1609 -1610 0
-1609 -1611 0
-1609 -1612 0
-1610 -1611 0
-1610 -1612 0
-1611 -1612 0
1613 1614 1615 1616 0
-1613 -1614 0
-1613 -1615 0
-1613 -1616 0
-1614 -1615 0
-1614 -1616 0
-1615 -1616 0
1617 1618 1619 1620 0
-1617 -1618 0
-1617 -1619 0
-1617 -1620 0
-1618 -1619 0
-1618 -1620 0
-1619 -1620 0
1621 1622 1623 1624 0
-1621 -1622 0
-1621 -1623 0
-1621 -1624 0
-1622 -1623 0
-1622 -1624 0
-1623 -1624 0
1625 1626 1627 1628 0
-1625 -1626 0
-1625 -1627 0
-1625 -1628 0
-1626 -1627 0
-1626 -1628 0
-1627 -1628 0
1629 1630 1631 1632 0
-1629 -1630 0
-1629 -1631 0
-1629 -1632 0
-1630 -1631 0
-1630 -1632 0
-1631 -1632 0
1633 1634 1635 1636 0
-1633 -1634 0
-1633 -1635 0
-1633 -1636 0
-1634 -1635 0
-1634 -1636 0
-1635 -1636 0
1637 1638 1639 1640 0
-1637 -1638 0
-1637 -1639 0
-1637 -1640 0
-1638 -1639 0
-1638 -1640 0
-1639 -1640 0
1641 1642 1643 1644 0
-1641 -1642 0
-1641 -1643 0
-1641 -1644 0
-1642 -1643 0
-1642 -1644 0
-1643 -1644 0
1645 1646 1647 1648 0
-1645 -1646 0
-1645 -1647 0
-1645 -1648 0
-1646 -1647 0
-1646 -1648 0
-1647 -1648 0
1649 1650 1651 1652 0
-1649 -1650 0
-1649 -1651 0
-1649 -1652 0
-1650 -1651 0
-1650 -1652 0
-1651 -1652 0
1653 1654 1655 1656 0
-1653 -1654 0
-1653 -1655 0
-1653 -1656 0
-1654 -1655 0
-1654 -1656 0
-1655 -1656 0
1657 1658 1659 1660 0
-1657 -1658 0
-1657 -1659 0
-1657 -1660 0
-1658 -1659 0
-1658 -1660 0
-1659 -1660 0
1661 1662 1663 1664 0
-1661 -1662 0
-1661 -1663 0
-1661 -1664 0
-1662 -1663 0
-1662 -1664 0
-1663 -1664 0
1665 1666 1667 1668 0
-1665 -1666 0
-1665 -1667 0
-1665 -1668 0
-1666 -1667 0
-1666 -1668 0
-1667 -1668 0
1669 1670 1671 1672 0
-1669 -1670 0
-1669 -1671 0
-1669 -1672 0
-1670 -1671 0
-1670 -1672 0
-1671 -1672 0
1673 1674 1675 1676 0
-1673 -1674 0
-1673 -1675 0
-1673 -1676 0
-1674 -1675 0
-1674 -1676 0
-1675 -1676 0
1677 1678 1679 1680 0
-1677 -1678 0
-1677 -1679 0
-1677 -1680 0
-1678 -1679 0
-1678 -1680 0
-1679 -1680 0
1681 1682 1683 1684 0
-1681 -1682 0
-1681 -1683 0
-1681 -1684 0
-1682 -1683 0
-1682 -1684 0
-1683 -1684 0
1685 1686 1687 1688 0
-1685 -1686 0
-1685 -1687 0
-1685 -1688 0
-1686 -1687 0
-1686 -1688 0
-1687 -1688 0
1689 1690 1691 1692 0
-1689 -1690 0
-1689 -1691 0
-1689 -1692 0
-1690 -1691 0
-1690 -1692 0
-1691 -1692 0
1693 1694 1695 1696 0
-1693 -1694 0
-1693 -1695 0
-1693 -1696 0
-1694 -1695 0
-1694 -1696 0
-1695 -1696 0
1697 1698 1699 1700 0
-1697 -1698 0
-1697 -1699 0
-1697 -1700 0
-1698 -1699 0
-1698 -1700 0
-1699 -1700 0
1701 1702 1703 1704 0
-1701 -1702 0
-1701 -1703 0
-1701 -1704 0
-1702 -1703 0
-1702 -1704 0
-1703 -1704 0
1705 1706 1707 1708 0
-1705 -1706 0
-1705 -1707 0
-1705 -1708 0
-1706 -1707 0
-1706 -1708 0
-1707 -1708 0
1709 1710 1711 1712 0
-1709 -1710 0
-1709 -1711 0
-1709 -1712 0
-1710 -1711 0
-1710 -1712 0
-1711 -1712 0
1713 1714 1715 1716 0
-1713 -1714 0
-1713 -1715 0
-1713 -1716 0
-1714 -1715 0
-1714 -1716 0
-1715 -1716 0
1717 1718 1719 1720 0
-1717 -1718 0
-1717 -1719 0
-1717 -1720 0
-1718 -1719 0
-1718 -1720 0
-1719 -1720 0
1721 1722 1723 1724 0
-1721 -1722 0
-1721 -1723 0
-1721 -1724 0
-1722 -1723 0
-1722 -1724 0
-1723 -1724 0
1725 1726 1727 1728 0
-1725 -1726 0
-1725 -1727 0
-1725 -1728 0
-1726 -1727 0
-1726 -1728 0
-1727 -1728 0
1729 1730 1731 1732 0
-1729 -1730 0
-1729 -1731 0
-1729 -1732 0
-1730 -1731 0
-1730 -1732 0
-1731 -1732 0
1733 1734 1735 1736 0
-1733 -1734 0
-1733 -1735 0
-1733 -1736 0
-1734 -1735 0
-1734 -1736 0
-1735 -1736 0
1737 1738 1739 1740 0
-1737 -1738 0
-1737 -1739 0
-1737 -1740 0
-1738 -1739 0
-1738 -1740 0
-1739 -1740 0
1741 1742 1743 1744 0
-1741 -1742 0
-1741 -1743 0
-1741 -1744 0
-1742 -1743 0
-1742 -1744 0
-1743 -1744 0
1745 1746 1747 1748 0
-1745 -1746 0
-1745 -1747 0
-1745 -1748 0
-1746 -1747 0
-1746 -1748 0
-1747 -1748 0
1749 1750 1751 1752 0
-1749 -1750 0
-1749 -1751 0
-1749 -1752 0
-1750 -1751 0
-1750 -1752 0
-1751 -1752 0
1753 1754 1755 1756 0
-1753 -1754 0
-1753 -1755 0
-1753 -1756 0
-1754 -1755 0
-1754 -1756 0
-1755 -1756 0
1757 1758 1759 1760 0
-1757 -1758 0
-1757 -1759 0
-1757 -1760 0
-1758 -1759 0
-1758 -1760 0
-1759 -1760 0
1761 1762 1763 1764 0
-1761 -1762 0
-1761 -1763 0
-1761 -1764 0
-1762 -1763 0
-1762 -1764 0
-1763 -1764 0
1765 1766 1767 1768 0
-1765 -1766 0
-1765 -1767 0
-1765 -1768 0
-1766 -1767 0
-1766 -1768 0
-1767 -1768 0
1769 1770 1771 1772 0
-1769 -1770 0
-1769 -1771 0
-1769 -1772 0
-1770 -1771 0
-1770 -1772 0
-1771 -1772 0
1773 1774 1775 1776 0
-1773 -1774 0
-1773 -1775 0
-1773 -1776 0
-1774 -1775 0
-1774 -1776 0
-1775 -1776 0
1777 1778 1779 1780 0
-1777 -1778 0
-1777 -1779 0
-1777 -1780 0
-1778 -1779 0
-1778 -1780 0
-1779 -1780 0
1781 1782 1783 1784 0
-1781 -1782 0
-1781 -1783 0
-1781 -1784 0
-1782 -1783 0
-1782 -1784 0
-1783 -1784 0
1785 1786 1787 1788 0
-1785 -1786 0
-1785 -1787 0
-1785 -1788 0
-1786 -1787 0
-1786 -1788 0
-1787 -1788 0
1789 1790 1791 1792 0
-1789 -1790 0
-1789 -1791 0
-1789 -1792 0
-1790 -1791 0
-1790 -1792 0
-1791 -1792 0
1793 1794 1795 1796 0
-1793 -1794 0
-1793 -1795 0
-1793 -1796 0
-1794 -1795 0
-1794 -1796 0
-1795 -1796 0
1797 1798 1799 1800 0
-1797 -1798 0
-1797 -1799 0
-1797 -1800 0
-1798 -1799 0
-1798 -1800 0
-1799 -1800 0
1801 1802 1803 1804 0
-1801 -1802 0
-1801 -1803 0
-1801 -1804 0
-1802 -1803 0
-1802 -1804 0
-1803 -1804 0
1805 1806 1807 1808 0
-1805 -1806 0
-1805 -1807 0
-1805 -1808 0
-1806 -1807 0
-1806 -1808 0
-1807 -1808 0
1809 1810 1811 1812 0
-1809 -1810 0
-1809 -1811 0
-1809 -1812 0
-1810 -1811 0
-1810 -1812 0
-1811 -1812 0
1813 1814 1815 1816 0
-1813 -1814 0
-1813 -1815 0
-1813 -1816 0
-1814 -1815 0
-1814 -1816 0
-1815 -1816 0
1817 1818 1819 1820 0
-1817 -1818 0
-1817 -1819 0
-1817 -1820 0
-1818 -1819 0
-1818 -1820 0
-1819 -1820 0
1821 1822 1823 1824 0
-1821 -1822 0
-1821 -1823 0
-1821 -1824 0
-1822 -1823 0
-1822 -1824 0
-1823 -1824 0
1825 1826 1827 1828 0
-1825 -1826 0
-1825 -1827 0
-1825 -1828 0
-1826 -1827 0
-1826 -1828 0
-1827 -1828 0
-1 -33 0
-2 -34 0
-3 -35 0
-4 -36 0
-1 -41 0
-2 -42 0
-3 -43 0
-4 -44 0
-1 -57 0
-2 -58 0
-3 -59 0
-4 -60 0
-1 -77 0
-2 -78 0
-3 -79 0
-4 -80 0
-1 -93 0
-2 -94 0
-3 -95 0
-4 -96 0
-1 -113 0
-2 -114 0
-3 -115 0
-4 -116 0
-1 -153 0
-2 -154 0
-3 -155 0
-4 -156 0
-1 -157 0
-2 -158 0
-3 -159 0
-4 -160 0
-1 -169 0
-2 -170 0
-3 -171 0
-4 -172 0
-1 -173 0
-2 -174 0
-3 -175 0
-4 -176 0
-1 -177 0
-2 -178 0
-3 -179 0
-4 -180 0
-1 -249 0
-2 -250 0
-3 -251 0
-4 -252 0
-1 -305 0
-2 -306 0
-3 -307 0
-4 -308 0
-1 -321 0
-2 -322 0
-3 -323 0
-4 -324 0
-1 -377 0
-2 -378 0
-3 -379 0
-4 -380 0
-1 -409 0
-2 -410 0
-3 -411 0
-4 -412 0
-1 -437 0
-2 -438 0
-3 -439 0
-4 -440 0
-5 -61 0
-6 -62 0
-7 -63 0
-8 -64 0
-5 -81 0
-6 -82 0
-7 -83 0
-8 -84 0
-5 -89 0
-6 -90 0
-7 -91 0
-8 -92 0
-5 -885 0
-6 -886 0
-7 -887 0
-8 -888 0
-5 -905 0
-6 -906 0
-7 -907 0
-8 -908 0
-5 -1021 0
-6 -1022 0
-7 -1023 0
-8 -1024 0
-5 -1025 0
-6 -1026 0
-7 -1027 0
-8 -1028 0
-9 -13 0
-10 -14 0
-11 -15 0
-12 -16 0
-9 -21 0
-10 -22 0
-11 -23 0
-12 -24 0
-9 -33 0
-10 -34 0
-11 -35 0
-12 -36 0
-9 -93 0
-10 -94 0
-11 -95 0
-12 -96 0
-9 -105 0
-10 -106 0
-11 -107 0
-12 -108 0
-9 -129 0
-10 -130 0
-11 -131 0
-12 -132 0
-9 -529 0
-10 -530 0
-11 -531 0
-12 -532 0
-9 -1433 0
-10 -1434 0
-11 -1435 0
-12 -1436 0
-13 -21 0
-14 -22 0
-15 -23 0
-16 -24 0
-13 -29 0
-14 -30 0
-15 -31 0
-16 -32 0
-13 -885 0
-14 -886 0
-15 -887 0
-16 -888 0
-13 -893 0
-14 -894 0
-15 -895 0
-16 -896 0
-13 -909 0
-14 -910 0
-15 -911 0
-16 -912 0
-13 -945 0
-14 -946 0
-15 -947 0
-16 -948 0
-17 -29 0
-18 -30 0
-19 -31 0
-20 -32 0
-17 -49 0
-18 -50 0
-19 -51 0
-20 -52 0
-17 -813 0
-18 -814 0
-19 -815 0
-20 -816 0
-17 -861 0
-18 -862 0
-19 -863 0
-20 -864 0
-17 -1417 0
-18 -1418 0
-19 -1419 0
-20 -1420 0
-17 -1429 0
-18 -1430 0
-19 -1431 0
-20 -1432 0
-17 -1697 0
-18 -1698 0
-19 -1699 0
-20 -1700 0
-21 -65 0
-22 -66 0
-23 -67 0
-24 -68 0
-21 -561 0
-22 -562 0
-23 -563 0
-24 -564 0
-21 -1013 0
-22 -1014 0
-23 -1015 0
-24 -1016 0
-21 -1281 0
-22 -1282 0
-23 -1283 0
-24 -1284 0
-21 -1481 0
-22 -1482 0
-23 -1483 0
-24 -1484 0
-21 -1537 0
-22 -1538 0
-23 -1539 0
-24 -1540 0
-21 -1733 0
-22 -1734 0
-23 -1735 0
-24 -1736 0
-25 -69 0
-26 -70 0
-27 -71 0
-28 -72 0
-25 -73 0
-26 -74 0
-27 -75 0
-28 -76 0
-25 -109 0
-26 -110 0
-27 -111 0
-28 -112 0
-25 -953 0
-26 -954 0
-27 -955 0
-28 -956 0
-25 -1281 0
-26 -1282 0
-27 -1283 0
-28 -1284 0
-25 -1481 0
-26 -1482 0
-27 -1483 0
-28 -1484 0
-25 -1493 0
-26 -1494 0
-27 -1495 0
-28 -1496 0
-25 -1573 0
-26 -1574 0
-27 -1575 0
-28 -1576 0
-29 -77 0
-30 -78 0
-31 -79 0
-32 -80 0
-29 -81 0
-30 -82 0
-31 -83 0
-32 -84 0
-29 -93 0
-30 -94 0
-31 -95 0
-32 -96 0
-29 -537 0
-30 -538 0
-31 -539 0
-32 -540 0
-29 -561 0
-30 -562 0
-31 -563 0
-32 -564 0
-29 -849 0
-30 -850 0
-31 -851 0
-32 -852 0
-29 -885 0
-30 -886 0
-31 -887 0
-32 -888 0
-29 -913 0
-30 -914 0
-31 -915 0
-32 -916 0
-29 -953 0
-30 -954 0
-31 -955 0
-32 -956 0
-29 -973 0
-30 -974 0
-31 -975 0
-32 -976 0
-29 -1297 0
-30 -1298 0
-31 -1299 0
-32 -1300 0
-29 -1601 0
-30 -1602 0
-31 -1603 0
-32 -1604 0
-33 -57 0
-34 -58 0
-35 -59 0
-36 -60 0
-33 -65 0
-34 -66 0
-35 -67 0
-36 -68 0
-33 -117 0
-34 -118 0
-35 -119 0
-36 -120 0
-33 -125 0
-34 -126 0
-35 -127 0
-36 -128 0
-33 -129 0
-34 -130 0
-35 -131 0
-36 -132 0
-33 -241 0
-34 -242 0
-35 -243 0
-36 -244 0
-33 -313 0
-34 -314 0
-35 -315 0
-36 -316 0
-33 -333 0
-34 -334 0
-35 -335 0
-36 -336 0
-33 -365 0
-34 -366 0
-35 -367 0
-36 -368 0
-33 -445 0
-34 -446 0
-35 -447 0
-36 -448 0
-33 -893 0
-34 -894 0
-35 -895 0
-36 -896 0
-33 -1497 0
-34 -1498 0
-35 -1499 0
-36 -1500 0
-33 -1797 0
-34 -1798 0
-35 -1799 0
-36 -1800 0
-37 -41 0
-38 -42 0
-39 -43 0
-40 -44 0
-37 -57 0
-38 -58 0
-39 -59 0
-40 -60 0
-37 -69 0
-38 -70 0
-39 -71 0
-40 -72 0
-37 -905 0
-38 -906 0
-39 -907 0
-40 -908 0
-37 -1017 0
-38 -1018 0
-39 -1019 0
-40 -1020 0
-37 -1025 0
-38 -1026 0
-39 -1027 0
-40 -1028 0
-37 -1041 0
-38 -1042 0
-39 -1043 0
-40 -1044 0
-37 -1053 0
-38 -1054 0
-39 -1055 0
-40 -1056 0
-37 -1089 0
-38 -1090 0
-39 -1091 0
-40 -1092 0
-37 -1105 0
-38 -1106 0
-39 -1107 0
-40 -1108 0
-37 -1181 0
-38 -1182 0
-39 -1183 0
-40 -1184 0
-37 -1217 0
-38 -1218 0
-39 -1219 0
-40 -1220 0
-37 -1237 0
-38 -1238 0
-39 -1239 0
-40 -1240 0
-37 -1249 0
-38 -1250 0
-39 -1251 0
-40 -1252 0
-37 -1497 0
-38 -1498 0
-39 -1499 0
-40 -1500 0
-37 -1505 0
-38 -1506 0
-39 -1507 0
-40 -1508 0
-37 -1577 0
-38 -1578 0
-39 -1579 0
-40 -1580 0
-41 -69 0
-42 -70 0
-43 -71 0
-44 -72 0
-41 -77 0
-42 -78 0
-43 -79 0
-44 -80 0
-41 -545 0
-42 -546 0
-43 -547 0
-44 -548 0
-41 -549 0
-42 -550 0
-43 -551 0
-44 -552 0
-41 -553 0
-42 -554 0
-43 -555 0
-44 -556 0
-41 -565 0
-42 -566 0
-43 -567 0
-44 -568 0
-41 -625 0
-42 -626 0
-43 -627 0
-44 -628 0
-41 -665 0
-42 -666 0
-43 -667 0
-44 -668 0
-41 -677 0
-42 -678 0
-43 -679 0
-44 -680 0
-41 -697 0
-42 -698 0
-43 -699 0
-44 -700 0
-41 -713 0
-42 -714 0
-43 -715 0
-44 -716 0
-41 -813 0
-42 -814 0
-43 -815 0
-44 -816 0
-41 -1497 0
-42 -1498 0
-43 -1499 0
-44 -1500 0
-45 -77 0
-46 -78 0
-47 -79 0
-48 -80 0
-45 -889 0
-46 -890 0
-47 -891 0
-48 -892 0
-45 -893 0
-46 -894 0
-47 -895 0
-48 -896 0
-45 -949 0
-46 -950 0
-47 -951 0
-48 -952 0
-45 -965 0
-46 -966 0
-47 -967 0
-48 -968 0
-45 -1001 0
-46 -1002 0
-47 -1003 0
-48 -1004 0
-45 -1117 0
-46 -1118 0
-47 -1119 0
-48 -1120 0
-45 -1301 0
-46 -1302 0
-47 -1303 0
-48 -1304 0
-45 -1333 0
-46 -1334 0
-47 -1335 0
-48 -1336 0
-49 -81 0
-50 -82 0
-51 -83 0
-52 -84 0
-49 -545 0
-50 -546 0
-51 -547 0
-52 -548 0
-49 -813 0
-50 -814 0
-51 -815 0
-52 -816 0
-49 -1597 0
-50 -1598 0
-51 -1599 0
-52 -1600 0
-49 -1629 0
-50 -1630 0
-51 -1631 0
-52 -1632 0
-49 -1661 0
-50 -1662 0
-51 -1663 0
-52 -1664 0
-53 -57 0
-54 -58 0
-55 -59 0
-56 -60 0
-53 -737 0
-54 -738 0
-55 -739 0
-56 -740 0
-53 -1037 0
-54 -1038 0
-55 -1039 0
-56 -1040 0
-53 -1057 0
-54 -1058 0
-55 -1059 0
-56 -1060 0
-53 -1081 0
-54 -1082 0
-55 -1083 0
-56 -1084 0
-53 -1097 0
-54 -1098 0
-55 -1099 0
-56 -1100 0
-53 -1165 0
-54 -1166 0
-55 -1167 0
-56 -1168 0
-57 -61 0
-58 -62 0
-59 -63 0
-60 -64 0
-57 -101 0
-58 -102 0
-59 -103 0
-60 -104 0
-57 -105 0
-58 -106 0
-59 -107 0
-60 -108 0
-57 -133 0
-58 -134 0
-59 -135 0
-60 -136 0
-57 -157 0
-58 -158 0
-59 -159 0
-60 -160 0
-57 -161 0
-58 -162 0
-59 -163 0
-60 -164 0
-57 -181 0
-58 -182 0
-59 -183 0
-60 -184 0
-57 -209 0
-58 -210 0
-59 -211 0
-60 -212 0
-57 -273 0
-58 -274 0
-59 -275 0
-60 -276 0
-57 -325 0
-58 -326 0
-59 -327 0
-60 -328 0
-57 -333 0
-58 -334 0
-59 -335 0
-60 -336 0
-57 -369 0
-58 -370 0
-59 -371 0
-60 -372 0
-57 -425 0
-58 -426 0
-59 -427 0
-60 -428 0
-57 -781 0
-58 -782 0
-59 -783 0
-60 -784 0
-57 -905 0
-58 -906 0
-59 -907 0
-60 -908 0
-57 -1077 0
-58 -1078 0
-59 -1079 0
-60 -1080 0
-57 -1205 0
-58 -1206 0
-59 -1207 0
-60 -1208 0
-57 -1209 0
-58 -1210 0
-59 -1211 0
-60 -1212 0
-61 -105 0
-62 -106 0
-63 -107 0
-64 -108 0
-61 -113 0
-62 -114 0
-63 -115 0
-64 -116 0
-61 -129 0
-62 -130 0
-63 -131 0
-64 -132 0
-61 -149 0
-62 -150 0
-63 -151 0
-64 -152 0
-61 -517 0
-62 -518 0
-63 -519 0
-64 -520 0
-61 -781 0
-62 -782 0
-63 -783 0
-64 -784 0
-61 -1025 0
-62 -1026 0
-63 -1027 0
-64 -1028 0
-61 -1033 0
-62 -1034 0
-63 -1035 0
-64 -1036 0
-61 -1037 0
-62 -1038 0
-63 -1039 0
-64 -1040 0
-61 -1093 0
-62 -1094 0
-63 -1095 0
-64 -1096 0
-61 -1177 0
-62 -1178 0
-63 -1179 0
-64 -1180 0
-61 -1213 0
-62 -1214 0
-63 -1215 0
-64 -1216 0
-61 -1269 0
-62 -1270 0
-63 -1271 0
-64 -1272 0
-65 -765 0
-66 -766 0
-67 -767 0
-68 -768 0
-65 -893 0
-66 -894 0
-67 -895 0
-68 -896 0
-65 -1529 0
-66 -1530 0
-67 -1531 0
-68 -1532 0
-65 -1537 0
-66 -1538 0
-67 -1539 0
-68 -1540 0
-65 -1549 0
-66 -1550 0
-67 -1551 0
-68 -1552 0
-65 -1565 0
-66 -1566 0
-67 -1567 0
-68 -1568 0
-65 -1589 0
-66 -1590 0
-67 -1591 0
-68 -1592 0
-65 -1741 0
-66 -1742 0
-67 -1743 0
-68 -1744 0
-69 -73 0
-70 -74 0
-71 -75 0
-72 -76 0
-69 -157 0
-70 -158 0
-71 -159 0
-72 -160 0
-69 -765 0
-70 -766 0
-71 -767 0
-72 -768 0
-69 -1377 0
-70 -1378 0
-71 -1379 0
-72 -1380 0
-69 -1573 0
-70 -1574 0
-71 -1575 0
-72 -1576 0
-69 -1589 0
-70 -1590 0
-71 -1591 0
-72 -1592 0
-69 -1669 0
-70 -1670 0
-71 -1671 0
-72 -1672 0
-69 -1749 0
-70 -1750 0
-71 -1751 0
-72 -1752 0
-69 -1757 0
-70 -1758 0
-71 -1759 0
-72 -1760 0
-73 -89 0
-74 -90 0
-75 -91 0
-76 -92 0
-73 -149 0
-74 -150 0
-75 -151 0
-76 -152 0
-73 -545 0
-74 -546 0
-75 -547 0
-76 -548 0
-73 -1025 0
-74 -1026 0
-75 -1027 0
-76 -1028 0
-73 -1525 0
-74 -1526 0
-75 -1527 0
-76 -1528 0
-73 -1569 0
-74 -1570 0
-75 -1571 0
-76 -1572 0
-73 -1593 0
-74 -1594 0
-75 -1595 0
-76 -1596 0
-77 -81 0
-78 -82 0
-79 -83 0
-80 -84 0
-77 -537 0
-78 -538 0
-79 -539 0
-80 -540 0
-77 -577 0
-78 -578 0
-79 -579 0
-80 -580 0
-77 -609 0
-78 -610 0
-79 -611 0
-80 -612 0
-77 -613 0
-78 -614 0
-79 -615 0
-80 -616 0
-77 -645 0
-78 -646 0
-79 -647 0
-80 -648 0
-77 -653 0
-78 -654 0
-79 -655 0
-80 -656 0
-77 -657 0
-78 -658 0
-79 -659 0
-80 -660 0
-77 -813 0
-78 -814 0
-79 -815 0
-80 -816 0
-77 -893 0
-78 -894 0
-79 -895 0
-80 -896 0
-77 -905 0
-78 -906 0
-79 -907 0
-80 -908 0
-77 -1349 0
-78 -1350 0
-79 -1351 0
-80 -1352 0
-81 -89 0
-82 -90 0
-83 -91 0
-84 -92 0
-81 -113 0
-82 -114 0
-83 -115 0
-84 -116 0
-81 -545 0
-82 -546 0
-83 -547 0
-84 -548 0
-81 -889 0
-82 -890 0
-83 -891 0
-84 -892 0
-81 -985 0
-82 -986 0
-83 -987 0
-84 -988 0
-85 -273 0
-86 -274 0
-87 -275 0
-88 -276 0
-85 -425 0
-86 -426 0
-87 -427 0
-88 -428 0
-85 -813 0
-86 -814 0
-87 -815 0
-88 -816 0
-85 -1645 0
-86 -1646 0
-87 -1647 0
-88 -1648 0
-85 -1669 0
-86 -1670 0
-87 -1671 0
-88 -1672 0
-85 -1729 0
-86 -1730 0
-87 -1731 0
-88 -1732 0
-85 -1813 0
-86 -1814 0
-87 -1815 0
-88 -1816 0
-85 -1821 0
-86 -1822 0
-87 -1823 0
-88 -1824 0
-89 -149 0
-90 -150 0
-91 -151 0
-92 -152 0
-89 -953 0
-90 -954 0
-91 -955 0
-92 -956 0
-93 -105 0
-94 -106 0
-95 -107 0
-96 -108 0
-93 -109 0
-94 -110 0
-95 -111 0
-96 -112 0
-93 -113 0
-94 -114 0
-95 -115 0
-96 -116 0
-93 -121 0
-94 -122 0
-95 -123 0
-96 -124 0
-93 -185 0
-94 -186 0
-95 -187 0
-96 -188 0
-93 -189 0
-94 -190 0
-95 -191 0
-96 -192 0
-93 -401 0
-94 -402 0
-95 -403 0
-96 -404 0
-93 -453 0
-94 -454 0
-95 -455 0
-96 -456 0
-93 -485 0
-94 -486 0
-95 -487 0
-96 -488 0
-93 -557 0
-94 -558 0
-95 -559 0
-96 -560 0
-93 -561 0
-94 -562 0
-95 -563 0
-96 -564 0
-93 -589 0
-94 -590 0
-95 -591 0
-96 -592 0
-93 -633 0
-94 -634 0
-95 -635 0
-96 -636 0
-93 -877 0
-94 -878 0
-95 -879 0
-96 -880 0
-97 -101 0
-98 -102 0
-99 -103 0
-100 -104 0
-97 -113 0
-98 -114 0
-99 -115 0
-100 -116 0
-97 -129 0
-98 -130 0
-99 -131 0
-100 -132 0
-97 -141 0
-98 -142 0
-99 -143 0
-100 -144 0
-97 -145 0
-98 -146 0
-99 -147 0
-100 -148 0
-97 -297 0
-98 -298 0
-99 -299 0
-100 -300 0
-97 -353 0
-98 -354 0
-99 -355 0
-100 -356 0
-97 -369 0
-98 -370 0
-99 -371 0
-100 -372 0
-97 -397 0
-98 -398 0
-99 -399 0
-100 -400 0
-97 -449 0
-98 -450 0
-99 -451 0
-100 -452 0
-97 -465 0
-98 -466 0
-99 -467 0
-100 -468 0
-97 -505 0
-98 -506 0
-99 -507 0
-100 -508 0
-97 -889 0
-98 -890 0
-99 -891 0
-100 -892 0
-97 -1393 0
-98 -1394 0
-99 -1395 0
-100 -1396 0
-97 -1717 0
-98 -1718 0
-99 -1719 0
-100 -1720 0
-101 -105 0
-102 -106 0
-103 -107 0
-104 -108 0
-101 -133 0
-102 -134 0
-103 -135 0
-104 -136 0
-101 -137 0
-102 -138 0
-103 -139 0
-104 -140 0
-101 -229 0
-102 -230 0
-103 -231 0
-104 -232 0
-101 -293 0
-102 -294 0
-103 -295 0
-104 -296 0
-101 -297 0
-102 -298 0
-103 -299 0
-104 -300 0
-101 -309 0
-102 -310 0
-103 -311 0
-104 -312 0
-101 -513 0
-102 -514 0
-103 -515 0
-104 -516 0
-101 -801 0
-102 -802 0
-103 -803 0
-104 -804 0
-101 -901 0
-102 -902 0
-103 -903 0
-104 -904 0
-101 -1505 0
-102 -1506 0
-103 -1507 0
-104 -1508 0
-105 -109 0
-106 -110 0
-107 -111 0
-108 -112 0
-105 -465 0
-106 -466 0
-107 -467 0
-108 -468 0
-105 -785 0
-106 -786 0
-107 -787 0
-108 -788 0
-105 -801 0
-106 -802 0
-107 -803 0
-108 -804 0
-105 -885 0
-106 -886 0
-107 -887 0
-108 -888 0
-105 -1013 0
-106 -1014 0
-107 -1015 0
-108 -1016 0
-105 -1049 0
-106 -1050 0
-107 -1051 0
-108 -1052 0
-105 -1057 0
-106 -1058 0
-107 -1059 0
-108 -1060 0
-105 -1153 0
-106 -1154 0
-107 -1155 0
-108 -1156 0
-105 -1197 0
-106 -1198 0
-107 -1199 0
-108 -1200 0
-105 -1245 0
-106 -1246 0
-107 -1247 0
-108 -1248 0
-105 -1269 0
-106 -1270 0
-107 -1271 0
-108 -1272 0
-105 -1389 0
-106 -1390 0
-107 -1391 0
-108 -1392 0
-105 -1397 0
-106 -1398 0
-107 -1399 0
-108 -1400 0
-105 -1441 0
-106 -1442 0
-107 -1443 0
-108 -1444 0
-105 -1445 0
-106 -1446 0
-107 -1447 0
-108 -1448 0
-109 -121 0
-110 -122 0
-111 -123 0
-112 -124 0
-109 -125 0
-110 -126 0
-111 -127 0
-112 -128 0
-109 -137 0
-110 -138 0
-111 -139 0
-112 -140 0
-109 -149 0
-110 -150 0
-111 -151 0
-112 -152 0
-109 -157 0
-110 -158 0
-111 -159 0
-112 -160 0
-109 -313 0
-110 -314 0
-111 -315 0
-112 -316 0
-109 -405 0
-110 -406 0
-111 -407 0
-112 -408 0
-109 -413 0
-110 -414 0
-111 -415 0
-112 -416 0
-109 -441 0
-110 -442 0
-111 -443 0
-112 -444 0
-109 -953 0
-110 -954 0
-111 -955 0
-112 -956 0
-109 -1401 0
-110 -1402 0
-111 -1403 0
-112 -1404 0
-109 -1413 0
-110 -1414 0
-111 -1415 0
-112 -1416 0
-109 -1753 0
-110 -1754 0
-111 -1755 0
-112 -1756 0
-109 -1769 0
-110 -1770 0
-111 -1771 0
-112 -1772 0
-109 -1773 0
-110 -1774 0
-111 -1775 0
-112 -1776 0
-113 -129 0
-114 -130 0
-115 -131 0
-116 -132 0
-113 -145 0
-114 -146 0
-115 -147 0
-116 -148 0
-113 -149 0
-114 -150 0
-115 -151 0
-116 -152 0
-113 -165 0
-114 -166 0
-115 -167 0
-116 -168 0
-113 -169 0
-114 -170 0
-115 -171 0
-116 -172 0
-113 -309 0
-114 -310 0
-115 -311 0
-116 -312 0
-113 -317 0
-114 -318 0
-115 -319 0
-116 -320 0
-113 -361 0
-114 -362 0
-115 -363 0
-116 -364 0
-113 -385 0
-114 -386 0
-115 -387 0
-116 -388 0
-113 -393 0
-114 -394 0
-115 -395 0
-116 -396 0
-113 -477 0
-114 -478 0
-115 -479 0
-116 -480 0
-113 -485 0
-114 -486 0
-115 -487 0
-116 -488 0
-113 -541 0
-114 -542 0
-115 -543 0
-116 -544 0
-113 -545 0
-114 -546 0
-115 -547 0
-116 -548 0
-113 -573 0
-114 -574 0
-115 -575 0
-116 -576 0
-113 -593 0
-114 -594 0
-115 -595 0
-116 -596 0
-113 -597 0
-114 -598 0
-115 -599 0
-116 -600 0
-113 -637 0
-114 -638 0
-115 -639 0
-116 -640 0
-113 -673 0
-114 -674 0
-115 -675 0
-116 -676 0
-113 -1613 0
-114 -1614 0
-115 -1615 0
-116 -1616 0
-117 -125 0
-118 -126 0
-119 -127 0
-120 -128 0
-117 -137 0
-118 -138 0
-119 -139 0
-120 -140 0
-117 -145 0
-118 -146 0
-119 -147 0
-120 -148 0
-117 -161 0
-118 -162 0
-119 -163 0
-120 -164 0
-117 -201 0
-118 -202 0
-119 -203 0
-120 -204 0
-117 -433 0
-118 -434 0
-119 -435 0
-120 -436 0
-117 -1305 0
-118 -1306 0
-119 -1307 0
-120 -1308 0
-121 -133 0
-122 -134 0
-123 -135 0
-124 -136 0
-121 -141 0
-122 -142 0
-123 -143 0
-124 -144 0
-121 -165 0
-122 -166 0
-123 -167 0
-124 -168 0
-121 -173 0
-122 -174 0
-123 -175 0
-124 -176 0
-121 -221 0
-122 -222 0
-123 -223 0
-124 -224 0
-121 -273 0
-122 -274 0
-123 -275 0
-124 -276 0
-121 -285 0
-122 -286 0
-123 -287 0
-124 -288 0
-121 -297 0
-122 -298 0
-123 -299 0
-124 -300 0
-121 -301 0
-122 -302 0
-123 -303 0
-124 -304 0
-121 -329 0
-122 -330 0
-123 -331 0
-124 -332 0
-121 -389 0
-122 -390 0
-123 -391 0
-124 -392 0
-121 -1297 0
-122 -1298 0
-123 -1299 0
-124 -1300 0
-121 -1361 0
-122 -1362 0
-123 -1363 0
-124 -1364 0
-121 -1493 0
-122 -1494 0
-123 -1495 0
-124 -1496 0
-121 -1821 0
-122 -1822 0
-123 -1823 0
-124 -1824 0
-125 -129 0
-126 -130 0
-127 -131 0
-128 -132 0
-125 -141 0
-126 -142 0
-127 -143 0
-128 -144 0
-125 -169 0
-126 -170 0
-127 -171 0
-128 -172 0
-125 -185 0
-126 -186 0
-127 -187 0
-128 -188 0
-125 -201 0
-126 -202 0
-127 -203 0
-128 -204 0
-125 -225 0
-126 -226 0
-127 -227 0
-128 -228 0
-125 -457 0
-126 -458 0
-127 -459 0
-128 -460 0
-125 -781 0
-126 -782 0
-127 -783 0
-128 -784 0
-125 -785 0
-126 -786 0
-127 -787 0
-128 -788 0
-125 -993 0
-126 -994 0
-127 -995 0
-128 -996 0
-125 -1281 0
-126 -1282 0
-127 -1283 0
-128 -1284 0
-125 -1781 0
-126 -1782 0
-127 -1783 0
-128 -1784 0
-125 -1789 0
-126 -1790 0
-127 -1791 0
-128 -1792 0
-125 -1805 0
-126 -1806 0
-127 -1807 0
-128 -1808 0
-129 -501 0
-130 -502 0
-131 -503 0
-132 -504 0
-129 -1393 0
-130 -1394 0
-131 -1395 0
-132 -1396 0
-129 -1413 0
-130 -1414 0
-131 -1415 0
-132 -1416 0
-129 -1625 0
-130 -1626 0
-131 -1627 0
-132 -1628 0
-129 -1641 0
-130 -1642 0
-131 -1643 0
-132 -1644 0
-129 -1745 0
-130 -1746 0
-131 -1747 0
-132 -1748 0
-129 -1801 0
-130 -1802 0
-131 -1803 0
-132 -1804 0
-129 -1805 0
-130 -1806 0
-131 -1807 0
-132 -1808 0
-133 -141 0
-134 -142 0
-135 -143 0
-136 -144 0
-133 -153 0
-134 -154 0
-135 -155 0
-136 -156 0
-133 -161 0
-134 -162 0
-135 -163 0
-136 -164 0
-133 -197 0
-134 -198 0
-135 -199 0
-136 -200 0
-133 -213 0
-134 -214 0
-135 -215 0
-136 -216 0
-133 -281 0
-134 -282 0
-135 -283 0
-136 -284 0
-133 -329 0
-134 -330 0
-135 -331 0
-136 -332 0
-133 -817 0
-134 -818 0
-135 -819 0
-136 -820 0
-133 -869 0
-134 -870 0
-135 -871 0
-136 -872 0
-133 -1053 0
-134 -1054 0
-135 -1055 0
-136 -1056 0
-137 -145 0
-138 -146 0
-139 -147 0
-140 -148 0
-137 -157 0
-138 -158 0
-139 -159 0
-140 -160 0
-137 -233 0
-138 -234 0
-139 -235 0
-140 -236 0
-137 -309 0
-138 -310 0
-139 -311 0
-140 -312 0
-137 -313 0
-138 -314 0
-139 -315 0
-140 -316 0
-137 -421 0
-138 -422 0
-139 -423 0
-140 -424 0
-137 -1009 0
-138 -1010 0
-139 -1011 0
-140 -1012 0
-137 -1573 0
-138 -1574 0
-139 -1575 0
-140 -1576 0
-141 -169 0
-142 -170 0
-143 -171 0
-144 -172 0
-141 -185 0
-142 -186 0
-143 -187 0
-144 -188 0
-141 -197 0
-142 -198 0
-143 -199 0
-144 -200 0
-141 -265 0
-142 -266 0
-143 -267 0
-144 -268 0
-141 -349 0
-142 -350 0
-143 -351 0
-144 -352 0
-141 -369 0
-142 -370 0
-143 -371 0
-144 -372 0
-141 -389 0
-142 -390 0
-143 -391 0
-144 -392 0
-141 -857 0
-142 -858 0
-143 -859 0
-144 -860 0
-141 -1069 0
-142 -1070 0
-143 -1071 0
-144 -1072 0
-141 -1301 0
-142 -1302 0
-143 -1303 0
-144 -1304 0
-145 -165 0
-146 -166 0
-147 -167 0
-148 -168 0
-145 -205 0
-146 -206 0
-147 -207 0
-148 -208 0
-145 -241 0
-146 -242 0
-147 -243 0
-148 -244 0
-145 -289 0
-146 -290 0
-147 -291 0
-148 -292 0
-145 -341 0
-146 -342 0
-147 -343 0
-148 -344 0
-145 -421 0
-146 -422 0
-147 -423 0
-148 -424 0
-149 -157 0
-150 -158 0
-151 -159 0
-152 -160 0
-149 -165 0
-150 -166 0
-151 -167 0
-152 -168 0
-149 -1753 0
-150 -1754 0
-151 -1755 0
-152 -1756 0
-149 -1777 0
-150 -1778 0
-151 -1779 0
-152 -1780 0
-153 -565 0
-154 -566 0
-155 -567 0
-156 -568 0
-153 -577 0
-154 -578 0
-155 -579 0
-156 -580 0
-157 -173 0
-158 -174 0
-159 -175 0
-160 -176 0
-157 -201 0
-158 -202 0
-159 -203 0
-160 -204 0
-157 -205 0
-158 -206 0
-159 -207 0
-160 -208 0
-157 -217 0
-158 -218 0
-159 -219 0
-160 -220 0
-157 -381 0
-158 -382 0
-159 -383 0
-160 -384 0
-161 -165 0
-162 -166 0
-163 -167 0
-164 -168 0
-161 -781 0
-162 -782 0
-163 -783 0
-164 -784 0
-161 -1029 0
-162 -1030 0
-163 -1031 0
-164 -1032 0
-161 -1041 0
-162 -1042 0
-163 -1043 0
-164 -1044 0
-165 -173 0
-166 -174 0
-167 -175 0
-168 -176 0
-165 -273 0
-166 -274 0
-167 -275 0
-168 -276 0
-165 -337 0
-166 -338 0
-167 -339 0
-168 -340 0
-165 -357 0
-166 -358 0
-167 -359 0
-168 -360 0
-165 -1569 0
-166 -1570 0
-167 -1571 0
-168 -1572 0
-169 -361 0
-170 -362 0
-171 -363 0
-172 -364 0
-169 -549 0
-170 -550 0
-171 -551 0
-172 -552 0
-169 -569 0
-170 -570 0
-171 -571 0
-172 -572 0
-169 -629 0
-170 -630 0
-171 -631 0
-172 -632 0
-169 -781 0
-170 -782 0
-171 -783 0
-172 -784 0
-173 -193 0
-174 -194 0
-175 -195 0
-176 -196 0
-173 -261 0
-174 -262 0
-175 -263 0
-176 -264 0
-177 -193 0
-178 -194 0
-179 -195 0
-180 -196 0
-177 -217 0
-178 -218 0
-179 -219 0
-180 -220 0
-177 -269 0
-178 -270 0
-179 -271 0
-180 -272 0
-177 -377 0
-178 -378 0
-179 -379 0
-180 -380 0
-177 -481 0
-178 -482 0
-179 -483 0
-180 -484 0
-177 -613 0
-178 -614 0
-179 -615 0
-180 -616 0
-177 -625 0
-178 -626 0
-179 -627 0
-180 -628 0
-177 -629 0
-178 -630 0
-179 -631 0
-180 -632 0
-177 -637 0
-178 -638 0
-179 -639 0
-180 -640 0
-177 -1077 0
-178 -1078 0
-179 -1079 0
-180 -1080 0
-181 -197 0
-182 -198 0
-183 -199 0
-184 -200 0
-181 -201 0
-182 -202 0
-183 -203 0
-184 -204 0
-181 -337 0
-182 -338 0
-183 -339 0
-184 -340 0
-181 -357 0
-182 -358 0
-183 -359 0
-184 -360 0
-181 -369 0
-182 -370 0
-183 -371 0
-184 -372 0
-181 -785 0
-182 -786 0
-183 -787 0
-184 -788 0
-181 -1105 0
-182 -1106 0
-183 -1107 0
-184 -1108 0
-185 -189 0
-186 -190 0
-187 -191 0
-188 -192 0
-185 -253 0
-186 -254 0
-187 -255 0
-188 -256 0
-185 -481 0
-186 -482 0
-187 -483 0
-188 -484 0
-185 -785 0
-186 -786 0
-187 -787 0
-188 -788 0
-185 -1393 0
-186 -1394 0
-187 -1395 0
-188 -1396 0
-189 -257 0
-190 -258 0
-191 -259 0
-192 -260 0
-189 -385 0
-190 -386 0
-191 -387 0
-192 -388 0
-189 -389 0
-190 -390 0
-191 -391 0
-192 -392 0
-189 -401 0
-190 -402 0
-191 -403 0
-192 -404 0
-189 -465 0
-190 -466 0
-191 -467 0
-192 -468 0
-189 -805 0
-190 -806 0
-191 -807 0
-192 -808 0
-193 -197 0
-194 -198 0
-195 -199 0
-196 -200 0
-193 -217 0
-194 -218 0
-195 -219 0
-196 -220 0
-193 -221 0
-194 -222 0
-195 -223 0
-196 -224 0
-193 -261 0
-194 -262 0
-195 -263 0
-196 -264 0
-193 -281 0
-194 -282 0
-195 -283 0
-196 -284 0
-193 -357 0
-194 -358 0
-195 -359 0
-196 -360 0
-193 -749 0
-194 -750 0
-195 -751 0
-196 -752 0
-193 -1313 0
-194 -1314 0
-195 -1315 0
-196 -1316 0
-197 -261 0
-198 -262 0
-199 -263 0
-200 -264 0
-197 -1085 0
-198 -1086 0
-199 -1087 0
-200 -1088 0
-197 -1229 0
-198 -1230 0
-199 -1231 0
-200 -1232 0
-201 -205 0
-202 -206 0
-203 -207 0
-204 -208 0
-201 -1589 0
-202 -1590 0
-203 -1591 0
-204 -1592 0
-205 -361 0
-206 -362 0
-207 -363 0
-208 -364 0
-205 -369 0
-206 -370 0
-207 -371 0
-208 -372 0
-205 -381 0
-206 -382 0
-207 -383 0
-208 -384 0
-205 -1749 0
-206 -1750 0
-207 -1751 0
-208 -1752 0
-209 -213 0
-210 -214 0
-211 -215 0
-212 -216 0
-209 -229 0
-210 -230 0
-211 -231 0
-212 -232 0
-209 -285 0
-210 -286 0
-211 -287 0
-212 -288 0
-209 -353 0
-210 -354 0
-211 -355 0
-212 -356 0
-209 -377 0
-210 -378 0
-211 -379 0
-212 -380 0
-209 -389 0
-210 -390 0
-211 -391 0
-212 -392 0
-209 -425 0
-210 -426 0
-211 -427 0
-212 -428 0
-209 -517 0
-210 -518 0
-211 -519 0
-212 -520 0
-209 -865 0
-210 -866 0
-211 -867 0
-212 -868 0
-209 -965 0
-210 -966 0
-211 -967 0
-212 -968 0
-209 -1065 0
-210 -1066 0
-211 -1067 0
-212 -1068 0
-209 -1069 0
-210 -1070 0
-211 -1071 0
-212 -1072 0
-209 -1077 0
-210 -1078 0
-211 -1079 0
-212 -1080 0
-209 -1081 0
-210 -1082 0
-211 -1083 0
-212 -1084 0
-209 -1089 0
-210 -1090 0
-211 -1091 0
-212 -1092 0
-209 -1445 0
-210 -1446 0
-211 -1447 0
-212 -1448 0
-209 -1645 0
-210 -1646 0
-211 -1647 0
-212 -1648 0
-213 -229 0
-214 -230 0
-215 -231 0
-216 -232 0
-213 -281 0
-214 -282 0
-215 -283 0
-216 -284 0
-213 -341 0
-214 -342 0
-215 -343 0
-216 -344 0
-213 -345 0
-214 -346 0
-215 -347 0
-216 -348 0
-213 -1317 0
-214 -1318 0
-215 -1319 0
-216 -1320 0
-217 -225 0
-218 -226 0
-219 -227 0
-220 -228 0
-217 -233 0
-218 -234 0
-219 -235 0
-220 -236 0
-217 -289 0
-218 -290 0
-219 -291 0
-220 -292 0
-217 -765 0
-218 -766 0
-219 -767 0
-220 -768 0
-217 -1077 0
-218 -1078 0
-219 -1079 0
-220 -1080 0
-217 -1365 0
-218 -1366 0
-219 -1367 0
-220 -1368 0
-217 -1401 0
-218 -1402 0
-219 -1403 0
-220 -1404 0
-217 -1777 0
-218 -1778 0
-219 -1779 0
-220 -1780 0
-221 -237 0
-222 -238 0
-223 -239 0
-224 -240 0
-221 -285 0
-222 -286 0
-223 -287 0
-224 -288 0
-221 -293 0
-222 -294 0
-223 -295 0
-224 -296 0
-221 -357 0
-222 -358 0
-223 -359 0
-224 -360 0
-221 -469 0
-222 -470 0
-223 -471 0
-224 -472 0
-221 -1285 0
-222 -1286 0
-223 -1287 0
-224 -1288 0
-221 -1401 0
-222 -1402 0
-223 -1403 0
-224 -1404 0
-221 -1421 0
-222 -1422 0
-223 -1423 0
-224 -1424 0
-221 -1501 0
-222 -1502 0
-223 -1503 0
-224 -1504 0
-221 -1717 0
-222 -1718 0
-223 -1719 0
-224 -1720 0
-225 -289 0
-226 -290 0
-227 -291 0
-228 -292 0
-225 -365 0
-226 -366 0
-227 -367 0
-228 -368 0
-225 -381 0
-226 -382 0
-227 -383 0
-228 -384 0
-225 -457 0
-226 -458 0
-227 -459 0
-228 -460 0
-225 -469 0
-226 -470 0
-227 -471 0
-228 -472 0
-225 -481 0
-226 -482 0
-227 -483 0
-228 -484 0
-225 -533 0
-226 -534 0
-227 -535 0
-228 -536 0
-225 -809 0
-226 -810 0
-227 -811 0
-228 -812 0
-225 -1581 0
-226 -1582 0
-227 -1583 0
-228 -1584 0
-225 -1625 0
-226 -1626 0
-227 -1627 0
-228 -1628 0
-225 -1725 0
-226 -1726 0
-227 -1727 0
-228 -1728 0
-225 -1769 0
-226 -1770 0
-227 -1771 0
-228 -1772 0
-225 -1793 0
-226 -1794 0
-227 -1795 0
-228 -1796 0
-229 -253 0
-230 -254 0
-231 -255 0
-232 -256 0
-229 -293 0
-230 -294 0
-231 -295 0
-232 -296 0
-229 -497 0
-230 -498 0
-231 -499 0
-232 -500 0
-229 -521 0
-230 -522 0
-231 -523 0
-232 -524 0
-229 -981 0
-230 -982 0
-231 -983 0
-232 -984 0
-229 -1445 0
-230 -1446 0
-231 -1447 0
-232 -1448 0
-233 -245 0
-234 -246 0
-235 -247 0
-236 -248 0
-233 -265 0
-234 -266 0
-235 -267 0
-236 -268 0
-233 -365 0
-234 -366 0
-235 -367 0
-236 -368 0
-233 -1005 0
-234 -1006 0
-235 -1007 0
-236 -1008 0
-233 -1401 0
-234 -1402 0
-235 -1403 0
-236 -1404 0
-233 -1509 0
-234 -1510 0
-235 -1511 0
-236 -1512 0
-237 -245 0
-238 -246 0
-239 -247 0
-240 -248 0
-237 -257 0
-238 -258 0
-239 -259 0
-240 -260 0
-237 -269 0
-238 -270 0
-239 -271 0
-240 -272 0
-237 -305 0
-238 -306 0
-239 -307 0
-240 -308 0
-237 -429 0
-238 -430 0
-239 -431 0
-240 -432 0
-237 -533 0
-238 -534 0
-239 -535 0
-240 -536 0
-237 -593 0
-238 -594 0
-239 -595 0
-240 -596 0
-237 -629 0
-238 -630 0
-239 -631 0
-240 -632 0
-237 -641 0
-238 -642 0
-239 -643 0
-240 -644 0
-237 -729 0
-238 -730 0
-239 -731 0
-240 -732 0
-237 -1173 0
-238 -1174 0
-239 -1175 0
-240 -1176 0
-237 -1401 0
-238 -1402 0
-239 -1403 0
-240 -1404 0
-241 -249 0
-242 -250 0
-243 -251 0
-244 -252 0
-241 -273 0
-242 -274 0
-243 -275 0
-244 -276 0
-241 -313 0
-242 -314 0
-243 -315 0
-244 -316 0
-241 -417 0
-242 -418 0
-243 -419 0
-244 -420 0
-241 -473 0
-242 -474 0
-243 -475 0
-244 -476 0
-241 -485 0
-242 -486 0
-243 -487 0
-244 -488 0
-241 -497 0
-242 -498 0
-243 -499 0
-244 -500 0
-241 -501 0
-242 -502 0
-243 -503 0
-244 -504 0
-241 -505 0
-242 -506 0
-243 -507 0
-244 -508 0
-241 -1765 0
-242 -1766 0
-243 -1767 0
-244 -1768 0
-245 -265 0
-246 -266 0
-247 -267 0
-248 -268 0
-245 -269 0
-246 -270 0
-247 -271 0
-248 -272 0
-245 -409 0
-246 -410 0
-247 -411 0
-248 -412 0
-245 -601 0
-246 -602 0
-247 -603 0
-248 -604 0
-245 -681 0
-246 -682 0
-247 -683 0
-248 -684 0
-249 -253 0
-250 -254 0
-251 -255 0
-252 -256 0
-249 -273 0
-250 -274 0
-251 -275 0
-252 -276 0
-249 -321 0
-250 -322 0
-251 -323 0
-252 -324 0
-249 -381 0
-250 -382 0
-251 -383 0
-252 -384 0
-249 -393 0
-250 -394 0
-251 -395 0
-252 -396 0
-249 -401 0
-250 -402 0
-251 -403 0
-252 -404 0
-249 -429 0
-250 -430 0
-251 -431 0
-252 -432 0
-249 -481 0
-250 -482 0
-251 -483 0
-252 -484 0
-249 -585 0
-250 -586 0
-251 -587 0
-252 -588 0
-253 -309 0
-254 -310 0
-255 -311 0
-256 -312 0
-253 -345 0
-254 -346 0
-255 -347 0
-256 -348 0
-253 -349 0
-254 -350 0
-255 -351 0
-256 -352 0
-253 -429 0
-254 -430 0
-255 -431 0
-256 -432 0
-253 -457 0
-254 -458 0
-255 -459 0
-256 -460 0
-253 -481 0
-254 -482 0
-255 -483 0
-256 -484 0
-253 -493 0
-254 -494 0
-255 -495 0
-256 -496 0
-253 -497 0
-254 -498 0
-255 -499 0
-256 -500 0
-253 -525 0
-254 -526 0
-255 -527 0
-256 -528 0
-253 -597 0
-254 -598 0
-255 -599 0
-256 -600 0
-253 -633 0
-254 -634 0
-255 -635 0
-256 -636 0
-253 -685 0
-254 -686 0
-255 -687 0
-256 -688 0
-253 -721 0
-254 -722 0
-255 -723 0
-256 -724 0
-253 -757 0
-254 -758 0
-255 -759 0
-256 -760 0
-253 -769 0
-254 -770 0
-255 -771 0
-256 -772 0
-253 -805 0
-254 -806 0
-255 -807 0
-256 -808 0
-253 -845 0
-254 -846 0
-255 -847 0
-256 -848 0
-257 -269 0
-258 -270 0
-259 -271 0
-260 -272 0
-257 -317 0
-258 -318 0
-259 -319 0
-260 -320 0
-257 -333 0
-258 -334 0
-259 -335 0
-260 -336 0
-257 -365 0
-258 -366 0
-259 -367 0
-260 -368 0
-257 -425 0
-258 -426 0
-259 -427 0
-260 -428 0
-257 -489 0
-258 -490 0
-259 -491 0
-260 -492 0
-257 -533 0
-258 -534 0
-259 -535 0
-260 -536 0
-257 -637 0
-258 -638 0
-259 -639 0
-260 -640 0
-257 -713 0
-258 -714 0
-259 -715 0
-260 -716 0
-257 -805 0
-258 -806 0
-259 -807 0
-260 -808 0
-257 -813 0
-258 -814 0
-259 -815 0
-260 -816 0
-257 -1161 0
-258 -1162 0
-259 -1163 0
-260 -1164 0
-257 -1409 0
-258 -1410 0
-259 -1411 0
-260 -1412 0
-257 -1417 0
-258 -1418 0
-259 -1419 0
-260 -1420 0
-257 -1421 0
-258 -1422 0
-259 -1423 0
-260 -1424 0
-257 -1453 0
-258 -1454 0
-259 -1455 0
-260 -1456 0
-257 -1617 0
-258 -1618 0
-259 -1619 0
-260 -1620 0
-257 -1629 0
-258 -1630 0
-259 -1631 0
-260 -1632 0
-257 -1761 0
-258 -1762 0
-259 -1763 0
-260 -1764 0
-261 -285 0
-262 -286 0
-263 -287 0
-264 -288 0
-261 -337 0
-262 -338 0
-263 -339 0
-264 -340 0
-261 -349 0
-262 -350 0
-263 -351 0
-264 -352 0
-261 -737 0
-262 -738 0
-263 -739 0
-264 -740 0
-265 -349 0
-266 -350 0
-267 -351 0
-268 -352 0
-265 -357 0
-266 -358 0
-267 -359 0
-268 -360 0
-265 -425 0
-266 -426 0
-267 -427 0
-268 -428 0
-265 -449 0
-266 -450 0
-267 -451 0
-268 -452 0
-265 -1069 0
-266 -1070 0
-267 -1071 0
-268 -1072 0
-265 -1149 0
-266 -1150 0
-267 -1151 0
-268 -1152 0
-265 -1169 0
-266 -1170 0
-267 -1171 0
-268 -1172 0
-265 -1173 0
-266 -1174 0
-267 -1175 0
-268 -1176 0
-269 -281 0
-270 -282 0
-271 -283 0
-272 -284 0
-269 -289 0
-270 -290 0
-271 -291 0
-272 -292 0
-269 -321 0
-270 -322 0
-271 -323 0
-272 -324 0
-269 -449 0
-270 -450 0
-271 -451 0
-272 -452 0
-269 -481 0
-270 -482 0
-271 -483 0
-272 -484 0
-269 -489 0
-270 -490 0
-271 -491 0
-272 -492 0
-269 -589 0
-270 -590 0
-271 -591 0
-272 -592 0
-269 -617 0
-270 -618 0
-271 -619 0
-272 -620 0
-269 -689 0
-270 -690 0
-271 -691 0
-272 -692 0
-273 -297 0
-274 -298 0
-275 -299 0
-276 -300 0
-273 -325 0
-274 -326 0
-275 -327 0
-276 -328 0
-273 -369 0
-274 -370 0
-275 -371 0
-276 -372 0
-273 -381 0
-274 -382 0
-275 -383 0
-276 -384 0
-273 -469 0
-274 -470 0
-275 -471 0
-276 -472 0
-273 -485 0
-274 -486 0
-275 -487 0
-276 -488 0
-273 -493 0
-274 -494 0
-275 -495 0
-276 -496 0
-273 -737 0
-274 -738 0
-275 -739 0
-276 -740 0
-273 -1193 0
-274 -1194 0
-275 -1195 0
-276 -1196 0
-273 -1257 0
-274 -1258 0
-275 -1259 0
-276 -1260 0
-273 -1381 0
-274 -1382 0
-275 -1383 0
-276 -1384 0
-273 -1441 0
-274 -1442 0
-275 -1443 0
-276 -1444 0
-273 -1645 0
-274 -1646 0
-275 -1647 0
-276 -1648 0
-273 -1657 0
-274 -1658 0
-275 -1659 0
-276 -1660 0
-273 -1753 0
-274 -1754 0
-275 -1755 0
-276 -1756 0
-273 -1813 0
-274 -1814 0
-275 -1815 0
-276 -1816 0
-277 -473 0
-278 -474 0
-279 -475 0
-280 -476 0
-277 -693 0
-278 -694 0
-279 -695 0
-280 -696 0
-277 -1009 0
-278 -1010 0
-279 -1011 0
-280 -1012 0
-277 -1305 0
-278 -1306 0
-279 -1307 0
-280 -1308 0
-277 -1345 0
-278 -1346 0
-279 -1347 0
-280 -1348 0
-277 -1541 0
-278 -1542 0
-279 -1543 0
-280 -1544 0
-277 -1785 0
-278 -1786 0
-279 -1787 0
-280 -1788 0
-281 -289 0
-282 -290 0
-283 -291 0
-284 -292 0
-281 -293 0
-282 -294 0
-283 -295 0
-284 -296 0
-281 -425 0
-282 -426 0
-283 -427 0
-284 -428 0
-281 -1133 0
-282 -1134 0
-283 -1135 0
-284 -1136 0
-281 -1821 0
-282 -1822 0
-283 -1823 0
-284 -1824 0
-285 -337 0
-286 -338 0
-287 -339 0
-288 -340 0
-285 -353 0
-286 -354 0
-287 -355 0
-288 -356 0
-285 -493 0
-286 -494 0
-287 -495 0
-288 -496 0
-285 -1069 0
-286 -1070 0
-287 -1071 0
-288 -1072 0
-285 -1109 0
-286 -1110 0
-287 -1111 0
-288 -1112 0
-285 -1141 0
-286 -1142 0
-287 -1143 0
-288 -1144 0
-285 -1221 0
-286 -1222 0
-287 -1223 0
-288 -1224 0
-285 -1225 0
-286 -1226 0
-287 -1227 0
-288 -1228 0
-289 -341 0
-290 -342 0
-291 -343 0
-292 -344 0
-289 -449 0
-290 -450 0
-291 -451 0
-292 -452 0
-289 -473 0
-290 -474 0
-291 -475 0
-292 -476 0
-289 -673 0
-290 -674 0
-291 -675 0
-292 -676 0
-289 -761 0
-290 -762 0
-291 -763 0
-292 -764 0
-289 -1341 0
-290 -1342 0
-291 -1343 0
-292 -1344 0
-289 -1761 0
-290 -1762 0
-291 -1763 0
-292 -1764 0
-289 -1769 0
-290 -1770 0
-291 -1771 0
-292 -1772 0
-293 -425 0
-294 -426 0
-295 -427 0
-296 -428 0
-293 -429 0
-294 -430 0
-295 -431 0
-296 -432 0
-293 -473 0
-294 -474 0
-295 -475 0
-296 -476 0
-293 -489 0
-294 -490 0
-295 -491 0
-296 -492 0
-293 -1101 0
-294 -1102 0
-295 -1103 0
-296 -1104 0
-293 -1125 0
-294 -1126 0
-295 -1127 0
-296 -1128 0
-293 -1153 0
-294 -1154 0
-295 -1155 0
-296 -1156 0
-293 -1681 0
-294 -1682 0
-295 -1683 0
-296 -1684 0
-293 -1717 0
-294 -1718 0
-295 -1719 0
-296 -1720 0
-293 -1729 0
-294 -1730 0
-295 -1731 0
-296 -1732 0
-293 -1785 0
-294 -1786 0
-295 -1787 0
-296 -1788 0
-297 -301 0
-298 -302 0
-299 -303 0
-300 -304 0
-297 -317 0
-298 -318 0
-299 -319 0
-300 -320 0
-297 -397 0
-298 -398 0
-299 -399 0
-300 -400 0
-297 -421 0
-298 -422 0
-299 -423 0
-300 -424 0
-297 -461 0
-298 -462 0
-299 -463 0
-300 -464 0
-297 -509 0
-298 -510 0
-299 -511 0
-300 -512 0
-297 -797 0
-298 -798 0
-299 -799 0
-300 -800 0
-297 -877 0
-298 -878 0
-299 -879 0
-300 -880 0
-297 -1141 0
-298 -1142 0
-299 -1143 0
-300 -1144 0
-297 -1413 0
-298 -1414 0
-299 -1415 0
-300 -1416 0
-297 -1421 0
-298 -1422 0
-299 -1423 0
-300 -1424 0
-297 -1441 0
-298 -1442 0
-299 -1443 0
-300 -1444 0
-297 -1729 0
-298 -1730 0
-299 -1731 0
-300 -1732 0
-301 -313 0
-302 -314 0
-303 -315 0
-304 -316 0
-301 -321 0
-302 -322 0
-303 -323 0
-304 -324 0
-301 -453 0
-302 -454 0
-303 -455 0
-304 -456 0
-301 -749 0
-302 -750 0
-303 -751 0
-304 -752 0
-301 -949 0
-302 -950 0
-303 -951 0
-304 -952 0
-305 -429 0
-306 -430 0
-307 -431 0
-308 -432 0
-305 -437 0
-306 -438 0
-307 -439 0
-308 -440 0
-305 -653 0
-306 -654 0
-307 -655 0
-308 -656 0
-305 -673 0
-306 -674 0
-307 -675 0
-308 -676 0
-305 -677 0
-306 -678 0
-307 -679 0
-308 -680 0
-305 -1209 0
-306 -1210 0
-307 -1211 0
-308 -1212 0
-305 -1797 0
-306 -1798 0
-307 -1799 0
-308 -1800 0
-309 -317 0
-310 -318 0
-311 -319 0
-312 -320 0
-309 -429 0
-310 -430 0
-311 -431 0
-312 -432 0
-313 -321 0
-314 -322 0
-315 -323 0
-316 -324 0
-313 -325 0
-314 -326 0
-315 -327 0
-316 -328 0
-313 -417 0
-314 -418 0
-315 -419 0
-316 -420 0
-313 -453 0
-314 -454 0
-315 -455 0
-316 -456 0
-313 -765 0
-314 -766 0
-315 -767 0
-316 -768 0
-313 -789 0
-314 -790 0
-315 -791 0
-316 -792 0
-313 -801 0
-314 -802 0
-315 -803 0
-316 -804 0
-313 -937 0
-314 -938 0
-315 -939 0
-316 -940 0
-313 -1413 0
-314 -1414 0
-315 -1415 0
-316 -1416 0
-317 -321 0
-318 -322 0
-319 -323 0
-320 -324 0
-317 -393 0
-318 -394 0
-319 -395 0
-320 -396 0
-317 -421 0
-318 -422 0
-319 -423 0
-320 -424 0
-317 -805 0
-318 -806 0
-319 -807 0
-320 -808 0
-317 -1413 0
-318 -1414 0
-319 -1415 0
-320 -1416 0
-321 -325 0
-322 -326 0
-323 -327 0
-324 -328 0
-321 -585 0
-322 -586 0
-323 -587 0
-324 -588 0
-321 -1349 0
-322 -1350 0
-323 -1351 0
-324 -1352 0
-325 -329 0
-326 -330 0
-327 -331 0
-328 -332 0
-325 -353 0
-326 -354 0
-327 -355 0
-328 -356 0
-325 -449 0
-326 -450 0
-327 -451 0
-328 -452 0
-325 -1189 0
-326 -1190 0
-327 -1191 0
-328 -1192 0
-325 -1193 0
-326 -1194 0
-327 -1195 0
-328 -1196 0
-325 -1397 0
-326 -1398 0
-327 -1399 0
-328 -1400 0
-329 -733 0
-330 -734 0
-331 -735 0
-332 -736 0
-329 -1357 0
-330 -1358 0
-331 -1359 0
-332 -1360 0
-333 -485 0
-334 -486 0
-335 -487 0
-336 -488 0
-337 -341 0
-338 -342 0
-339 -343 0
-340 -344 0
-337 -345 0
-338 -346 0
-339 -347 0
-340 -348 0
-337 -357 0
-338 -358 0
-339 -359 0
-340 -360 0
-337 -373 0
-338 -374 0
-339 -375 0
-340 -376 0
-337 -493 0
-338 -494 0
-339 -495 0
-340 -496 0
-337 -833 0
-338 -834 0
-339 -835 0
-340 -836 0
-337 -865 0
-338 -866 0
-339 -867 0
-340 -868 0
-337 -1185 0
-338 -1186 0
-339 -1187 0
-340 -1188 0
-337 -1205 0
-338 -1206 0
-339 -1207 0
-340 -1208 0
-341 -345 0
-342 -346 0
-343 -347 0
-344 -348 0
-341 -413 0
-342 -414 0
-343 -415 0
-344 -416 0
-341 -445 0
-342 -446 0
-343 -447 0
-344 -448 0
-341 -497 0
-342 -498 0
-343 -499 0
-344 -500 0
-341 -997 0
-342 -998 0
-343 -999 0
-344 -1000 0
-341 -1489 0
-342 -1490 0
-343 -1491 0
-344 -1492 0
-345 -437 0
-346 -438 0
-347 -439 0
-348 -440 0
-345 -621 0
-346 -622 0
-347 -623 0
-348 -624 0
-349 -353 0
-350 -354 0
-351 -355 0
-352 -356 0
-349 -373 0
-350 -374 0
-351 -375 0
-352 -376 0
-349 -457 0
-350 -458 0
-351 -459 0
-352 -460 0
-349 -777 0
-350 -778 0
-351 -779 0
-352 -780 0
-349 -841 0
-350 -842 0
-351 -843 0
-352 -844 0
-349 -1825 0
-350 -1826 0
-351 -1827 0
-352 -1828 0
-353 -373 0
-354 -374 0
-355 -375 0
-356 -376 0
-353 -449 0
-354 -450 0
-355 -451 0
-356 -452 0
-353 -477 0
-354 -478 0
-355 -479 0
-356 -480 0
-353 -757 0
-354 -758 0
-355 -759 0
-356 -760 0
-353 -1113 0
-354 -1114 0
-355 -1115 0
-356 -1116 0
-353 -1157 0
-354 -1158 0
-355 -1159 0
-356 -1160 0
-353 -1641 0
-354 -1642 0
-355 -1643 0
-356 -1644 0
-353 -1645 0
-354 -1646 0
-355 -1647 0
-356 -1648 0
-353 -1717 0
-354 -1718 0
-355 -1719 0
-356 -1720 0
-357 -425 0
-358 -426 0
-359 -427 0
-360 -428 0
-357 -461 0
-358 -462 0
-359 -463 0
-360 -464 0
-357 -469 0
-358 -470 0
-359 -471 0
-360 -472 0
-357 -509 0
-358 -510 0
-359 -511 0
-360 -512 0
-357 -637 0
-358 -638 0
-359 -639 0
-360 -640 0
-357 -1777 0
-358 -1778 0
-359 -1779 0
-360 -1780 0
-361 -369 0
-362 -370 0
-363 -371 0
-364 -372 0
-361 -653 0
-362 -654 0
-363 -655 0
-364 -656 0
-361 -837 0
-362 -838 0
-363 -839 0
-364 -840 0
-361 -1385 0
-362 -1386 0
-363 -1387 0
-364 -1388 0
-361 -1613 0
-362 -1614 0
-363 -1615 0
-364 -1616 0
-361 -1805 0
-362 -1806 0
-363 -1807 0
-364 -1808 0
-365 -409 0
-366 -410 0
-367 -411 0
-368 -412 0
-365 -421 0
-366 -422 0
-367 -423 0
-368 -424 0
-365 -425 0
-366 -426 0
-367 -427 0
-368 -428 0
-365 -445 0
-366 -446 0
-367 -447 0
-368 -448 0
-365 -789 0
-366 -790 0
-367 -791 0
-368 -792 0
-365 -1321 0
-366 -1322 0
-367 -1323 0
-368 -1324 0
-365 -1421 0
-366 -1422 0
-367 -1423 0
-368 -1424 0
-365 -1433 0
-366 -1434 0
-367 -1435 0
-368 -1436 0
-365 -1565 0
-366 -1566 0
-367 -1567 0
-368 -1568 0
-365 -1625 0
-366 -1626 0
-367 -1627 0
-368 -1628 0
-369 -373 0
-370 -374 0
-371 -375 0
-372 -376 0
-369 -465 0
-370 -466 0
-371 -467 0
-372 -468 0
-369 -1097 0
-370 -1098 0
-371 -1099 0
-372 -1100 0
-369 -1117 0
-370 -1118 0
-371 -1119 0
-372 -1120 0
-369 -1173 0
-370 -1174 0
-371 -1175 0
-372 -1176 0
-369 -1577 0
-370 -1578 0
-371 -1579 0
-372 -1580 0
-369 -1805 0
-370 -1806 0
-371 -1807 0
-372 -1808 0
-373 -413 0
-374 -414 0
-375 -415 0
-376 -416 0
-373 -525 0
-374 -526 0
-375 -527 0
-376 -528 0
-373 -733 0
-374 -734 0
-375 -735 0
-376 -736 0
-373 -865 0
-374 -866 0
-375 -867 0
-376 -868 0
-373 -1157 0
-374 -1158 0
-375 -1159 0
-376 -1160 0
-373 -1173 0
-374 -1174 0
-375 -1175 0
-376 -1176 0
-373 -1205 0
-374 -1206 0
-375 -1207 0
-376 -1208 0
-373 -1357 0
-374 -1358 0
-375 -1359 0
-376 -1360 0
-373 -1637 0
-374 -1638 0
-375 -1639 0
-376 -1640 0
-373 -1809 0
-374 -1810 0
-375 -1811 0
-376 -1812 0
-373 -1813 0
-374 -1814 0
-375 -1815 0
-376 -1816 0
-377 -409 0
-378 -410 0
-379 -411 0
-380 -412 0
-377 -597 0
-378 -598 0
-379 -599 0
-380 -600 0
-381 -405 0
-382 -406 0
-383 -407 0
-384 -408 0
-381 -421 0
-382 -422 0
-383 -423 0
-384 -424 0
-381 -457 0
-382 -458 0
-383 -459 0
-384 -460 0
-385 -393 0
-386 -394 0
-387 -395 0
-388 -396 0
-385 -533 0
-386 -534 0
-387 -535 0
-388 -536 0
-385 -617 0
-386 -618 0
-387 -619 0
-388 -620 0
-385 -689 0
-386 -690 0
-387 -691 0
-388 -692 0
-385 -1605 0
-386 -1606 0
-387 -1607 0
-388 -1608 0
-389 -397 0
-390 -398 0
-391 -399 0
-392 -400 0
-389 -425 0
-390 -426 0
-391 -427 0
-392 -428 0
-389 -1825 0
-390 -1826 0
-391 -1827 0
-392 -1828 0
-393 -397 0
-394 -398 0
-395 -399 0
-396 -400 0
-393 -401 0
-394 -402 0
-395 -403 0
-396 -404 0
-393 -501 0
-394 -502 0
-395 -503 0
-396 -504 0
-393 -525 0
-394 -526 0
-395 -527 0
-396 -528 0
-393 -621 0
-394 -622 0
-395 -623 0
-396 -624 0
-393 -773 0
-394 -774 0
-395 -775 0
-396 -776 0
-393 -1513 0
-394 -1514 0
-395 -1515 0
-396 -1516 0
-393 -1617 0
-394 -1618 0
-395 -1619 0
-396 -1620 0
-393 -1817 0
-394 -1818 0
-395 -1819 0
-396 -1820 0
-397 -501 0
-398 -502 0
-399 -503 0
-400 -504 0
-397 -1153 0
-398 -1154 0
-399 -1155 0
-400 -1156 0
-397 -1317 0
-398 -1318 0
-399 -1319 0
-400 -1320 0
-397 -1445 0
-398 -1446 0
-399 -1447 0
-400 -1448 0
-401 -405 0
-402 -406 0
-403 -407 0
-404 -408 0
-401 -605 0
-402 -606 0
-403 -607 0
-404 -608 0
-401 -757 0
-402 -758 0
-403 -759 0
-404 -760 0
-401 -1437 0
-402 -1438 0
-403 -1439 0
-404 -1440 0
-401 -1441 0
-402 -1442 0
-403 -1443 0
-404 -1444 0
-401 -1453 0
-402 -1454 0
-403 -1455 0
-404 -1456 0
-401 -1477 0
-402 -1478 0
-403 -1479 0
-404 -1480 0
-401 -1513 0
-402 -1514 0
-403 -1515 0
-404 -1516 0
-405 -417 0
-406 -418 0
-407 -419 0
-408 -420 0
-405 -421 0
-406 -422 0
-407 -423 0
-408 -424 0
-405 -441 0
-406 -442 0
-407 -443 0
-408 -444 0
-405 -1337 0
-406 -1338 0
-407 -1339 0
-408 -1340 0
-405 -1441 0
-406 -1442 0
-407 -1443 0
-408 -1444 0
-405 -1625 0
-406 -1626 0
-407 -1627 0
-408 -1628 0
-405 -1641 0
-406 -1642 0
-407 -1643 0
-408 -1644 0
-405 -1705 0
-406 -1706 0
-407 -1707 0
-408 -1708 0
-405 -1721 0
-406 -1722 0
-407 -1723 0
-408 -1724 0
-409 -425 0
-410 -426 0
-411 -427 0
-412 -428 0
-409 -437 0
-410 -438 0
-411 -439 0
-412 -440 0
-409 -589 0
-410 -590 0
-411 -591 0
-412 -592 0
-409 -593 0
-410 -594 0
-411 -595 0
-412 -596 0
-413 -445 0
-414 -446 0
-415 -447 0
-416 -448 0
-413 -525 0
-414 -526 0
-415 -527 0
-416 -528 0
-413 -1353 0
-414 -1354 0
-415 -1355 0
-416 -1356 0
-413 -1401 0
-414 -1402 0
-415 -1403 0
-416 -1404 0
-413 -1445 0
-414 -1446 0
-415 -1447 0
-416 -1448 0
-413 -1457 0
-414 -1458 0
-415 -1459 0
-416 -1460 0
-413 -1557 0
-414 -1558 0
-415 -1559 0
-416 -1560 0
-413 -1653 0
-414 -1654 0
-415 -1655 0
-416 -1656 0
-413 -1765 0
-414 -1766 0
-415 -1767 0
-416 -1768 0
-413 -1769 0
-414 -1770 0
-415 -1771 0
-416 -1772 0
-417 -421 0
-418 -422 0
-419 -423 0
-420 -424 0
-417 -529 0
-418 -530 0
-419 -531 0
-420 -532 0
-417 -585 0
-418 -586 0
-419 -587 0
-420 -588 0
-417 -809 0
-418 -810 0
-419 -811 0
-420 -812 0
-417 -1193 0
-418 -1194 0
-419 -1195 0
-420 -1196 0
-417 -1433 0
-418 -1434 0
-419 -1435 0
-420 -1436 0
-417 -1581 0
-418 -1582 0
-419 -1583 0
-420 -1584 0
-417 -1705 0
-418 -1706 0
-419 -1707 0
-420 -1708 0
-421 -445 0
-422 -446 0
-423 -447 0
-424 -448 0
-425 -1145 0
-426 -1146 0
-427 -1147 0
-428 -1148 0
-425 -1153 0
-426 -1154 0
-427 -1155 0
-428 -1156 0
-425 -1165 0
-426 -1166 0
-427 -1167 0
-428 -1168 0
-425 -1177 0
-426 -1178 0
-427 -1179 0
-428 -1180 0
-425 -1205 0
-426 -1206 0
-427 -1207 0
-428 -1208 0
-425 -1761 0
-426 -1762 0
-427 -1763 0
-428 -1764 0
-425 -1825 0
-426 -1826 0
-427 -1827 0
-428 -1828 0
-429 -473 0
-430 -474 0
-431 -475 0
-432 -476 0
-429 -593 0
-430 -594 0
-431 -595 0
-432 -596 0
-429 -1257 0
-430 -1258 0
-431 -1259 0
-432 -1260 0
-429 -1453 0
-430 -1454 0
-431 -1455 0
-432 -1456 0
-429 -1817 0
-430 -1818 0
-431 -1819 0
-432 -1820 0
-433 -553 0
-434 -554 0
-435 -555 0
-436 -556 0
-433 -725 0
-434 -726 0
-435 -727 0
-436 -728 0
-433 -741 0
-434 -742 0
-435 -743 0
-436 -744 0
-433 -1041 0
-434 -1042 0
-435 -1043 0
-436 -1044 0
-433 -1281 0
-434 -1282 0
-435 -1283 0
-436 -1284 0
-433 -1305 0
-434 -1306 0
-435 -1307 0
-436 -1308 0
-433 -1497 0
-434 -1498 0
-435 -1499 0
-436 -1500 0
-433 -1517 0
-434 -1518 0
-435 -1519 0
-436 -1520 0
-433 -1537 0
-434 -1538 0
-435 -1539 0
-436 -1540 0
-433 -1553 0
-434 -1554 0
-435 -1555 0
-436 -1556 0
-433 -1561 0
-434 -1562 0
-435 -1563 0
-436 -1564 0
-433 -1573 0
-434 -1574 0
-435 -1575 0
-436 -1576 0
-433 -1589 0
-434 -1590 0
-435 -1591 0
-436 -1592 0
-433 -1625 0
-434 -1626 0
-435 -1627 0
-436 -1628 0
-433 -1745 0
-434 -1746 0
-435 -1747 0
-436 -1748 0
-433 -1793 0
-434 -1794 0
-435 -1795 0
-436 -1796 0
-437 -445 0
-438 -446 0
-439 -447 0
-440 -448 0
-437 -477 0
-438 -478 0
-439 -479 0
-440 -480 0
-437 -609 0
-438 -610 0
-439 -611 0
-440 -612 0
-437 -633 0
-438 -634 0
-439 -635 0
-440 -636 0
-437 -1205 0
-438 -1206 0
-439 -1207 0
-440 -1208 0
-441 -473 0
-442 -474 0
-443 -475 0
-444 -476 0
-441 -1397 0
-442 -1398 0
-443 -1399 0
-444 -1400 0
-441 -1765 0
-442 -1766 0
-443 -1767 0
-444 -1768 0
-445 -457 0
-446 -458 0
-447 -459 0
-448 -460 0
-445 -529 0
-446 -530 0
-447 -531 0
-448 -532 0
-445 -1141 0
-446 -1142 0
-447 -1143 0
-448 -1144 0
-445 -1205 0
-446 -1206 0
-447 -1207 0
-448 -1208 0
-445 -1373 0
-446 -1374 0
-447 -1375 0
-448 -1376 0
-445 -1589 0
-446 -1590 0
-447 -1591 0
-448 -1592 0
-445 -1641 0
-446 -1642 0
-447 -1643 0
-448 -1644 0
-445 -1765 0
-446 -1766 0
-447 -1767 0
-448 -1768 0
-445 -1797 0
-446 -1798 0
-447 -1799 0
-448 -1800 0
-449 -469 0
-450 -470 0
-451 -471 0
-452 -472 0
-449 -673 0
-450 -674 0
-451 -675 0
-452 -676 0
-449 -797 0
-450 -798 0
-451 -799 0
-452 -800 0
-449 -1077 0
-450 -1078 0
-451 -1079 0
-452 -1080 0
-449 -1121 0
-450 -1122 0
-451 -1123 0
-452 -1124 0
-449 -1129 0
-450 -1130 0
-451 -1131 0
-452 -1132 0
-449 -1153 0
-450 -1154 0
-451 -1155 0
-452 -1156 0
-449 -1161 0
-450 -1162 0
-451 -1163 0
-452 -1164 0
-449 -1173 0
-450 -1174 0
-451 -1175 0
-452 -1176 0
-449 -1289 0
-450 -1290 0
-451 -1291 0
-452 -1292 0
-449 -1329 0
-450 -1330 0
-451 -1331 0
-452 -1332 0
-449 -1801 0
-450 -1802 0
-451 -1803 0
-452 -1804 0
-453 -625 0
-454 -626 0
-455 -627 0
-456 -628 0
-453 -801 0
-454 -802 0
-455 -803 0
-456 -804 0
-453 -877 0
-454 -878 0
-455 -879 0
-456 -880 0
-457 -493 0
-458 -494 0
-459 -495 0
-460 -496 0
-457 -1585 0
-458 -1586 0
-459 -1587 0
-460 -1588 0
-457 -1637 0
-458 -1638 0
-459 -1639 0
-460 -1640 0
-457 -1641 0
-458 -1642 0
-459 -1643 0
-460 -1644 0
-457 -1773 0
-458 -1774 0
-459 -1775 0
-460 -1776 0
-461 -509 0
-462 -510 0
-463 -511 0
-464 -512 0
-461 -649 0
-462 -650 0
-463 -651 0
-464 -652 0
-461 -833 0
-462 -834 0
-463 -835 0
-464 -836 0
-461 -921 0
-462 -922 0
-463 -923 0
-464 -924 0
-461 -1001 0
-462 -1002 0
-463 -1003 0
-464 -1004 0
-461 -1225 0
-462 -1226 0
-463 -1227 0
-464 -1228 0
-461 -1309 0
-462 -1310 0
-463 -1311 0
-464 -1312 0
-461 -1317 0
-462 -1318 0
-463 -1319 0
-464 -1320 0
-461 -1333 0
-462 -1334 0
-463 -1335 0
-464 -1336 0
-461 -1369 0
-462 -1370 0
-463 -1371 0
-464 -1372 0
-465 -505 0
-466 -506 0
-467 -507 0
-468 -508 0
-465 -785 0
-466 -786 0
-467 -787 0
-468 -788 0
-465 -853 0
-466 -854 0
-467 -855 0
-468 -856 0
-465 -1157 0
-466 -1158 0
-467 -1159 0
-468 -1160 0
-465 -1161 0
-466 -1162 0
-467 -1163 0
-468 -1164 0
-465 -1441 0
-466 -1442 0
-467 -1443 0
-468 -1444 0
-465 -1613 0
-466 -1614 0
-467 -1615 0
-468 -1616 0
-465 -1701 0
-466 -1702 0
-467 -1703 0
-468 -1704 0
-469 -481 0
-470 -482 0
-471 -483 0
-472 -484 0
-469 -493 0
-470 -494 0
-471 -495 0
-472 -496 0
-469 -533 0
-470 -534 0
-471 -535 0
-472 -536 0
-469 -785 0
-470 -786 0
-471 -787 0
-472 -788 0
-469 -921 0
-470 -922 0
-471 -923 0
-472 -924 0
-469 -1077 0
-470 -1078 0
-471 -1079 0
-472 -1080 0
-469 -1085 0
-470 -1086 0
-471 -1087 0
-472 -1088 0
-469 -1153 0
-470 -1154 0
-471 -1155 0
-472 -1156 0
-469 -1229 0
-470 -1230 0
-471 -1231 0
-472 -1232 0
-469 -1421 0
-470 -1422 0
-471 -1423 0
-472 -1424 0
-469 -1425 0
-470 -1426 0
-471 -1427 0
-472 -1428 0
-469 -1449 0
-470 -1450 0
-471 -1451 0
-472 -1452 0
-469 -1465 0
-470 -1466 0
-471 -1467 0
-472 -1468 0
-469 -1645 0
-470 -1646 0
-471 -1647 0
-472 -1648 0
-469 -1701 0
-470 -1702 0
-471 -1703 0
-472 -1704 0
-469 -1713 0
-470 -1714 0
-471 -1715 0
-472 -1716 0
-473 -489 0
-474 -490 0
-475 -491 0
-476 -492 0
-473 -497 0
-474 -498 0
-475 -499 0
-476 -500 0
-473 -1257 0
-474 -1258 0
-475 -1259 0
-476 -1260 0
-473 -1289 0
-474 -1290 0
-475 -1291 0
-476 -1292 0
-473 -1401 0
-474 -1402 0
-475 -1403 0
-476 -1404 0
-473 -1405 0
-474 -1406 0
-475 -1407 0
-476 -1408 0
-473 -1541 0
-474 -1542 0
-475 -1543 0
-476 -1544 0
-473 -1625 0
-474 -1626 0
-475 -1627 0
-476 -1628 0
-473 -1665 0
-474 -1666 0
-475 -1667 0
-476 -1668 0
-473 -1761 0
-474 -1762 0
-475 -1763 0
-476 -1764 0
-473 -1765 0
-474 -1766 0
-475 -1767 0
-476 -1768 0
-473 -1797 0
-474 -1798 0
-475 -1799 0
-476 -1800 0
-477 -593 0
-478 -594 0
-479 -595 0
-480 -596 0
-477 -633 0
-478 -634 0
-479 -635 0
-480 -636 0
-477 -673 0
-478 -674 0
-479 -675 0
-480 -676 0
-477 -753 0
-478 -754 0
-479 -755 0
-480 -756 0
-477 -1605 0
-478 -1606 0
-479 -1607 0
-480 -1608 0
-477 -1641 0
-478 -1642 0
-479 -1643 0
-480 -1644 0
-481 -589 0
-482 -590 0
-483 -591 0
-484 -592 0
-481 -1437 0
-482 -1438 0
-483 -1439 0
-484 -1440 0
-481 -1617 0
-482 -1618 0
-483 -1619 0
-484 -1620 0
-485 -505 0
-486 -506 0
-487 -507 0
-488 -508 0
-485 -657 0
-486 -658 0
-487 -659 0
-488 -660 0
-485 -665 0
-486 -666 0
-487 -667 0
-488 -668 0
-485 -753 0
-486 -754 0
-487 -755 0
-488 -756 0
-485 -813 0
-486 -814 0
-487 -815 0
-488 -816 0
-485 -877 0
-486 -878 0
-487 -879 0
-488 -880 0
-485 -1269 0
-486 -1270 0
-487 -1271 0
-488 -1272 0
-485 -1425 0
-486 -1426 0
-487 -1427 0
-488 -1428 0
-485 -1429 0
-486 -1430 0
-487 -1431 0
-488 -1432 0
-485 -1513 0
-486 -1514 0
-487 -1515 0
-488 -1516 0
-485 -1609 0
-486 -1610 0
-487 -1611 0
-488 -1612 0
-485 -1613 0
-486 -1614 0
-487 -1615 0
-488 -1616 0
-485 -1753 0
-486 -1754 0
-487 -1755 0
-488 -1756 0
-489 -693 0
-490 -694 0
-491 -695 0
-492 -696 0
-489 -705 0
-490 -706 0
-491 -707 0
-492 -708 0
-489 -861 0
-490 -862 0
-491 -863 0
-492 -864 0
-489 -1289 0
-490 -1290 0
-491 -1291 0
-492 -1292 0
-489 -1417 0
-490 -1418 0
-491 -1419 0
-492 -1420 0
-489 -1437 0
-490 -1438 0
-491 -1439 0
-492 -1440 0
-493 -497 0
-494 -498 0
-495 -499 0
-496 -500 0
-493 -517 0
-494 -518 0
-495 -519 0
-496 -520 0
-493 -785 0
-494 -786 0
-495 -787 0
-496 -788 0
-493 -1137 0
-494 -1138 0
-495 -1139 0
-496 -1140 0
-493 -1141 0
-494 -1142 0
-495 -1143 0
-496 -1144 0
-493 -1157 0
-494 -1158 0
-495 -1159 0
-496 -1160 0
-493 -1197 0
-494 -1198 0
-495 -1199 0
-496 -1200 0
-493 -1257 0
-494 -1258 0
-495 -1259 0
-496 -1260 0
-493 -1277 0
-494 -1278 0
-495 -1279 0
-496 -1280 0
-497 -529 0
-498 -530 0
-499 -531 0
-500 -532 0
-497 -1457 0
-498 -1458 0
-499 -1459 0
-500 -1460 0
-501 -997 0
-502 -998 0
-503 -999 0
-504 -1000 0
-501 -1413 0
-502 -1414 0
-503 -1415 0
-504 -1416 0
-501 -1489 0
-502 -1490 0
-503 -1491 0
-504 -1492 0
-501 -1649 0
-502 -1650 0
-503 -1651 0
-504 -1652 0
-501 -1661 0
-502 -1662 0
-503 -1663 0
-504 -1664 0
-501 -1705 0
-502 -1706 0
-503 -1707 0
-504 -1708 0
-505 -801 0
-506 -802 0
-507 -803 0
-508 -804 0
-505 -1289 0
-506 -1290 0
-507 -1291 0
-508 -1292 0
-509 -513 0
-510 -514 0
-511 -515 0
-512 -516 0
-509 -745 0
-510 -746 0
-511 -747 0
-512 -748 0
-509 -749 0
-510 -750 0
-511 -751 0
-512 -752 0
-509 -825 0
-510 -826 0
-511 -827 0
-512 -828 0
-509 -1105 0
-510 -1106 0
-511 -1107 0
-512 -1108 0
-509 -1169 0
-510 -1170 0
-511 -1171 0
-512 -1172 0
-509 -1185 0
-510 -1186 0
-511 -1187 0
-512 -1188 0
-509 -1361 0
-510 -1362 0
-511 -1363 0
-512 -1364 0
-509 -1501 0
-510 -1502 0
-511 -1503 0
-512 -1504 0
-509 -1521 0
-510 -1522 0
-511 -1523 0
-512 -1524 0
-509 -1525 0
-510 -1526 0
-511 -1527 0
-512 -1528 0
-509 -1569 0
-510 -1570 0
-511 -1571 0
-512 -1572 0
-513 -517 0
-514 -518 0
-515 -519 0
-516 -520 0
-513 -521 0
-514 -522 0
-515 -523 0
-516 -524 0
-513 -581 0
-514 -582 0
-515 -583 0
-516 -584 0
-513 -869 0
-514 -870 0
-515 -871 0
-516 -872 0
-513 -901 0
-514 -902 0
-515 -903 0
-516 -904 0
-513 -1013 0
-514 -1014 0
-515 -1015 0
-516 -1016 0
-513 -1037 0
-514 -1038 0
-515 -1039 0
-516 -1040 0
-513 -1041 0
-514 -1042 0
-515 -1043 0
-516 -1044 0
-513 -1073 0
-514 -1074 0
-515 -1075 0
-516 -1076 0
-513 -1081 0
-514 -1082 0
-515 -1083 0
-516 -1084 0
-513 -1101 0
-514 -1102 0
-515 -1103 0
-516 -1104 0
-513 -1169 0
-514 -1170 0
-515 -1171 0
-516 -1172 0
-513 -1237 0
-514 -1238 0
-515 -1239 0
-516 -1240 0
-513 -1537 0
-514 -1538 0
-515 -1539 0
-516 -1540 0
-517 -597 0
-518 -598 0
-519 -599 0
-520 -600 0
-517 -865 0
-518 -866 0
-519 -867 0
-520 -868 0
-517 -901 0
-518 -902 0
-519 -903 0
-520 -904 0
-517 -1093 0
-518 -1094 0
-519 -1095 0
-520 -1096 0
-517 -1157 0
-518 -1158 0
-519 -1159 0
-520 -1160 0
-517 -1177 0
-518 -1178 0
-519 -1179 0
-520 -1180 0
-517 -1445 0
-518 -1446 0
-519 -1447 0
-520 -1448 0
-521 -685 0
-522 -686 0
-523 -687 0
-524 -688 0
-521 -857 0
-522 -858 0
-523 -859 0
-524 -860 0
-521 -981 0
-522 -982 0
-523 -983 0
-524 -984 0
-521 -1085 0
-522 -1086 0
-523 -1087 0
-524 -1088 0
-521 -1101 0
-522 -1102 0
-523 -1103 0
-524 -1104 0
-525 -717 0
-526 -718 0
-527 -719 0
-528 -720 0
-525 -753 0
-526 -754 0
-527 -755 0
-528 -756 0
-525 -757 0
-526 -758 0
-527 -759 0
-528 -760 0
-525 -913 0
-526 -914 0
-527 -915 0
-528 -916 0
-525 -1445 0
-526 -1446 0
-527 -1447 0
-528 -1448 0
-525 -1601 0
-526 -1602 0
-527 -1603 0
-528 -1604 0
-525 -1617 0
-526 -1618 0
-527 -1619 0
-528 -1620 0
-525 -1633 0
-526 -1634 0
-527 -1635 0
-528 -1636 0
-525 -1637 0
-526 -1638 0
-527 -1639 0
-528 -1640 0
-525 -1817 0
-526 -1818 0
-527 -1819 0
-528 -1820 0
-529 -633 0
-530 -634 0
-531 -635 0
-532 -636 0
-529 -945 0
-530 -946 0
-531 -947 0
-532 -948 0
-529 -1197 0
-530 -1198 0
-531 -1199 0
-532 -1200 0
-529 -1281 0
-530 -1282 0
-531 -1283 0
-532 -1284 0
-529 -1433 0
-530 -1434 0
-531 -1435 0
-532 -1436 0
-529 -1457 0
-530 -1458 0
-531 -1459 0
-532 -1460 0
-529 -1641 0
-530 -1642 0
-531 -1643 0
-532 -1644 0
-529 -1781 0
-530 -1782 0
-531 -1783 0
-532 -1784 0
-533 -661 0
-534 -662 0
-535 -663 0
-536 -664 0
-533 -673 0
-534 -674 0
-535 -675 0
-536 -676 0
-533 -829 0
-534 -830 0
-535 -831 0
-536 -832 0
-533 -1465 0
-534 -1466 0
-535 -1467 0
-536 -1468 0
-533 -1597 0
-534 -1598 0
-535 -1599 0
-536 -1600 0
-533 -1605 0
-534 -1606 0
-535 -1607 0
-536 -1608 0
-533 -1629 0
-534 -1630 0
-535 -1631 0
-536 -1632 0
-533 -1817 0
-534 -1818 0
-535 -1819 0
-536 -1820 0
-537 -541 0
-538 -542 0
-539 -543 0
-540 -544 0
-537 -577 0
-538 -578 0
-539 -579 0
-540 -580 0
-537 -581 0
-538 -582 0
-539 -583 0
-540 -584 0
-537 -597 0
-538 -598 0
-539 -599 0
-540 -600 0
-537 -649 0
-538 -650 0
-539 -651 0
-540 -652 0
-537 -693 0
-538 -694 0
-539 -695 0
-540 -696 0
-537 -721 0
-538 -722 0
-539 -723 0
-540 -724 0
-537 -861 0
-538 -862 0
-539 -863 0
-540 -864 0
-537 -901 0
-538 -902 0
-539 -903 0
-540 -904 0
-537 -909 0
-538 -910 0
-539 -911 0
-540 -912 0
-537 -1009 0
-538 -1010 0
-539 -1011 0
-540 -1012 0
-537 -1309 0
-538 -1310 0
-539 -1311 0
-540 -1312 0
-541 -545 0
-542 -546 0
-543 -547 0
-544 -548 0
-541 -569 0
-542 -570 0
-543 -571 0
-544 -572 0
-541 -573 0
-542 -574 0
-543 -575 0
-544 -576 0
-541 -617 0
-542 -618 0
-543 -619 0
-544 -620 0
-541 -649 0
-542 -650 0
-543 -651 0
-544 -652 0
-541 -653 0
-542 -654 0
-543 -655 0
-544 -656 0
-541 -773 0
-542 -774 0
-543 -775 0
-544 -776 0
-541 -1033 0
-542 -1034 0
-543 -1035 0
-544 -1036 0
-545 -549 0
-546 -550 0
-547 -551 0
-548 -552 0
-545 -725 0
-546 -726 0
-547 -727 0
-548 -728 0
-545 -825 0
-546 -826 0
-547 -827 0
-548 -828 0
-545 -1025 0
-546 -1026 0
-547 -1027 0
-548 -1028 0
-545 -1385 0
-546 -1386 0
-547 -1387 0
-548 -1388 0
-545 -1473 0
-546 -1474 0
-547 -1475 0
-548 -1476 0
-545 -1569 0
-546 -1570 0
-547 -1571 0
-548 -1572 0
-549 -553 0
-550 -554 0
-551 -555 0
-552 -556 0
-549 -561 0
-550 -562 0
-551 -563 0
-552 -564 0
-549 -569 0
-550 -570 0
-551 -571 0
-552 -572 0
-549 -633 0
-550 -634 0
-551 -635 0
-552 -636 0
-549 -661 0
-550 -662 0
-551 -663 0
-552 -664 0
-549 -669 0
-550 -670 0
-551 -671 0
-552 -672 0
-549 -685 0
-550 -686 0
-551 -687 0
-552 -688 0
-549 -857 0
-550 -858 0
-551 -859 0
-552 -860 0
-549 -1017 0
-550 -1018 0
-551 -1019 0
-552 -1020 0
-549 -1281 0
-550 -1282 0
-551 -1283 0
-552 -1284 0
-549 -1385 0
-550 -1386 0
-551 -1387 0
-552 -1388 0
-549 -1597 0
-550 -1598 0
-551 -1599 0
-552 -1600 0
-553 -565 0
-554 -566 0
-555 -567 0
-556 -568 0
-553 -573 0
-554 -574 0
-555 -575 0
-556 -576 0
-553 -581 0
-554 -582 0
-555 -583 0
-556 -584 0
-553 -593 0
-554 -594 0
-555 -595 0
-556 -596 0
-553 -1041 0
-554 -1042 0
-555 -1043 0
-556 -1044 0
-557 -561 0
-558 -562 0
-559 -563 0
-560 -564 0
-557 -569 0
-558 -570 0
-559 -571 0
-560 -572 0
-557 -577 0
-558 -578 0
-559 -579 0
-560 -580 0
-557 -605 0
-558 -606 0
-559 -607 0
-560 -608 0
-557 -629 0
-558 -630 0
-559 -631 0
-560 -632 0
-557 -641 0
-558 -642 0
-559 -643 0
-560 -644 0
-557 -649 0
-558 -650 0
-559 -651 0
-560 -652 0
-557 -657 0
-558 -658 0
-559 -659 0
-560 -660 0
-557 -1049 0
-558 -1050 0
-559 -1051 0
-560 -1052 0
-561 -581 0
-562 -582 0
-563 -583 0
-564 -584 0
-561 -625 0
-562 -626 0
-563 -627 0
-564 -628 0
-561 -629 0
-562 -630 0
-563 -631 0
-564 -632 0
-561 -669 0
-562 -670 0
-563 -671 0
-564 -672 0
-561 -709 0
-562 -710 0
-563 -711 0
-564 -712 0
-561 -717 0
-562 -718 0
-563 -719 0
-564 -720 0
-561 -729 0
-562 -730 0
-563 -731 0
-564 -732 0
-561 -825 0
-562 -826 0
-563 -827 0
-564 -828 0
-561 -873 0
-562 -874 0
-563 -875 0
-564 -876 0
-561 -1013 0
-562 -1014 0
-563 -1015 0
-564 -1016 0
-561 -1361 0
-562 -1362 0
-563 -1363 0
-564 -1364 0
-561 -1477 0
-562 -1478 0
-563 -1479 0
-564 -1480 0
-561 -1601 0
-562 -1602 0
-563 -1603 0
-564 -1604 0
-565 -577 0
-566 -578 0
-567 -579 0
-568 -580 0
-565 -589 0
-566 -590 0
-567 -591 0
-568 -592 0
-565 -1053 0
-566 -1054 0
-567 -1055 0
-568 -1056 0
-569 -577 0
-570 -578 0
-571 -579 0
-572 -580 0
-569 -601 0
-570 -602 0
-571 -603 0
-572 -604 0
-569 -633 0
-570 -634 0
-571 -635 0
-572 -636 0
-569 -653 0
-570 -654 0
-571 -655 0
-572 -656 0
-569 -1045 0
-570 -1046 0
-571 -1047 0
-572 -1048 0
-569 -1781 0
-570 -1782 0
-571 -1783 0
-572 -1784 0
-573 -581 0
-574 -582 0
-575 -583 0
-576 -584 0
-573 -621 0
-574 -622 0
-575 -623 0
-576 -624 0
-573 -665 0
-574 -666 0
-575 -667 0
-576 -668 0
-573 -669 0
-574 -670 0
-575 -671 0
-576 -672 0
-573 -689 0
-574 -690 0
-575 -691 0
-576 -692 0
-573 -701 0
-574 -702 0
-575 -703 0
-576 -704 0
-573 -1037 0
-574 -1038 0
-575 -1039 0
-576 -1040 0
-573 -1745 0
-574 -1746 0
-575 -1747 0
-576 -1748 0
-577 -589 0
-578 -590 0
-579 -591 0
-580 -592 0
-577 -817 0
-578 -818 0
-579 -819 0
-580 -820 0
-577 -969 0
-578 -970 0
-579 -971 0
-580 -972 0
-581 -597 0
-582 -598 0
-583 -599 0
-584 -600 0
-581 -625 0
-582 -626 0
-583 -627 0
-584 -628 0
-581 -681 0
-582 -682 0
-583 -683 0
-584 -684 0
-581 -701 0
-582 -702 0
-583 -703 0
-584 -704 0
-581 -745 0
-582 -746 0
-583 -747 0
-584 -748 0
-581 -1537 0
-582 -1538 0
-583 -1539 0
-584 -1540 0
-585 -589 0
-586 -590 0
-587 -591 0
-588 -592 0
-585 -633 0
-586 -634 0
-587 -635 0
-588 -636 0
-585 -1193 0
-586 -1194 0
-587 -1195 0
-588 -1196 0
-589 -593 0
-590 -594 0
-591 -595 0
-592 -596 0
-589 -633 0
-590 -634 0
-591 -635 0
-592 -636 0
-589 -813 0
-590 -814 0
-591 -815 0
-592 -816 0
-589 -861 0
-590 -862 0
-591 -863 0
-592 -864 0
-589 -1153 0
-590 -1154 0
-591 -1155 0
-592 -1156 0
-589 -1433 0
-590 -1434 0
-591 -1435 0
-592 -1436 0
-589 -1769 0
-590 -1770 0
-591 -1771 0
-592 -1772 0
-589 -1821 0
-590 -1822 0
-591 -1823 0
-592 -1824 0
-593 -597 0
-594 -598 0
-595 -599 0
-596 -600 0
-593 -813 0
-594 -814 0
-595 -815 0
-596 -816 0
-593 -837 0
-594 -838 0
-595 -839 0
-596 -840 0
-593 -1177 0
-594 -1178 0
-595 -1179 0
-596 -1180 0
-593 -1597 0
-594 -1598 0
-595 -1599 0
-596 -1600 0
-593 -1625 0
-594 -1626 0
-595 -1627 0
-596 -1628 0
-593 -1717 0
-594 -1718 0
-595 -1719 0
-596 -1720 0
-597 -637 0
-598 -638 0
-599 -639 0
-600 -640 0
-597 -805 0
-598 -806 0
-599 -807 0
-600 -808 0
-597 -1601 0
-598 -1602 0
-599 -1603 0
-600 -1604 0
-597 -1609 0
-598 -1610 0
-599 -1611 0
-600 -1612 0
-601 -617 0
-602 -618 0
-603 -619 0
-604 -620 0
-601 -681 0
-602 -682 0
-603 -683 0
-604 -684 0
-601 -805 0
-602 -806 0
-603 -807 0
-604 -808 0
-601 -1005 0
-602 -1006 0
-603 -1007 0
-604 -1008 0
-601 -1149 0
-602 -1150 0
-603 -1151 0
-604 -1152 0
-605 -641 0
-606 -642 0
-607 -643 0
-608 -644 0
-605 -645 0
-606 -646 0
-607 -647 0
-608 -648 0
-605 -845 0
-606 -846 0
-607 -847 0
-608 -848 0
-605 -929 0
-606 -930 0
-607 -931 0
-608 -932 0
-605 -957 0
-606 -958 0
-607 -959 0
-608 -960 0
-605 -1225 0
-606 -1226 0
-607 -1227 0
-608 -1228 0
-605 -1337 0
-606 -1338 0
-607 -1339 0
-608 -1340 0
-605 -1477 0
-606 -1478 0
-607 -1479 0
-608 -1480 0
-609 -653 0
-610 -654 0
-611 -655 0
-612 -656 0
-609 -837 0
-610 -838 0
-611 -839 0
-612 -840 0
-609 -1333 0
-610 -1334 0
-611 -1335 0
-612 -1336 0
-609 -1373 0
-610 -1374 0
-611 -1375 0
-612 -1376 0
-613 -617 0
-614 -618 0
-615 -619 0
-616 -620 0
-613 -625 0
-614 -626 0
-615 -627 0
-616 -628 0
-613 -657 0
-614 -658 0
-615 -659 0
-616 -660 0
-613 -1241 0
-614 -1242 0
-615 -1243 0
-616 -1244 0
-613 -1313 0
-614 -1314 0
-615 -1315 0
-616 -1316 0
-613 -1365 0
-614 -1366 0
-615 -1367 0
-616 -1368 0
-613 -1609 0
-614 -1610 0
-615 -1611 0
-616 -1612 0
-617 -689 0
-618 -690 0
-619 -691 0
-620 -692 0
-617 -773 0
-618 -774 0
-619 -775 0
-620 -776 0
-617 -829 0
-618 -830 0
-619 -831 0
-620 -832 0
-617 -933 0
-618 -934 0
-619 -935 0
-620 -936 0
-617 -973 0
-618 -974 0
-619 -975 0
-620 -976 0
-617 -1133 0
-618 -1134 0
-619 -1135 0
-620 -1136 0
-617 -1329 0
-618 -1330 0
-619 -1331 0
-620 -1332 0
-617 -1341 0
-618 -1342 0
-619 -1343 0
-620 -1344 0
-617 -1349 0
-618 -1350 0
-619 -1351 0
-620 -1352 0
-617 -1485 0
-618 -1486 0
-619 -1487 0
-620 -1488 0
-621 -689 0
-622 -690 0
-623 -691 0
-624 -692 0
-621 -697 0
-622 -698 0
-623 -699 0
-624 -700 0
-621 -717 0
-622 -718 0
-623 -719 0
-624 -720 0
-621 -745 0
-622 -746 0
-623 -747 0
-624 -748 0
-621 -769 0
-622 -770 0
-623 -771 0
-624 -772 0
-621 -773 0
-622 -774 0
-623 -775 0
-624 -776 0
-621 -881 0
-622 -882 0
-623 -883 0
-624 -884 0
-621 -1185 0
-622 -1186 0
-623 -1187 0
-624 -1188 0
-621 -1489 0
-622 -1490 0
-623 -1491 0
-624 -1492 0
-625 -665 0
-626 -666 0
-627 -667 0
-628 -668 0
-625 -749 0
-626 -750 0
-627 -751 0
-628 -752 0
-625 -765 0
-626 -766 0
-627 -767 0
-628 -768 0
-625 -825 0
-626 -826 0
-627 -827 0
-628 -828 0
-625 -1237 0
-626 -1238 0
-627 -1239 0
-628 -1240 0
-625 -1609 0
-626 -1610 0
-627 -1611 0
-628 -1612 0
-629 -637 0
-630 -638 0
-631 -639 0
-632 -640 0
-633 -753 0
-634 -754 0
-635 -755 0
-636 -756 0
-633 -805 0
-634 -806 0
-635 -807 0
-636 -808 0
-633 -1197 0
-634 -1198 0
-635 -1199 0
-636 -1200 0
-633 -1773 0
-634 -1774 0
-635 -1775 0
-636 -1776 0
-637 -649 0
-638 -650 0
-639 -651 0
-640 -652 0
-637 -701 0
-638 -702 0
-639 -703 0
-640 -704 0
-637 -825 0
-638 -826 0
-639 -827 0
-640 -828 0
-637 -1093 0
-638 -1094 0
-639 -1095 0
-640 -1096 0
-637 -1425 0
-638 -1426 0
-639 -1427 0
-640 -1428 0
-637 -1617 0
-638 -1618 0
-639 -1619 0
-640 -1620 0
-637 -1621 0
-638 -1622 0
-639 -1623 0
-640 -1624 0
-637 -1777 0
-638 -1778 0
-639 -1779 0
-640 -1780 0
-641 -693 0
-642 -694 0
-643 -695 0
-644 -696 0
-641 -729 0
-642 -730 0
-643 -731 0
-644 -732 0
-641 -829 0
-642 -830 0
-643 -831 0
-644 -832 0
-645 -721 0
-646 -722 0
-647 -723 0
-648 -724 0
-645 -793 0
-646 -794 0
-647 -795 0
-648 -796 0
-645 -881 0
-646 -882 0
-647 -883 0
-648 -884 0
-645 -913 0
-646 -914 0
-647 -915 0
-648 -916 0
-645 -965 0
-646 -966 0
-647 -967 0
-648 -968 0
-645 -1345 0
-646 -1346 0
-647 -1347 0
-648 -1348 0
-645 -1349 0
-646 -1350 0
-647 -1351 0
-648 -1352 0
-645 -1453 0
-646 -1454 0
-647 -1455 0
-648 -1456 0
-649 -657 0
-650 -658 0
-651 -659 0
-652 -660 0
-649 -701 0
-650 -702 0
-651 -703 0
-652 -704 0
-649 -825 0
-650 -826 0
-651 -827 0
-652 -828 0
-649 -849 0
-650 -850 0
-651 -851 0
-652 -852 0
-649 -877 0
-650 -878 0
-651 -879 0
-652 -880 0
-649 -957 0
-650 -958 0
-651 -959 0
-652 -960 0
-649 -1369 0
-650 -1370 0
-651 -1371 0
-652 -1372 0
-653 -657 0
-654 -658 0
-655 -659 0
-656 -660 0
-653 -677 0
-654 -678 0
-655 -679 0
-656 -680 0
-653 -753 0
-654 -754 0
-655 -755 0
-656 -756 0
-653 -1117 0
-654 -1118 0
-655 -1119 0
-656 -1120 0
-653 -1201 0
-654 -1202 0
-655 -1203 0
-656 -1204 0
-653 -1385 0
-654 -1386 0
-655 -1387 0
-656 -1388 0
-657 -665 0
-658 -666 0
-659 -667 0
-660 -668 0
-657 -829 0
-658 -830 0
-659 -831 0
-660 -832 0
-657 -845 0
-658 -846 0
-659 -847 0
-660 -848 0
-657 -849 0
-658 -850 0
-659 -851 0
-660 -852 0
-661 -685 0
-662 -686 0
-663 -687 0
-664 -688 0
-661 -689 0
-662 -690 0
-663 -691 0
-664 -692 0
-661 -713 0
-662 -714 0
-663 -715 0
-664 -716 0
-661 -725 0
-662 -726 0
-663 -727 0
-664 -728 0
-661 -829 0
-662 -830 0
-663 -831 0
-664 -832 0
-661 -873 0
-662 -874 0
-663 -875 0
-664 -876 0
-661 -1085 0
-662 -1086 0
-663 -1087 0
-664 -1088 0
-661 -1737 0
-662 -1738 0
-663 -1739 0
-664 -1740 0
-661 -1793 0
-662 -1794 0
-663 -1795 0
-664 -1796 0
-665 -669 0
-666 -670 0
-667 -671 0
-668 -672 0
-665 -677 0
-666 -678 0
-667 -679 0
-668 -680 0
-665 -705 0
-666 -706 0
-667 -707 0
-668 -708 0
-665 -737 0
-666 -738 0
-667 -739 0
-668 -740 0
-665 -769 0
-666 -770 0
-667 -771 0
-668 -772 0
-665 -1181 0
-666 -1182 0
-667 -1183 0
-668 -1184 0
-665 -1757 0
-666 -1758 0
-667 -1759 0
-668 -1760 0
-669 -709 0
-670 -710 0
-671 -711 0
-672 -712 0
-669 -821 0
-670 -822 0
-671 -823 0
-672 -824 0
-669 -853 0
-670 -854 0
-671 -855 0
-672 -856 0
-669 -881 0
-670 -882 0
-671 -883 0
-672 -884 0
-669 -1613 0
-670 -1614 0
-671 -1615 0
-672 -1616 0
-673 -1213 0
-674 -1214 0
-675 -1215 0
-676 -1216 0
-673 -1801 0
-674 -1802 0
-675 -1803 0
-676 -1804 0
-673 -1817 0
-674 -1818 0
-675 -1819 0
-676 -1820 0
-677 -717 0
-678 -718 0
-679 -719 0
-680 -720 0
-677 -729 0
-678 -730 0
-679 -731 0
-680 -732 0
-677 -753 0
-678 -754 0
-679 -755 0
-680 -756 0
-681 -713 0
-682 -714 0
-683 -715 0
-684 -716 0
-681 -729 0
-682 -730 0
-683 -731 0
-684 -732 0
-681 -745 0
-682 -746 0
-683 -747 0
-684 -748 0
-681 -805 0
-682 -806 0
-683 -807 0
-684 -808 0
-681 -1169 0
-682 -1170 0
-683 -1171 0
-684 -1172 0
-681 -1509 0
-682 -1510 0
-683 -1511 0
-684 -1512 0
-685 -697 0
-686 -698 0
-687 -699 0
-688 -700 0
-685 -845 0
-686 -846 0
-687 -847 0
-688 -848 0
-685 -1137 0
-686 -1138 0
-687 -1139 0
-688 -1140 0
-685 -1473 0
-686 -1474 0
-687 -1475 0
-688 -1476 0
-689 -705 0
-690 -706 0
-691 -707 0
-692 -708 0
-689 -873 0
-690 -874 0
-691 -875 0
-692 -876 0
-689 -1121 0
-690 -1122 0
-691 -1123 0
-692 -1124 0
-689 -1533 0
-690 -1534 0
-691 -1535 0
-692 -1536 0
-693 -705 0
-694 -706 0
-695 -707 0
-696 -708 0
-693 -721 0
-694 -722 0
-695 -723 0
-696 -724 0
-693 -973 0
-694 -974 0
-695 -975 0
-696 -976 0
-693 -1785 0
-694 -1786 0
-695 -1787 0
-696 -1788 0
-697 -701 0
-698 -702 0
-699 -703 0
-700 -704 0
-697 -713 0
-698 -714 0
-699 -715 0
-700 -716 0
-697 -717 0
-698 -718 0
-699 -719 0
-700 -720 0
-697 -745 0
-698 -746 0
-699 -747 0
-700 -748 0
-697 -957 0
-698 -958 0
-699 -959 0
-700 -960 0
-697 -1105 0
-698 -1106 0
-699 -1107 0
-700 -1108 0
-697 -1473 0
-698 -1474 0
-699 -1475 0
-700 -1476 0
-697 -1545 0
-698 -1546 0
-699 -1547 0
-700 -1548 0
-697 -1589 0
-698 -1590 0
-699 -1591 0
-700 -1592 0
-697 -1617 0
-698 -1618 0
-699 -1619 0
-700 -1620 0
-701 -709 0
-702 -710 0
-703 -711 0
-704 -712 0
-701 -713 0
-702 -714 0
-703 -715 0
-704 -716 0
-705 -725 0
-706 -726 0
-707 -727 0
-708 -728 0
-705 -729 0
-706 -730 0
-707 -731 0
-708 -732 0
-705 -769 0
-706 -770 0
-707 -771 0
-708 -772 0
-705 -1101 0
-706 -1102 0
-707 -1103 0
-708 -1104 0
-705 -1265 0
-706 -1266 0
-707 -1267 0
-708 -1268 0
-705 -1541 0
-706 -1542 0
-707 -1543 0
-708 -1544 0
-709 -725 0
-710 -726 0
-711 -727 0
-712 -728 0
-709 -849 0
-710 -850 0
-711 -851 0
-712 -852 0
-709 -1109 0
-710 -1110 0
-711 -1111 0
-712 -1112 0
-709 -1473 0
-710 -1474 0
-711 -1475 0
-712 -1476 0
-709 -1553 0
-710 -1554 0
-711 -1555 0
-712 -1556 0
-709 -1621 0
-710 -1622 0
-711 -1623 0
-712 -1624 0
-713 -725 0
-714 -726 0
-715 -727 0
-716 -728 0
-713 -1165 0
-714 -1166 0
-715 -1167 0
-716 -1168 0
-713 -1249 0
-714 -1250 0
-715 -1251 0
-716 -1252 0
-717 -729 0
-718 -730 0
-719 -731 0
-720 -732 0
-717 -733 0
-718 -734 0
-719 -735 0
-720 -736 0
-717 -873 0
-718 -874 0
-719 -875 0
-720 -876 0
-717 -913 0
-718 -914 0
-719 -915 0
-720 -916 0
-717 -1073 0
-718 -1074 0
-719 -1075 0
-720 -1076 0
-717 -1233 0
-718 -1234 0
-719 -1235 0
-720 -1236 0
-717 -1469 0
-718 -1470 0
-719 -1471 0
-720 -1472 0
-717 -1557 0
-718 -1558 0
-719 -1559 0
-720 -1560 0
-721 -769 0
-722 -770 0
-723 -771 0
-724 -772 0
-721 -913 0
-722 -914 0
-723 -915 0
-724 -916 0
-725 -729 0
-726 -730 0
-727 -731 0
-728 -732 0
-725 -985 0
-726 -986 0
-727 -987 0
-728 -988 0
-725 -1041 0
-726 -1042 0
-727 -1043 0
-728 -1044 0
-725 -1473 0
-726 -1474 0
-727 -1475 0
-728 -1476 0
-725 -1517 0
-726 -1518 0
-727 -1519 0
-728 -1520 0
-725 -1629 0
-726 -1630 0
-727 -1631 0
-728 -1632 0
-729 -1253 0
-730 -1254 0
-731 -1255 0
-732 -1256 0
-729 -1477 0
-730 -1478 0
-731 -1479 0
-732 -1480 0
-729 -1481 0
-730 -1482 0
-731 -1483 0
-732 -1484 0
-729 -1501 0
-730 -1502 0
-731 -1503 0
-732 -1504 0
-729 -1633 0
-730 -1634 0
-731 -1635 0
-732 -1636 0
-733 -869 0
-734 -870 0
-735 -871 0
-736 -872 0
-733 -1097 0
-734 -1098 0
-735 -1099 0
-736 -1100 0
-733 -1169 0
-734 -1170 0
-735 -1171 0
-736 -1172 0
-733 -1189 0
-734 -1190 0
-735 -1191 0
-736 -1192 0
-733 -1357 0
-734 -1358 0
-735 -1359 0
-736 -1360 0
-733 -1361 0
-734 -1362 0
-735 -1363 0
-736 -1364 0
-733 -1557 0
-734 -1558 0
-735 -1559 0
-736 -1560 0
-737 -749 0
-738 -750 0
-739 -751 0
-740 -752 0
-737 -777 0
-738 -778 0
-739 -779 0
-740 -780 0
-737 -1085 0
-738 -1086 0
-739 -1087 0
-740 -1088 0
-737 -1097 0
-738 -1098 0
-739 -1099 0
-740 -1100 0
-737 -1101 0
-738 -1102 0
-739 -1103 0
-740 -1104 0
-737 -1185 0
-738 -1186 0
-739 -1187 0
-740 -1188 0
-737 -1221 0
-738 -1222 0
-739 -1223 0
-740 -1224 0
-737 -1381 0
-738 -1382 0
-739 -1383 0
-740 -1384 0
-737 -1757 0
-738 -1758 0
-739 -1759 0
-740 -1760 0
-741 -761 0
-742 -762 0
-743 -763 0
-744 -764 0
-741 -765 0
-742 -766 0
-743 -767 0
-744 -768 0
-741 -1529 0
-742 -1530 0
-743 -1531 0
-744 -1532 0
-741 -1641 0
-742 -1642 0
-743 -1643 0
-744 -1644 0
-741 -1745 0
-742 -1746 0
-743 -1747 0
-744 -1748 0
-745 -1477 0
-746 -1478 0
-747 -1479 0
-748 -1480 0
-749 -765 0
-750 -766 0
-751 -767 0
-752 -768 0
-749 -949 0
-750 -950 0
-751 -951 0
-752 -952 0
-749 -1081 0
-750 -1082 0
-751 -1083 0
-752 -1084 0
-749 -1085 0
-750 -1086 0
-751 -1087 0
-752 -1088 0
-749 -1313 0
-750 -1314 0
-751 -1315 0
-752 -1316 0
-749 -1361 0
-750 -1362 0
-751 -1363 0
-752 -1364 0
-749 -1501 0
-750 -1502 0
-751 -1503 0
-752 -1504 0
-749 -1645 0
-750 -1646 0
-751 -1647 0
-752 -1648 0
-753 -813 0
-754 -814 0
-755 -815 0
-756 -816 0
-753 -1273 0
-754 -1274 0
-755 -1275 0
-756 -1276 0
-753 -1385 0
-754 -1386 0
-755 -1387 0
-756 -1388 0
-753 -1633 0
-754 -1634 0
-755 -1635 0
-756 -1636 0
-753 -1765 0
-754 -1766 0
-755 -1767 0
-756 -1768 0
-753 -1813 0
-754 -1814 0
-755 -1815 0
-756 -1816 0
-757 -1393 0
-758 -1394 0
-759 -1395 0
-760 -1396 0
-757 -1437 0
-758 -1438 0
-759 -1439 0
-760 -1440 0
-757 -1453 0
-758 -1454 0
-759 -1455 0
-760 -1456 0
-757 -1473 0
-758 -1474 0
-759 -1475 0
-760 -1476 0
-757 -1485 0
-758 -1486 0
-759 -1487 0
-760 -1488 0
-757 -1609 0
-758 -1610 0
-759 -1611 0
-760 -1612 0
-757 -1641 0
-758 -1642 0
-759 -1643 0
-760 -1644 0
-761 -765 0
-762 -766 0
-763 -767 0
-764 -768 0
-761 -1341 0
-762 -1342 0
-763 -1343 0
-764 -1344 0
-761 -1489 0
-762 -1490 0
-763 -1491 0
-764 -1492 0
-761 -1581 0
-762 -1582 0
-763 -1583 0
-764 -1584 0
-761 -1649 0
-762 -1650 0
-763 -1651 0
-764 -1652 0
-765 -937 0
-766 -938 0
-767 -939 0
-768 -940 0
-765 -1189 0
-766 -1190 0
-767 -1191 0
-768 -1192 0
-765 -1237 0
-766 -1238 0
-767 -1239 0
-768 -1240 0
-765 -1365 0
-766 -1366 0
-767 -1367 0
-768 -1368 0
-765 -1377 0
-766 -1378 0
-767 -1379 0
-768 -1380 0
-765 -1469 0
-766 -1470 0
-767 -1471 0
-768 -1472 0
-765 -1481 0
-766 -1482 0
-767 -1483 0
-768 -1484 0
-765 -1509 0
-766 -1510 0
-767 -1511 0
-768 -1512 0
-765 -1525 0
-766 -1526 0
-767 -1527 0
-768 -1528 0
-765 -1529 0
-766 -1530 0
-767 -1531 0
-768 -1532 0
-765 -1533 0
-766 -1534 0
-767 -1535 0
-768 -1536 0
-765 -1557 0
-766 -1558 0
-767 -1559 0
-768 -1560 0
-765 -1561 0
-766 -1562 0
-767 -1563 0
-768 -1564 0
-765 -1581 0
-766 -1582 0
-767 -1583 0
-768 -1584 0
-765 -1653 0
-766 -1654 0
-767 -1655 0
-768 -1656 0
-765 -1737 0
-766 -1738 0
-767 -1739 0
-768 -1740 0
-765 -1757 0
-766 -1758 0
-767 -1759 0
-768 -1760 0
-769 -777 0
-770 -778 0
-771 -779 0
-772 -780 0
-769 -845 0
-770 -846 0
-771 -847 0
-772 -848 0
-769 -881 0
-770 -882 0
-771 -883 0
-772 -884 0
-769 -1277 0
-770 -1278 0
-771 -1279 0
-772 -1280 0
-769 -1513 0
-770 -1514 0
-771 -1515 0
-772 -1516 0
-769 -1585 0
-770 -1586 0
-771 -1587 0
-772 -1588 0
-773 -913 0
-774 -914 0
-775 -915 0
-776 -916 0
-773 -957 0
-774 -958 0
-775 -959 0
-776 -960 0
-777 -841 0
-778 -842 0
-779 -843 0
-780 -844 0
-777 -857 0
-778 -858 0
-779 -859 0
-780 -860 0
-777 -1101 0
-778 -1102 0
-779 -1103 0
-780 -1104 0
-777 -1169 0
-778 -1170 0
-779 -1171 0
-780 -1172 0
-777 -1585 0
-778 -1586 0
-779 -1587 0
-780 -1588 0
-777 -1657 0
-778 -1658 0
-779 -1659 0
-780 -1660 0
-781 -865 0
-782 -866 0
-783 -867 0
-784 -868 0
-781 -1017 0
-782 -1018 0
-783 -1019 0
-784 -1020 0
-781 -1021 0
-782 -1022 0
-783 -1023 0
-784 -1024 0
-781 -1045 0
-782 -1046 0
-783 -1047 0
-784 -1048 0
-785 -941 0
-786 -942 0
-787 -943 0
-788 -944 0
-785 -989 0
-786 -990 0
-787 -991 0
-788 -992 0
-789 -793 0
-790 -794 0
-791 -795 0
-792 -796 0
-789 -1377 0
-790 -1378 0
-791 -1379 0
-792 -1380 0
-789 -1453 0
-790 -1454 0
-791 -1455 0
-792 -1456 0
-789 -1665 0
-790 -1666 0
-791 -1667 0
-792 -1668 0
-789 -1681 0
-790 -1682 0
-791 -1683 0
-792 -1684 0
-789 -1689 0
-790 -1690 0
-791 -1691 0
-792 -1692 0
-789 -1769 0
-790 -1770 0
-791 -1771 0
-792 -1772 0
-793 -965 0
-794 -966 0
-795 -967 0
-796 -968 0
-793 -1009 0
-794 -1010 0
-795 -1011 0
-796 -1012 0
-793 -1321 0
-794 -1322 0
-795 -1323 0
-796 -1324 0
-793 -1353 0
-794 -1354 0
-795 -1355 0
-796 -1356 0
-793 -1377 0
-794 -1378 0
-795 -1379 0
-796 -1380 0
-797 -833 0
-798 -834 0
-799 -835 0
-800 -836 0
-797 -1141 0
-798 -1142 0
-799 -1143 0
-800 -1144 0
-797 -1153 0
-798 -1154 0
-799 -1155 0
-800 -1156 0
-797 -1185 0
-798 -1186 0
-799 -1187 0
-800 -1188 0
-797 -1257 0
-798 -1258 0
-799 -1259 0
-800 -1260 0
-797 -1677 0
-798 -1678 0
-799 -1679 0
-800 -1680 0
-797 -1685 0
-798 -1686 0
-799 -1687 0
-800 -1688 0
-801 -897 0
-802 -898 0
-803 -899 0
-804 -900 0
-801 -1237 0
-802 -1238 0
-803 -1239 0
-804 -1240 0
-801 -1389 0
-802 -1390 0
-803 -1391 0
-804 -1392 0
-801 -1681 0
-802 -1682 0
-803 -1683 0
-804 -1684 0
-805 -1157 0
-806 -1158 0
-807 -1159 0
-808 -1160 0
-805 -1457 0
-806 -1458 0
-807 -1459 0
-808 -1460 0
-805 -1485 0
-806 -1486 0
-807 -1487 0
-808 -1488 0
-805 -1605 0
-806 -1606 0
-807 -1607 0
-808 -1608 0
-805 -1633 0
-806 -1634 0
-807 -1635 0
-808 -1636 0
-805 -1825 0
-806 -1826 0
-807 -1827 0
-808 -1828 0
-809 -829 0
-810 -830 0
-811 -831 0
-812 -832 0
-809 -921 0
-810 -922 0
-811 -923 0
-812 -924 0
-809 -969 0
-810 -970 0
-811 -971 0
-812 -972 0
-809 -1325 0
-810 -1326 0
-811 -1327 0
-812 -1328 0
-809 -1337 0
-810 -1338 0
-811 -1339 0
-812 -1340 0
-809 -1373 0
-810 -1374 0
-811 -1375 0
-812 -1376 0
-809 -1581 0
-810 -1582 0
-811 -1583 0
-812 -1584 0
-809 -1781 0
-810 -1782 0
-811 -1783 0
-812 -1784 0
-809 -1793 0
-810 -1794 0
-811 -1795 0
-812 -1796 0
-813 -861 0
-814 -862 0
-815 -863 0
-816 -864 0
-813 -1217 0
-814 -1218 0
-815 -1219 0
-816 -1220 0
-813 -1453 0
-814 -1454 0
-815 -1455 0
-816 -1456 0
-813 -1597 0
-814 -1598 0
-815 -1599 0
-816 -1600 0
-813 -1609 0
-814 -1610 0
-815 -1611 0
-816 -1612 0
-813 -1617 0
-814 -1618 0
-815 -1619 0
-816 -1620 0
-813 -1669 0
-814 -1670 0
-815 -1671 0
-816 -1672 0
-813 -1673 0
-814 -1674 0
-815 -1675 0
-816 -1676 0
-817 -833 0
-818 -834 0
-819 -835 0
-820 -836 0
-817 -865 0
-818 -866 0
-819 -867 0
-820 -868 0
-817 -869 0
-818 -870 0
-819 -871 0
-820 -872 0
-817 -901 0
-818 -902 0
-819 -903 0
-820 -904 0
-817 -905 0
-818 -906 0
-819 -907 0
-820 -908 0
-817 -965 0
-818 -966 0
-819 -967 0
-820 -968 0
-817 -969 0
-818 -970 0
-819 -971 0
-820 -972 0
-817 -973 0
-818 -974 0
-819 -975 0
-820 -976 0
-817 -1029 0
-818 -1030 0
-819 -1031 0
-820 -1032 0
-817 -1045 0
-818 -1046 0
-819 -1047 0
-820 -1048 0
-817 -1049 0
-818 -1050 0
-819 -1051 0
-820 -1052 0
-817 -1053 0
-818 -1054 0
-819 -1055 0
-820 -1056 0
-817 -1061 0
-818 -1062 0
-819 -1063 0
-820 -1064 0
-817 -1129 0
-818 -1130 0
-819 -1131 0
-820 -1132 0
-817 -1133 0
-818 -1134 0
-819 -1135 0
-820 -1136 0
-817 -1145 0
-818 -1146 0
-819 -1147 0
-820 -1148 0
-817 -1153 0
-818 -1154 0
-819 -1155 0
-820 -1156 0
-817 -1229 0
-818 -1230 0
-819 -1231 0
-820 -1232 0
-817 -1297 0
-818 -1298 0
-819 -1299 0
-820 -1300 0
-817 -1301 0
-818 -1302 0
-819 -1303 0
-820 -1304 0
-817 -1317 0
-818 -1318 0
-819 -1319 0
-820 -1320 0
-817 -1357 0
-818 -1358 0
-819 -1359 0
-820 -1360 0
-817 -1785 0
-818 -1786 0
-819 -1787 0
-820 -1788 0
-821 -853 0
-822 -854 0
-823 -855 0
-824 -856 0
-821 -1377 0
-822 -1378 0
-823 -1379 0
-824 -1380 0
-821 -1489 0
-822 -1490 0
-823 -1491 0
-824 -1492 0
-821 -1529 0
-822 -1530 0
-823 -1531 0
-824 -1532 0
-821 -1541 0
-822 -1542 0
-823 -1543 0
-824 -1544 0
-821 -1553 0
-822 -1554 0
-823 -1555 0
-824 -1556 0
-821 -1565 0
-822 -1566 0
-823 -1567 0
-824 -1568 0
-821 -1789 0
-822 -1790 0
-823 -1791 0
-824 -1792 0
-825 -877 0
-826 -878 0
-827 -879 0
-828 -880 0
-825 -1261 0
-826 -1262 0
-827 -1263 0
-828 -1264 0
-825 -1525 0
-826 -1526 0
-827 -1527 0
-828 -1528 0
-829 -845 0
-830 -846 0
-831 -847 0
-832 -848 0
-829 -921 0
-830 -922 0
-831 -923 0
-832 -924 0
-829 -973 0
-830 -974 0
-831 -975 0
-832 -976 0
-829 -1349 0
-830 -1350 0
-831 -1351 0
-832 -1352 0
-833 -1129 0
-834 -1130 0
-835 -1131 0
-836 -1132 0
-833 -1185 0
-834 -1186 0
-835 -1187 0
-836 -1188 0
-833 -1357 0
-834 -1358 0
-835 -1359 0
-836 -1360 0
-837 -1597 0
-838 -1598 0
-839 -1599 0
-840 -1600 0
-837 -1725 0
-838 -1726 0
-839 -1727 0
-840 -1728 0
-841 -845 0
-842 -846 0
-843 -847 0
-844 -848 0
-841 -1149 0
-842 -1150 0
-843 -1151 0
-844 -1152 0
-841 -1301 0
-842 -1302 0
-843 -1303 0
-844 -1304 0
-841 -1325 0
-842 -1326 0
-843 -1327 0
-844 -1328 0
-841 -1333 0
-842 -1334 0
-843 -1335 0
-844 -1336 0
-841 -1657 0
-842 -1658 0
-843 -1659 0
-844 -1660 0
-845 -957 0
-846 -958 0
-847 -959 0
-848 -960 0
-845 -981 0
-846 -982 0
-847 -983 0
-848 -984 0
-845 -1325 0
-846 -1326 0
-847 -1327 0
-848 -1328 0
-845 -1513 0
-846 -1514 0
-847 -1515 0
-848 -1516 0
-849 -929 0
-850 -930 0
-851 -931 0
-852 -932 0
-849 -1225 0
-850 -1226 0
-851 -1227 0
-852 -1228 0
-849 -1429 0
-850 -1430 0
-851 -1431 0
-852 -1432 0
-849 -1621 0
-850 -1622 0
-851 -1623 0
-852 -1624 0
-853 -857 0
-854 -858 0
-855 -859 0
-856 -860 0
-853 -1057 0
-854 -1058 0
-855 -1059 0
-856 -1060 0
-853 -1069 0
-854 -1070 0
-855 -1071 0
-856 -1072 0
-853 -1089 0
-854 -1090 0
-855 -1091 0
-856 -1092 0
-853 -1097 0
-854 -1098 0
-855 -1099 0
-856 -1100 0
-853 -1121 0
-854 -1122 0
-855 -1123 0
-856 -1124 0
-853 -1169 0
-854 -1170 0
-855 -1171 0
-856 -1172 0
-853 -1221 0
-854 -1222 0
-855 -1223 0
-856 -1224 0
-853 -1249 0
-854 -1250 0
-855 -1251 0
-856 -1252 0
-853 -1265 0
-854 -1266 0
-855 -1267 0
-856 -1268 0
-853 -1521 0
-854 -1522 0
-855 -1523 0
-856 -1524 0
-857 -1053 0
-858 -1054 0
-859 -1055 0
-860 -1056 0
-857 -1085 0
-858 -1086 0
-859 -1087 0
-860 -1088 0
-857 -1113 0
-858 -1114 0
-859 -1115 0
-860 -1116 0
-857 -1169 0
-858 -1170 0
-859 -1171 0
-860 -1172 0
-857 -1281 0
-858 -1282 0
-859 -1283 0
-860 -1284 0
-857 -1301 0
-858 -1302 0
-859 -1303 0
-860 -1304 0
-857 -1493 0
-858 -1494 0
-859 -1495 0
-860 -1496 0
-857 -1577 0
-858 -1578 0
-859 -1579 0
-860 -1580 0
-857 -1701 0
-858 -1702 0
-859 -1703 0
-860 -1704 0
-861 -877 0
-862 -878 0
-863 -879 0
-864 -880 0
-861 -1293 0
-862 -1294 0
-863 -1295 0
-864 -1296 0
-861 -1437 0
-862 -1438 0
-863 -1439 0
-864 -1440 0
-861 -1665 0
-862 -1666 0
-863 -1667 0
-864 -1668 0
-861 -1729 0
-862 -1730 0
-863 -1731 0
-864 -1732 0
-865 -869 0
-866 -870 0
-867 -871 0
-868 -872 0
-869 -873 0
-870 -874 0
-871 -875 0
-872 -876 0
-869 -1081 0
-870 -1082 0
-871 -1083 0
-872 -1084 0
-869 -1361 0
-870 -1362 0
-871 -1363 0
-872 -1364 0
-869 -1549 0
-870 -1550 0
-871 -1551 0
-872 -1552 0
-873 -973 0
-874 -974 0
-875 -975 0
-876 -976 0
-873 -1549 0
-874 -1550 0
-875 -1551 0
-876 -1552 0
-877 -1389 0
-878 -1390 0
-879 -1391 0
-880 -1392 0
-877 -1393 0
-878 -1394 0
-879 -1395 0
-880 -1396 0
-877 -1413 0
-878 -1414 0
-879 -1415 0
-880 -1416 0
-877 -1429 0
-878 -1430 0
-879 -1431 0
-880 -1432 0
-881 -1089 0
-882 -1090 0
-883 -1091 0
-884 -1092 0
-881 -1377 0
-882 -1378 0
-883 -1379 0
-884 -1380 0
-881 -1453 0
-882 -1454 0
-883 -1455 0
-884 -1456 0
-881 -1469 0
-882 -1470 0
-883 -1471 0
-884 -1472 0
-881 -1473 0
-882 -1474 0
-883 -1475 0
-884 -1476 0
-881 -1477 0
-882 -1478 0
-883 -1479 0
-884 -1480 0
-885 -897 0
-886 -898 0
-887 -899 0
-888 -900 0
-885 -901 0
-886 -902 0
-887 -903 0
-888 -904 0
-885 -905 0
-886 -906 0
-887 -907 0
-888 -908 0
-885 -941 0
-886 -942 0
-887 -943 0
-888 -944 0
-885 -953 0
-886 -954 0
-887 -955 0
-888 -956 0
-885 -1013 0
-886 -1014 0
-887 -1015 0
-888 -1016 0
-889 -901 0
-890 -902 0
-891 -903 0
-892 -904 0
-889 -925 0
-890 -926 0
-891 -927 0
-892 -928 0
-889 -1301 0
-890 -1302 0
-891 -1303 0
-892 -1304 0
-889 -1329 0
-890 -1330 0
-891 -1331 0
-892 -1332 0
-893 -905 0
-894 -906 0
-895 -907 0
-896 -908 0
-893 -909 0
-894 -910 0
-895 -911 0
-896 -912 0
-893 -937 0
-894 -938 0
-895 -939 0
-896 -940 0
-893 -969 0
-894 -970 0
-895 -971 0
-896 -972 0
-893 -977 0
-894 -978 0
-895 -979 0
-896 -980 0
-893 -993 0
-894 -994 0
-895 -995 0
-896 -996 0
-893 -1305 0
-894 -1306 0
-895 -1307 0
-896 -1308 0
-893 -1345 0
-894 -1346 0
-895 -1347 0
-896 -1348 0
-893 -1373 0
-894 -1374 0
-895 -1375 0
-896 -1376 0
-893 -1497 0
-894 -1498 0
-895 -1499 0
-896 -1500 0
-893 -1673 0
-894 -1674 0
-895 -1675 0
-896 -1676 0
-897 -901 0
-898 -902 0
-899 -903 0
-900 -904 0
-897 -917 0
-898 -918 0
-899 -919 0
-900 -920 0
-897 -937 0
-898 -938 0
-899 -939 0
-900 -940 0
-897 -1237 0
-898 -1238 0
-899 -1239 0
-900 -1240 0
-901 -905 0
-902 -906 0
-903 -907 0
-904 -908 0
-901 -909 0
-902 -910 0
-903 -911 0
-904 -912 0
-901 -917 0
-902 -918 0
-903 -919 0
-904 -920 0
-901 -925 0
-902 -926 0
-903 -927 0
-904 -928 0
-901 -965 0
-902 -966 0
-903 -967 0
-904 -968 0
-901 -981 0
-902 -982 0
-903 -983 0
-904 -984 0
-901 -1009 0
-902 -1010 0
-903 -1011 0
-904 -1012 0
-901 -1033 0
-902 -1034 0
-903 -1035 0
-904 -1036 0
-901 -1125 0
-902 -1126 0
-903 -1127 0
-904 -1128 0
-901 -1293 0
-902 -1294 0
-903 -1295 0
-904 -1296 0
-901 -1505 0
-902 -1506 0
-903 -1507 0
-904 -1508 0
-905 -1021 0
-906 -1022 0
-907 -1023 0
-908 -1024 0
-905 -1029 0
-906 -1030 0
-907 -1031 0
-908 -1032 0
-905 -1065 0
-906 -1066 0
-907 -1067 0
-908 -1068 0
-905 -1201 0
-906 -1202 0
-907 -1203 0
-908 -1204 0
-905 -1217 0
-906 -1218 0
-907 -1219 0
-908 -1220 0
-905 -1241 0
-906 -1242 0
-907 -1243 0
-908 -1244 0
-909 -969 0
-910 -970 0
-911 -971 0
-912 -972 0
-909 -1537 0
-910 -1538 0
-911 -1539 0
-912 -1540 0
-913 -917 0
-914 -918 0
-915 -919 0
-916 -920 0
-913 -957 0
-914 -958 0
-915 -959 0
-916 -960 0
-913 -973 0
-914 -974 0
-915 -975 0
-916 -976 0
-913 -1353 0
-914 -1354 0
-915 -1355 0
-916 -1356 0
-913 -1357 0
-914 -1358 0
-915 -1359 0
-916 -1360 0
-917 -965 0
-918 -966 0
-919 -967 0
-920 -968 0
-917 -1073 0
-918 -1074 0
-919 -1075 0
-920 -1076 0
-917 -1353 0
-918 -1354 0
-919 -1355 0
-920 -1356 0
-917 -1445 0
-918 -1446 0
-919 -1447 0
-920 -1448 0
-921 -949 0
-922 -950 0
-923 -951 0
-924 -952 0
-921 -961 0
-922 -962 0
-923 -963 0
-924 -964 0
-921 -981 0
-922 -982 0
-923 -983 0
-924 -984 0
-921 -1085 0
-922 -1086 0
-923 -1087 0
-924 -1088 0
-921 -1225 0
-922 -1226 0
-923 -1227 0
-924 -1228 0
-921 -1381 0
-922 -1382 0
-923 -1383 0
-924 -1384 0
-925 -941 0
-926 -942 0
-927 -943 0
-928 -944 0
-925 -985 0
-926 -986 0
-927 -987 0
-928 -988 0
-925 -1001 0
-926 -1002 0
-927 -1003 0
-928 -1004 0
-925 -1225 0
-926 -1226 0
-927 -1227 0
-928 -1228 0
-925 -1229 0
-926 -1230 0
-927 -1231 0
-928 -1232 0
-925 -1285 0
-926 -1286 0
-927 -1287 0
-928 -1288 0
-925 -1305 0
-926 -1306 0
-927 -1307 0
-928 -1308 0
-925 -1449 0
-926 -1450 0
-927 -1451 0
-928 -1452 0
-925 -1517 0
-926 -1518 0
-927 -1519 0
-928 -1520 0
-929 -997 0
-930 -998 0
-931 -999 0
-932 -1000 0
-929 -1225 0
-930 -1226 0
-931 -1227 0
-932 -1228 0
-929 -1345 0
-930 -1346 0
-931 -1347 0
-932 -1348 0
-929 -1553 0
-930 -1554 0
-931 -1555 0
-932 -1556 0
-933 -937 0
-934 -938 0
-935 -939 0
-936 -940 0
-933 -1005 0
-934 -1006 0
-935 -1007 0
-936 -1008 0
-933 -1329 0
-934 -1330 0
-935 -1331 0
-936 -1332 0
-933 -1533 0
-934 -1534 0
-935 -1535 0
-936 -1536 0
-937 -949 0
-938 -950 0
-939 -951 0
-940 -952 0
-937 -953 0
-938 -954 0
-939 -955 0
-940 -956 0
-937 -1009 0
-938 -1010 0
-939 -1011 0
-940 -1012 0
-937 -1345 0
-938 -1346 0
-939 -1347 0
-940 -1348 0
-937 -1349 0
-938 -1350 0
-939 -1351 0
-940 -1352 0
-937 -1353 0
-938 -1354 0
-939 -1355 0
-940 -1356 0
-937 -1653 0
-938 -1654 0
-939 -1655 0
-940 -1656 0
-941 -989 0
-942 -990 0
-943 -991 0
-944 -992 0
-941 -993 0
-942 -994 0
-943 -995 0
-944 -996 0
-945 -1281 0
-946 -1282 0
-947 -1283 0
-948 -1284 0
-945 -1373 0
-946 -1374 0
-947 -1375 0
-948 -1376 0
-945 -1693 0
-946 -1694 0
-947 -1695 0
-948 -1696 0
-949 -965 0
-950 -966 0
-951 -967 0
-952 -968 0
-949 -1297 0
-950 -1298 0
-951 -1299 0
-952 -1300 0
-949 -1309 0
-950 -1310 0
-951 -1311 0
-952 -1312 0
-949 -1349 0
-950 -1350 0
-951 -1351 0
-952 -1352 0
-949 -1381 0
-950 -1382 0
-951 -1383 0
-952 -1384 0
-949 -1645 0
-950 -1646 0
-951 -1647 0
-952 -1648 0
-953 -993 0
-954 -994 0
-955 -995 0
-956 -996 0
-953 -1009 0
-954 -1010 0
-955 -1011 0
-956 -1012 0
-953 -1297 0
-954 -1298 0
-955 -1299 0
-956 -1300 0
-957 -961 0
-958 -962 0
-959 -963 0
-960 -964 0
-957 -1333 0
-958 -1334 0
-959 -1335 0
-960 -1336 0
-957 -1373 0
-958 -1374 0
-959 -1375 0
-960 -1376 0
-957 -1617 0
-958 -1618 0
-959 -1619 0
-960 -1620 0
-961 -1105 0
-962 -1106 0
-963 -1107 0
-964 -1108 0
-961 -1141 0
-962 -1142 0
-963 -1143 0
-964 -1144 0
-961 -1225 0
-962 -1226 0
-963 -1227 0
-964 -1228 0
-961 -1373 0
-962 -1374 0
-963 -1375 0
-964 -1376 0
-961 -1713 0
-962 -1714 0
-963 -1715 0
-964 -1716 0
-965 -1001 0
-966 -1002 0
-967 -1003 0
-968 -1004 0
-965 -1081 0
-966 -1082 0
-967 -1083 0
-968 -1084 0
-965 -1089 0
-966 -1090 0
-967 -1091 0
-968 -1092 0
-965 -1345 0
-966 -1346 0
-967 -1347 0
-968 -1348 0
-965 -1681 0
-966 -1682 0
-967 -1683 0
-968 -1684 0
-965 -1785 0
-966 -1786 0
-967 -1787 0
-968 -1788 0
-969 -973 0
-970 -974 0
-971 -975 0
-972 -976 0
-969 -1305 0
-970 -1306 0
-971 -1307 0
-972 -1308 0
-969 -1321 0
-970 -1322 0
-971 -1323 0
-972 -1324 0
-969 -1353 0
-970 -1354 0
-971 -1355 0
-972 -1356 0
-969 -1433 0
-970 -1434 0
-971 -1435 0
-972 -1436 0
-969 -1549 0
-970 -1550 0
-971 -1551 0
-972 -1552 0
-969 -1733 0
-970 -1734 0
-971 -1735 0
-972 -1736 0
-969 -1781 0
-970 -1782 0
-971 -1783 0
-972 -1784 0
-973 -985 0
-974 -986 0
-975 -987 0
-976 -988 0
-973 -1417 0
-974 -1418 0
-975 -1419 0
-976 -1420 0
-977 -1001 0
-978 -1002 0
-979 -1003 0
-980 -1004 0
-977 -1005 0
-978 -1006 0
-979 -1007 0
-980 -1008 0
-977 -1345 0
-978 -1346 0
-979 -1347 0
-980 -1348 0
-977 -1369 0
-978 -1370 0
-979 -1371 0
-980 -1372 0
-977 -1409 0
-978 -1410 0
-979 -1411 0
-980 -1412 0
-981 -1065 0
-982 -1066 0
-983 -1067 0
-984 -1068 0
-981 -1125 0
-982 -1126 0
-983 -1127 0
-984 -1128 0
-981 -1317 0
-982 -1318 0
-983 -1319 0
-984 -1320 0
-981 -1325 0
-982 -1326 0
-983 -1327 0
-984 -1328 0
-985 -1029 0
-986 -1030 0
-987 -1031 0
-988 -1032 0
-985 -1305 0
-986 -1306 0
-987 -1307 0
-988 -1308 0
-985 -1629 0
-986 -1630 0
-987 -1631 0
-988 -1632 0
-989 -1105 0
-990 -1106 0
-991 -1107 0
-992 -1108 0
-989 -1277 0
-990 -1278 0
-991 -1279 0
-992 -1280 0
-989 -1281 0
-990 -1282 0
-991 -1283 0
-992 -1284 0
-989 -1517 0
-990 -1518 0
-991 -1519 0
-992 -1520 0
-993 -1021 0
-994 -1022 0
-995 -1023 0
-996 -1024 0
-993 -1281 0
-994 -1282 0
-995 -1283 0
-996 -1284 0
-993 -1301 0
-994 -1302 0
-995 -1303 0
-996 -1304 0
-993 -1305 0
-994 -1306 0
-995 -1307 0
-996 -1308 0
-993 -1693 0
-994 -1694 0
-995 -1695 0
-996 -1696 0
-997 -1317 0
-998 -1318 0
-999 -1319 0
-1000 -1320 0
-997 -1341 0
-998 -1342 0
-999 -1343 0
-1000 -1344 0
-997 -1369 0
-998 -1370 0
-999 -1371 0
-1000 -1372 0
-997 -1373 0
-998 -1374 0
-999 -1375 0
-1000 -1376 0
-997 -1489 0
-998 -1490 0
-999 -1491 0
-1000 -1492 0
-1001 -1229 0
-1002 -1230 0
-1003 -1231 0
-1004 -1232 0
-1001 -1321 0
-1002 -1322 0
-1003 -1323 0
-1004 -1324 0
-1001 -1421 0
-1002 -1422 0
-1003 -1423 0
-1004 -1424 0
-1001 -1521 0
-1002 -1522 0
-1003 -1523 0
-1004 -1524 0
-1005 -1009 0
-1006 -1010 0
-1007 -1011 0
-1008 -1012 0
-1005 -1149 0
-1006 -1150 0
-1007 -1151 0
-1008 -1152 0
-1005 -1325 0
-1006 -1326 0
-1007 -1327 0
-1008 -1328 0
-1005 -1365 0
-1006 -1366 0
-1007 -1367 0
-1008 -1368 0
-1005 -1369 0
-1006 -1370 0
-1007 -1371 0
-1008 -1372 0
-1005 -1457 0
-1006 -1458 0
-1007 -1459 0
-1008 -1460 0
-1005 -1509 0
-1006 -1510 0
-1007 -1511 0
-1008 -1512 0
-1005 -1781 0
-1006 -1782 0
-1007 -1783 0
-1008 -1784 0
-1009 -1305 0
-1010 -1306 0
-1011 -1307 0
-1012 -1308 0
-1009 -1309 0
-1010 -1310 0
-1011 -1311 0
-1012 -1312 0
-1009 -1325 0
-1010 -1326 0
-1011 -1327 0
-1012 -1328 0
-1009 -1353 0
-1010 -1354 0
-1011 -1355 0
-1012 -1356 0
-1009 -1369 0
-1010 -1370 0
-1011 -1371 0
-1012 -1372 0
-1009 -1573 0
-1010 -1574 0
-1011 -1575 0
-1012 -1576 0
-1009 -1593 0
-1010 -1594 0
-1011 -1595 0
-1012 -1596 0
-1009 -1665 0
-1010 -1666 0
-1011 -1667 0
-1012 -1668 0
-1013 -1017 0
-1014 -1018 0
-1015 -1019 0
-1016 -1020 0
-1013 -1049 0
-1014 -1050 0
-1015 -1051 0
-1016 -1052 0
-1013 -1233 0
-1014 -1234 0
-1015 -1235 0
-1016 -1236 0
-1013 -1237 0
-1014 -1238 0
-1015 -1239 0
-1016 -1240 0
-1013 -1253 0
-1014 -1254 0
-1015 -1255 0
-1016 -1256 0
-1013 -1261 0
-1014 -1262 0
-1015 -1263 0
-1016 -1264 0
-1017 -1021 0
-1018 -1022 0
-1019 -1023 0
-1020 -1024 0
-1017 -1025 0
-1018 -1026 0
-1019 -1027 0
-1020 -1028 0
-1017 -1041 0
-1018 -1042 0
-1019 -1043 0
-1020 -1044 0
-1017 -1045 0
-1018 -1046 0
-1019 -1047 0
-1020 -1048 0
-1017 -1137 0
-1018 -1138 0
-1019 -1139 0
-1020 -1140 0
-1017 -1197 0
-1018 -1198 0
-1019 -1199 0
-1020 -1200 0
-1017 -1281 0
-1018 -1282 0
-1019 -1283 0
-1020 -1284 0
-1021 -1029 0
-1022 -1030 0
-1023 -1031 0
-1024 -1032 0
-1025 -1033 0
-1026 -1034 0
-1027 -1035 0
-1028 -1036 0
-1025 -1261 0
-1026 -1262 0
-1027 -1263 0
-1028 -1264 0
-1029 -1041 0
-1030 -1042 0
-1031 -1043 0
-1032 -1044 0
-1029 -1145 0
-1030 -1146 0
-1031 -1147 0
-1032 -1148 0
-1029 -1177 0
-1030 -1178 0
-1031 -1179 0
-1032 -1180 0
-1029 -1305 0
-1030 -1306 0
-1031 -1307 0
-1032 -1308 0
-1033 -1037 0
-1034 -1038 0
-1035 -1039 0
-1036 -1040 0
-1033 -1045 0
-1034 -1046 0
-1035 -1047 0
-1036 -1048 0
-1033 -1201 0
-1034 -1202 0
-1035 -1203 0
-1036 -1204 0
-1033 -1329 0
-1034 -1330 0
-1035 -1331 0
-1036 -1332 0
-1037 -1041 0
-1038 -1042 0
-1039 -1043 0
-1040 -1044 0
-1037 -1057 0
-1038 -1058 0
-1039 -1059 0
-1040 -1060 0
-1037 -1121 0
-1038 -1122 0
-1039 -1123 0
-1040 -1124 0
-1037 -1181 0
-1038 -1182 0
-1039 -1183 0
-1040 -1184 0
-1037 -1185 0
-1038 -1186 0
-1039 -1187 0
-1040 -1188 0
-1037 -1745 0
-1038 -1746 0
-1039 -1747 0
-1040 -1748 0
-1041 -1053 0
-1042 -1054 0
-1043 -1055 0
-1044 -1056 0
-1041 -1101 0
-1042 -1102 0
-1043 -1103 0
-1044 -1104 0
-1041 -1109 0
-1042 -1110 0
-1043 -1111 0
-1044 -1112 0
-1041 -1113 0
-1042 -1114 0
-1043 -1115 0
-1044 -1116 0
-1041 -1165 0
-1042 -1166 0
-1043 -1167 0
-1044 -1168 0
-1041 -1177 0
-1042 -1178 0
-1043 -1179 0
-1044 -1180 0
-1041 -1569 0
-1042 -1570 0
-1043 -1571 0
-1044 -1572 0
-1045 -1049 0
-1046 -1050 0
-1047 -1051 0
-1048 -1052 0
-1045 -1149 0
-1046 -1150 0
-1047 -1151 0
-1048 -1152 0
-1045 -1197 0
-1046 -1198 0
-1047 -1199 0
-1048 -1200 0
-1045 -1201 0
-1046 -1202 0
-1047 -1203 0
-1048 -1204 0
-1045 -1781 0
-1046 -1782 0
-1047 -1783 0
-1048 -1784 0
-1049 -1057 0
-1050 -1058 0
-1051 -1059 0
-1052 -1060 0
-1049 -1061 0
-1050 -1062 0
-1051 -1063 0
-1052 -1064 0
-1049 -1225 0
-1050 -1226 0
-1051 -1227 0
-1052 -1228 0
-1053 -1057 0
-1054 -1058 0
-1055 -1059 0
-1056 -1060 0
-1053 -1073 0
-1054 -1074 0
-1055 -1075 0
-1056 -1076 0
-1053 -1085 0
-1054 -1086 0
-1055 -1087 0
-1056 -1088 0
-1053 -1153 0
-1054 -1154 0
-1055 -1155 0
-1056 -1156 0
-1053 -1165 0
-1054 -1166 0
-1055 -1167 0
-1056 -1168 0
-1053 -1493 0
-1054 -1494 0
-1055 -1495 0
-1056 -1496 0
-1053 -1505 0
-1054 -1506 0
-1055 -1507 0
-1056 -1508 0
-1057 -1073 0
-1058 -1074 0
-1059 -1075 0
-1060 -1076 0
-1057 -1181 0
-1058 -1182 0
-1059 -1183 0
-1060 -1184 0
-1057 -1221 0
-1058 -1222 0
-1059 -1223 0
-1060 -1224 0
-1061 -1073 0
-1062 -1074 0
-1063 -1075 0
-1064 -1076 0
-1061 -1117 0
-1062 -1118 0
-1063 -1119 0
-1064 -1120 0
-1061 -1241 0
-1062 -1242 0
-1063 -1243 0
-1064 -1244 0
-1061 -1285 0
-1062 -1286 0
-1063 -1287 0
-1064 -1288 0
-1061 -1317 0
-1062 -1318 0
-1063 -1319 0
-1064 -1320 0
-1061 -1445 0
-1062 -1446 0
-1063 -1447 0
-1064 -1448 0
-1065 -1089 0
-1066 -1090 0
-1067 -1091 0
-1068 -1092 0
-1065 -1225 0
-1066 -1226 0
-1067 -1227 0
-1068 -1228 0
-1065 -1241 0
-1066 -1242 0
-1067 -1243 0
-1068 -1244 0
-1065 -1317 0
-1066 -1318 0
-1067 -1319 0
-1068 -1320 0
-1073 -1081 0
-1074 -1082 0
-1075 -1083 0
-1076 -1084 0
-1073 -1237 0
-1074 -1238 0
-1075 -1239 0
-1076 -1240 0
-1073 -1445 0
-1074 -1446 0
-1075 -1447 0
-1076 -1448 0
-1073 -1501 0
-1074 -1502 0
-1075 -1503 0
-1076 -1504 0
-1073 -1557 0
-1074 -1558 0
-1075 -1559 0
-1076 -1560 0
-1077 -1093 0
-1078 -1094 0
-1079 -1095 0
-1080 -1096 0
-1077 -1237 0
-1078 -1238 0
-1079 -1239 0
-1080 -1240 0
-1077 -1241 0
-1078 -1242 0
-1079 -1243 0
-1080 -1244 0
-1077 -1245 0
-1078 -1246 0
-1079 -1247 0
-1080 -1248 0
-1081 -1165 0
-1082 -1166 0
-1083 -1167 0
-1084 -1168 0
-1081 -1529 0
-1082 -1530 0
-1083 -1531 0
-1084 -1532 0
-1085 -1105 0
-1086 -1106 0
-1087 -1107 0
-1088 -1108 0
-1085 -1109 0
-1086 -1110 0
-1087 -1111 0
-1088 -1112 0
-1085 -1229 0
-1086 -1230 0
-1087 -1231 0
-1088 -1232 0
-1085 -1517 0
-1086 -1518 0
-1087 -1519 0
-1088 -1520 0
-1085 -1737 0
-1086 -1738 0
-1087 -1739 0
-1088 -1740 0
-1085 -1793 0
-1086 -1794 0
-1087 -1795 0
-1088 -1796 0
-1089 -1101 0
-1090 -1102 0
-1091 -1103 0
-1092 -1104 0
-1089 -1221 0
-1090 -1222 0
-1091 -1223 0
-1092 -1224 0
-1089 -1237 0
-1090 -1238 0
-1091 -1239 0
-1092 -1240 0
-1089 -1377 0
-1090 -1378 0
-1091 -1379 0
-1092 -1380 0
-1089 -1521 0
-1090 -1522 0
-1091 -1523 0
-1092 -1524 0
-1089 -1681 0
-1090 -1682 0
-1091 -1683 0
-1092 -1684 0
-1093 -1161 0
-1094 -1162 0
-1095 -1163 0
-1096 -1164 0
-1093 -1245 0
-1094 -1246 0
-1095 -1247 0
-1096 -1248 0
-1093 -1261 0
-1094 -1262 0
-1095 -1263 0
-1096 -1264 0
-1093 -1713 0
-1094 -1714 0
-1095 -1715 0
-1096 -1716 0
-1093 -1777 0
-1094 -1778 0
-1095 -1779 0
-1096 -1780 0
-1097 -1101 0
-1098 -1102 0
-1099 -1103 0
-1100 -1104 0
-1097 -1117 0
-1098 -1118 0
-1099 -1119 0
-1100 -1120 0
-1097 -1121 0
-1098 -1122 0
-1099 -1123 0
-1100 -1124 0
-1097 -1741 0
-1098 -1742 0
-1099 -1743 0
-1100 -1744 0
-1101 -1125 0
-1102 -1126 0
-1103 -1127 0
-1104 -1128 0
-1101 -1541 0
-1102 -1542 0
-1103 -1543 0
-1104 -1544 0
-1101 -1785 0
-1102 -1786 0
-1103 -1787 0
-1104 -1788 0
-1105 -1109 0
-1106 -1110 0
-1107 -1111 0
-1108 -1112 0
-1105 -1137 0
-1106 -1138 0
-1107 -1139 0
-1108 -1140 0
-1105 -1141 0
-1106 -1142 0
-1107 -1143 0
-1108 -1144 0
-1105 -1185 0
-1106 -1186 0
-1107 -1187 0
-1108 -1188 0
-1105 -1233 0
-1106 -1234 0
-1107 -1235 0
-1108 -1236 0
-1105 -1249 0
-1106 -1250 0
-1107 -1251 0
-1108 -1252 0
-1105 -1517 0
-1106 -1518 0
-1107 -1519 0
-1108 -1520 0
-1105 -1521 0
-1106 -1522 0
-1107 -1523 0
-1108 -1524 0
-1105 -1545 0
-1106 -1546 0
-1107 -1547 0
-1108 -1548 0
-1105 -1577 0
-1106 -1578 0
-1107 -1579 0
-1108 -1580 0
-1105 -1589 0
-1106 -1590 0
-1107 -1591 0
-1108 -1592 0
-1105 -1713 0
-1106 -1714 0
-1107 -1715 0
-1108 -1716 0
-1109 -1113 0
-1110 -1114 0
-1111 -1115 0
-1112 -1116 0
-1109 -1137 0
-1110 -1138 0
-1111 -1139 0
-1112 -1140 0
-1109 -1225 0
-1110 -1226 0
-1111 -1227 0
-1112 -1228 0
-1109 -1361 0
-1110 -1362 0
-1111 -1363 0
-1112 -1364 0
-1109 -1553 0
-1110 -1554 0
-1111 -1555 0
-1112 -1556 0
-1113 -1121 0
-1114 -1122 0
-1115 -1123 0
-1116 -1124 0
-1113 -1189 0
-1114 -1190 0
-1115 -1191 0
-1116 -1192 0
-1113 -1473 0
-1114 -1474 0
-1115 -1475 0
-1116 -1476 0
-1113 -1561 0
-1114 -1562 0
-1115 -1563 0
-1116 -1564 0
-1113 -1569 0
-1114 -1570 0
-1115 -1571 0
-1116 -1572 0
-1113 -1577 0
-1114 -1578 0
-1115 -1579 0
-1116 -1580 0
-1117 -1125 0
-1118 -1126 0
-1119 -1127 0
-1120 -1128 0
-1117 -1149 0
-1118 -1150 0
-1119 -1151 0
-1120 -1152 0
-1117 -1285 0
-1118 -1286 0
-1119 -1287 0
-1120 -1288 0
-1117 -1329 0
-1118 -1330 0
-1119 -1331 0
-1120 -1332 0
-1117 -1333 0
-1118 -1334 0
-1119 -1335 0
-1120 -1336 0
-1117 -1357 0
-1118 -1358 0
-1119 -1359 0
-1120 -1360 0
-1117 -1381 0
-1118 -1382 0
-1119 -1383 0
-1120 -1384 0
-1117 -1577 0
-1118 -1578 0
-1119 -1579 0
-1120 -1580 0
-1121 -1129 0
-1122 -1130 0
-1123 -1131 0
-1124 -1132 0
-1121 -1185 0
-1122 -1186 0
-1123 -1187 0
-1124 -1188 0
-1121 -1189 0
-1122 -1190 0
-1123 -1191 0
-1124 -1192 0
-1121 -1265 0
-1122 -1266 0
-1123 -1267 0
-1124 -1268 0
-1121 -1329 0
-1122 -1330 0
-1123 -1331 0
-1124 -1332 0
-1121 -1533 0
-1122 -1534 0
-1123 -1535 0
-1124 -1536 0
-1125 -1133 0
-1126 -1134 0
-1127 -1135 0
-1128 -1136 0
-1125 -1285 0
-1126 -1286 0
-1127 -1287 0
-1128 -1288 0
-1125 -1381 0
-1126 -1382 0
-1127 -1383 0
-1128 -1384 0
-1129 -1229 0
-1130 -1230 0
-1131 -1231 0
-1132 -1232 0
-1133 -1313 0
-1134 -1314 0
-1135 -1315 0
-1136 -1316 0
-1133 -1317 0
-1134 -1318 0
-1135 -1319 0
-1136 -1320 0
-1133 -1341 0
-1134 -1342 0
-1135 -1343 0
-1136 -1344 0
-1141 -1421 0
-1142 -1422 0
-1143 -1423 0
-1144 -1424 0
-1141 -1445 0
-1142 -1446 0
-1143 -1447 0
-1144 -1448 0
-1145 -1165 0
-1146 -1166 0
-1147 -1167 0
-1148 -1168 0
-1145 -1321 0
-1146 -1322 0
-1147 -1323 0
-1148 -1324 0
-1145 -1785 0
-1146 -1786 0
-1147 -1787 0
-1148 -1788 0
-1149 -1157 0
-1150 -1158 0
-1151 -1159 0
-1152 -1160 0
-1149 -1169 0
-1150 -1170 0
-1151 -1171 0
-1152 -1172 0
-1149 -1301 0
-1150 -1302 0
-1151 -1303 0
-1152 -1304 0
-1149 -1329 0
-1150 -1330 0
-1151 -1331 0
-1152 -1332 0
-1153 -1177 0
-1154 -1178 0
-1155 -1179 0
-1156 -1180 0
-1153 -1193 0
-1154 -1194 0
-1155 -1195 0
-1156 -1196 0
-1153 -1197 0
-1154 -1198 0
-1155 -1199 0
-1156 -1200 0
-1153 -1217 0
-1154 -1218 0
-1155 -1219 0
-1156 -1220 0
-1153 -1293 0
-1154 -1294 0
-1155 -1295 0
-1156 -1296 0
-1153 -1417 0
-1154 -1418 0
-1155 -1419 0
-1156 -1420 0
-1153 -1433 0
-1154 -1434 0
-1155 -1435 0
-1156 -1436 0
-1153 -1445 0
-1154 -1446 0
-1155 -1447 0
-1156 -1448 0
-1153 -1681 0
-1154 -1682 0
-1155 -1683 0
-1156 -1684 0
-1153 -1685 0
-1154 -1686 0
-1155 -1687 0
-1156 -1688 0
-1153 -1701 0
-1154 -1702 0
-1155 -1703 0
-1156 -1704 0
-1153 -1769 0
-1154 -1770 0
-1155 -1771 0
-1156 -1772 0
-1153 -1817 0
-1154 -1818 0
-1155 -1819 0
-1156 -1820 0
-1157 -1161 0
-1158 -1162 0
-1159 -1163 0
-1160 -1164 0
-1157 -1169 0
-1158 -1170 0
-1159 -1171 0
-1160 -1172 0
-1157 -1197 0
-1158 -1198 0
-1159 -1199 0
-1160 -1200 0
-1157 -1457 0
-1158 -1458 0
-1159 -1459 0
-1160 -1460 0
-1157 -1657 0
-1158 -1658 0
-1159 -1659 0
-1160 -1660 0
-1157 -1701 0
-1158 -1702 0
-1159 -1703 0
-1160 -1704 0
-1161 -1173 0
-1162 -1174 0
-1163 -1175 0
-1164 -1176 0
-1161 -1217 0
-1162 -1218 0
-1163 -1219 0
-1164 -1220 0
-1161 -1249 0
-1162 -1250 0
-1163 -1251 0
-1164 -1252 0
-1161 -1289 0
-1162 -1290 0
-1163 -1291 0
-1164 -1292 0
-1161 -1409 0
-1162 -1410 0
-1163 -1411 0
-1164 -1412 0
-1161 -1677 0
-1162 -1678 0
-1163 -1679 0
-1164 -1680 0
-1161 -1713 0
-1162 -1714 0
-1163 -1715 0
-1164 -1716 0
-1161 -1761 0
-1162 -1762 0
-1163 -1763 0
-1164 -1764 0
-1169 -1189 0
-1170 -1190 0
-1171 -1191 0
-1172 -1192 0
-1169 -1249 0
-1170 -1250 0
-1171 -1251 0
-1172 -1252 0
-1169 -1253 0
-1170 -1254 0
-1171 -1255 0
-1172 -1256 0
-1169 -1509 0
-1170 -1510 0
-1171 -1511 0
-1172 -1512 0
-1173 -1177 0
-1174 -1178 0
-1175 -1179 0
-1176 -1180 0
-1173 -1209 0
-1174 -1210 0
-1175 -1211 0
-1176 -1212 0
-1173 -1253 0
-1174 -1254 0
-1175 -1255 0
-1176 -1256 0
-1173 -1257 0
-1174 -1258 0
-1175 -1259 0
-1176 -1260 0
-1173 -1401 0
-1174 -1402 0
-1175 -1403 0
-1176 -1404 0
-1177 -1217 0
-1178 -1218 0
-1179 -1219 0
-1180 -1220 0
-1177 -1257 0
-1178 -1258 0
-1179 -1259 0
-1180 -1260 0
-1177 -1625 0
-1178 -1626 0
-1179 -1627 0
-1180 -1628 0
-1177 -1629 0
-1178 -1630 0
-1179 -1631 0
-1180 -1632 0
-1177 -1809 0
-1178 -1810 0
-1179 -1811 0
-1180 -1812 0
-1181 -1237 0
-1182 -1238 0
-1183 -1239 0
-1184 -1240 0
-1181 -1265 0
-1182 -1266 0
-1183 -1267 0
-1184 -1268 0
-1181 -1269 0
-1182 -1270 0
-1183 -1271 0
-1184 -1272 0
-1181 -1277 0
-1182 -1278 0
-1183 -1279 0
-1184 -1280 0
-1181 -1757 0
-1182 -1758 0
-1183 -1759 0
-1184 -1760 0
-1185 -1221 0
-1186 -1222 0
-1187 -1223 0
-1188 -1224 0
-1185 -1233 0
-1186 -1234 0
-1187 -1235 0
-1188 -1236 0
-1185 -1277 0
-1186 -1278 0
-1187 -1279 0
-1188 -1280 0
-1185 -1489 0
-1186 -1490 0
-1187 -1491 0
-1188 -1492 0
-1185 -1569 0
-1186 -1570 0
-1187 -1571 0
-1188 -1572 0
-1189 -1253 0
-1190 -1254 0
-1191 -1255 0
-1192 -1256 0
-1189 -1469 0
-1190 -1470 0
-1191 -1471 0
-1192 -1472 0
-1193 -1197 0
-1194 -1198 0
-1195 -1199 0
-1196 -1200 0
-1193 -1657 0
-1194 -1658 0
-1195 -1659 0
-1196 -1660 0
-1197 -1205 0
-1198 -1206 0
-1199 -1207 0
-1200 -1208 0
-1197 -1273 0
-1198 -1274 0
-1199 -1275 0
-1200 -1276 0
-1197 -1773 0
-1198 -1774 0
-1199 -1775 0
-1200 -1776 0
-1201 -1209 0
-1202 -1210 0
-1203 -1211 0
-1204 -1212 0
-1201 -1273 0
-1202 -1274 0
-1203 -1275 0
-1204 -1276 0
-1205 -1209 0
-1206 -1210 0
-1207 -1211 0
-1208 -1212 0
-1205 -1813 0
-1206 -1814 0
-1207 -1815 0
-1208 -1816 0
-1209 -1213 0
-1210 -1214 0
-1211 -1215 0
-1212 -1216 0
-1209 -1257 0
-1210 -1258 0
-1211 -1259 0
-1212 -1260 0
-1209 -1797 0
-1210 -1798 0
-1211 -1799 0
-1212 -1800 0
-1213 -1801 0
-1214 -1802 0
-1215 -1803 0
-1216 -1804 0
-1217 -1269 0
-1218 -1270 0
-1219 -1271 0
-1220 -1272 0
-1217 -1273 0
-1218 -1274 0
-1219 -1275 0
-1220 -1276 0
-1217 -1293 0
-1218 -1294 0
-1219 -1295 0
-1220 -1296 0
-1217 -1669 0
-1218 -1670 0
-1219 -1671 0
-1220 -1672 0
-1217 -1673 0
-1218 -1674 0
-1219 -1675 0
-1220 -1676 0
-1217 -1677 0
-1218 -1678 0
-1219 -1679 0
-1220 -1680 0
-1217 -1713 0
-1218 -1714 0
-1219 -1715 0
-1220 -1716 0
-1221 -1225 0
-1222 -1226 0
-1223 -1227 0
-1224 -1228 0
-1221 -1277 0
-1222 -1278 0
-1223 -1279 0
-1224 -1280 0
-1221 -1441 0
-1222 -1442 0
-1223 -1443 0
-1224 -1444 0
-1221 -1493 0
-1222 -1494 0
-1223 -1495 0
-1224 -1496 0
-1221 -1501 0
-1222 -1502 0
-1223 -1503 0
-1224 -1504 0
-1221 -1517 0
-1222 -1518 0
-1223 -1519 0
-1224 -1520 0
-1225 -1285 0
-1226 -1286 0
-1227 -1287 0
-1228 -1288 0
-1225 -1297 0
-1226 -1298 0
-1227 -1299 0
-1228 -1300 0
-1225 -1337 0
-1226 -1338 0
-1227 -1339 0
-1228 -1340 0
-1225 -1441 0
-1226 -1442 0
-1227 -1443 0
-1228 -1444 0
-1229 -1301 0
-1230 -1302 0
-1231 -1303 0
-1232 -1304 0
-1229 -1313 0
-1230 -1314 0
-1231 -1315 0
-1232 -1316 0
-1233 -1253 0
-1234 -1254 0
-1235 -1255 0
-1236 -1256 0
-1237 -1241 0
-1238 -1242 0
-1239 -1243 0
-1240 -1244 0
-1237 -1261 0
-1238 -1262 0
-1239 -1263 0
-1240 -1264 0
-1237 -1469 0
-1238 -1470 0
-1239 -1471 0
-1240 -1472 0
-1241 -1329 0
-1242 -1330 0
-1243 -1331 0
-1244 -1332 0
-1241 -1365 0
-1242 -1366 0
-1243 -1367 0
-1244 -1368 0
-1245 -1289 0
-1246 -1290 0
-1247 -1291 0
-1248 -1292 0
-1245 -1401 0
-1246 -1402 0
-1247 -1403 0
-1248 -1404 0
-1245 -1445 0
-1246 -1446 0
-1247 -1447 0
-1248 -1448 0
-1245 -1449 0
-1246 -1450 0
-1247 -1451 0
-1248 -1452 0
-1253 -1265 0
-1254 -1266 0
-1255 -1267 0
-1256 -1268 0
-1253 -1397 0
-1254 -1398 0
-1255 -1399 0
-1256 -1400 0
-1253 -1481 0
-1254 -1482 0
-1255 -1483 0
-1256 -1484 0
-1253 -1577 0
-1254 -1578 0
-1255 -1579 0
-1256 -1580 0
-1257 -1677 0
-1258 -1678 0
-1259 -1679 0
-1260 -1680 0
-1257 -1813 0
-1258 -1814 0
-1259 -1815 0
-1260 -1816 0
-1261 -1389 0
-1262 -1390 0
-1263 -1391 0
-1264 -1392 0
-1261 -1525 0
-1262 -1526 0
-1263 -1527 0
-1264 -1528 0
-1265 -1277 0
-1266 -1278 0
-1267 -1279 0
-1268 -1280 0
-1265 -1289 0
-1266 -1290 0
-1267 -1291 0
-1268 -1292 0
-1265 -1541 0
-1266 -1542 0
-1267 -1543 0
-1268 -1544 0
-1265 -1577 0
-1266 -1578 0
-1267 -1579 0
-1268 -1580 0
-1269 -1273 0
-1270 -1274 0
-1271 -1275 0
-1272 -1276 0
-1269 -1389 0
-1270 -1390 0
-1271 -1391 0
-1272 -1392 0
-1269 -1753 0
-1270 -1754 0
-1271 -1755 0
-1272 -1756 0
-1277 -1585 0
-1278 -1586 0
-1279 -1587 0
-1280 -1588 0
-1281 -1497 0
-1282 -1498 0
-1283 -1499 0
-1284 -1500 0
-1281 -1581 0
-1282 -1582 0
-1283 -1583 0
-1284 -1584 0
-1281 -1585 0
-1282 -1586 0
-1283 -1587 0
-1284 -1588 0
-1281 -1589 0
-1282 -1590 0
-1283 -1591 0
-1284 -1592 0
-1281 -1693 0
-1282 -1694 0
-1283 -1695 0
-1284 -1696 0
-1281 -1733 0
-1282 -1734 0
-1283 -1735 0
-1284 -1736 0
-1281 -1737 0
-1282 -1738 0
-1283 -1739 0
-1284 -1740 0
-1281 -1781 0
-1282 -1782 0
-1283 -1783 0
-1284 -1784 0
-1285 -1297 0
-1286 -1298 0
-1287 -1299 0
-1288 -1300 0
-1285 -1313 0
-1286 -1314 0
-1287 -1315 0
-1288 -1316 0
-1285 -1501 0
-1286 -1502 0
-1287 -1503 0
-1288 -1504 0
-1289 -1293 0
-1290 -1294 0
-1291 -1295 0
-1292 -1296 0
-1289 -1397 0
-1290 -1398 0
-1291 -1399 0
-1292 -1400 0
-1289 -1449 0
-1290 -1450 0
-1291 -1451 0
-1292 -1452 0
-1293 -1389 0
-1294 -1390 0
-1295 -1391 0
-1296 -1392 0
-1293 -1449 0
-1294 -1450 0
-1295 -1451 0
-1296 -1452 0
-1293 -1505 0
-1294 -1506 0
-1295 -1507 0
-1296 -1508 0
-1293 -1665 0
-1294 -1666 0
-1295 -1667 0
-1296 -1668 0
-1293 -1681 0
-1294 -1682 0
-1295 -1683 0
-1296 -1684 0
-1297 -1301 0
-1298 -1302 0
-1299 -1303 0
-1300 -1304 0
-1297 -1309 0
-1298 -1310 0
-1299 -1311 0
-1300 -1312 0
-1297 -1357 0
-1298 -1358 0
-1299 -1359 0
-1300 -1360 0
-1297 -1361 0
-1298 -1362 0
-1299 -1363 0
-1300 -1364 0
-1297 -1493 0
-1298 -1494 0
-1299 -1495 0
-1300 -1496 0
-1301 -1701 0
-1302 -1702 0
-1303 -1703 0
-1304 -1704 0
-1305 -1321 0
-1306 -1322 0
-1307 -1323 0
-1308 -1324 0
-1305 -1337 0
-1306 -1338 0
-1307 -1339 0
-1308 -1340 0
-1305 -1625 0
-1306 -1626 0
-1307 -1627 0
-1308 -1628 0
-1309 -1729 0
-1310 -1730 0
-1311 -1731 0
-1312 -1732 0
-1309 -1785 0
-1310 -1786 0
-1311 -1787 0
-1312 -1788 0
-1313 -1365 0
-1314 -1366 0
-1315 -1367 0
-1316 -1368 0
-1313 -1645 0
-1314 -1646 0
-1315 -1647 0
-1316 -1648 0
-1317 -1333 0
-1318 -1334 0
-1319 -1335 0
-1320 -1336 0
-1321 -1565 0
-1322 -1566 0
-1323 -1567 0
-1324 -1568 0
-1329 -1341 0
-1330 -1342 0
-1331 -1343 0
-1332 -1344 0
-1333 -1357 0
-1334 -1358 0
-1335 -1359 0
-1336 -1360 0
-1333 -1373 0
-1334 -1374 0
-1335 -1375 0
-1336 -1376 0
-1337 -1373 0
-1338 -1374 0
-1339 -1375 0
-1340 -1376 0
-1341 -1365 0
-1342 -1366 0
-1343 -1367 0
-1344 -1368 0
-1341 -1649 0
-1342 -1650 0
-1343 -1651 0
-1344 -1652 0
-1345 -1405 0
-1346 -1406 0
-1347 -1407 0
-1348 -1408 0
-1345 -1529 0
-1346 -1530 0
-1347 -1531 0
-1348 -1532 0
-1349 -1605 0
-1350 -1606 0
-1351 -1607 0
-1352 -1608 0
-1353 -1357 0
-1354 -1358 0
-1355 -1359 0
-1356 -1360 0
-1353 -1557 0
-1354 -1558 0
-1355 -1559 0
-1356 -1560 0
-1353 -1689 0
-1354 -1690 0
-1355 -1691 0
-1356 -1692 0
-1357 -1685 0
-1358 -1686 0
-1359 -1687 0
-1360 -1688 0
-1365 -1653 0
-1366 -1654 0
-1367 -1655 0
-1368 -1656 0
-1369 -1373 0
-1370 -1374 0
-1371 -1375 0
-1372 -1376 0
-1369 -1413 0
-1370 -1414 0
-1371 -1415 0
-1372 -1416 0
-1369 -1525 0
-1370 -1526 0
-1371 -1527 0
-1372 -1528 0
-1369 -1777 0
-1370 -1778 0
-1371 -1779 0
-1372 -1780 0
-1373 -1589 0
-1374 -1590 0
-1375 -1591 0
-1376 -1592 0
-1373 -1705 0
-1374 -1706 0
-1375 -1707 0
-1376 -1708 0
-1373 -1725 0
-1374 -1726 0
-1375 -1727 0
-1376 -1728 0
-1377 -1561 0
-1378 -1562 0
-1379 -1563 0
-1380 -1564 0
-1377 -1565 0
-1378 -1566 0
-1379 -1567 0
-1380 -1568 0
-1377 -1593 0
-1378 -1594 0
-1379 -1595 0
-1380 -1596 0
-1385 -1577 0
-1386 -1578 0
-1387 -1579 0
-1388 -1580 0
-1385 -1749 0
-1386 -1750 0
-1387 -1751 0
-1388 -1752 0
-1389 -1413 0
-1390 -1414 0
-1391 -1415 0
-1392 -1416 0
-1393 -1437 0
-1394 -1438 0
-1395 -1439 0
-1396 -1440 0
-1397 -1441 0
-1398 -1442 0
-1399 -1443 0
-1400 -1444 0
-1397 -1685 0
-1398 -1686 0
-1399 -1687 0
-1400 -1688 0
-1401 -1409 0
-1402 -1410 0
-1403 -1411 0
-1404 -1412 0
-1401 -1465 0
-1402 -1466 0
-1403 -1467 0
-1404 -1468 0
-1401 -1481 0
-1402 -1482 0
-1403 -1483 0
-1404 -1484 0
-1401 -1625 0
-1402 -1626 0
-1403 -1627 0
-1404 -1628 0
-1401 -1777 0
-1402 -1778 0
-1403 -1779 0
-1404 -1780 0
-1401 -1797 0
-1402 -1798 0
-1403 -1799 0
-1404 -1800 0
-1405 -1409 0
-1406 -1410 0
-1407 -1411 0
-1408 -1412 0
-1405 -1453 0
-1406 -1454 0
-1407 -1455 0
-1408 -1456 0
-1405 -1673 0
-1406 -1674 0
-1407 -1675 0
-1408 -1676 0
-1405 -1677 0
-1406 -1678 0
-1407 -1679 0
-1408 -1680 0
-1405 -1681 0
-1406 -1682 0
-1407 -1683 0
-1408 -1684 0
-1409 -1413 0
-1410 -1414 0
-1411 -1415 0
-1412 -1416 0
-1409 -1421 0
-1410 -1422 0
-1411 -1423 0
-1412 -1424 0
-1409 -1457 0
-1410 -1458 0
-1411 -1459 0
-1412 -1460 0
-1409 -1465 0
-1410 -1466 0
-1411 -1467 0
-1412 -1468 0
-1409 -1673 0
-1410 -1674 0
-1411 -1675 0
-1412 -1676 0
-1413 -1457 0
-1414 -1458 0
-1415 -1459 0
-1416 -1460 0
-1413 -1461 0
-1414 -1462 0
-1415 -1463 0
-1416 -1464 0
-1413 -1525 0
-1414 -1526 0
-1415 -1527 0
-1416 -1528 0
-1413 -1665 0
-1414 -1666 0
-1415 -1667 0
-1416 -1668 0
-1413 -1705 0
-1414 -1706 0
-1415 -1707 0
-1416 -1708 0
-1413 -1753 0
-1414 -1754 0
-1415 -1755 0
-1416 -1756 0
-1417 -1425 0
-1418 -1426 0
-1419 -1427 0
-1420 -1428 0
-1417 -1433 0
-1418 -1434 0
-1419 -1435 0
-1420 -1436 0
-1417 -1485 0
-1418 -1486 0
-1419 -1487 0
-1420 -1488 0
-1417 -1629 0
-1418 -1630 0
-1419 -1631 0
-1420 -1632 0
-1417 -1697 0
-1418 -1698 0
-1419 -1699 0
-1420 -1700 0
-1421 -1449 0
-1422 -1450 0
-1423 -1451 0
-1424 -1452 0
-1421 -1521 0
-1422 -1522 0
-1423 -1523 0
-1424 -1524 0
-1421 -1681 0
-1422 -1682 0
-1423 -1683 0
-1424 -1684 0
-1425 -1465 0
-1426 -1466 0
-1427 -1467 0
-1428 -1468 0
-1425 -1609 0
-1426 -1610 0
-1427 -1611 0
-1428 -1612 0
-1425 -1621 0
-1426 -1622 0
-1427 -1623 0
-1428 -1624 0
-1425 -1697 0
-1426 -1698 0
-1427 -1699 0
-1428 -1700 0
-1429 -1441 0
-1430 -1442 0
-1431 -1443 0
-1432 -1444 0
-1429 -1461 0
-1430 -1462 0
-1431 -1463 0
-1432 -1464 0
-1433 -1625 0
-1434 -1626 0
-1435 -1627 0
-1436 -1628 0
-1433 -1673 0
-1434 -1674 0
-1435 -1675 0
-1436 -1676 0
-1433 -1689 0
-1434 -1690 0
-1435 -1691 0
-1436 -1692 0
-1433 -1733 0
-1434 -1734 0
-1435 -1735 0
-1436 -1736 0
-1437 -1449 0
-1438 -1450 0
-1439 -1451 0
-1440 -1452 0
-1437 -1617 0
-1438 -1618 0
-1439 -1619 0
-1440 -1620 0
-1437 -1625 0
-1438 -1626 0
-1439 -1627 0
-1440 -1628 0
-1437 -1697 0
-1438 -1698 0
-1439 -1699 0
-1440 -1700 0
-1437 -1717 0
-1438 -1718 0
-1439 -1719 0
-1440 -1720 0
-1441 -1449 0
-1442 -1450 0
-1443 -1451 0
-1444 -1452 0
-1441 -1461 0
-1442 -1462 0
-1443 -1463 0
-1444 -1464 0
-1441 -1677 0
-1442 -1678 0
-1443 -1679 0
-1444 -1680 0
-1449 -1517 0
-1450 -1518 0
-1451 -1519 0
-1452 -1520 0
-1449 -1625 0
-1450 -1626 0
-1451 -1627 0
-1452 -1628 0
-1449 -1629 0
-1450 -1630 0
-1451 -1631 0
-1452 -1632 0
-1449 -1713 0
-1450 -1714 0
-1451 -1715 0
-1452 -1716 0
-1453 -1677 0
-1454 -1678 0
-1455 -1679 0
-1456 -1680 0
-1453 -1681 0
-1454 -1682 0
-1455 -1683 0
-1456 -1684 0
-1453 -1817 0
-1454 -1818 0
-1455 -1819 0
-1456 -1820 0
-1457 -1509 0
-1458 -1510 0
-1459 -1511 0
-1460 -1512 0
-1457 -1653 0
-1458 -1654 0
-1459 -1655 0
-1460 -1656 0
-1457 -1665 0
-1458 -1666 0
-1459 -1667 0
-1460 -1668 0
-1457 -1709 0
-1458 -1710 0
-1459 -1711 0
-1460 -1712 0
-1461 -1709 0
-1462 -1710 0
-1463 -1711 0
-1464 -1712 0
-1461 -1753 0
-1462 -1754 0
-1463 -1755 0
-1464 -1756 0
-1465 -1653 0
-1466 -1654 0
-1467 -1655 0
-1468 -1656 0
-1465 -1693 0
-1466 -1694 0
-1467 -1695 0
-1468 -1696 0
-1465 -1737 0
-1466 -1738 0
-1467 -1739 0
-1468 -1740 0
-1465 -1753 0
-1466 -1754 0
-1467 -1755 0
-1468 -1756 0
-1465 -1777 0
-1466 -1778 0
-1467 -1779 0
-1468 -1780 0
-1465 -1801 0
-1466 -1802 0
-1467 -1803 0
-1468 -1804 0
-1469 -1473 0
-1470 -1474 0
-1471 -1475 0
-1472 -1476 0
-1473 -1477 0
-1474 -1478 0
-1475 -1479 0
-1476 -1480 0
-1473 -1561 0
-1474 -1562 0
-1475 -1563 0
-1476 -1564 0
-1481 -1501 0
-1482 -1502 0
-1483 -1503 0
-1484 -1504 0
-1481 -1509 0
-1482 -1510 0
-1483 -1511 0
-1484 -1512 0
-1481 -1525 0
-1482 -1526 0
-1483 -1527 0
-1484 -1528 0
-1481 -1709 0
-1482 -1710 0
-1483 -1711 0
-1484 -1712 0
-1485 -1609 0
-1486 -1610 0
-1487 -1611 0
-1488 -1612 0
-1485 -1633 0
-1486 -1634 0
-1487 -1635 0
-1488 -1636 0
-1485 -1649 0
-1486 -1650 0
-1487 -1651 0
-1488 -1652 0
-1489 -1533 0
-1490 -1534 0
-1491 -1535 0
-1492 -1536 0
-1489 -1541 0
-1490 -1542 0
-1491 -1543 0
-1492 -1544 0
-1489 -1545 0
-1490 -1546 0
-1491 -1547 0
-1492 -1548 0
-1489 -1733 0
-1490 -1734 0
-1491 -1735 0
-1492 -1736 0
-1489 -1745 0
-1490 -1746 0
-1491 -1747 0
-1492 -1748 0
-1493 -1501 0
-1494 -1502 0
-1495 -1503 0
-1496 -1504 0
-1493 -1569 0
-1494 -1570 0
-1495 -1571 0
-1496 -1572 0
-1497 -1545 0
-1498 -1546 0
-1499 -1547 0
-1500 -1548 0
-1497 -1673 0
-1498 -1674 0
-1499 -1675 0
-1500 -1676 0
-1501 -1517 0
-1502 -1518 0
-1503 -1519 0
-1504 -1520 0
-1505 -1517 0
-1506 -1518 0
-1507 -1519 0
-1508 -1520 0
-1505 -1573 0
-1506 -1574 0
-1507 -1575 0
-1508 -1576 0
-1509 -1537 0
-1510 -1538 0
-1511 -1539 0
-1512 -1540 0
-1509 -1557 0
-1510 -1558 0
-1511 -1559 0
-1512 -1560 0
-1509 -1573 0
-1510 -1574 0
-1511 -1575 0
-1512 -1576 0
-1513 -1657 0
-1514 -1658 0
-1515 -1659 0
-1516 -1660 0
-1513 -1697 0
-1514 -1698 0
-1515 -1699 0
-1516 -1700 0
-1513 -1721 0
-1514 -1722 0
-1515 -1723 0
-1516 -1724 0
-1521 -1565 0
-1522 -1566 0
-1523 -1567 0
-1524 -1568 0
-1525 -1593 0
-1526 -1594 0
-1527 -1595 0
-1528 -1596 0
-1525 -1777 0
-1526 -1778 0
-1527 -1779 0
-1528 -1780 0
-1529 -1553 0
-1530 -1554 0
-1531 -1555 0
-1532 -1556 0
-1533 -1561 0
-1534 -1562 0
-1535 -1563 0
-1536 -1564 0
-1533 -1733 0
-1534 -1734 0
-1535 -1735 0
-1536 -1736 0
-1533 -1737 0
-1534 -1738 0
-1535 -1739 0
-1536 -1740 0
-1533 -1745 0
-1534 -1746 0
-1535 -1747 0
-1536 -1748 0
-1537 -1549 0
-1538 -1550 0
-1539 -1551 0
-1540 -1552 0
-1537 -1745 0
-1538 -1746 0
-1539 -1747 0
-1540 -1748 0
-1541 -1585 0
-1542 -1586 0
-1543 -1587 0
-1544 -1588 0
-1541 -1593 0
-1542 -1594 0
-1543 -1595 0
-1544 -1596 0
-1541 -1741 0
-1542 -1742 0
-1543 -1743 0
-1544 -1744 0
-1541 -1749 0
-1542 -1750 0
-1543 -1751 0
-1544 -1752 0
-1541 -1757 0
-1542 -1758 0
-1543 -1759 0
-1544 -1760 0
-1545 -1553 0
-1546 -1554 0
-1547 -1555 0
-1548 -1556 0
-1549 -1557 0
-1550 -1558 0
-1551 -1559 0
-1552 -1560 0
-1549 -1789 0
-1550 -1790 0
-1551 -1791 0
-1552 -1792 0
-1549 -1793 0
-1550 -1794 0
-1551 -1795 0
-1552 -1796 0
-1553 -1561 0
-1554 -1562 0
-1555 -1563 0
-1556 -1564 0
-1565 -1589 0
-1566 -1590 0
-1567 -1591 0
-1568 -1592 0
-1565 -1733 0
-1566 -1734 0
-1567 -1735 0
-1568 -1736 0
-1573 -1665 0
-1574 -1666 0
-1575 -1667 0
-1576 -1668 0
-1577 -1749 0
-1578 -1750 0
-1579 -1751 0
-1580 -1752 0
-1581 -1585 0
-1582 -1586 0
-1583 -1587 0
-1584 -1588 0
-1581 -1733 0
-1582 -1734 0
-1583 -1735 0
-1584 -1736 0
-1585 -1593 0
-1586 -1594 0
-1587 -1595 0
-1588 -1596 0
-1585 -1721 0
-1586 -1722 0
-1587 -1723 0
-1588 -1724 0
-1585 -1757 0
-1586 -1758 0
-1587 -1759 0
-1588 -1760 0
-1589 -1725 0
-1590 -1726 0
-1591 -1727 0
-1592 -1728 0
-1589 -1741 0
-1590 -1742 0
-1591 -1743 0
-1592 -1744 0
-1589 -1749 0
-1590 -1750 0
-1591 -1751 0
-1592 -1752 0
-1589 -1793 0
-1590 -1794 0
-1591 -1795 0
-1592 -1796 0
-1593 -1665 0
-1594 -1666 0
-1595 -1667 0
-1596 -1668 0
-1597 -1601 0
-1598 -1602 0
-1599 -1603 0
-1600 -1604 0
-1597 -1613 0
-1598 -1614 0
-1599 -1615 0
-1600 -1616 0
-1597 -1693 0
-1598 -1694 0
-1599 -1695 0
-1600 -1696 0
-1597 -1701 0
-1598 -1702 0
-1599 -1703 0
-1600 -1704 0
-1597 -1817 0
-1598 -1818 0
-1599 -1819 0
-1600 -1820 0
-1601 -1609 0
-1602 -1610 0
-1603 -1611 0
-1604 -1612 0
-1601 -1613 0
-1602 -1614 0
-1603 -1615 0
-1604 -1616 0
-1601 -1621 0
-1602 -1622 0
-1603 -1623 0
-1604 -1624 0
-1601 -1633 0
-1602 -1634 0
-1603 -1635 0
-1604 -1636 0
-1605 -1633 0
-1606 -1634 0
-1607 -1635 0
-1608 -1636 0
-1605 -1645 0
-1606 -1646 0
-1607 -1647 0
-1608 -1648 0
-1605 -1653 0
-1606 -1654 0
-1607 -1655 0
-1608 -1656 0
-1609 -1645 0
-1610 -1646 0
-1611 -1647 0
-1612 -1648 0
-1609 -1653 0
-1610 -1654 0
-1611 -1655 0
-1612 -1656 0
-1613 -1621 0
-1614 -1622 0
-1615 -1623 0
-1616 -1624 0
-1617 -1697 0
-1618 -1698 0
-1619 -1699 0
-1620 -1700 0
-1617 -1713 0
-1618 -1714 0
-1619 -1715 0
-1620 -1716 0
-1617 -1725 0
-1618 -1726 0
-1619 -1727 0
-1620 -1728 0
-1621 -1629 0
-1622 -1630 0
-1623 -1631 0
-1624 -1632 0
-1625 -1629 0
-1626 -1630 0
-1627 -1631 0
-1628 -1632 0
-1625 -1641 0
-1626 -1642 0
-1627 -1643 0
-1628 -1644 0
-1625 -1661 0
-1626 -1662 0
-1627 -1663 0
-1628 -1664 0
-1625 -1665 0
-1626 -1666 0
-1627 -1667 0
-1628 -1668 0
-1625 -1673 0
-1626 -1674 0
-1627 -1675 0
-1628 -1676 0
-1625 -1693 0
-1626 -1694 0
-1627 -1695 0
-1628 -1696 0
-1625 -1717 0
-1626 -1718 0
-1627 -1719 0
-1628 -1720 0
-1625 -1725 0
-1626 -1726 0
-1627 -1727 0
-1628 -1728 0
-1629 -1633 0
-1630 -1634 0
-1631 -1635 0
-1632 -1636 0
-1633 -1709 0
-1634 -1710 0
-1635 -1711 0
-1636 -1712 0
-1633 -1809 0
-1634 -1810 0
-1635 -1811 0
-1636 -1812 0
-1637 -1641 0
-1638 -1642 0
-1639 -1643 0
-1640 -1644 0
-1637 -1725 0
-1638 -1726 0
-1639 -1727 0
-1640 -1728 0
-1637 -1805 0
-1638 -1806 0
-1639 -1807 0
-1640 -1808 0
-1641 -1649 0
-1642 -1650 0
-1643 -1651 0
-1644 -1652 0
-1641 -1653 0
-1642 -1654 0
-1643 -1655 0
-1644 -1656 0
-1641 -1801 0
-1642 -1802 0
-1643 -1803 0
-1644 -1804 0
-1645 -1653 0
-1646 -1654 0
-1647 -1655 0
-1648 -1656 0
-1649 -1653 0
-1650 -1654 0
-1651 -1655 0
-1652 -1656 0
-1649 -1661 0
-1650 -1662 0
-1651 -1663 0
-1652 -1664 0
-1649 -1765 0
-1650 -1766 0
-1651 -1767 0
-1652 -1768 0
-1653 -1669 0
-1654 -1670 0
-1655 -1671 0
-1656 -1672 0
-1653 -1709 0
-1654 -1710 0
-1655 -1711 0
-1656 -1712 0
-1653 -1753 0
-1654 -1754 0
-1655 -1755 0
-1656 -1756 0
-1657 -1701 0
-1658 -1702 0
-1659 -1703 0
-1660 -1704 0
-1657 -1721 0
-1658 -1722 0
-1659 -1723 0
-1660 -1724 0
-1661 -1665 0
-1662 -1666 0
-1663 -1667 0
-1664 -1668 0
-1665 -1669 0
-1666 -1670 0
-1667 -1671 0
-1668 -1672 0
-1665 -1689 0
-1666 -1690 0
-1667 -1691 0
-1668 -1692 0
-1665 -1729 0
-1666 -1730 0
-1667 -1731 0
-1668 -1732 0
-1665 -1769 0
-1666 -1770 0
-1667 -1771 0
-1668 -1772 0
-1669 -1725 0
-1670 -1726 0
-1671 -1727 0
-1672 -1728 0
-1669 -1753 0
-1670 -1754 0
-1671 -1755 0
-1672 -1756 0
-1669 -1761 0
-1670 -1762 0
-1671 -1763 0
-1672 -1764 0
-1669 -1769 0
-1670 -1770 0
-1671 -1771 0
-1672 -1772 0
-1673 -1693 0
-1674 -1694 0
-1675 -1695 0
-1676 -1696 0
-1673 -1705 0
-1674 -1706 0
-1675 -1707 0
-1676 -1708 0
-1685 -1689 0
-1686 -1690 0
-1687 -1691 0
-1688 -1692 0
-1693 -1697 0
-1694 -1698 0
-1695 -1699 0
-1696 -1700 0
-1693 -1701 0
-1694 -1702 0
-1695 -1703 0
-1696 -1704 0
-1693 -1721 0
-1694 -1722 0
-1695 -1723 0
-1696 -1724 0
-1693 -1725 0
-1694 -1726 0
-1695 -1727 0
-1696 -1728 0
-1697 -1701 0
-1698 -1702 0
-1699 -1703 0
-1700 -1704 0
-1701 -1717 0
-1702 -1718 0
-1703 -1719 0
-1704 -1720 0
-1705 -1721 0
-1706 -1722 0
-1707 -1723 0
-1708 -1724 0
-1713 -1725 0
-1714 -1726 0
-1715 -1727 0
-1716 -1728 0
-1717 -1729 0
-1718 -1730 0
-1719 -1731 0
-1720 -1732 0
-1721 -1753 0
-1722 -1754 0
-1723 -1755 0
-1724 -1756 0
-1725 -1761 0
-1726 -1762 0
-1727 -1763 0
-1728 -1764 0
-1725 -1777 0
-1726 -1778 0
-1727 -1779 0
-1728 -1780 0
-1725 -1805 0
-1726 -1806 0
-1727 -1807 0
-1728 -1808 0
-1729 -1821 0
-1730 -1822 0
-1731 -1823 0
-1732 -1824 0
-1737 -1757 0
-1738 -1758 0
-1739 -1759 0
-1740 -1760 0
-1741 -1745 0
-1742 -1746 0
-1743 -1747 0
-1744 -1748 0
-1741 -1757 0
-1742 -1758 0
-1743 -1759 0
-1744 -1760 0
-1741 -1789 0
-1742 -1790 0
-1743 -1791 0
-1744 -1792 0
-1741 -1797 0
-1742 -1798 0
-1743 -1799 0
-1744 -1800 0
-1741 -1805 0
-1742 -1806 0
-1743 -1807 0
-1744 -1808 0
-1745 -1789 0
-1746 -1790 0
-1747 -1791 0
-1748 -1792 0
-1749 -1765 0
-1750 -1766 0
-1751 -1767 0
-1752 -1768 0
-1753 -1757 0
-1754 -1758 0
-1755 -1759 0
-1756 -1760 0
-1753 -1805 0
-1754 -1806 0
-1755 -1807 0
-1756 -1808 0
-1761 -1777 0
-1762 -1778 0
-1763 -1779 0
-1764 -1780 0
-1765 -1813 0
-1766 -1814 0
-1767 -1815 0
-1768 -1816 0
-1769 -1773 0
-1770 -1774 0
-1771 -1775 0
-1772 -1776 0
-1769 -1817 0
-1770 -1818 0
-1771 -1819 0
-1772 -1820 0
-1769 -1821 0
-1770 -1822 0
-1771 -1823 0
-1772 -1824 0
-1781 -1789 0
-1782 -1790 0
-1783 -1791 0
-1784 -1792 0
-1789 -1793 0
-1790 -1794 0
-1791 -1795 0
-1792 -1796 0
-1797 -1801 0
-1798 -1802 0
-1799 -1803 0
-1800 -1804 0
-1809 -1813 0
-1810 -1814 0
-1811 -1815 0
-1812 -1816 0
-1809 -1825 0
-1810 -1826 0
-1811 -1827 0
-1812 -1828 0
1 0
6 0
