p cnf 3813 3255
368 -8 0
-9 -368 0
-1 281 0
-281 1 2 3 4 5 6 7 0
-1 282 0
-282 8 1 9 12 10 11 13 0
-14 283 0
17 -283 8 14 15 2 16 18 0
21 20 3 -284 9 19 14 22 0
-285 24 4 19 23 15 10 25 0
-286 16 5 20 26 11 23 27 0
-287 24 28 21 26 12 17 6 0
-288 28 13 18 22 25 27 7 0
-29 289 0
-290 36 29 40 38 37 39 41 0
-36 291 0
-291 36 30 44 42 43 45 46 0
-292 49 31 42 37 47 48 50 0
-293 52 32 43 38 47 51 53 0
-294 51 33 44 39 54 48 55 0
-295 52 45 40 54 56 49 34 0
-296 56 41 46 50 53 55 35 0
82 84 70 65 67 73 57 77 72 75 68 76 71 64 79 80 66 74 61 62 69 78 63 58 81 59 83 60 0
-57 297 0
-297 57 58 59 60 61 62 63 0
-57 298 0
-65 298 0
298 -66 0
-67 298 0
-68 298 0
-298 68 67 65 57 64 66 69 0
299 -70 0
299 -71 0
-72 299 0
-299 73 64 70 72 71 58 74 0
300 -70 0
-300 75 59 70 65 76 77 78 0
-66 301 0
301 -71 0
-75 301 0
301 -79 0
-301 80 79 66 71 75 60 81 0
-302 82 67 72 79 76 61 83 0
82 84 -303 68 73 77 80 62 0
304 -84 0
449 -92 0
-93 -449 0
455 -98 0
-99 -455 0
-85 305 0
-305 85 86 87 88 89 90 91 0
-85 306 0
306 -92 0
-93 306 0
-94 306 0
-95 306 0
-306 92 95 85 93 96 94 97 0
307 -92 0
307 -98 0
-99 307 0
-100 307 0
-101 307 0
98 92 -307 100 99 101 86 102 0
105 98 93 -308 104 103 87 106 0
309 -99 0
309 -103 0
-309 94 88 107 103 99 108 109 0
-310 95 107 100 110 104 89 111 0
132 123 128 122 120 133 121 129 135 131 126 138 127 140 124 113 136 130 117 118 125 134 119 114 137 115 139 116 0
482 -126 0
-482 -127 0
-113 313 0
-313 113 114 115 116 117 118 119 0
-113 314 0
314 -120 0
-121 314 0
-122 314 0
-314 122 121 120 123 124 113 125 0
-120 315 0
-126 315 0
-127 315 0
-128 315 0
-129 315 0
-315 128 129 120 126 127 114 130 0
316 -131 0
133 132 121 126 -316 131 115 134 0
317 -127 0
-317 135 127 131 136 122 116 137 0
132 123 128 135 138 -318 117 139 0
166 154 168 156 155 157 148 152 159 149 141 151 163 160 150 161 164 158 145 146 153 162 147 142 165 143 167 144 0
509 -154 0
-155 -509 0
-141 321 0
-321 141 142 143 144 145 146 147 0
-141 322 0
-148 322 0
-149 322 0
-150 322 0
-322 150 141 149 148 151 152 153 0
-148 323 0
-154 323 0
-155 323 0
-156 323 0
-157 323 0
155 -323 148 154 157 156 142 158 0
324 -149 0
324 -154 0
324 -159 0
161 -324 143 154 149 160 159 162 0
-150 325 0
-155 325 0
-159 325 0
-163 325 0
-164 325 0
-325 150 155 164 159 163 144 165 0
194 185 196 183 176 184 182 169 177 189 180 179 187 191 188 178 192 186 173 174 181 190 175 170 193 171 195 172 0
530 -176 0
-177 -530 0
-169 329 0
-329 169 170 171 172 173 174 175 0
-169 330 0
-176 330 0
-177 330 0
-178 330 0
-330 180 179 176 177 178 169 181 0
-176 331 0
-182 331 0
-183 331 0
-184 331 0
-185 331 0
184 -331 182 176 183 185 170 186 0
-177 332 0
332 -182 0
332 -187 0
189 -332 182 177 187 188 171 190 0
-178 333 0
-183 333 0
-187 333 0
-333 192 178 183 187 191 172 193 0
337 -197 0
-337 197 198 199 200 201 202 203 0
-205 338 0
-338 207 204 208 206 197 205 209 0
339 -204 0
339 -210 0
-211 339 0
-339 210 204 213 211 212 198 214 0
340 -215 0
210 215 199 -340 216 217 205 218 0
-206 341 0
-211 341 0
341 -215 0
211 215 -341 219 206 220 200 221 0
584 -232 0
-233 -584 0
-238 590 0
-590 -239 0
-225 345 0
-345 225 226 227 228 229 230 231 0
346 -232 0
-233 346 0
-234 346 0
-346 235 233 232 225 234 236 237 0
347 -232 0
-238 347 0
347 -239 0
-347 241 232 238 240 239 226 242 0
-233 348 0
-238 348 0
-243 348 0
245 244 233 238 -348 243 227 246 0
-234 349 0
-247 349 0
-248 349 0
-349 243 239 247 234 248 228 249 0
250 244 247 240 -350 235 229 251 0
-351 252 241 245 250 248 236 230 0
275 271 253 267 266 260 278 262 272 261 264 269 276 273 263 268 280 270 257 258 265 274 259 254 277 255 279 256 0
611 -260 0
-261 -611 0
617 -266 0
-617 -267 0
-253 353 0
-353 253 254 255 256 257 258 259 0
354 -260 0
-261 354 0
-262 354 0
-354 264 260 263 261 253 262 265 0
355 -260 0
-266 355 0
-267 355 0
-355 260 266 269 267 268 254 270 0
-261 356 0
-266 356 0
356 -271 0
273 272 -356 261 266 271 255 274 0
276 271 267 262 -357 275 256 277 0
-358 272 263 275 278 268 257 279 0
-359 273 264 269 276 280 278 258 0
642 0
-643 0
-693 0
-694 0
-645 0
-695 0
-646 0
696 0
647 284 -642 0
-650 287 645 0
-651 288 646 0
652 -647 292 0
-655 295 650 0
-656 296 651 0
657 -652 300 0
-661 -84 655 656 0
662 -657 308 0
-666 312 661 0
667 -662 316 0
-671 666 320 0
-667 672 324 0
-676 671 328 0
-667 673 -159 0
-672 677 332 0
-673 678 333 0
-681 676 336 0
-672 678 -187 0
-678 341 683 0
-686 681 344 0
-678 -211 683 0
-677 683 -215 0
-678 683 -215 0
-678 684 -219 0
-678 685 -220 0
-683 349 688 0
-684 689 350 0
-685 690 351 0
686 352 -691 0
-683 -239 688 0
-683 -243 688 0
-247 -683 689 0
-248 -683 690 0
-688 357 693 0
-689 358 694 0
-690 359 695 0
691 360 -696 0
-262 -688 693 0
-688 -267 693 0
-688 -271 693 0
-688 -275 694 0
-276 -688 695 0
-8 -697 0
-14 697 -642 0
-15 -697 643 0
-19 697 -642 0
-20 697 -642 0
697 -21 -642 0
728 0
731 286 -728 0
734 294 -731 0
-761 -8 0
-11 761 -728 0
-14 -761 0
-16 761 -728 0
-23 761 -728 0
-26 761 -728 0
763 -734 -72 0
-763 -75 0
792 0
794 287 -792 0
796 295 -794 0
-814 -8 0
-12 814 -792 0
-14 -814 0
-17 814 -792 0
-24 814 -792 0
-28 814 -792 0
816 -796 -73 0
-816 -75 0
-846 -29 0
-56 846 0
953 0
-983 0
-954 0
-984 0
956 285 -953 0
-957 286 954 0
959 -956 293 0
-960 294 957 0
962 -959 301 0
962 -71 -959 0
-963 -82 960 0
965 -962 309 0
965 -962 -99 0
-965 968 317 0
-965 968 -127 0
971 -968 325 0
-155 -968 971 0
971 -968 -159 0
974 -971 333 0
974 -971 -183 0
974 -971 -187 0
-974 341 977 0
-974 -206 977 0
-974 977 -211 0
-974 977 -215 0
978 -974 -219 0
-977 349 980 0
-978 981 350 0
-977 -234 980 0
-977 -239 980 0
-240 -978 981 0
-977 -243 980 0
-978 981 -244 0
-247 -977 981 0
-980 357 983 0
-981 358 984 0
-262 -980 983 0
-263 -981 984 0
-268 -981 984 0
-980 -271 983 0
-981 -272 984 0
-980 -275 984 0
-981 -275 984 0
-986 -8 0
-10 986 -953 0
-986 -14 0
-15 986 -953 0
-989 963 -100 0
-107 989 -962 0
-991 -148 0
-163 991 -968 0
-968 -164 991 0
1020 0
-1060 0
1021 0
1024 284 -1020 0
1025 285 -1021 0
1028 -1024 292 0
1029 -1025 293 0
1032 -1028 300 0
1033 -1029 301 0
1032 -1028 -70 0
1033 -71 -1029 0
1032 -1028 -75 -1029 0
1036 -1032 308 0
1037 -1033 309 0
1036 -1032 -103 -1033 0
1037 -1033 -103 0
1040 -1036 316 0
1041 -1037 317 0
1040 -1036 -126 0
1040 -1036 -131 -1037 0
-1040 324 1044 0
1045 -1041 325 0
-1040 -154 1044 0
-1040 -159 1044 -1041 0
-1044 332 1048 0
-1044 1048 -182 0
-1044 1048 -187 -1045 0
-1048 1052 340 0
-1048 1052 -210 0
-1052 348 1056 0
-1052 -233 1056 0
-1052 -238 1056 0
-1056 356 1060 0
-1056 -266 1060 0
1109 0
-1110 0
-1170 0
1111 0
-1171 0
1112 0
-1113 0
-1114 0
282 1115 -1109 0
1117 284 -1111 0
1118 285 -1112 0
-1 1115 -1109 0
-1115 -8 1110 0
1116 -8 -1109 0
-11 -1115 1113 0
-12 -1115 1114 0
1121 290 -1115 0
1122 291 -1116 0
1123 -1117 292 0
1124 -1118 293 0
1127 -1121 298 0
1128 -1122 299 0
1129 -1123 300 0
1130 -1124 301 0
1128 -1122 -70 -1123 0
1129 -1122 -70 0
-71 1128 -1122 -1124 0
1130 -71 -1122 0
1129 -1123 -75 -1124 0
1130 -1123 -75 0
1131 -1123 -76 0
1133 -1127 306 0
-1128 1134 307 0
1135 -1129 308 0
1136 -1130 309 0
-1131 1137 310 0
1134 -1129 -98 -1128 0
1135 -1128 -98 0
1134 -99 -1128 -1130 0
1136 -1130 -99 0
-1131 -100 1134 -1128 0
1135 -1129 -103 -1130 0
1136 -1130 -103 0
1137 -104 -1129 0
1139 -1133 314 0
-1134 1140 315 0
1141 -1135 316 0
1142 -1136 317 0
-1137 318 1143 0
-1135 -1134 -126 1140 0
1141 -1134 -126 0
-1136 -127 1140 -1134 0
1142 -1134 -127 0
-1137 -128 1140 -1134 0
1141 -1135 -131 -1136 0
-1137 1141 -132 -1135 0
1145 -1139 322 0
-1140 1146 323 0
-1141 324 1147 0
1148 -1142 325 0
-1139 -148 1146 0
1147 -1140 -154 0
-1141 -154 1147 0
-155 1146 -1140 -1142 0
1148 -155 -1140 0
1148 -155 -1142 0
-1143 -156 1146 -1140 0
-1141 -159 1147 -1142 0
1148 -1142 -159 0
-1146 1152 331 0
-1147 332 1153 0
1154 -1148 333 0
-1145 -176 1152 0
-1146 1153 -182 0
-1147 -182 1153 0
-1146 -183 1152 -1148 0
1154 -1148 -183 0
-1147 -187 1153 -1148 0
1154 -1148 -187 0
1158 -1152 339 0
-1153 1159 340 0
1158 -1152 -204 0
-1152 1159 -210 0
-1153 1159 -210 0
-1154 -1152 -211 1158 0
-1153 -1154 -215 1159 0
-1158 1164 347 0
-1159 1165 348 0
-1158 -232 1164 0
-1159 -233 1165 0
-238 -1158 1165 0
-238 -1159 1165 0
-1164 355 1170 0
-1165 356 1171 0
-1164 -260 1170 0
-261 -1165 1171 0
-266 -1164 1171 0
-266 -1165 1171 0
-1176 -29 1115 0
-36 1176 -1116 0
-42 1176 -1116 0
-43 1176 -1116 0
-44 1176 -1116 0
-45 1176 -1116 0
1211 0
1212 0
-1262 0
1213 0
1217 284 -1212 0
1218 285 -1213 0
1216 -8 -1211 0
1221 291 -1216 0
1222 -1217 292 0
1223 -1218 293 0
1226 -1221 299 0
1227 -1222 300 0
1228 -1223 301 0
1226 -71 -1223 -1221 0
1228 -71 -1221 0
1229 -1222 -76 0
1231 -1226 307 0
1233 -1228 309 0
1231 -1227 -98 -1226 0
1232 -1226 -98 0
1231 -99 -1226 -1228 0
1233 -99 -1226 0
-1229 1231 -100 -1226 0
1234 -1229 -104 0
1236 -1231 315 0
1238 -1233 317 0
1239 -1234 318 0
1237 -1231 -126 0
-1234 1236 -128 -1231 0
1237 -1233 -131 -1232 0
1241 -1236 323 0
-1237 324 1242 0
1243 -1238 325 0
-1236 -154 1242 0
-1239 1241 -156 -1236 0
-1237 -159 1242 -1238 0
1243 -1238 -159 0
-1241 1246 331 0
-1242 332 1247 0
1248 -1243 333 0
-1242 -187 1247 -1243 0
-1246 1251 339 0
-1247 1252 340 0
1253 -1248 341 0
-1246 1252 -210 0
-1247 1252 -210 0
-1246 1251 -1248 -211 0
-1251 1256 347 0
-1252 1257 348 0
-1251 -238 1257 0
-238 -1252 1257 0
-1253 -1252 -243 1257 0
-1257 356 1262 0
-1256 -266 1262 0
1494 0
-1524 0
1495 0
1497 285 -1494 0
1498 286 -1495 0
1500 -1497 293 0
1501 294 -1498 0
1504 -1501 302 0
1503 -71 -1500 0
1506 -1503 309 0
-104 1507 -1504 0
-1507 1509 -135 -1506 0
-1509 1512 325 0
-1512 1515 333 0
-1515 341 1518 0
-1518 349 1521 0
-1521 -271 1524 0
1572 0
-1623 0
1574 0
1575 0
1579 285 -1574 0
1580 286 -1575 0
1577 -8 -1572 0
1582 291 -1577 0
1584 -1579 293 0
1585 294 -1580 0
1587 -1582 299 0
1589 -1584 301 0
1590 -1585 302 0
-72 1587 -1582 -1585 0
1589 -1584 -75 0
1590 -79 -1585 0
-1587 1592 307 0
1594 -1589 309 0
1595 -1590 310 0
1593 -1587 -98 0
-1590 -100 1592 -1587 0
1595 -104 -1590 0
-107 1594 -1589 -1590 0
-107 1595 -1590 0
-1592 1597 315 0
1598 -1593 316 0
1599 -1594 317 0
1600 -1595 318 0
1598 -126 -1592 0
-1594 -127 1597 -1592 0
-1595 -1592 1597 -128 0
-1597 1602 323 0
-1598 1603 324 0
1603 -154 -1597 0
1602 -156 -1600 -1597 0
-1598 1603 -159 -1599 0
-1602 1607 331 0
-1603 332 1608 0
-1602 -182 1608 0
-1607 1612 339 0
-1608 1613 340 0
-1607 1613 -210 0
-1608 1613 -210 0
-1612 1617 347 0
-1613 1618 348 0
-1612 -238 1618 0
-1618 356 1623 0
-1617 -266 1623 0
1684 0
-1724 0
1685 0
1686 0
-1687 0
1688 284 -1684 0
1689 285 -1685 0
1690 286 -1686 0
-1691 287 1687 0
1692 -1688 292 0
1693 -1689 293 0
1694 294 -1690 0
-1695 295 1691 0
1696 -1692 300 0
1697 -1693 301 0
1698 -1694 -72 0
1697 -1694 -79 -1693 0
-1698 -82 1695 0
1700 -1696 308 0
1700 -1696 -103 -1697 0
1698 -1700 -104 0
1701 -107 -1698 -1697 0
-1704 -121 1700 0
1704 -1700 -126 0
1704 -1701 -131 -1700 0
-1704 1708 324 0
-1708 1704 -154 0
-1708 1704 -159 0
-1708 332 1712 0
-1712 1708 -182 0
1712 340 -1716 0
-1712 1716 340 0
1716 348 -1720 0
348 1720 -1716 0
-233 -1716 1720 0
-238 -1716 1720 0
-1717 -243 -1716 1720 0
-1718 -244 -1716 1720 0
-1719 -245 -1716 1720 0
-1720 356 1724 0
-1720 -1721 -271 1724 0
-1722 -272 -1720 1724 0
1759 -8 0
1760 -29 0
1761 -82 1695 0
1762 1698 -104 0
1763 -121 0
1764 -154 0
1764 1704 -159 0
-176 1765 0
1765 -182 0
-183 1765 0
-184 1765 0
-185 1765 0
1708 -187 1765 0
1766 -204 0
1766 -210 0
-211 1766 0
-212 1766 0
-213 1766 0
-216 1766 1712 0
-217 1766 1712 0
-232 1767 0
-238 1767 0
-239 1767 0
-240 1767 0
-241 1767 0
1716 -243 1767 0
1717 -243 1767 0
1767 1716 -244 0
1718 -244 1767 0
1719 -245 1767 0
-266 1768 0
-271 1768 1720 0
1721 1768 -271 0
-272 1768 1720 0
1722 -272 1768 0
1769 -1759 0
1771 -1760 -1769 0
1773 -1771 -1761 0
1775 -1773 -1762 0
1777 -1775 -1763 0
-1777 1779 -1764 0
-1779 1780 0
-1779 -1765 1781 0
-1781 1782 0
-1781 -1766 0
-1780 1788 0
-1780 1782 -1766 0
-1782 1789 0
-1782 -1767 0
-1788 -1767 1789 0
-1789 -1768 0
1790 0
-1851 0
1792 0
1793 0
1794 0
1798 284 -1792 0
1799 285 -1793 0
1800 286 -1794 0
1797 -8 -1790 0
1803 291 -1797 0
1804 -1798 292 0
1805 -1799 293 0
1806 294 -1800 0
1809 -1803 299 0
1812 -1806 302 0
1810 -1804 -75 -1805 0
1816 -1810 308 0
1815 -1812 -100 -1809 0
1821 -1815 315 0
1822 -1816 316 0
-1822 1827 -1821 -154 0
-1827 1833 -176 0
-1833 1839 339 0
-1839 1845 347 0
-1845 355 1851 0
1897 0
-1947 0
1898 0
1900 0
1903 284 -1898 0
1905 286 -1900 0
1902 -8 -1897 0
1907 291 -1902 0
1908 -1903 292 0
1910 294 -1905 0
1912 -1907 299 0
1913 -1908 -76 -1910 0
1917 -1913 -98 -1912 0
1922 -1917 315 0
1927 -1922 323 0
-1927 1932 331 0
-1932 1937 339 0
-1937 -232 1942 0
-1942 355 1947 0
2009 0
-2010 0
-2080 0
2011 0
2081 0
2012 0
2013 0
2014 0
-2015 0
2016 281 -2009 0
2019 284 -2012 0
2020 285 -2013 0
2021 286 -2014 0
-2022 287 2015 0
-2017 -8 2010 0
2018 -8 -2011 0
2023 -2016 289 0
2025 291 -2018 0
2026 -2019 292 0
2027 -2020 293 0
2028 294 -2021 0
-2029 2022 295 0
2024 -29 -2016 0
2030 -2023 297 0
2031 -2024 298 0
2032 -2025 299 0
2033 -2026 300 0
2034 -2027 301 0
2035 -2028 302 0
-2036 2029 303 0
-57 -2023 2031 0
-65 2031 -2026 -2024 0
-70 2032 -2026 -2025 0
2033 -70 -2025 0
2033 -70 -2026 0
-71 2032 -2027 -2025 0
2034 -71 -2025 0
-72 2032 -2025 -2028 0
2035 -72 -2028 0
-2032 2029 -73 0
-75 2033 -2026 -2027 0
2034 -75 -2026 0
-76 2033 -2026 -2028 0
-77 2029 -2033 0
2034 -79 -2028 -2027 0
-79 2035 -2028 0
-2034 2029 -80 0
-82 2029 -2035 0
-82 2036 -2028 0
2037 -2030 305 0
-2031 2038 306 0
-2039 307 2032 0
-2032 307 2039 0
2040 -2033 308 0
2034 -2041 309 0
2041 -2034 309 0
2035 -2042 310 0
-2035 2042 310 0
-85 -2030 2038 0
-2032 -92 2038 -2031 0
-93 -2033 2038 -2031 0
-2039 2033 -98 0
-2032 2039 -98 -2033 0
2040 -2032 -98 0
2040 -2033 -98 0
-2034 -99 2039 -2032 0
2041 -99 -2032 0
2041 -2034 -99 0
-2035 -100 2039 -2032 0
-2039 2036 -101 0
2040 -2033 -103 -2034 0
2041 -103 -2033 0
-104 2035 -2040 0
2040 -2033 -2035 -104 0
-2036 2040 -105 -2033 0
-110 -2042 2036 0
2044 -2037 313 0
-2038 2045 314 0
2039 -2046 315 0
-2039 2046 315 0
2040 -2047 316 0
316 2047 -2040 0
2048 -2041 317 0
2045 -113 -2037 0
-2038 2045 -113 0
2045 -120 -2039 -2038 0
-121 2045 -2040 -2038 0
2046 -2039 -126 -2040 0
-126 -2040 2047 0
2039 -2046 -127 0
2046 -2039 -127 -2041 0
2048 -127 -2039 0
2039 -2046 -128 0
-2046 -128 2042 0
-2042 -128 2046 -2039 0
2039 -2046 -129 0
-131 -2041 2047 -2040 0
-2042 -132 2047 -2040 0
2051 -2044 321 0
-2045 2052 322 0
-2053 323 2046 0
2053 -2046 323 0
2054 -2047 324 0
2055 -2048 325 0
2052 -141 -2044 0
2052 -148 -2046 -2045 0
-149 2052 -2045 -2047 0
-2047 2053 -2046 -154 0
-2048 -155 2053 -2046 0
2054 -2048 -159 -2047 0
2058 -2051 329 0
-2052 330 2059 0
2053 -2060 331 0
-2053 2060 331 0
2061 -2054 332 0
2062 -2055 333 0
2059 -169 -2051 0
-2053 -2052 2059 -176 0
-177 -2052 -2054 2059 0
-2060 2053 -182 0
-2054 2060 -182 -2053 0
-183 -2060 2053 0
-2053 -2055 2060 -183 0
-184 -2060 2053 0
-2060 2053 -185 0
2065 -2058 337 0
-2059 338 2066 0
-2067 2060 339 0
2067 -2060 339 0
2068 -2061 340 0
-2058 -197 2066 0
-2059 2066 -204 -2060 0
-2061 -2059 -205 2066 0
-2062 -206 2066 -2059 0
-2067 2060 -210 0
-2061 2067 -2060 -210 0
-2067 2060 -211 0
-212 -2067 2060 0
-213 -2067 2060 0
-2065 2072 345 0
-2066 2073 346 0
2067 -2074 347 0
2074 -2067 347 0
-2065 -225 2073 0
-2066 -2067 -232 2073 0
-2066 -233 2073 -2068 0
-238 2067 -2074 0
2075 -238 -2067 0
2067 -239 -2074 0
-240 2067 -2074 0
2067 -241 -2074 0
2068 -243 -2075 0
-2073 354 2080 0
2074 355 -2081 0
-2072 -253 2080 0
-2073 -260 -2074 2080 0
-2075 -2073 -261 2080 0
-266 2074 -2081 0
2075 -266 -2081 0
-267 2074 -2081 0
-268 2074 -2081 0
-269 2074 -2081 0
2086 -8 2010 0
2087 -29 2017 0
2088 -77 2029 0
2088 -82 2029 0
2089 2033 -98 0
2089 -104 2035 0
2040 -126 2090 0
2040 -131 2090 0
2091 -148 2046 0
-149 2091 2047 0
2091 -154 2047 0
2091 -159 2047 0
2092 -176 2053 0
2092 -177 2054 0
2092 2053 -182 0
2092 -183 2053 0
2093 2060 -204 0
2093 2061 -205 0
2094 2067 -232 0
2094 2068 -233 0
2095 2074 -260 0
2096 -2086 0
2098 -2087 -2096 0
2100 -2088 -2098 0
2102 -2089 -2100 0
2103 -2102 0
-2102 -2090 2104 0
-2104 2105 0
-2104 -2091 0
2109 -2103 0
-2091 -2103 2105 0
-2105 2110 0
-2105 -2092 0
-2092 -2109 2110 0
-2110 2115 0
-2110 -2093 0
-2115 2120 0
-2115 -2094 0
-2120 -2095 0
-2122 -29 0
-40 2122 0
-71 -2123 0
2123 -73 0
-2124 -98 0
-99 -2124 0
-100 -2124 0
-101 2124 0
-108 2124 0
-110 2124 0
-129 2125 0
-131 -2125 0
-2128 -204 0
-217 2128 0
-220 2128 0
2259 0
-2279 0
2261 285 -2259 0
2263 -2261 293 0
2265 -2263 301 0
2265 -71 -2263 0
2267 -2265 309 0
2267 -2265 -99 0
2269 -2267 317 0
2269 -2267 -127 0
-136 2269 -2267 0
-2269 2271 325 0
-155 -2269 2271 0
2271 -2269 -159 0
-2271 2273 333 0
-2271 -183 2273 0
-2271 -187 2273 0
-2271 -192 2273 0
-2273 2275 341 0
-2273 2275 -211 0
-2273 2275 -215 0
-2273 -220 2275 0
-2275 349 2277 0
-2275 -239 2277 0
-2275 -243 2277 0
-248 -2275 2277 0
-2277 357 2279 0
-2277 -267 2279 0
-2277 -271 2279 0
-2277 -276 2279 0
2326 0
-2378 0
2329 0
2334 285 -2329 0
2332 -8 -2326 0
2337 291 -2332 0
2339 -2334 293 0
2342 -2337 299 0
2344 -2339 301 0
2342 -71 -2339 -2337 0
2342 -2337 -73 0
2344 -2339 -75 0
-2342 2347 307 0
2349 -2344 309 0
2348 -2342 -98 0
-2344 -99 2347 -2342 0
2349 -99 -2342 0
2347 -101 -2342 0
2349 -2344 -108 0
-2347 2352 315 0
2354 -2349 317 0
2353 -2347 -126 0
-2349 -127 2352 -2347 0
2352 -2347 -129 0
-133 2353 -2348 0
-2352 2357 323 0
-2353 2358 324 0
2359 -2354 325 0
2358 -2352 -154 0
-155 -2354 -2352 2357 0
-2352 -157 2357 0
-2353 2358 -159 -2354 0
-2362 2357 331 0
-2357 2362 331 0
-2358 332 2363 0
2364 -2359 333 0
-2357 2363 -182 0
2364 -2359 -183 0
-2357 -185 2362 0
-2358 -187 2363 -2359 0
-2362 2367 339 0
-2363 2368 340 0
-2362 2368 -210 0
-2363 2368 -210 0
-2362 2367 -213 0
-2363 -2364 -215 2368 0
-2367 2372 347 0
-2368 2373 348 0
-2367 -238 2373 0
-2367 -241 2372 0
-2368 -245 2373 0
-2373 356 2378 0
-2372 -266 2378 0
-2373 -273 2378 0
2438 0
-2468 0
2439 0
2441 284 -2438 0
2442 285 -2439 0
2444 -2441 292 0
2445 -2442 293 0
2447 -2444 300 0
2448 -2445 301 0
2448 -2445 -80 0
2450 -2447 308 0
2451 -2448 309 0
2451 -2448 -99 0
2450 -2447 -103 -2448 0
2451 -2448 -108 0
2453 -2450 -126 0
2453 -2450 -131 -2451 0
2456 -2453 324 0
-2456 332 2459 0
-2459 2462 340 0
-2462 2465 348 0
-2462 -238 2465 0
-2465 356 2468 0
2504 -71 0
-2445 -75 -2504 -2444 0
2533 0
-2584 0
2535 0
2536 0
2540 284 -2535 0
2541 285 -2536 0
2539 -8 -2533 0
2544 291 -2539 0
2545 -2540 292 0
2546 -2541 293 0
2549 -2544 299 0
2550 -2545 -75 -2546 0
2554 -2549 307 0
2555 -2550 308 0
2554 -101 -2549 0
2559 -2554 315 0
2560 -2555 316 0
2559 -2554 -126 -2555 0
2564 -2559 323 0
-2560 -2559 -154 2564 0
2569 -2564 331 0
2569 -2564 -176 0
2574 -2569 339 0
2574 -2569 -204 0
-2574 2579 347 0
-2579 355 2584 0
2645 0
-2685 0
2646 0
2647 0
2650 284 -2646 0
2651 285 -2647 0
2649 -8 -2645 0
2653 291 -2649 0
2654 -2650 292 0
2655 -2651 293 0
2657 -2653 299 0
2658 -2654 300 0
2659 -2655 301 0
2658 -77 -2654 0
2662 -2658 308 0
2661 -2657 -98 -2658 0
2661 -99 -2657 -2659 0
2665 -2661 315 0
-2662 2665 -126 -2661 0
-2665 2669 323 0
2673 -2669 331 0
-2673 2677 339 0
-2677 2681 347 0
-2677 -232 2681 0
-2681 355 2685 0
-2681 -260 2685 0
2746 0
-2796 0
2747 0
2797 0
2748 0
2798 0
2749 0
-2750 0
2751 282 -2746 0
2753 284 -2748 0
2754 285 -2749 0
-2755 286 2750 0
2751 -8 -2746 -2747 0
2752 -8 -2746 0
2752 -14 -2747 -2748 0
2757 291 -2752 0
2758 -2753 292 0
2759 -2754 293 0
-2760 2755 294 0
2756 -29 -2751 0
-36 2756 -2751 -2752 0
2761 -2756 298 0
2762 -2757 299 0
2763 -2758 300 0
2764 -2759 301 0
-2765 2760 302 0
-57 2761 -2756 0
2761 -2757 -64 -2756 0
2761 -2759 -66 -2756 0
2761 -2756 -68 0
-2758 -70 2762 -2757 0
2763 -2758 -70 0
-71 -2759 2762 -2757 0
2760 -72 -2762 0
2765 -72 -2757 0
2762 -73 -2757 0
-2759 -75 2763 -2758 0
2764 -2759 -75 0
-76 2760 -2763 0
-77 2763 -2758 0
-2764 2760 -79 0
-2759 2765 -79 0
2764 -2759 -80 0
-2765 -82 2760 0
2766 -2761 306 0
2762 -2767 307 0
-2762 307 2767 0
2768 -2763 308 0
2769 -2764 309 0
2765 -2770 310 0
-2762 -92 2766 -2761 0
-93 -2763 2766 -2761 0
-96 2766 -2761 0
2767 -2763 -2762 -98 0
2768 -2762 -98 0
2768 -2763 -98 0
2764 -2767 -99 0
-2764 -99 2767 -2762 0
2769 -99 -2762 0
2769 -2764 -99 0
2762 -2767 -100 0
-2767 -100 2765 0
2767 -101 -2762 0
-2768 2763 -103 0
2768 -103 -2763 -2764 0
2769 -103 -2763 0
-2765 -104 -2763 2768 0
2768 -105 -2763 0
-110 2765 -2770 0
2771 -2766 314 0
2767 -2772 315 0
-2767 2772 315 0
-2773 316 2768 0
2773 316 -2768 0
2774 -2769 317 0
2771 -2767 -120 -2766 0
-121 2771 -2768 -2766 0
-2767 2772 -126 -2768 0
-127 -2772 2767 0
-2767 2772 -127 -2769 0
2774 -2769 -127 0
2767 -2772 -128 0
2770 -2772 -128 0
-129 2767 -2772 0
-2767 2772 -129 0
2773 -2769 -131 -2768 0
2774 -131 -2768 0
2773 -2770 -132 -2768 0
-133 2773 -2768 0
2770 -2774 -135 0
-136 2774 -2769 0
2776 -2771 322 0
-2777 323 2772 0
2777 -2772 323 0
-2778 2773 324 0
2778 -2773 324 0
2774 -2779 325 0
2776 -148 -2772 -2771 0
-149 2776 -2773 -2771 0
-2773 2777 -154 -2772 0
-155 -2774 2777 -2772 0
2777 -157 -2772 0
2778 -2773 -159 -2774 0
2781 -2776 330 0
2777 -2782 331 0
-2777 2782 331 0
2783 -2778 332 0
2779 -2784 333 0
-2776 2781 -2777 -176 0
-177 -2778 2781 -2776 0
-2776 2781 -180 0
2777 -2782 -182 0
-2778 2782 -182 -2777 0
2777 -2782 -183 0
-184 2777 -2782 0
2777 -2782 -185 0
-2777 2782 -185 0
2786 -2781 338 0
-2787 2782 339 0
2787 -2782 339 0
2788 -2783 340 0
2784 341 -2789 0
2786 -2782 -204 -2781 0
-2783 -205 -2781 2786 0
2782 -2787 -210 0
-2783 -2782 -210 2787 0
2782 -2787 -211 0
2782 -2787 -212 0
2782 -2787 -213 0
-2786 2791 346 0
2787 -2792 347 0
2792 -2787 347 0
2789 349 -2794 0
-2786 -2787 -232 2791 0
-233 -2786 2791 -2788 0
-238 2787 -2792 0
2788 -238 -2792 0
2787 -239 -2792 0
-240 2787 -2792 0
2787 -241 -2792 0
-2791 354 2796 0
2792 355 -2797 0
-2791 -260 -2792 2796 0
-266 2792 -2797 0
2792 -267 -2797 0
-268 2792 -2797 0
2792 -269 -2797 0
2794 -271 -2798 0
2802 -29 0
-2802 -36 -2751 -2752 0
-82 2760 2803 0
2805 2770 -132 0
2806 2773 -154 0
2806 2773 -159 0
2777 2807 -176 0
-177 2778 2807 0
2778 2807 -182 0
2783 2808 -205 0
2788 2809 -233 0
2812 -2802 0
2814 -2803 -2812 0
2820 -2814 0
2821 -2820 -2805 0
-2821 -2806 2822 0
-2822 2826 0
-2807 -2822 0
-2826 2830 0
-2826 -2808 0
-2830 -2809 0
-2836 -29 0
-39 2836 0
-95 2838 0
-2838 -98 0
-99 -2838 0
-100 2838 0
-104 2838 0
-107 2838 0
-2839 -121 0
2839 -123 0
2839 -128 0
-131 -2839 0
-2842 -204 0
-212 2842 0
-213 2842 0
-2842 -215 0
-216 2842 0
-219 2842 0
2895 0
-2915 0
-2896 0
2916 0
2897 284 -2895 0
-2898 285 2896 0
2899 -2897 292 0
-2900 2898 293 0
2901 -2899 300 0
2900 -2902 301 0
-2899 2901 -70 0
-71 2900 -2902 0
-2901 -75 2900 0
2902 -75 -2899 0
2899 -2902 -75 2900 0
2901 -76 -2899 0
-77 2901 -2899 0
-2902 -79 2900 0
2900 -2902 -80 0
-2903 2901 308 0
2903 -2901 308 0
-2904 2902 309 0
2904 -2902 309 0
-94 -2904 2902 0
-2901 2903 -98 0
-2903 2901 -98 0
-99 2904 -2902 0
-99 -2904 2902 0
-2903 2902 -103 0
-2901 2904 -103 0
2904 -103 -2902 0
2902 -103 2901 -2904 0
-104 2903 -2901 0
2903 -2901 -105 0
-107 2902 -2904 0
-107 2904 -2902 0
-108 -2904 2902 0
-108 2904 -2902 0
-2905 316 2903 0
2905 -2903 316 0
-2906 2904 317 0
2906 -2904 317 0
-121 2905 -2903 0
-121 -2905 2903 0
2906 -122 -2904 0
-2906 -122 2904 0
-2903 2905 -126 0
-2905 -126 2903 0
2906 -127 -2904 0
-2906 -127 2904 0
-131 -2905 2903 0
-131 -2905 2904 0
2906 -131 -2903 0
-131 2906 -2904 0
-131 -2906 2903 2904 0
-2905 2903 -132 0
2905 -2903 -132 0
-133 -2905 2903 0
-133 2905 -2903 0
-135 -2906 2904 0
2906 -135 -2904 0
-136 -2906 2904 0
-136 2906 -2904 0
-2907 324 2905 0
324 -2905 2907 0
-2908 2906 325 0
2908 -2906 325 0
-149 -2905 2907 0
-149 -2907 2905 0
-2905 -154 2907 0
-2907 2905 -154 0
-155 2908 -2906 0
-155 -2908 2906 0
-2907 -159 2906 0
-159 -2906 2907 -2905 0
2908 -159 -2905 0
2908 -159 -2906 0
-160 -2905 2907 0
-161 -2905 2907 0
-2908 -163 2906 0
2908 -163 -2906 0
-2908 -164 2906 0
2908 -164 -2906 0
-2909 332 2907 0
-2907 332 2909 0
-2910 2908 333 0
-2908 333 2910 0
-177 -2907 2909 0
-178 -2908 2910 0
-2910 -178 2908 0
-2907 -182 2909 0
-2909 2907 -182 0
-183 -2908 2910 0
-2910 -183 2908 0
-2909 -187 2908 0
-187 -2907 -2908 2909 0
-187 -2907 2910 0
-187 -2908 2910 0
-2910 -187 2907 2908 0
-188 -2907 2909 0
-189 -2907 2909 0
-191 -2910 2908 0
-191 -2908 2910 0
-192 -2910 2908 0
-192 -2908 2910 0
-2911 2909 340 0
-2909 2911 340 0
-2912 341 2910 0
2912 -2910 341 0
-205 -2909 2911 0
-2911 -205 2909 0
-206 2912 -2910 0
-206 -2912 2910 0
-2909 2911 -210 0
-2911 2909 -210 0
2912 -211 -2910 0
-2912 -211 2910 0
-2911 -215 2910 0
-2909 -215 -2910 2911 0
2912 -2909 -215 0
2912 -2910 -215 0
-2912 2910 2909 -215 0
-216 -2911 2909 0
-216 -2909 2911 0
-217 -2911 2909 0
-217 -2909 2911 0
-219 -2912 2910 0
-219 2912 -2910 0
-220 -2912 2910 0
-220 2912 -2910 0
-2913 2911 348 0
-2911 2913 348 0
-2914 2912 349 0
2914 -2912 349 0
-234 2912 -2914 0
-238 -2911 2913 0
-238 2911 -2913 0
2914 -239 -2912 0
-239 -2914 2912 0
-2913 -243 2911 0
-2913 -243 2912 0
-2911 -243 -2912 2913 0
2914 -243 -2912 0
-2914 -243 2911 2912 0
-2913 2911 -244 0
-2911 2913 -244 0
-2913 2911 -245 0
-2911 -245 2913 0
-247 2912 -2914 0
-247 2914 -2912 0
-248 2912 -2914 0
2914 -248 -2912 0
-2913 356 2915 0
2914 357 -2916 0
-261 -2913 2915 0
-262 2914 -2916 0
-266 -2913 2915 0
-267 2914 -2916 0
-2913 -2914 -271 2915 0
2914 2913 -271 -2916 0
-272 -2913 2915 0
-273 -2913 2915 0
-275 2914 -2916 0
-276 2914 -2916 0
-2926 -260 0
-262 -2914 2926 0
-2926 -266 2913 0
-2913 2926 -271 0
-2914 2926 -271 0
2943 -8 0
-14 2943 0
2944 -29 0
2944 -36 0
-42 2944 0
-43 2944 0
-44 2944 0
-45 2944 0
-57 2945 0
2945 -64 0
-65 2945 0
-66 2945 0
-67 2945 0
-68 2945 0
-70 2945 0
-71 2945 0
-72 2945 0
-73 2945 0
-75 2900 2945 0
-76 -2899 -2945 0
-77 -2899 -2945 0
-79 2900 2945 0
-80 2900 2945 0
-82 -2945 0
-85 2946 0
2946 -92 0
-93 2946 0
-94 2946 0
-95 2946 0
2946 -96 0
2946 -98 0
-99 2946 0
-100 2946 0
-101 2946 0
-103 2946 2901 0
2902 -103 2946 0
-104 2946 2901 0
-104 -2901 -2946 0
2946 2901 -105 0
-2901 -105 -2946 0
-107 2902 2946 0
-108 2902 2946 0
-110 -2946 0
-113 2947 0
-120 2947 0
-121 2947 0
2947 -122 0
2947 -123 0
-124 2947 0
2947 -126 0
-127 2947 0
2947 -128 0
-129 2947 0
-131 2947 2903 0
-131 2947 2904 0
2947 2903 -132 0
-2903 -2947 -132 0
-133 2947 2903 0
-133 -2903 -2947 0
-135 2947 2904 0
-135 -2947 -2904 0
-136 2947 2904 0
-136 -2947 -2904 0
-138 -2947 0
-140 -2947 0
-141 2948 0
-148 2948 0
-149 2948 0
2948 -150 0
-151 2948 0
-152 2948 0
2948 -154 0
-155 2948 0
-156 2948 0
-157 2948 0
-159 2948 2905 0
-159 2948 2906 0
-160 2948 2905 0
-160 -2905 -2948 0
-161 2948 2905 0
-161 -2905 -2948 0
-163 2948 2906 0
-164 2948 2906 0
-166 -2948 0
-168 -2948 0
-169 2949 0
-176 2949 0
-177 2949 0
-178 2949 0
-179 2949 0
2949 -180 0
2949 -182 0
-183 2949 0
-184 2949 0
-185 2949 0
-187 2949 2907 0
-187 2949 2908 0
-188 2949 2907 0
-188 -2907 -2949 0
-189 2949 2907 0
-189 -2907 -2949 0
-191 2949 2908 0
-191 -2949 -2908 0
-192 2949 2908 0
-192 -2949 -2908 0
2950 -197 0
2950 -204 0
-205 2950 0
-206 2950 0
2950 -207 0
-208 2950 0
2950 -210 0
2950 -211 0
-212 2950 0
-213 2950 0
2950 -215 2909 0
2950 -215 2910 0
-216 2950 2909 0
-216 -2909 -2950 0
-217 2950 2909 0
-217 -2909 -2950 0
-219 2950 2910 0
-219 -2950 -2910 0
-220 2950 2910 0
-220 -2950 -2910 0
-225 2951 0
2951 -232 0
-233 2951 0
-234 2951 0
-235 2951 0
-236 2951 0
-238 2951 0
-239 2951 0
-240 2951 0
-241 2951 0
-243 2911 2951 0
-243 2951 2912 0
2951 2911 -244 0
-245 2951 2911 0
-247 2951 2912 0
-247 -2951 -2912 0
-248 2951 2912 0
-248 -2951 -2912 0
-250 -2951 0
2952 -253 0
2952 -260 0
-261 2952 0
-262 2952 0
-263 2952 0
2952 -264 0
-266 2952 0
-267 2952 0
-268 2952 0
-269 2952 0
2952 2913 -271 0
2952 2914 -271 0
-272 2952 2913 0
-273 2952 2913 0
-275 -2914 -2952 0
-276 -2914 -2952 0
-278 -2952 0
-280 -2952 0
2953 -2943 0
2954 -2953 0
2955 -2953 -2944 0
2956 -2955 0
2957 -2955 -2945 0
2958 -2957 0
2959 -2957 -2946 0
-2959 2960 0
-2959 2961 -2947 0
-2961 2962 0
-2961 -2948 2963 0
-2963 2964 0
-2963 -2949 0
2954 -2944 0
2965 -2954 0
2956 -2954 -2945 0
2966 -2956 0
2958 -2956 -2946 0
2967 -2958 0
2960 -2947 -2958 0
-2960 2968 0
-2960 2962 -2948 0
-2962 2969 0
-2962 -2949 2964 0
-2964 2970 0
-2964 -2950 0
2965 -2945 0
2971 -2965 0
2972 -2966 0
2967 -2947 -2966 0
2973 -2967 0
2968 -2948 -2967 0
-2968 2974 0
-2968 2969 -2949 0
-2969 2975 0
-2969 2970 -2950 0
-2970 2976 0
-2970 -2951 0
2971 -2946 0
2972 -2947 -2971 0
2973 -2948 -2972 0
2974 -2973 -2949 0
-2974 2975 -2950 0
-2975 2976 -2951 0
-2976 -2952 0
2977 0
-3017 0
-2978 0
-3018 0
2979 0
3019 0
-2980 0
2981 282 -2977 0
284 2983 -2979 0
-2984 285 2980 0
-2981 -8 2978 0
2982 -8 -2977 0
-9 2983 -2977 0
-14 2983 -2979 0
-20 2983 -2979 0
-21 2983 -2979 0
290 -2981 2985 0
2986 291 -2982 0
2987 292 -2983 0
-2988 2984 293 0
-2985 2981 -29 0
-2989 2985 298 0
2989 -2985 298 0
-2986 2990 299 0
-2987 2991 300 0
2988 -2992 301 0
2989 -2985 -2986 -64 0
-2986 2990 -64 0
-2986 -70 2990 -2987 0
-2987 2991 -70 0
2992 -71 -2986 0
-72 2990 -2986 0
2990 -2986 -73 0
2992 -75 -2987 0
2991 -2987 -76 0
-77 2991 -2987 0
-79 2988 -2992 0
-80 -2992 2988 0
-2993 2989 306 0
2993 -2989 306 0
2994 -2990 307 0
2995 -2991 308 0
2992 -2996 309 0
2996 -2992 309 0
2993 -85 -2989 0
2995 -2991 -93 0
2994 -2990 -98 -2991 0
2995 -2991 -98 0
-99 2996 -2990 0
2994 -100 -2990 0
2994 -101 -2990 0
2992 -2995 -103 0
-2991 2996 -103 0
2996 -103 -2992 0
2995 -104 -2991 0
2995 -2991 -105 0
-107 2992 -2996 0
-107 2996 -2992 0
2992 -2996 -108 0
2996 -108 -2992 0
-2997 2993 314 0
2997 -2993 314 0
-2994 2998 315 0
2995 -2999 316 0
2999 -2995 316 0
-3000 2996 317 0
3000 -2996 317 0
-120 2998 -2994 0
-121 2999 -2995 0
3000 -2996 -122 0
-126 -2994 -2995 2998 0
2999 -126 -2995 0
-2998 2996 -127 0
3000 -127 -2994 0
3000 -2996 -127 0
2998 -2994 -128 0
-129 2998 -2994 0
2995 -2999 -131 0
2996 -131 -2999 0
3000 -131 -2995 0
3000 -2996 -131 0
2995 -2999 -132 0
2999 -2995 -132 0
-133 2995 -2999 0
-133 2999 -2995 0
-135 2996 -3000 0
-135 3000 -2996 0
-136 2996 -3000 0
-136 -2996 3000 0
-3001 2997 322 0
3001 -2997 322 0
-3002 2998 323 0
3002 -2998 323 0
-3003 324 2999 0
3003 324 -2999 0
-3004 3000 325 0
3004 -3000 325 0
3002 -2998 -148 0
-149 3003 -2999 0
-2997 -150 -3000 3001 0
3004 -150 -3000 0
-151 3001 -2997 0
3001 -2997 -152 0
3002 -2998 -154 -2999 0
-155 -3002 3000 0
-155 3002 -3000 -2998 0
-155 -2998 3004 0
-155 3004 -3000 0
-155 -3004 2998 3000 0
3002 -2998 -156 0
3002 -2998 -157 0
-3003 -159 2999 0
-3003 -159 3000 0
3003 -3000 -2999 -159 0
3004 -159 -2999 0
3004 -159 -3000 0
-3003 -160 2999 0
3003 -160 -2999 0
-3003 -161 2999 0
3003 -161 -2999 0
-163 -3004 3000 0
-163 3004 -3000 0
-164 -3004 3000 0
-164 3004 -3000 0
-3005 3001 330 0
-3001 3005 330 0
3002 -3006 331 0
3006 -3002 331 0
-3007 332 3003 0
-3008 3004 333 0
-3001 3005 -169 0
3006 -3002 -176 0
-177 -3007 3003 3001 0
3001 -178 3004 -3008 0
-3002 -3003 -182 3006 0
-3006 -183 3004 0
-3002 -183 -3004 3006 0
3006 -184 -3002 0
3006 -3002 -185 0
-187 -3007 3003 0
-187 -3007 3004 0
-3007 -188 3003 0
-189 -3007 3003 0
-191 -3008 3004 0
-3008 -192 3004 0
-3009 3005 338 0
-3005 3009 338 0
3006 -3010 339 0
-3006 3010 339 0
3007 340 -3011 0
-3012 3008 341 0
-3006 3010 -204 0
3006 -3010 -204 3005 0
3007 -205 -3011 3005 0
3006 3007 -210 -3011 0
3007 -3011 -215 0
3008 -3011 -215 0
3012 -3007 -215 0
-216 3007 -3011 0
-217 3007 -3011 0
-3012 -219 3008 0
-220 -3012 3008 0
-3013 3009 346 0
-3009 3013 346 0
-3014 3010 347 0
-3010 3014 347 0
3011 348 -3015 0
3015 -3011 348 0
3012 349 -3016 0
-3010 -232 3014 0
-3013 3009 -233 0
3009 -233 -3015 3011 0
3011 -238 -3014 0
-238 3011 3010 -3015 0
3010 3012 -239 -3016 0
-240 -3010 3014 0
-3010 -241 3014 0
3011 -243 -3015 0
3012 -243 -3015 0
3011 -3015 -244 0
3011 -245 -3015 0
-247 3012 -3016 0
-248 3012 -3016 0
-3013 354 3017 0
-3014 355 3018 0
3015 356 -3019 0
-3013 -260 3018 0
-3014 -260 3018 0
-261 3015 3013 -3019 0
3015 -266 3014 -3019 0
-268 -3014 3018 0
-3014 -269 3018 0
3015 -271 -3019 0
3016 -271 -3019 0
3015 -272 -3019 0
-273 3015 -3019 0
3096 0
-3067 0
-3070 285 3067 0
-3073 3070 293 0
-3076 3073 301 0
-3079 3076 309 0
-3082 3079 317 0
-3085 3082 325 0
-3088 3085 333 0
-3091 3088 -206 0
3091 -243 -3093 0
3093 356 -3096 0
-3143 -29 0
-38 3143 0
-57 -3144 0
-64 -3144 0
-66 3144 0
-67 3144 0
3144 -68 0
-70 -3144 0
-71 3144 0
3144 -72 0
3144 -73 0
-75 3144 0
-76 3144 0
-77 3144 0
-79 3144 0
-80 3144 0
-82 3144 0
3144 -84 0
-94 3145 0
-3145 -98 0
-103 3145 0
-3147 -154 0
-156 3147 0
-157 3147 0
-163 3147 0
-164 3147 0
-3148 -176 0
-177 -3148 0
3148 -178 0
-3148 -182 0
-183 3148 0
3148 -187 0
-191 3148 0
3148 -192 0
-204 -3149 0
-205 -3149 0
-206 3149 0
-210 -3149 0
-211 3149 0
3149 -215 0
3173 -8 0
3174 -29 0
-76 3175 0
-77 3175 0
-104 3176 0
3176 -105 0
-121 3177 0
3177 -126 0
3177 -128 0
3177 -129 0
-135 -3177 0
-136 -3177 0
3178 -149 0
3178 -154 0
3178 -156 0
3178 -159 0
3179 -182 0
3179 -183 0
-184 3179 0
3179 -187 0
3180 -204 0
-205 3180 0
3180 -210 0
3180 -211 0
-212 3180 0
3180 -213 0
3180 -215 0
-216 3180 0
-217 3180 0
-219 -3180 0
-220 -3180 0
3181 -232 0
3181 -233 0
-238 3181 0
3181 -239 0
-240 3181 0
-243 3181 0
3181 -244 0
-245 3181 0
-247 -3181 0
-248 -3181 0
3182 -253 0
3182 -260 0
3182 -261 0
-262 3182 0
-263 3182 0
3182 -264 0
-266 3182 0
3182 -267 0
-268 3182 0
3182 -269 0
3182 -271 0
3182 -272 0
3182 -273 0
3183 -3173 0
3185 -3174 -3183 0
3187 -3175 -3185 0
-3187 3189 -3176 0
3191 -3189 -3177 0
-3191 3193 -3178 0
-3193 3194 0
-3193 -3179 3195 0
-3195 3196 0
-3195 -3180 0
-3194 3202 0
-3194 -3180 3196 0
-3196 3203 0
-3196 -3181 0
-3202 3203 -3181 0
-3203 -3182 0
3204 0
-3235 0
-3206 0
3207 282 -3204 0
-3209 284 3206 0
3208 -8 -3204 0
3210 290 -3207 0
3211 291 -3208 0
-3212 3209 292 0
3213 -3210 298 0
-3211 3214 299 0
-3211 3214 -64 0
3212 -3214 -70 0
-71 3214 -3211 0
-72 3214 -3211 0
3214 -3211 -73 0
3216 -3213 306 0
-3217 307 3214 0
3217 -3214 307 0
3217 -3214 -92 0
-3217 -99 3214 0
-99 3217 -3214 0
-3217 -100 3214 0
-100 3217 -3214 0
-3217 -101 3214 0
3217 -101 -3214 0
3219 -3216 314 0
-3220 3217 315 0
3220 -3217 315 0
3220 -120 -3216 0
-3218 3220 -126 -3217 0
3221 -3217 -126 0
3220 -3217 -127 0
3220 -3217 -128 0
3220 -3217 -129 0
3218 -3221 -131 0
-3219 3222 322 0
3220 -3223 323 0
-3220 3223 323 0
3224 -3221 324 0
-3219 -148 3223 0
-148 -3220 3223 0
-3219 3222 -150 0
-3221 3223 -154 -3220 0
-3220 3224 -154 0
-155 -3220 3223 0
-156 -3220 3223 0
-157 -3220 3223 0
-3221 3224 -159 0
3224 -3221 -160 0
3224 -3221 -161 0
-3222 3225 330 0
-3226 3223 331 0
-3223 3226 331 0
-3224 3227 332 0
-3222 3225 -169 0
-3222 -176 3226 0
-176 -3223 3226 0
-3224 -3223 -182 3226 0
-3223 3226 -183 0
-184 -3223 3226 0
-3223 3226 -185 0
-3224 3227 -187 0
-3224 3227 -188 0
-189 -3224 3227 0
-3225 3228 338 0
3229 -3226 339 0
3230 -3227 340 0
-3225 3229 -204 0
-3226 3229 -204 0
-3227 3229 -210 -3226 0
3230 -3226 -210 0
3229 -3226 -211 0
-212 3229 -3226 0
3229 -3226 -213 0
3230 -3227 -215 0
-3228 3231 346 0
-3229 3232 347 0
3233 -3230 348 0
-3229 -232 3232 0
-238 -3230 -3229 3232 0
-239 -3229 3232 0
-240 -3229 3232 0
-3229 -241 3232 0
-3232 355 3235 0
-3231 -260 3235 0
-3232 -260 3235 0
-266 -3233 -3232 3235 0
-3232 -267 3235 0
-268 -3232 3235 0
-3232 -269 3235 0
3373 0
-3403 0
3374 0
3404 0
-3375 0
3376 282 -3373 0
3377 283 -3374 0
-3378 284 3375 0
3376 -8 -3373 -3374 0
3377 -8 -3373 0
290 3379 -3376 0
3380 291 -3377 0
-3381 3378 292 0
3379 -3376 -29 0
-43 3380 -3377 0
-45 3380 -3377 0
3382 -3379 298 0
-3380 299 3383 0
3381 300 -3384 0
-57 3382 -3379 0
3382 -3380 -64 -3379 0
3382 -67 -3379 0
-3383 3381 -70 0
-71 -3380 3383 0
-72 -3380 3383 0
-3380 -73 3383 0
-75 3381 -3384 0
-76 3381 -3384 0
-77 3381 -3384 0
3385 -3382 306 0
-3386 307 3383 0
-3383 307 3386 0
-3387 3384 308 0
-85 3385 -3382 0
3385 -3383 -92 -3382 0
-94 3385 -3382 0
-95 3385 -3382 0
-3386 3383 -98 0
3384 -3386 -98 0
-3383 -98 -3384 3386 0
-99 -3386 3383 0
-99 -3383 3386 0
-100 -3386 3383 0
-100 -3383 3386 0
-101 -3386 3383 0
-101 -3383 3386 0
-3387 3384 -103 0
3387 -103 -3384 0
-104 -3387 3384 0
-3387 3384 -105 0
3388 -3385 314 0
-3389 315 3386 0
3389 -3386 315 0
-3390 3387 316 0
3388 -113 -3385 0
3388 -120 -3386 -3385 0
-121 3387 -3388 0
3388 -3385 -122 0
-123 3388 -3385 0
-124 3388 -3385 0
-3389 -126 3386 0
3387 -3389 -126 0
3390 -126 -3386 0
-127 -3389 3386 0
-127 3389 -3386 0
-3389 -128 3386 0
3389 -128 -3386 0
-129 -3389 3386 0
3389 -129 -3386 0
-131 -3390 3387 0
-3390 3387 -132 0
-133 -3390 3387 0
3388 -3391 322 0
-3388 3391 322 0
-3392 3389 323 0
3392 -3389 323 0
3390 -3393 324 0
3391 -141 -3388 0
3391 -3388 -148 -3389 0
-148 3392 -3389 0
3391 -3388 -150 0
-151 -3388 3391 0
3391 -3388 -152 0
-154 -3392 3389 0
3390 -154 -3392 0
3392 -154 -3389 -3390 0
-155 -3392 3389 0
-155 3392 -3389 0
-3392 -156 3389 0
3392 -156 -3389 0
-3392 -157 3389 0
3392 -157 -3389 0
3390 -3393 -159 0
3393 -159 -3390 0
3390 -3393 -160 0
-161 3390 -3393 0
3391 -3394 330 0
-3391 3394 330 0
-3395 3392 331 0
3395 -3392 331 0
3393 -3396 332 0
3396 332 -3393 0
3394 -3391 -169 0
-3394 -176 3392 0
3394 -3391 -3392 -176 0
-176 3395 -3392 0
-177 -3391 -3393 3394 0
3394 -3391 -178 0
-179 -3391 3394 0
-3395 3392 -182 0
3393 -3395 -182 0
-3393 -3392 -182 3395 0
3396 -3392 -182 0
-183 -3395 3392 0
-183 3395 -3392 0
-184 -3395 3392 0
-184 3395 -3392 0
-3395 -185 3392 0
3395 -185 -3392 0
-3396 3393 -187 0
3396 -187 -3393 0
-3396 3393 -188 0
-189 -3396 3393 0
-3397 3394 338 0
-3394 3397 338 0
-3398 3395 339 0
3398 -3395 339 0
-3399 3396 340 0
3399 -3396 340 0
-3394 3397 -197 0
-3397 3394 -197 0
3397 -3395 -204 -3394 0
-3394 -205 -3396 3397 0
-206 3397 -3394 0
-3394 3397 -207 0
3397 -208 -3394 0
-3398 3395 -210 0
-3398 3396 -210 0
3398 -3396 -210 -3395 0
3399 -3395 -210 0
-3398 -211 3395 0
3398 -211 -3395 0
-212 -3398 3395 0
-212 3398 -3395 0
-3398 -213 3395 0
3398 -213 -3395 0
3399 -3396 -215 0
-216 3399 -3396 0
-217 3399 -3396 0
-3400 3397 346 0
-3397 3400 346 0
3398 -3401 347 0
3401 -3398 347 0
3399 348 -3402 0
3402 -3399 348 0
-3397 -3398 -232 3400 0
-3397 3401 -232 0
3398 3397 -232 -3401 0
-3399 -233 -3397 3400 0
-234 -3397 3400 0
-235 -3397 3400 0
-236 -3397 3400 0
-238 3398 -3401 0
-238 3401 -3398 -3399 0
3402 -238 -3398 0
-239 3398 -3401 0
3401 -239 -3398 0
-240 3398 -3401 0
-240 3401 -3398 0
-241 3398 -3401 0
3401 -241 -3398 0
3402 -243 -3399 0
3402 -3399 -244 0
3402 -245 -3399 0
-3400 354 3403 0
3401 355 -3404 0
-3400 -260 -3401 3403 0
-3400 -261 -3402 3403 0
-262 -3400 3403 0
-263 -3400 3403 0
-3400 -264 3403 0
-266 3401 -3404 0
-267 3401 -3404 0
-268 3401 -3404 0
-269 3401 -3404 0
3407 -29 0
3381 -70 3408 0
-3408 -72 -3380 0
-3408 -3380 -73 0
-75 3381 3408 0
-76 3381 3408 0
-77 3381 3408 0
-82 -3408 0
3383 -98 3409 0
3384 3409 -98 0
-99 3383 3409 0
3384 -103 3409 0
-104 3384 3409 0
3384 -105 3409 0
-3410 -123 -3385 0
-124 -3410 -3385 0
-126 3410 3386 0
3387 -126 3410 0
-127 3410 3386 0
-3410 -127 -3386 0
3410 -128 3386 0
-3410 -128 -3386 0
3410 -129 3386 0
-3410 -129 -3386 0
-131 3387 3410 0
-3410 -131 -3387 0
3387 3410 -132 0
-3410 -3387 -132 0
-133 3387 3410 0
-133 -3410 -3387 0
-3410 -135 0
-136 -3410 0
-138 -3410 0
-140 -3410 0
-148 3411 3389 0
-149 3390 3411 0
-149 -3411 -3390 -3388 0
3411 -154 3389 0
3390 3411 -154 0
-155 3411 3389 0
3411 -156 3389 0
3411 -157 3389 0
3411 3390 -159 0
3390 -160 3411 0
3411 -161 3390 0
3412 -176 3392 0
-177 3393 3412 0
3412 3392 -182 0
3393 3412 -182 0
-183 3412 3392 0
-3412 -183 -3392 0
-184 3412 3392 0
-184 -3412 -3392 0
3412 -185 3392 0
-3412 -185 -3392 0
3393 -187 3412 0
3393 -188 3412 0
-189 3393 3412 0
-191 -3412 0
-192 -3412 0
-194 -3412 0
-196 -3412 0
3413 3395 -204 0
-205 3413 3396 0
3413 3395 -210 0
3413 3396 -210 0
3413 -211 3395 0
-3413 -211 -3395 0
-212 3413 3395 0
-212 -3413 -3395 0
3413 -213 3395 0
-3413 -213 -3395 0
3413 3396 -215 0
-216 3413 3396 0
-217 3413 3396 0
3414 3398 -232 0
3414 -233 3399 0
-238 3414 3398 0
-238 3414 3399 0
3414 -239 3398 0
-240 3414 3398 0
3414 -241 3398 0
3415 3401 -260 0
3402 -266 3415 0
3417 -3407 0
3424 -3417 0
3419 -3408 -3417 0
3425 -3419 0
3421 -3419 -3409 0
3426 -3421 0
-3410 -3421 3423 0
-3423 3427 0
-3423 -3411 0
3428 -3424 0
3425 -3409 -3424 0
3429 -3425 0
3426 -3410 -3425 0
3430 -3426 0
-3426 -3411 3427 0
-3427 3431 0
-3427 -3412 0
3432 -3428 0
3429 -3410 -3428 0
3433 -3429 0
3430 -3429 -3411 0
3434 -3430 0
-3412 -3430 3431 0
-3431 3435 0
-3431 -3413 0
3436 -3432 0
3433 -3411 -3432 0
3437 -3433 0
3434 -3412 -3433 0
3438 -3434 0
-3434 3435 -3413 0
-3435 3439 0
-3414 -3435 0
3437 -3412 -3436 0
3438 -3437 -3413 0
-3414 -3438 3439 0
-3439 -3415 0
-3441 -29 0
-37 3441 0
-92 -3443 0
3443 -98 0
-3445 -148 0
3445 -150 0
-3447 -204 0
-205 3447 0
-210 3447 0
3468 -71 0
-3468 -75 0
3469 -92 0
-99 3469 0
-100 3469 0
-101 3469 0
-103 -3469 0
-104 -3469 0
-105 -3469 0
-107 -3469 0
-108 -3469 0
-148 3471 0
3471 -154 0
-155 3471 0
-156 3471 0
3471 -157 0
-159 -3471 0
-160 -3471 0
-161 -3471 0
-163 -3471 0
-164 -3471 0
3472 -182 0
3472 -183 0
-184 3472 0
3472 -185 0
-187 -3472 0
-188 -3472 0
-189 -3472 0
-191 -3472 0
-192 -3472 0
-211 3473 0
-3473 -215 0
-238 3474 0
3474 -239 0
-240 3474 0
3474 -241 0
-243 -3474 0
-3474 -244 0
-245 -3474 0
-252 -3474 0
-267 3475 0
-268 3475 0
-269 3475 0
-3475 -271 0
-272 -3475 0
3500 0
-3520 0
-3501 0
3502 282 -3500 0
283 -3503 3501 0
3503 -8 -3500 0
-3503 -14 3501 0
-3503 -15 3501 0
-3503 -16 3501 0
-3503 -17 3501 0
3504 290 -3502 0
3503 291 -3505 0
3505 291 -3503 0
-3504 -36 3503 0
-42 3503 -3505 0
-43 3503 -3505 0
-44 3503 -3505 0
-45 3503 -3505 0
-3507 3505 299 0
-3505 3507 299 0
-3506 -57 3504 0
-3506 3505 -64 0
3506 -3505 -64 -3504 0
-3504 3507 -64 0
-3507 3505 -70 0
-70 -3505 3507 0
-3507 3505 -71 0
-71 3507 -3505 0
-3507 3505 -72 0
-72 3507 -3505 0
-3507 3505 -73 0
3507 -3505 -73 0
3506 -3508 306 0
-3509 307 3507 0
3509 -3507 307 0
-3506 -85 3508 0
-3508 -85 3506 0
-3508 3507 -92 0
-3509 3507 -98 0
-3509 -99 3507 0
-3509 -100 3507 0
-3509 -101 3507 0
3508 -3510 314 0
-3508 3510 314 0
3509 -3511 315 0
-3510 3508 -113 0
-3510 -120 3509 0
-3508 -3509 -120 3510 0
3509 -3511 -126 0
-3511 3509 -127 0
3511 -3509 -127 0
3509 -3511 -128 0
3509 -3511 -129 0
-3512 3510 322 0
3512 -3510 322 0
-3512 3510 -141 0
-149 -3510 3512 0
-3513 3511 -154 0
-3512 3514 330 0
3513 -176 -3514 0
-3514 338 3516 0
3514 -197 -3516 0
-3514 -3515 -204 3516 0
-205 -3514 3516 0
-206 -3514 3516 0
-207 -3514 3516 0
-208 -3514 3516 0
-3516 3518 346 0
-232 -3516 -3517 3518 0
-233 -3516 3518 0
-234 -3516 3518 0
-235 -3516 3518 0
-236 -3516 3518 0
-3518 354 3520 0
-3518 -253 3520 0
-3518 -3519 -260 3520 0
-261 -3518 3520 0
-262 -3518 3520 0
-263 -3518 3520 0
-264 -3518 3520 0
3522 -14 3501 0
3522 -15 3501 0
3522 -16 3501 0
3522 -17 3501 0
3523 -29 0
3523 -36 3503 0
-42 3523 3503 0
-43 3523 3503 0
-44 3523 3503 0
-45 3523 3503 0
-45 -3503 -3523 0
3524 -57 0
3505 -64 3524 0
3505 -70 3524 0
3505 -71 3524 0
3505 -72 3524 0
3505 -73 3524 0
-85 3525 0
3525 -85 3506 0
3506 3525 -92 0
3525 3507 -92 0
3506 -93 3525 0
-94 3525 3506 0
-95 3525 3506 0
3506 3525 -96 0
3525 3507 -98 0
3525 -99 3507 0
3525 -100 3507 0
3525 -101 3507 0
3526 -113 0
3508 -120 3526 0
3526 -120 3509 0
-121 3526 3508 0
3508 -122 3526 0
3508 -123 3526 0
-124 3526 3508 0
3509 -126 3526 0
3509 -127 3526 0
3509 -128 3526 0
3509 -129 3526 0
3527 -141 0
3510 -148 3527 0
3511 -148 3527 0
-149 3510 3527 0
3527 3510 -150 0
-151 3510 3527 0
3510 3527 -152 0
3511 3527 -154 0
3528 -169 0
3512 3528 -176 0
3513 3528 -176 0
-177 3512 3528 0
3512 3528 -178 0
-179 3528 3512 0
3528 3512 -180 0
-197 3529 0
3514 3529 -204 0
3515 -204 3529 0
3514 -205 3529 0
3514 -206 3529 0
3514 -207 3529 0
3514 -208 3529 0
-232 3530 3516 0
3517 -232 3530 0
-233 3530 3516 0
-234 3530 3516 0
-235 3530 3516 0
-236 3530 3516 0
-3530 -243 0
-260 3518 3531 0
3519 -260 3531 0
-261 3518 3531 0
-262 3518 3531 0
-263 3518 3531 0
-264 3518 3531 0
-3531 -271 0
-272 -3531 0
-273 -3531 0
3532 -3522 0
3534 -3532 -3523 0
-3524 -3534 3536 0
-3536 3537 0
-3525 -3536 0
3533 -3523 0
3538 -3533 0
3535 -3524 -3533 0
-3535 -3525 3537 0
-3537 3540 0
-3537 -3526 0
3538 -3524 0
3541 -3538 0
-3525 3539 -3538 0
-3539 -3526 3540 0
-3540 3543 0
-3540 -3527 0
3541 -3525 0
3544 -3541 0
3542 -3526 -3541 0
-3542 -3527 3543 0
-3543 3546 0
-3543 -3528 0
3544 -3526 0
-3527 3545 -3544 0
-3545 -3528 3546 0
-3546 3549 0
-3546 -3529 0
3547 -3527 0
3548 -3547 -3528 0
-3548 3549 -3529 0
-3549 3552 0
-3530 -3549 0
-3552 -3531 0
3553 0
-3583 0
3554 0
3556 281 -3553 0
3557 282 -3554 0
3559 -3556 289 0
3560 290 -3557 0
3562 -3559 297 0
3563 -3560 298 0
3565 -3562 305 0
3566 -3563 306 0
3568 -3565 313 0
3569 -3566 314 0
3571 -3568 321 0
-149 3572 -3569 0
-3572 -169 -3571 3574 0
-3574 3577 337 0
-3577 3580 345 0
-3580 353 3583 0
3617 -8 0
-9 3617 0
-10 3617 0
-11 3617 0
-12 3617 0
-3617 -14 0
3618 -29 0
3618 -36 0
-37 3618 0
-38 3618 0
-39 3618 0
-40 3618 0
-43 -3618 0
-45 -3618 0
-57 3619 0
-64 3619 0
-65 3619 0
-66 3619 0
-67 3619 0
-68 3619 0
-3619 -70 0
-71 -3619 0
-3619 -72 0
-3619 -73 0
-75 -3619 0
-77 -3619 0
-85 3620 0
3620 -92 0
-93 3620 0
-94 3620 0
-95 3620 0
-96 3620 0
-3620 -98 0
-99 -3620 0
-100 -3620 0
-101 -3620 0
-103 -3620 0
-113 3621 0
-120 3621 0
-121 3621 0
-122 3621 0
-123 3621 0
-124 3621 0
-126 -3621 0
-127 -3621 0
-3621 -128 0
-129 -3621 0
-131 -3621 0
-3621 -132 0
-135 -3621 0
-136 -3621 0
-138 -3621 0
-141 3622 0
-148 3622 0
-149 3622 0
-150 3622 0
-151 3622 0
-152 3622 0
-3622 -154 0
-155 -3622 0
-3622 -156 0
-3622 -157 0
-159 -3622 0
-160 -3622 0
-161 -3622 0
-163 -3622 0
-164 -3622 0
-169 3623 0
-176 3623 0
-177 3623 0
-178 3623 0
-179 3623 0
-180 3623 0
-3623 -182 0
-3623 -183 0
-184 -3623 0
-3623 -185 0
-187 -3623 0
-188 -3623 0
-189 -3623 0
-191 -3623 0
-192 -3623 0
3624 -197 0
3624 -204 0
-205 3624 0
-206 3624 0
-207 3624 0
-208 3624 0
-210 -3624 0
-211 -3624 0
-212 -3624 0
-213 -3624 0
-3624 -215 0
-219 -3624 0
-220 -3624 0
-225 3625 0
3625 -232 0
-233 3625 0
-234 3625 0
-235 3625 0
-236 3625 0
-238 -3625 0
-239 -3625 0
-240 -3625 0
-241 -3625 0
-243 -3625 0
-3625 -244 0
-245 -3625 0
-247 -3625 0
-248 -3625 0
3626 -253 0
3626 -260 0
-261 3626 0
-262 3626 0
-263 3626 0
-264 3626 0
-266 -3626 0
-267 -3626 0
-268 -3626 0
-269 -3626 0
3627 -3617 0
3628 -3627 0
3629 -3627 -3618 0
3630 -3629 0
-3629 -3619 3631 0
-3631 3632 0
-3631 -3620 0
3628 -3618 0
3633 -3628 0
3630 -3628 -3619 0
3634 -3630 0
-3630 -3620 3632 0
-3632 3635 0
-3621 -3632 0
3633 -3619 0
3636 -3633 0
3634 -3633 -3620 0
3637 -3634 0
-3621 -3634 3635 0
-3635 3638 0
-3622 -3635 0
3636 -3620 0
3639 -3636 0
3637 -3621 -3636 0
3640 -3637 0
-3622 -3637 3638 0
-3638 3641 0
-3623 -3638 0
3639 -3621 0
3642 -3639 0
3640 -3622 -3639 0
3643 -3640 0
-3623 -3640 3641 0
-3641 3644 0
-3641 -3624 0
3642 -3622 0
3645 -3642 0
3643 -3623 -3642 0
3646 -3643 0
-3643 3644 -3624 0
-3644 3647 0
-3644 -3625 0
3645 -3623 0
3646 -3645 -3624 0
-3646 3647 -3625 0
-3647 -3626 0
3648 0
-3668 0
-3649 0
3650 281 -3648 0
-3651 -8 3649 0
3652 -3650 289 0
3654 -3652 297 0
3656 -3654 305 0
3658 -3656 313 0
3660 -3658 321 0
-3659 3661 -148 0
3662 -3660 329 0
-3661 -169 -3660 3662 0
3664 -3662 337 0
-3664 3666 345 0
-3666 353 3668 0
-85 3704 0
-3704 -92 0
-3704 -98 0
-3704 -103 0
3705 -113 0
-120 -3705 0
3706 -141 0
-149 -3706 0
-169 3707 0
-3707 -176 0
-3707 -185 0
-197 3708 0
-3708 -204 0
-205 -3708 0
-3708 -215 0
-225 3709 0
-3709 -232 0
-281 3737 0
-3737 3738 0
-289 3738 0
-3738 3739 0
-297 -3738 0
-297 3739 0
-3739 3740 0
-305 -3739 0
-305 3740 0
-3740 3741 0
-313 -3740 0
-313 3741 0
-3741 3742 0
-321 -3741 0
-321 3742 0
-3742 3743 0
-329 -3742 0
-329 3743 0
-3743 3744 0
-3743 -337 0
3744 -337 0
3745 -3744 0
-345 -3744 0
-345 3745 0
-353 -3745 0
3748 -304 0
3749 -3748 0
-312 -3748 0
3750 -3749 0
-320 -3749 0
3751 -3750 0
-328 -3750 0
3752 -3751 0
-3751 -336 0
3753 -3752 0
-344 -3752 0
3754 -3753 0
-352 -3753 0
-360 -3754 0
3755 -8 3649 0
3756 -29 3651 0
-47 -3756 0
-48 -3756 0
-49 -3756 0
-51 -3756 0
-52 -3756 0
-54 -3756 0
3659 -148 3760 0
3661 -169 3761 0
3765 -3755 0
3766 -3765 0
3769 -3766 0
3771 -3769 0
3773 -3771 0
-3760 3774 -3773 0
-3774 -3761 0
-2 0
-3 0
-4 0
-5 0
-6 0
-7 0
-13 0
-18 0
-22 0
-25 0
-27 0
-30 0
-31 0
-32 0
-33 0
-34 0
-35 0
-41 0
-46 0
-50 0
-53 0
-55 0
-58 0
-59 0
-60 0
-61 0
-62 0
-63 0
-69 0
-74 0
-78 0
-81 0
-83 0
-86 0
-87 0
-88 0
-89 0
-90 0
-91 0
-97 0
-102 0
-106 0
-109 0
-111 0
-114 0
-115 0
-116 0
-117 0
-118 0
-119 0
-125 0
-130 0
-134 0
-137 0
-139 0
-142 0
-143 0
-144 0
-145 0
-146 0
-147 0
-153 0
-158 0
-162 0
-165 0
-167 0
-170 0
-171 0
-172 0
-173 0
-174 0
-175 0
-181 0
-186 0
-190 0
-193 0
-195 0
-198 0
-199 0
-200 0
-201 0
-202 0
-203 0
-209 0
-214 0
-218 0
-221 0
-226 0
-227 0
-228 0
-229 0
-230 0
-231 0
-237 0
-242 0
-246 0
-249 0
-251 0
-254 0
-255 0
-256 0
-257 0
-258 0
-259 0
-265 0
-270 0
-274 0
-277 0
-279 0
-3781 8 0
-3781 29 0
-3782 14 0
-3782 36 0
-3782 57 0
-3783 42 0
-3783 64 0
-3783 85 0
-3783 -282 0
-3783 -283 0
-3784 70 0
-3784 92 0
-3784 113 0
-3784 -282 0
-283 -3784 0
-291 -3784 0
-3785 98 0
-3785 120 0
-3785 141 0
-3785 -282 0
-283 -3785 0
-3785 -291 0
-3785 -298 0
-3785 -299 0
-3786 126 0
-3786 148 0
-3786 169 0
-3786 -283 0
-291 -3786 0
-3786 -298 0
-3786 -299 0
-3786 -306 0
-3786 -307 0
-3787 154 0
-3787 176 0
-3787 197 0
-3787 -283 0
-3787 -289 0
-3787 -291 0
-3787 -298 0
-3787 -299 0
-3787 -306 0
-3787 -307 0
-3787 -315 0
-3788 182 0
-3788 204 0
-3788 225 0
-3788 -283 0
-3788 -298 0
-3788 -299 0
-3788 -307 0
-3788 -315 0
-3789 210 0
-3789 253 0
-3789 -298 0
-3789 -306 0
-3790 15 0
-3790 36 0
-3790 57 0
-3791 43 0
-3791 64 0
-3791 85 0
-3791 -282 0
-3791 -283 0
-3792 71 0
-3792 92 0
-3792 113 0
-3792 -282 0
-283 -3792 0
-290 -3792 0
-291 -3792 0
-3793 99 0
-3793 120 0
-3793 141 0
-3793 -282 0
-283 -3793 0
-290 -3793 0
-291 -3793 0
-3793 -298 0
-3793 -299 0
-3794 127 0
-3794 148 0
-3794 169 0
-3794 -282 0
-283 -3794 0
-290 -3794 0
-291 -3794 0
-3794 -298 0
-3794 -299 0
-3794 -306 0
-3794 -307 0
-3795 155 0
-3795 176 0
-3795 197 0
-3795 -282 0
-3795 -283 0
-290 -3795 0
-3795 -291 0
-3795 -298 0
-3795 -299 0
-3795 -306 0
-3795 -307 0
-3795 -314 0
-3795 -315 0
-3796 183 0
-3796 204 0
-3796 225 0
-3796 -282 0
-3796 -283 0
-3796 -298 0
-3796 -299 0
-3796 -306 0
-3796 -307 0
-3796 -314 0
-3796 -315 0
-3796 -322 0
-3796 -323 0
-3797 211 0
-3797 253 0
-3797 -298 0
-3797 -306 0
-3798 16 0
-3798 36 0
-3798 57 0
-3799 44 0
-3799 64 0
-3799 85 0
-3799 -282 0
-3799 -283 0
-3800 72 0
-3800 92 0
-3800 113 0
-3800 -282 0
-3800 -283 0
-290 -3800 0
-3800 -291 0
-3801 100 0
-3801 120 0
-3801 141 0
-3801 -282 0
-283 -3801 0
-290 -3801 0
-291 -3801 0
-3801 -298 0
-3801 -299 0
-3802 128 0
-3802 148 0
-3802 169 0
-3802 -282 0
-283 -3802 0
-290 -3802 0
-291 -3802 0
-3802 -298 0
-3802 -299 0
-3802 -306 0
-3802 -307 0
-3803 156 0
-3803 176 0
-3803 197 0
-3803 -283 0
-3803 -289 0
-3803 -291 0
-3803 -298 0
-3803 -299 0
-3803 -306 0
-3803 -307 0
-3803 -315 0
-3804 184 0
-3804 204 0
-3804 225 0
-3804 -282 0
-3804 -283 0
-3804 -298 0
-3804 -299 0
-3804 -306 0
-3804 -307 0
-3804 -314 0
-3804 -315 0
-3804 -322 0
-3805 212 0
-3805 253 0
-3805 -298 0
-3805 -306 0
-3806 17 0
-3806 36 0
-3806 57 0
-3807 45 0
-3807 64 0
-3807 85 0
-3807 -282 0
-3807 -283 0
-3808 73 0
-3808 92 0
-3808 113 0
-3808 -282 0
-283 -3808 0
-290 -3808 0
-291 -3808 0
-3809 101 0
-3809 120 0
-3809 141 0
-3809 -282 0
-3809 -283 0
-290 -3809 0
-3809 -291 0
-3809 -298 0
-3809 -299 0
-3810 129 0
-3810 148 0
-3810 169 0
-3810 -282 0
-283 -3810 0
-290 -3810 0
-291 -3810 0
-3810 -298 0
-3810 -299 0
-3810 -306 0
-3810 -307 0
-3811 157 0
-3811 176 0
-3811 197 0
-3811 -283 0
-3811 -289 0
-3811 -291 0
-3811 -298 0
-3811 -299 0
-3811 -306 0
-3811 -307 0
-3811 -315 0
-3812 185 0
-3812 204 0
-3812 225 0
-3812 -282 0
-3812 -283 0
-3812 -298 0
-3812 -306 0
-3812 -307 0
-3812 -314 0
-3812 -315 0
-3812 -322 0
-3812 -323 0
-3813 253 0
-3813 -298 0
-3813 -306 0
3785 3794 3805 3787 3811 3810 3784 3813 3808 3782 3800 3798 3804 3793 3806 3812 3781 3802 3809 3799 3788 3791 3796 3792 3801 3807 3790 3783 3786 3795 3789 3797 3803 0
