p cnf 44 285
-1 -5 -33 0
-2 -6 -34 0
-3 -7 -35 0
-4 -8 -36 0
-1 -5 -37 0
-2 -6 -38 0
-3 -7 -39 0
-4 -8 -40 0
-1 -5 -41 0
-2 -6 -42 0
-3 -7 -43 0
-4 -8 -44 0
-1 -9 -33 0
-2 -10 -34 0
-3 -11 -35 0
-4 -12 -36 0
-1 -9 -37 0
-2 -10 -38 0
-3 -11 -39 0
-4 -12 -40 0
-1 -9 -41 0
-2 -10 -42 0
-3 -11 -43 0
-4 -12 -44 0
-1 -13 -33 0
-2 -14 -34 0
-3 -15 -35 0
-4 -16 -36 0
-1 -13 -37 0
-2 -14 -38 0
-3 -15 -39 0
-4 -16 -40 0
-1 -13 -41 0
-2 -14 -42 0
-3 -15 -43 0
-4 -16 -44 0
-5 -17 -33 0
-6 -18 -34 0
-7 -19 -35 0
-8 -20 -36 0
-5 -17 -37 0
-6 -18 -38 0
-7 -19 -39 0
-8 -20 -40 0
-5 -17 -41 0
-6 -18 -42 0
-7 -19 -43 0
-8 -20 -44 0
-5 -25 -33 0
-6 -26 -34 0
-7 -27 -35 0
-8 -28 -36 0
-5 -25 -37 0
-6 -26 -38 0
-7 -27 -39 0
-8 -28 -40 0
-5 -25 -41 0
-6 -26 -42 0
-7 -27 -43 0
-8 -28 -44 0
-9 -21 -33 0
-10 -22 -34 0
-11 -23 -35 0
-12 -24 -36 0
-9 -21 -37 0
-10 -22 -38 0
-11 -23 -39 0
-12 -24 -40 0
-9 -21 -41 0
-10 -22 -42 0
-11 -23 -43 0
-12 -24 -44 0
-9 -29 -33 0
-10 -30 -34 0
-11 -31 -35 0
-12 -32 -36 0
-9 -29 -37 0
-10 -30 -38 0
-11 -31 -39 0
-12 -32 -40 0
-9 -29 -41 0
-10 -30 -42 0
-11 -31 -43 0
-12 -32 -44 0
-13 -25 -33 0
-14 -26 -34 0
-15 -27 -35 0
-16 -28 -36 0
-13 -25 -37 0
-14 -26 -38 0
-15 -27 -39 0
-16 -28 -40 0
-13 -25 -41 0
-14 -26 -42 0
-15 -27 -43 0
-16 -28 -44 0
-13 -29 -33 0
-14 -30 -34 0
-15 -31 -35 0
-16 -32 -36 0
-13 -29 -37 0
-14 -30 -38 0
-15 -31 -39 0
-16 -32 -40 0
-13 -29 -41 0
-14 -30 -42 0
-15 -31 -43 0
-16 -32 -44 0
-17 -21 -33 0
-18 -22 -34 0
-19 -23 -35 0
-20 -24 -36 0
-17 -21 -37 0
-18 -22 -38 0
-19 -23 -39 0
-20 -24 -40 0
-17 -21 -41 0
-18 -22 -42 0
-19 -23 -43 0
-20 -24 -44 0
-17 -29 -33 0
-18 -30 -34 0
-19 -31 -35 0
-20 -32 -36 0
-17 -29 -37 0
-18 -30 -38 0
-19 -31 -39 0
-20 -32 -40 0
-17 -29 -41 0
-18 -30 -42 0
-19 -31 -43 0
-20 -32 -44 0
-21 -25 -33 0
-22 -26 -34 0
-23 -27 -35 0
-24 -28 -36 0
-21 -25 -37 0
-22 -26 -38 0
-23 -27 -39 0
-24 -28 -40 0
-21 -25 -41 0
-22 -26 -42 0
-23 -27 -43 0
-24 -28 -44 0
1 2 17 18 25 26 0
1 3 17 19 25 27 0
1 4 17 20 25 28 0
2 3 18 19 26 27 0
2 4 18 20 26 28 0
3 4 19 20 27 28 0
1 2 3 17 18 19 0
1 2 4 17 18 20 0
1 3 4 17 19 20 0
2 3 4 18 19 20 0
1 2 21 22 29 30 0
1 3 21 23 29 31 0
1 4 21 24 29 32 0
2 3 22 23 30 31 0
2 4 22 24 30 32 0
3 4 23 24 31 32 0
1 2 3 21 22 23 0
1 2 4 21 22 24 0
1 3 4 21 23 24 0
2 3 4 22 23 24 0
1 2 25 26 29 30 0
1 3 25 27 29 31 0
1 4 25 28 29 32 0
2 3 26 27 30 31 0
2 4 26 28 30 32 0
3 4 27 28 31 32 0
1 2 3 25 26 27 0
1 2 4 25 26 28 0
1 3 4 25 27 28 0
2 3 4 26 27 28 0
1 2 3 29 30 31 0
1 2 4 29 30 32 0
1 3 4 29 31 32 0
2 3 4 30 31 32 0
1 2 3 4 0
5 6 9 10 13 14 0
5 7 9 11 13 15 0
5 8 9 12 13 16 0
6 7 10 11 14 15 0
6 8 10 12 14 16 0
7 8 11 12 15 16 0
5 6 7 9 10 11 0
5 6 8 9 10 12 0
5 7 8 9 11 12 0
6 7 8 10 11 12 0
5 6 13 14 21 22 0
5 7 13 15 21 23 0
5 8 13 16 21 24 0
6 7 14 15 22 23 0
6 8 14 16 22 24 0
7 8 15 16 23 24 0
5 6 7 13 14 15 0
5 6 8 13 14 16 0
5 7 8 13 15 16 0
6 7 8 14 15 16 0
5 6 21 22 29 30 0
5 7 21 23 29 31 0
5 8 21 24 29 32 0
6 7 22 23 30 31 0
6 8 22 24 30 32 0
7 8 23 24 31 32 0
5 6 7 21 22 23 0
5 6 8 21 22 24 0
5 7 8 21 23 24 0
6 7 8 22 23 24 0
5 6 7 29 30 31 0
5 6 8 29 30 32 0
5 7 8 29 31 32 0
6 7 8 30 31 32 0
5 6 7 8 0
9 10 13 14 17 18 0
9 11 13 15 17 19 0
9 12 13 16 17 20 0
10 11 14 15 18 19 0
10 12 14 16 18 20 0
11 12 15 16 19 20 0
9 10 11 13 14 15 0
9 10 12 13 14 16 0
9 11 12 13 15 16 0
10 11 12 14 15 16 0
9 10 17 18 25 26 0
9 11 17 19 25 27 0
9 12 17 20 25 28 0
10 11 18 19 26 27 0
10 12 18 20 26 28 0
11 12 19 20 27 28 0
9 10 11 17 18 19 0
9 10 12 17 18 20 0
9 11 12 17 19 20 0
10 11 12 18 19 20 0
9 10 11 25 26 27 0
9 10 12 25 26 28 0
9 11 12 25 27 28 0
10 11 12 26 27 28 0
9 10 11 12 0
13 14 15 17 18 19 0
13 14 16 17 18 20 0
13 15 16 17 19 20 0
14 15 16 18 19 20 0
13 14 15 21 22 23 0
13 14 16 21 22 24 0
13 15 16 21 23 24 0
14 15 16 22 23 24 0
13 14 15 16 0
17 18 19 25 26 27 0
17 18 20 25 26 28 0
17 19 20 25 27 28 0
18 19 20 26 27 28 0
17 18 19 20 0
21 22 23 29 30 31 0
21 22 24 29 30 32 0
21 23 24 29 31 32 0
22 23 24 30 31 32 0
21 22 23 24 0
25 26 27 29 30 31 0
25 26 28 29 30 32 0
25 27 28 29 31 32 0
26 27 28 30 31 32 0
25 26 27 28 0
29 30 31 32 0
33 34 37 38 41 42 0
33 35 37 39 41 43 0
33 36 37 40 41 44 0
34 35 38 39 42 43 0
34 36 38 40 42 44 0
35 36 39 40 43 44 0
33 34 35 37 38 39 0
33 34 36 37 38 40 0
33 35 36 37 39 40 0
34 35 36 38 39 40 0
33 34 35 41 42 43 0
33 34 36 41 42 44 0
33 35 36 41 43 44 0
34 35 36 42 43 44 0
33 34 35 36 0
37 38 39 41 42 43 0
37 38 40 41 42 44 0
37 39 40 41 43 44 0
38 39 40 42 43 44 0
37 38 39 40 0
41 42 43 44 0
