0 1
0 2
0 3
0 4
0 5
0 6
0 7
0 8
1 6
1 8
1 9
1 10
1 11
1 12
1 13
1 14
1 15
1 16
1 17
1 18
1 19
1 20
1 21
1 22
1 23
1 24
1 25
1 26
1 27
1 28
1 29
1 30
1 31
1 32
1 33
1 34
1 35
1 36
1 37
1 38
1 39
1 40
2 3
2 15
2 41
2 42
2 43
2 44
2 45
2 46
3 11
3 47
3 48
3 49
3 50
3 51
4 5
4 6
4 52
4 53
4 54
4 55
4 56
5 8
5 52
5 57
5 58
5 59
5 60
6 35
6 56
6 61
6 62
6 63
7 20
7 41
7 64
7 65
7 66
7 67
7 68
8 38
8 60
8 69
8 70
8 71
9 10
9 11
9 41
9 57
9 58
9 62
9 76
9 105
9 108
9 118
9 129
9 160
9 161
9 164
9 177
9 193
9 196
9 202
9 208
9 209
9 210
9 211
9 212
9 213
9 214
9 215
9 216
9 217
9 218
9 219
9 220
9 221
9 222
9 223
10 17
10 41
10 53
10 55
10 75
10 111
10 113
10 158
10 171
10 173
10 198
10 204
10 206
10 260
10 261
10 262
10 263
10 264
10 265
10 266
10 267
10 268
10 269
10 270
10 271
10 272
10 273
10 274
10 275
10 276
10 277
10 278
10 279
11 23
11 42
11 50
11 51
11 78
11 79
11 114
11 116
11 124
11 126
11 128
11 129
11 130
11 131
11 132
11 133
11 134
11 135
11 136
11 137
11 138
11 139
11 140
11 141
11 142
11 143
11 144
11 145
11 146
11 147
11 148
11 149
12 22
12 25
12 124
12 125
12 154
12 155
12 156
13 19
13 27
13 167
13 176
13 197
13 198
13 199
14 18
14 28
14 77
14 109
14 242
14 253
14 260
15 21
15 24
15 104
15 163
15 166
15 242
15 244
16 20
16 26
16 69
16 125
16 179
16 180
16 197
16 225
17 23
17 75
17 88
17 162
17 200
17 287
17 289
17 291
17 296
17 297
17 299
17 300
17 318
17 324
17 325
17 326
17 327
17 340
17 341
17 342
17 343
17 360
17 361
17 362
17 363
17 364
17 365
17 366
17 367
17 368
17 369
17 370
17 371
18 39
18 43
18 77
18 110
18 225
18 318
19 40
19 151
19 166
19 176
19 178
19 200
20 31
20 65
20 86
20 151
20 179
20 181
21 32
21 43
21 61
21 87
21 104
21 156
21 182
22 36
22 86
22 102
22 154
22 187
22 196
23 45
23 46
23 66
23 68
23 70
23 73
23 88
23 132
23 152
23 153
23 168
23 170
23 172
23 175
23 298
23 301
23 314
23 315
23 317
23 319
23 320
23 321
23 330
23 331
23 332
23 333
23 334
23 335
23 336
23 337
23 338
23 339
24 34
24 71
24 163
24 186
24 199
24 303
24 344
25 37
25 155
25 165
25 244
25 252
25 314
26 33
26 180
26 183
26 252
26 253
26 295
26 345
27 30
27 167
27 189
27 202
27 295
27 349
28 29
28 109
28 190
28 222
28 303
28 350
29 39
29 123
29 144
29 190
29 191
29 306
30 40
30 145
30 189
30 192
30 207
30 308
31 33
31 63
31 96
31 181
31 185
31 290
31 306
32 34
32 95
32 102
32 182
32 184
32 288
32 308
33 183
33 185
33 207
33 312
33 348
33 350
34 123
34 184
34 186
34 311
34 349
34 351
35 38
35 56
35 188
35 274
35 288
35 312
36 37
36 174
36 187
36 275
36 290
36 311
37 165
37 174
37 344
37 348
37 363
38 60
38 188
38 345
38 351
38 361
39 65
39 95
39 110
39 191
39 332
40 87
40 96
40 178
40 192
40 334
41 43
41 44
41 49
41 52
41 64
41 67
41 75
41 125
41 127
41 129
41 150
41 151
41 156
41 166
41 169
41 224
41 225
41 226
41 227
41 228
41 229
41 230
41 231
41 232
41 233
41 234
41 235
41 236
41 237
41 238
41 239
42 83
42 86
42 111
42 134
42 137
42 171
42 224
43 45
43 228
43 291
43 318
43 319
44 46
44 79
44 115
44 134
44 226
44 286
44 321
45 46
45 173
45 212
45 221
45 269
45 319
46 210
46 219
46 247
46 252
46 321
47 48
47 50
47 75
47 93
47 243
47 257
47 261
48 51
48 63
48 75
48 105
48 209
48 287
49 109
49 135
49 225
49 238
49 301
49 331
50 60
50 93
50 108
50 146
50 180
51 63
51 147
51 264
51 273
51 315
52 56
52 60
52 75
52 77
52 88
52 104
52 109
52 110
52 129
52 132
52 154
52 155
52 163
52 165
52 167
52 174
52 176
52 178
52 179
52 180
52 181
52 182
52 183
52 184
52 185
52 186
52 187
52 188
52 189
52 190
52 191
52 192
53 54
53 104
53 243
53 262
53 276
53 286
53 323
54 69
54 129
54 159
54 162
54 260
54 326
55 158
55 181
55 274
55 328
55 341
55 354
56 67
56 188
56 325
56 370
57 62
57 117
57 121
57 179
57 217
57 265
58 59
58 76
58 107
58 163
58 210
58 292
58 293
59 132
59 158
59 171
59 222
59 328
59 345
60 139
60 188
60 309
61 62
61 75
61 84
61 95
61 131
61 136
61 161
62 74
62 117
62 118
62 119
63 72
63 75
63 147
63 306
64 66
64 70
64 79
64 131
64 233
64 264
65 74
65 75
65 78
65 99
65 114
66 68
66 70
66 211
66 219
66 296
67 68
67 236
67 318
67 325
67 338
68 269
68 270
68 304
68 338
69 129
69 162
69 225
69 247
69 342
70 71
70 233
70 259
70 335
71 129
71 152
71 242
71 251
71 300
71 366
72 73
72 75
72 93
72 146
72 147
72 188
72 332
73 98
73 184
73 188
73 226
73 228
73 319
73 321
74 75
74 76
74 77
74 78
74 79
74 80
75 80
75 81
75 82
75 83
75 84
75 85
75 86
75 87
75 88
75 89
75 90
75 91
75 92
75 93
75 94
75 95
75 96
75 97
75 98
75 99
75 100
75 101
75 102
75 103
76 77
76 83
76 104
76 105
76 106
76 107
77 108
77 109
77 110
78 79
78 111
78 112
78 113
78 114
79 80
79 115
79 116
80 103
80 116
80 120
80 121
80 122
81 87
81 90
81 130
81 133
81 176
81 177
81 196
82 85
82 92
82 124
82 126
82 157
82 158
82 159
83 86
83 89
83 134
83 160
83 243
83 245
84 91
84 120
84 131
84 135
84 157
84 177
84 209
85 102
85 124
85 128
85 160
85 161
85 162
86 96
86 105
86 137
86 196
87 100
87 130
87 142
87 156
88 106
88 107
88 117
88 119
88 121
88 123
88 132
88 194
88 195
88 201
88 203
88 205
88 207
88 280
88 281
88 282
88 283
88 285
88 288
88 290
88 292
88 304
88 305
88 306
88 307
88 308
88 309
88 310
88 311
88 312
88 313
89 98
89 122
89 134
89 140
89 159
89 329
89 346
90 101
90 133
90 149
90 245
90 256
90 281
91 97
91 135
91 139
91 256
91 257
91 323
91 347
92 94
92 126
92 143
92 169
92 323
92 354
93 146
93 238
93 329
93 355
94 102
94 143
94 148
94 174
94 175
94 334
95 97
95 136
95 141
95 320
95 332
96 98
96 137
96 138
96 319
96 334
97 139
97 141
97 175
97 338
97 355
97 357
98 138
98 140
98 337
98 354
98 356
99 103
99 114
99 144
99 278
99 319
99 338
100 101
100 142
100 145
100 279
100 320
100 337
101 145
101 149
101 346
101 357
101 362
102 128
102 148
102 308
103 116
103 144
103 347
103 356
103 360
104 163
104 182
104 204
104 208
105 106
105 212
105 287
105 288
105 289
106 107
106 206
106 228
106 237
106 268
106 288
107 226
107 235
107 246
107 256
107 292
108 180
108 209
108 222
108 282
108 305
109 116
109 135
109 190
110 191
110 265
110 276
110 283
111 112
111 242
111 263
111 273
111 293
111 295
112 120
112 129
112 199
112 200
112 261
112 299
113 136
113 198
113 278
113 302
113 340
113 349
114 118
114 144
114 297
114 368
115 132
115 198
115 204
115 238
115 302
115 347
116 144
116 183
116 335
117 119
117 121
117 227
117 235
117 324
118 119
118 220
118 287
118 297
118 312
119 268
119 271
119 312
119 330
120 129
120 200
120 209
120 246
120 343
121 122
121 217
121 255
121 309
122 129
122 194
122 243
122 250
122 327
122 365
123 138
123 144
123 210
123 212
123 288
123 292
124 125
124 126
124 127
124 128
125 131
125 150
125 151
125 152
125 153
126 143
126 163
126 164
126 165
127 134
127 166
127 167
127 168
127 169
127 170
128 148
128 171
128 172
128 173
129 132
129 157
129 159
129 197
129 199
129 240
129 241
129 242
129 243
129 244
129 245
129 246
129 247
129 248
129 249
129 250
129 251
129 252
129 253
129 254
129 255
129 256
129 257
129 258
129 259
130 133
130 142
130 240
130 262
130 272
131 135
131 136
131 262
131 264
132 284
132 286
132 293
132 294
132 295
132 302
132 303
132 316
132 322
132 323
132 328
132 329
132 344
132 345
132 346
132 347
132 348
132 349
132 350
132 351
132 352
132 353
132 354
132 355
132 356
132 357
132 358
132 359
133 149
133 150
133 224
133 316
134 140
134 167
134 180
135 139
135 150
135 163
136 141
136 173
136 300
136 340
137 138
137 272
137 273
137 297
137 342
138 140
138 313
138 364
138 369
139 141
139 186
139 285
139 309
140 165
140 183
140 292
140 307
141 207
141 310
141 366
141 368
142 145
142 223
142 300
142 369
143 148
143 254
143 285
143 313
144 309
145 149
145 207
145 307
146 147
146 255
146 292
146 310
147 340
147 352
147 364
148 342
148 353
148 366
149 167
149 186
149 333
150 152
150 229
150 293
150 316
150 317
151 153
151 200
151 227
151 289
151 320
152 153
152 213
152 220
152 249
152 317
153 211
153 218
153 267
153 273
153 320
154 155
154 187
154 241
154 263
154 277
155 165
155 193
155 208
155 284
156 224
156 239
156 298
156 330
157 158
157 242
157 256
157 263
157 289
157 325
158 171
158 240
158 328
159 254
159 326
159 346
159 370
160 164
160 201
160 205
160 216
160 245
161 162
161 177
161 195
161 211
161 290
161 291
162 223
162 326
162 342
163 164
163 186
164 176
164 201
164 202
164 203
165 174
165 307
166 168
166 172
166 232
166 244
167 176
167 189
168 170
168 172
168 210
168 218
168 294
169 170
169 237
169 316
169 323
169 339
170 249
170 250
170 305
170 339
171 224
171 267
171 345
172 173
172 232
172 279
172 334
173 262
173 271
173 303
173 351
174 175
174 187
174 333
175 185
175 227
175 229
175 317
175 320
176 177
176 178
177 179
177 193
177 194
177 195
178 192
178 204
178 205
178 206
179 180
179 181
179 263
179 265
180 183
180 193
181 185
181 206
181 327
181 341
182 184
182 276
182 277
182 325
182 343
183 185
183 317
183 335
184 186
184 339
184 367
184 371
185 336
185 365
185 370
186 321
186 333
187 239
187 327
187 371
188 335
189 192
189 258
189 317
189 339
190 191
190 259
190 321
190 336
191 341
191 359
191 367
192 343
192 358
192 365
193 194
193 213
193 284
193 285
193 286
194 195
194 229
194 236
194 248
194 285
195 227
195 234
195 266
195 276
195 290
196 208
196 223
196 280
196 304
197 198
197 243
197 252
197 262
197 291
197 297
198 204
198 241
198 302
199 258
199 299
199 344
199 368
200 239
200 299
200 343
201 203
201 205
201 226
201 234
201 322
202 203
202 221
202 284
202 295
202 313
203 248
203 251
203 313
203 331
204 208
204 266
204 347
205 206
205 216
205 275
205 308
206 263
206 270
206 329
206 356
207 211
207 213
207 285
207 290
208 215
208 280
208 281
209 214
209 282
209 283
210 212
210 292
210 294
210 295
211 213
211 290
211 296
211 297
212 288
212 298
212 299
212 300
213 285
213 301
213 302
213 303
214 218
214 232
214 283
214 291
214 299
214 306
215 219
215 233
215 281
215 293
215 302
215 307
216 221
216 230
216 289
216 296
216 308
217 220
217 231
217 286
217 294
217 309
218 222
218 267
218 306
218 310
219 223
219 247
219 307
219 311
220 249
220 298
220 309
220 312
221 269
221 301
221 308
221 313
222 303
222 305
222 310
223 300
223 304
223 311
224 231
224 298
224 314
225 230
225 301
225 315
226 228
226 321
226 322
226 323
227 229
227 320
227 324
227 325
228 280
228 319
228 326
228 327
229 282
229 317
229 328
229 329
230 234
230 289
230 315
230 326
230 332
231 235
231 286
231 314
231 328
231 333
232 237
232 291
232 324
232 334
233 236
233 293
233 322
233 335
234 238
234 266
234 332
234 336
235 239
235 246
235 333
235 337
236 248
236 280
236 335
236 338
237 268
237 282
237 334
237 339
238 329
238 331
238 336
239 327
239 330
239 337
240 245
240 253
240 262
240 296
240 318
241 244
241 257
241 263
241 287
241 324
242 260
242 289
242 300
243 261
243 291
243 327
244 249
244 287
244 340
245 248
245 318
245 341
246 258
246 305
246 343
246 360
247 254
247 331
247 342
247 361
248 259
248 341
248 362
249 255
249 340
249 363
250 252
250 285
250 305
250 321
250 364
250 365
251 256
251 292
251 317
251 331
251 366
251 367
252 297
252 314
252 364
253 259
253 296
253 345
253 369
254 281
254 285
254 361
254 370
255 257
255 292
255 363
255 371
256 281
256 325
256 367
257 324
257 347
257 371
258 314
258 317
258 360
258 368
259 321
259 362
259 369
260 265
260 272
260 294
260 316
261 264
261 277
261 284
261 322
262 286
262 303
263 293
263 329
264 269
264 284
264 344
265 268
265 316
265 346
266 278
266 304
266 347
266 358
267 274
267 330
267 345
267 353
268 279
268 346
268 359
269 275
269 344
269 352
270 273
270 288
270 304
270 320
270 348
270 356
271 276
271 290
271 319
271 330
271 351
271 357
272 279
272 294
272 342
272 350
273 295
273 315
273 348
274 283
274 288
274 353
274 354
275 277
275 290
275 352
275 355
276 283
276 323
276 357
277 322
277 343
277 355
278 315
278 319
278 349
278 358
279 320
279 350
279 359
280 281
280 304
280 326
281 307
282 283
282 305
282 328
283 306
284 322
284 344
286 303
286 323
287 324
287 340
289 300
289 325
291 297
291 327
293 295
293 329
294 316
294 350
295 348
296 318
296 369
297 364
298 299
298 314
298 330
299 368
300 366
301 302
301 315
301 331
302 349
303 351
304 311
305 310
306 310
307 311
308 313
309 312
310 368
311 349
312 350
313 369
314 333
315 332
316 346
318 341
322 355
323 357
324 371
325 367
326 370
327 365
328 354
329 356
330 337
331 336
332 336
333 337
334 339
335 338
336 370
337 354
338 355
339 371
340 363
341 362
342 361
343 360
344 352
345 353
346 359
347 358
348 356
348 363
348 366
349 358
350 359
351 357
351 361
351 364
352 355
352 360
352 364
353 354
353 362
353 366
356 360
356 367
357 362
357 365
358 363
358 365
359 361
359 367
360 368
361 370
362 369
363 371
364 365
366 367
