43
0 1
0 2
0 3
0 6
0 7
0 9
0 10
0 13
0 14
0 15
0 16
0 19
0 20
0 21
0 24
0 29
0 30
0 32
0 33
0 39
1 2
1 4
1 7
1 8
1 10
1 11
1 12
1 14
1 16
1 17
1 18
1 20
1 22
1 25
1 27
1 30
1 31
1 33
1 39
2 5
2 6
2 8
2 9
2 11
2 12
2 13
2 15
2 17
2 18
2 19
2 23
2 26
2 28
2 31
2 32
2 33
2 39
3 4
3 5
3 7
3 8
3 9
3 10
3 12
3 15
3 16
3 19
3 20
3 22
3 23
3 25
3 28
3 30
3 32
3 35
3 37
3 40
4 5
4 6
4 8
4 10
4 11
4 13
4 16
4 17
4 18
4 20
4 21
4 23
4 26
4 29
4 30
4 31
4 35
4 37
4 40
5 6
5 7
5 9
5 11
5 14
5 15
5 17
5 18
5 19
5 21
5 22
5 24
5 27
5 31
5 32
5 35
5 37
5 40
6 7
6 8
6 11
6 12
6 13
6 16
6 18
6 19
6 21
6 22
6 26
6 28
6 29
6 32
6 38
6 40
6 41
7 8
7 9
7 13
7 14
7 17
7 19
7 20
7 22
7 23
7 24
7 27
7 29
7 30
7 38
7 40
7 41
8 10
8 12
8 14
8 15
8 18
8 20
8 21
8 23
8 25
8 27
8 28
8 31
8 38
8 40
8 41
9 10
9 11
9 13
9 14
9 15
9 16
9 18
9 22
9 23
9 25
9 26
9 27
9 28
9 31
9 32
9 36
10 11
10 12
10 14
10 16
10 17
10 19
10 21
10 23
10 24
10 26
10 28
10 29
10 30
10 32
10 36
11 12
11 13
11 15
11 17
11 20
11 21
11 22
11 24
11 25
11 27
11 29
11 30
11 31
11 36
12 15
12 16
12 19
12 21
12 22
12 23
12 26
12 27
12 32
12 33
12 34
12 36
12 39
12 40
12 41
13 16
13 17
13 20
13 21
13 22
13 23
13 24
13 28
13 30
13 33
13 34
13 36
13 39
13 40
13 41
14 15
14 17
14 18
14 21
14 22
14 23
14 25
14 29
14 31
14 33
14 34
14 36
14 39
14 40
14 41
15 18
15 19
15 20
15 21
15 24
15 28
15 30
15 33
15 36
15 37
15 38
15 39
15 42
16 18
16 19
16 20
16 22
16 25
16 29
16 31
16 33
16 36
16 37
16 38
16 39
16 42
17 18
17 19
17 20
17 23
17 26
17 27
17 32
17 33
17 36
17 37
17 38
17 39
17 42
18 22
18 24
18 26
18 27
18 30
18 33
18 37
18 38
18 39
18 40
18 41
19 23
19 24
19 25
19 28
19 31
19 33
19 37
19 38
19 39
19 40
19 41
20 21
20 25
20 26
20 29
20 32
20 33
20 37
20 38
20 39
20 40
20 41
21 24
21 27
21 32
21 34
21 35
21 37
21 38
21 41
22 25
22 28
22 30
22 34
22 35
22 37
22 38
22 41
23 26
23 29
23 31
23 34
23 35
23 37
23 38
23 41
24 27
24 29
24 30
24 33
24 34
24 35
24 36
24 38
24 41
24 42
25 27
25 28
25 31
25 33
25 34
25 35
25 36
25 38
25 41
25 42
26 28
26 29
26 32
26 33
26 34
26 35
26 36
26 38
26 41
26 42
27 30
27 31
27 32
27 33
27 35
27 36
27 38
27 40
27 42
28 30
28 31
28 32
28 33
28 35
28 36
28 38
28 40
28 42
29 30
29 31
29 32
29 33
29 35
29 36
29 38
29 40
29 42
30 34
30 35
30 39
30 40
30 42
31 34
31 35
31 39
31 40
31 42
32 34
32 35
32 39
32 40
32 42
33 35
33 36
33 37
33 41
34 35
34 36
34 37
34 38
34 39
34 41
34 42
35 41
35 42
36 37
36 40
36 41
36 42
37 38
37 39
37 40
37 41
37 42
38 42
39 40
39 41
39 42
40 42
