43
0 1
0 2
0 6
0 7
0 9
0 10
0 13
0 14
0 15
0 17
0 18
0 23
0 24
0 25
0 28
0 32
0 34
0 35
0 36
0 41
1 2
1 7
1 8
1 10
1 11
1 12
1 14
1 15
1 16
1 19
1 21
1 25
1 26
1 29
1 30
1 34
1 35
1 36
1 41
2 6
2 8
2 9
2 11
2 12
2 13
2 16
2 17
2 20
2 22
2 24
2 26
2 27
2 31
2 34
2 35
2 36
2 41
3 4
3 5
3 7
3 8
3 9
3 11
3 12
3 16
3 17
3 18
3 20
3 22
3 24
3 28
3 29
3 31
3 32
3 35
3 38
3 41
4 5
4 6
4 8
4 9
4 10
4 13
4 15
4 17
4 18
4 19
4 23
4 25
4 27
4 29
4 30
4 32
4 35
4 38
4 41
5 6
5 7
5 10
5 11
5 14
5 15
5 16
5 19
5 20
5 21
5 26
5 27
5 28
5 30
5 31
5 35
5 38
5 41
6 7
6 8
6 9
6 10
6 14
6 15
6 18
6 23
6 26
6 27
6 31
6 35
6 37
6 38
6 42
7 8
7 10
7 11
7 12
7 16
7 19
7 21
7 24
7 28
7 32
7 35
7 37
7 38
7 42
8 9
8 11
8 13
8 17
8 20
8 22
8 25
8 29
8 30
8 35
8 37
8 38
8 42
9 10
9 11
9 13
9 15
9 16
9 18
9 21
9 22
9 25
9 27
9 31
9 32
9 37
9 39
10 11
10 14
10 16
10 17
10 19
10 22
10 23
10 26
10 28
10 30
10 32
10 37
10 39
11 12
11 15
11 17
11 20
11 21
11 23
11 24
11 29
11 30
11 31
11 37
11 39
12 15
12 18
12 19
12 22
12 24
12 27
12 29
12 30
12 31
12 32
12 35
12 36
12 37
12 39
12 41
12 42
13 16
13 19
13 20
13 23
13 25
13 27
13 28
13 30
13 31
13 32
13 35
13 36
13 37
13 39
13 41
13 42
14 17
14 18
14 20
14 21
14 26
14 28
14 29
14 30
14 31
14 32
14 35
14 36
14 37
14 39
14 41
14 42
15 19
15 21
15 22
15 23
15 24
15 25
15 26
15 28
15 29
15 31
15 32
15 33
15 40
15 41
15 42
16 20
16 21
16 22
16 23
16 24
16 25
16 26
16 27
16 29
16 30
16 32
16 33
16 40
16 41
16 42
17 18
17 21
17 22
17 23
17 24
17 25
17 26
17 27
17 28
17 30
17 31
17 33
17 40
17 41
17 42
18 21
18 24
18 25
18 27
18 29
18 30
18 31
18 32
18 34
18 36
18 38
18 39
18 42
19 22
19 25
19 26
19 27
19 28
19 30
19 31
19 32
19 34
19 36
19 38
19 39
19 42
20 23
20 24
20 26
20 28
20 29
20 30
20 31
20 32
20 34
20 36
20 38
20 39
20 42
21 24
21 25
21 26
21 27
21 28
21 30
21 33
21 34
21 36
21 37
21 38
21 40
22 24
22 25
22 26
22 28
22 29
22 31
22 33
22 34
22 36
22 37
22 38
22 40
23 24
23 25
23 26
23 27
23 29
23 32
23 33
23 34
23 36
23 37
23 38
23 40
24 28
24 30
24 33
24 36
24 38
24 41
24 42
25 29
25 31
25 33
25 36
25 38
25 41
25 42
26 27
26 32
26 33
26 36
26 38
26 41
26 42
27 31
27 34
27 35
27 36
27 40
27 42
28 32
28 34
28 35
28 36
28 40
28 42
29 30
29 34
29 35
29 36
29 40
29 42
30 34
30 37
30 39
30 40
30 41
31 34
31 37
31 39
31 40
31 41
32 34
32 37
32 39
32 40
32 41
33 34
33 35
33 36
33 37
33 38
33 39
33 40
33 41
33 42
34 35
34 36
34 38
34 39
34 40
35 37
35 38
35 40
35 41
35 42
36 37
36 39
37 38
37 39
37 40
38 39
38 42
39 40
39 41
39 42
40 41
40 42
