43
0 1
0 2
0 3
0 6
0 7
0 9
0 10
0 12
0 13
0 15
0 18
0 20
0 21
0 22
0 24
0 26
0 27
0 29
0 31
0 32
0 33
0 39
1 2
1 4
1 7
1 8
1 10
1 11
1 13
1 14
1 16
1 18
1 19
1 22
1 23
1 24
1 25
1 27
1 28
1 30
1 32
1 33
1 39
2 5
2 6
2 8
2 9
2 11
2 12
2 14
2 17
2 19
2 20
2 21
2 23
2 25
2 26
2 28
2 29
2 30
2 31
2 33
2 39
3 4
3 5
3 7
3 8
3 9
3 11
3 12
3 13
3 15
3 16
3 19
3 20
3 23
3 24
3 26
3 27
3 30
3 36
3 37
3 41
4 5
4 6
4 8
4 9
4 10
4 13
4 14
4 16
4 17
4 18
4 20
4 21
4 24
4 25
4 28
4 31
4 36
4 37
4 41
5 6
5 7
5 10
5 11
5 12
5 14
5 15
5 17
5 18
5 19
5 22
5 25
5 26
5 29
5 32
5 36
5 37
5 41
6 7
6 8
6 9
6 10
6 13
6 14
6 15
6 19
6 22
6 23
6 24
6 28
6 29
6 31
6 34
6 38
6 40
7 8
7 10
7 11
7 12
7 14
7 16
7 20
7 21
7 23
7 25
7 27
7 29
7 32
7 34
7 38
7 40
8 9
8 11
8 12
8 13
8 17
8 18
8 21
8 22
8 26
8 27
8 28
8 30
8 34
8 38
8 40
9 10
9 11
9 14
9 15
9 18
9 19
9 21
9 24
9 27
9 30
9 32
9 33
9 34
9 37
9 38
9 42
10 11
10 12
10 16
10 19
10 20
10 22
10 25
10 28
10 30
10 31
10 33
10 34
10 37
10 38
10 42
11 13
11 17
11 18
11 20
11 23
11 26
11 29
11 31
11 32
11 33
11 34
11 37
11 38
11 42
12 16
12 18
12 22
12 24
12 26
12 28
12 29
12 30
12 32
12 35
12 36
12 38
12 39
12 41
13 17
13 19
13 23
13 24
13 25
13 27
13 29
13 30
13 31
13 35
13 36
13 38
13 39
13 41
14 15
14 20
14 21
14 25
14 26
14 27
14 28
14 31
14 32
14 35
14 36
14 38
14 39
14 41
15 18
15 20
15 21
15 22
15 23
15 25
15 27
15 30
15 32
15 34
15 37
15 39
15 40
15 41
15 42
16 18
16 19
16 21
16 22
16 23
16 26
16 28
16 30
16 31
16 34
16 37
16 39
16 40
16 41
16 42
17 19
17 20
17 21
17 22
17 23
17 24
17 29
17 31
17 32
17 34
17 37
17 39
17 40
17 41
17 42
18 22
18 23
18 25
18 29
18 30
18 31
18 32
18 33
18 35
18 37
18 40
18 41
19 21
19 23
19 26
19 27
19 30
19 31
19 32
19 33
19 35
19 37
19 40
19 41
20 21
20 22
20 24
20 28
20 30
20 31
20 32
20 33
20 35
20 37
20 40
20 41
21 25
21 26
21 29
21 30
21 35
21 37
21 38
21 39
21 42
22 24
22 26
22 27
22 31
22 35
22 37
22 38
22 39
22 42
23 24
23 25
23 28
23 32
23 35
23 37
23 38
23 39
23 42
24 28
24 29
24 30
24 32
24 33
24 34
24 35
24 36
24 42
25 27
25 29
25 30
25 31
25 33
25 34
25 35
25 36
25 42
26 27
26 28
26 31
26 32
26 33
26 34
26 35
26 36
26 42
27 31
27 33
27 34
27 36
27 38
27 40
27 41
27 42
28 32
28 33
28 34
28 36
28 38
28 40
28 41
28 42
29 30
29 33
29 34
29 36
29 38
29 40
29 41
29 42
30 34
30 35
30 39
30 40
31 34
31 35
31 39
31 40
32 34
32 35
32 39
32 40
33 34
33 35
33 36
33 37
33 38
33 40
33 41
34 35
34 40
34 42
35 36
35 37
35 39
35 40
35 42
36 37
36 38
36 39
36 41
36 42
37 41
37 42
38 39
38 40
38 42
39 40
39 41
39 42
40 41
41 42
