43
0 1
0 2
0 6
0 9
0 10
0 12
0 14
0 15
0 17
0 18
0 20
0 23
0 26
0 27
0 28
0 30
0 32
0 34
0 36
0 42
1 2
1 7
1 10
1 11
1 12
1 13
1 15
1 16
1 18
1 19
1 21
1 24
1 28
1 29
1 30
1 31
1 34
1 36
1 42
2 8
2 9
2 11
2 13
2 14
2 16
2 17
2 19
2 20
2 22
2 25
2 27
2 29
2 31
2 32
2 34
2 36
2 42
3 4
3 5
3 7
3 8
3 11
3 12
3 14
3 16
3 17
3 19
3 20
3 21
3 23
3 24
3 25
3 28
3 30
3 32
3 33
3 38
4 5
4 6
4 8
4 9
4 12
4 13
4 15
4 17
4 18
4 20
4 21
4 22
4 25
4 26
4 29
4 30
4 31
4 33
4 38
5 6
5 7
5 10
5 13
5 14
5 15
5 16
5 18
5 19
5 22
5 23
5 24
5 26
5 27
5 31
5 32
5 33
5 38
6 7
6 8
6 9
6 10
6 12
6 14
6 16
6 19
6 20
6 22
6 26
6 27
6 31
6 34
6 35
6 37
6 40
6 42
7 8
7 10
7 11
7 12
7 13
7 17
7 18
7 20
7 23
7 24
7 28
7 32
7 34
7 35
7 37
7 40
7 42
8 9
8 11
8 13
8 14
8 15
8 18
8 19
8 21
8 25
8 29
8 30
8 34
8 35
8 37
8 40
8 42
9 10
9 11
9 14
9 15
9 17
9 19
9 21
9 22
9 24
9 27
9 28
9 30
9 33
9 37
9 39
9 40
10 11
10 12
10 15
10 16
10 20
10 22
10 23
10 25
10 28
10 29
10 31
10 33
10 37
10 39
10 40
11 13
11 16
11 17
11 18
11 21
11 23
11 26
11 27
11 29
11 32
11 33
11 37
11 39
11 40
12 16
12 17
12 18
12 19
12 22
12 23
12 25
12 27
12 30
12 33
12 34
12 35
12 36
12 37
12 39
13 15
13 17
13 19
13 20
13 21
13 23
13 26
13 28
13 31
13 33
13 34
13 35
13 36
13 37
13 39
14 15
14 16
14 18
14 20
14 21
14 22
14 24
14 29
14 32
14 33
14 34
14 35
14 36
14 37
14 39
15 18
15 19
15 20
15 23
15 24
15 25
15 27
15 30
15 36
15 38
15 39
15 40
15 41
16 18
16 19
16 20
16 21
16 25
16 26
16 28
16 31
16 36
16 38
16 39
16 40
16 41
17 18
17 19
17 20
17 22
17 24
17 26
17 29
17 32
17 36
17 38
17 39
17 40
17 41
18 23
18 24
18 26
18 29
18 30
18 31
18 33
18 35
18 39
18 41
18 42
19 21
19 24
19 25
19 27
19 31
19 32
19 33
19 35
19 39
19 41
19 42
20 22
20 25
20 26
20 28
20 30
20 32
20 33
20 35
20 39
20 41
20 42
21 26
21 28
21 29
21 30
21 32
21 33
21 34
21 38
21 39
21 40
21 42
22 24
22 27
22 29
22 30
22 31
22 33
22 34
22 38
22 39
22 40
22 42
23 25
23 27
23 28
23 31
23 32
23 33
23 34
23 38
23 39
23 40
23 42
24 28
24 30
24 31
24 34
24 35
24 36
24 37
24 38
24 40
24 41
25 29
25 31
25 32
25 34
25 35
25 36
25 37
25 38
25 40
25 41
26 27
26 30
26 32
26 34
26 35
26 36
26 37
26 38
26 40
26 41
27 30
27 32
27 33
27 36
27 37
27 40
27 41
27 42
28 30
28 31
28 33
28 36
28 37
28 40
28 41
28 42
29 31
29 32
29 33
29 36
29 37
29 40
29 41
29 42
30 35
30 37
30 38
30 39
30 42
31 35
31 37
31 38
31 39
31 42
32 35
32 37
32 38
32 39
32 42
33 34
33 35
33 36
33 41
33 42
34 35
34 36
34 38
34 39
34 40
34 41
35 37
35 39
35 41
36 37
36 38
36 39
36 41
37 38
37 39
37 41
37 42
38 39
38 42
39 41
40 41
41 42
