43
0 1
0 2
0 6
0 9
0 10
0 13
0 14
0 16
0 17
0 18
0 22
0 23
0 24
0 25
0 27
0 28
0 30
0 32
0 39
0 41
1 2
1 7
1 10
1 11
1 12
1 14
1 15
1 17
1 19
1 21
1 23
1 25
1 26
1 28
1 29
1 30
1 31
1 39
1 41
2 8
2 9
2 11
2 12
2 13
2 15
2 16
2 20
2 21
2 22
2 24
2 26
2 27
2 29
2 31
2 32
2 39
2 41
3 4
3 5
3 8
3 9
3 11
3 13
3 14
3 15
3 18
3 20
3 21
3 23
3 25
3 28
3 29
3 30
3 31
3 32
3 35
3 37
3 40
4 5
4 6
4 9
4 10
4 12
4 14
4 16
4 18
4 19
4 21
4 22
4 26
4 27
4 29
4 30
4 31
4 32
4 35
4 37
4 40
5 7
5 10
5 11
5 12
5 13
5 17
5 19
5 20
5 22
5 23
5 24
5 27
5 28
5 30
5 31
5 32
5 35
5 37
5 40
6 7
6 8
6 9
6 10
6 14
6 15
6 16
6 18
6 19
6 23
6 24
6 25
6 27
6 29
6 30
6 32
6 38
6 42
7 8
7 10
7 11
7 12
7 16
7 17
7 19
7 20
7 21
7 25
7 26
7 27
7 28
7 30
7 31
7 38
7 42
8 9
8 11
8 13
8 15
8 17
8 18
8 20
8 22
8 24
8 26
8 28
8 29
8 31
8 32
8 38
8 42
9 10
9 11
9 12
9 16
9 17
9 18
9 23
9 26
9 29
9 32
9 38
9 39
9 40
10 11
10 13
10 15
10 17
10 19
10 21
10 24
10 27
10 30
10 38
10 39
10 40
11 14
11 15
11 16
11 20
11 22
11 25
11 28
11 31
11 38
11 39
11 40
12 17
12 19
12 20
12 23
12 25
12 26
12 29
12 32
12 33
12 35
12 37
12 39
12 40
12 41
12 42
13 15
13 18
13 20
13 21
13 24
13 26
13 27
13 30
13 33
13 35
13 37
13 39
13 40
13 41
13 42
14 16
14 18
14 19
14 22
14 24
14 25
14 28
14 31
14 33
14 35
14 37
14 39
14 40
14 41
14 42
15 19
15 21
15 25
15 28
15 29
15 30
15 34
15 36
15 37
15 38
15 40
15 41
16 20
16 22
16 26
16 27
16 29
16 31
16 34
16 36
16 37
16 38
16 40
16 41
17 18
17 23
17 24
17 27
17 28
17 32
17 34
17 36
17 37
17 38
17 40
17 41
18 23
18 26
18 27
18 28
18 30
18 31
18 34
18 35
18 39
18 40
18 42
19 21
19 24
19 28
19 29
19 31
19 32
19 34
19 35
19 39
19 40
19 42
20 22
20 25
20 27
20 29
20 30
20 32
20 34
20 35
20 39
20 40
20 42
21 24
21 25
21 26
21 27
21 31
21 32
21 33
21 34
21 35
21 36
21 38
21 39
22 24
22 25
22 26
22 28
22 30
22 32
22 33
22 34
22 35
22 36
22 38
22 39
23 24
23 25
23 26
23 29
23 30
23 31
23 33
23 34
23 35
23 36
23 38
23 39
24 29
24 31
24 32
24 33
24 35
24 37
24 38
24 41
25 27
25 30
25 32
25 33
25 35
25 37
25 38
25 41
26 28
26 30
26 31
26 33
26 35
26 37
26 38
26 41
27 31
27 32
27 34
27 35
27 36
27 37
27 41
27 42
28 30
28 32
28 34
28 35
28 36
28 37
28 41
28 42
29 30
29 31
29 34
29 35
29 36
29 37
29 41
29 42
30 33
30 36
30 42
31 33
31 36
31 42
32 33
32 36
32 42
33 34
33 36
33 37
33 38
33 39
33 40
33 42
34 35
34 36
34 38
34 39
34 40
34 41
34 42
35 38
35 39
35 41
36 37
36 38
36 39
36 40
36 42
37 38
37 40
37 41
37 42
38 41
39 40
39 42
40 41
41 42
