43
0 1
0 2
0 6
0 7
0 9
0 10
0 12
0 13
0 15
0 17
0 19
0 20
0 21
0 23
0 24
0 25
0 27
0 28
0 31
0 41
1 2
1 7
1 8
1 10
1 11
1 13
1 14
1 15
1 16
1 18
1 20
1 21
1 22
1 25
1 26
1 28
1 29
1 32
1 41
2 6
2 8
2 9
2 11
2 12
2 14
2 16
2 17
2 18
2 19
2 22
2 23
2 24
2 26
2 27
2 29
2 30
2 41
3 4
3 5
3 7
3 8
3 10
3 11
3 13
3 14
3 17
3 19
3 20
3 23
3 24
3 27
3 28
3 29
3 30
3 31
3 34
3 35
3 42
4 5
4 6
4 8
4 9
4 11
4 12
4 14
4 15
4 18
4 20
4 21
4 25
4 27
4 28
4 29
4 31
4 32
4 34
4 35
4 42
5 6
5 7
5 9
5 10
5 12
5 13
5 16
5 18
5 19
5 22
5 26
5 27
5 28
5 29
5 30
5 32
5 34
5 35
5 42
6 7
6 8
6 9
6 11
6 13
6 14
6 15
6 19
6 21
6 23
6 25
6 28
6 30
6 34
6 39
6 40
6 42
7 8
7 9
7 10
7 12
7 14
7 16
7 20
7 21
7 22
7 26
7 29
7 31
7 34
7 39
7 40
7 42
8 10
8 11
8 12
8 13
8 17
8 18
8 22
8 23
8 24
8 27
8 32
8 34
8 39
8 40
8 42
9 10
9 11
9 13
9 14
9 16
9 20
9 22
9 25
9 27
9 29
9 30
9 35
9 36
9 38
9 39
9 40
10 11
10 12
10 14
10 17
10 18
10 23
10 26
10 27
10 28
10 31
10 35
10 36
10 38
10 39
10 40
11 12
11 13
11 15
11 19
11 21
11 24
11 28
11 29
11 32
11 35
11 36
11 38
11 39
11 40
12 15
12 18
12 22
12 24
12 27
12 29
12 31
12 33
12 35
12 36
12 37
12 41
12 42
13 16
13 19
13 23
13 25
13 27
13 28
13 32
13 33
13 35
13 36
13 37
13 41
13 42
14 17
14 20
14 21
14 26
14 28
14 29
14 30
14 33
14 35
14 36
14 37
14 41
14 42
15 18
15 20
15 21
15 22
15 25
15 26
15 27
15 28
15 30
15 33
15 34
15 36
15 38
15 40
16 18
16 19
16 22
16 23
16 24
16 26
16 28
16 29
16 31
16 33
16 34
16 36
16 38
16 40
17 19
17 20
17 21
17 23
17 24
17 25
17 27
17 29
17 32
17 33
17 34
17 36
17 38
17 40
18 23
18 25
18 28
18 29
18 30
18 31
18 32
18 34
18 36
18 37
18 40
18 41
19 21
19 26
19 27
19 29
19 30
19 31
19 32
19 34
19 36
19 37
19 40
19 41
20 22
20 24
20 27
20 28
20 30
20 31
20 32
20 34
20 36
20 37
20 40
20 41
21 25
21 26
21 29
21 31
21 32
21 34
21 35
21 38
21 39
21 41
22 24
22 26
22 27
22 30
22 32
22 34
22 35
22 38
22 39
22 41
23 24
23 25
23 28
23 30
23 31
23 34
23 35
23 38
23 39
23 41
24 28
24 29
24 30
24 31
24 33
24 35
24 38
24 39
24 40
24 42
25 27
25 29
25 31
25 32
25 33
25 35
25 38
25 39
25 40
25 42
26 27
26 28
26 30
26 32
26 33
26 35
26 38
26 39
26 40
26 42
27 31
27 33
27 36
27 39
28 32
28 33
28 36
28 39
29 30
29 33
29 36
29 39
30 35
30 37
30 39
30 40
30 41
30 42
31 35
31 37
31 39
31 40
31 41
31 42
32 35
32 37
32 39
32 40
32 41
32 42
33 34
33 35
33 36
33 37
33 38
33 39
33 40
33 42
34 35
34 37
34 38
34 40
34 41
35 37
35 38
35 41
36 37
36 38
36 40
36 41
37 38
37 39
37 40
37 41
37 42
38 39
38 41
39 41
39 42
40 42
41 42
