43
0 1
0 2
0 3
0 6
0 7
0 9
0 10
0 12
0 13
0 14
0 17
0 18
0 20
0 21
0 23
0 24
0 28
0 29
0 32
0 33
0 34
0 38
1 2
1 4
1 7
1 8
1 10
1 11
1 12
1 13
1 14
1 15
1 18
1 19
1 21
1 22
1 25
1 27
1 29
1 30
1 33
1 34
1 38
2 5
2 6
2 8
2 9
2 11
2 12
2 13
2 14
2 16
2 19
2 20
2 22
2 23
2 26
2 27
2 28
2 31
2 33
2 34
2 38
3 4
3 5
3 7
3 8
3 10
3 11
3 13
3 16
3 19
3 20
3 21
3 22
3 26
3 28
3 29
3 31
3 32
3 35
3 38
3 40
3 42
4 5
4 6
4 8
4 9
4 11
4 14
4 17
4 18
4 20
4 22
4 23
4 24
4 27
4 29
4 30
4 32
4 35
4 38
4 40
4 42
5 6
5 7
5 9
5 10
5 12
5 15
5 18
5 19
5 21
5 23
5 25
5 27
5 28
5 30
5 31
5 35
5 38
5 40
5 42
6 7
6 8
6 9
6 14
6 17
6 18
6 22
6 25
6 26
6 28
6 29
6 30
6 32
6 35
6 38
6 39
6 41
7 8
7 10
7 12
7 15
7 19
7 23
7 24
7 26
7 27
7 29
7 30
7 31
7 35
7 38
7 39
7 41
8 11
8 13
8 16
8 20
8 21
8 24
8 25
8 27
8 28
8 31
8 32
8 35
8 38
8 39
8 41
9 10
9 11
9 12
9 13
9 15
9 16
9 19
9 20
9 22
9 24
9 27
9 29
9 32
9 39
9 40
9 41
10 11
10 13
10 14
10 16
10 17
10 18
10 20
10 23
10 25
10 27
10 28
10 30
10 39
10 40
10 41
11 12
11 14
11 15
11 17
11 18
11 19
11 21
11 26
11 28
11 29
11 31
11 39
11 40
11 41
12 15
12 18
12 21
12 22
12 24
12 25
12 28
12 29
12 31
12 34
12 35
12 37
12 39
12 40
13 16
13 19
13 22
13 23
13 25
13 26
13 27
13 29
13 32
13 34
13 35
13 37
13 39
13 40
14 17
14 20
14 21
14 23
14 24
14 26
14 27
14 28
14 30
14 34
14 35
14 37
14 39
14 40
15 18
15 20
15 21
15 22
15 24
15 26
15 27
15 30
15 31
15 32
15 34
15 37
15 38
15 41
16 18
16 19
16 22
16 23
16 24
16 25
16 28
16 30
16 31
16 32
16 34
16 37
16 38
16 41
17 19
17 20
17 21
17 23
17 25
17 26
17 29
17 30
17 31
17 32
17 34
17 37
17 38
17 41
18 23
18 24
18 25
18 26
18 28
18 32
18 33
18 36
18 37
18 38
18 39
18 42
19 21
19 24
19 25
19 26
19 29
19 30
19 33
19 36
19 37
19 38
19 39
19 42
20 22
20 24
20 25
20 26
20 27
20 31
20 33
20 36
20 37
20 38
20 39
20 42
21 24
21 27
21 28
21 30
21 32
21 33
21 36
21 37
21 38
21 40
21 41
22 25
22 28
22 29
22 30
22 31
22 33
22 36
22 37
22 38
22 40
22 41
23 26
23 27
23 29
23 31
23 32
23 33
23 36
23 37
23 38
23 40
23 41
24 29
24 32
24 34
24 36
24 37
24 38
24 39
24 42
25 27
25 30
25 34
25 36
25 37
25 38
25 39
25 42
26 28
26 31
26 34
26 36
26 37
26 38
26 39
26 42
27 32
27 33
27 35
27 36
27 37
27 42
28 30
28 33
28 35
28 36
28 37
28 42
29 31
29 33
29 35
29 36
29 37
29 42
30 33
30 34
30 39
30 40
30 41
30 42
31 33
31 34
31 39
31 40
31 41
31 42
32 33
32 34
32 39
32 40
32 41
32 42
33 34
33 35
33 36
33 39
33 41
33 42
34 35
34 38
34 40
34 41
34 42
35 36
35 37
35 39
35 40
35 41
35 42
36 37
36 38
36 39
36 40
36 41
36 42
37 41
38 41
39 40
40 41
40 42
