43
0 1
0 2
0 3
0 6
0 9
0 10
0 13
0 14
0 15
0 18
0 19
0 22
0 23
0 25
0 27
0 28
0 32
0 35
0 38
0 40
1 2
1 4
1 7
1 10
1 11
1 12
1 14
1 16
1 19
1 20
1 21
1 23
1 26
1 28
1 29
1 30
1 35
1 38
1 40
2 5
2 8
2 9
2 11
2 12
2 13
2 17
2 18
2 20
2 21
2 22
2 24
2 27
2 29
2 31
2 35
2 38
2 40
3 4
3 5
3 7
3 8
3 9
3 10
3 12
3 13
3 15
3 18
3 19
3 21
3 24
3 26
3 29
3 32
3 34
3 35
3 39
3 40
3 42
4 5
4 6
4 8
4 10
4 11
4 13
4 14
4 16
4 19
4 20
4 22
4 24
4 25
4 27
4 30
4 34
4 35
4 39
4 40
4 42
5 6
5 7
5 9
5 11
5 12
5 14
5 17
5 18
5 20
5 23
5 25
5 26
5 28
5 31
5 34
5 35
5 39
5 40
5 42
6 7
6 8
6 9
6 10
6 13
6 17
6 18
6 19
6 22
6 23
6 24
6 28
6 29
6 30
6 31
6 33
6 35
6 37
6 41
7 8
7 10
7 11
7 14
7 15
7 19
7 20
7 21
7 23
7 25
7 27
7 29
7 31
7 32
7 33
7 35
7 37
7 41
8 9
8 11
8 12
8 16
8 18
8 20
8 21
8 22
8 26
8 27
8 28
8 30
8 32
8 33
8 35
8 37
8 41
9 10
9 11
9 13
9 14
9 16
9 18
9 23
9 25
9 26
9 29
9 30
9 31
9 34
9 36
9 38
10 11
10 12
10 14
10 17
10 19
10 21
10 24
10 26
10 27
10 31
10 32
10 34
10 36
10 38
11 12
11 13
11 15
11 20
11 22
11 24
11 25
11 28
11 30
11 32
11 34
11 36
11 38
12 15
12 17
12 19
12 22
12 26
12 28
12 30
12 33
12 34
12 35
12 36
12 37
12 41
13 15
13 16
13 20
13 23
13 24
13 29
13 31
13 33
13 34
13 35
13 36
13 37
13 41
14 16
14 17
14 18
14 21
14 25
14 27
14 32
14 33
14 34
14 35
14 36
14 37
14 41
15 19
15 20
15 22
15 23
15 24
15 26
15 29
15 31
15 32
15 33
15 34
15 37
15 39
15 41
15 42
16 18
16 20
16 21
16 23
16 24
16 25
16 27
16 30
16 32
16 33
16 34
16 37
16 39
16 41
16 42
17 18
17 19
17 21
17 22
17 25
17 26
17 28
17 30
17 31
17 33
17 34
17 37
17 39
17 41
17 42
18 21
18 22
18 24
18 29
18 32
18 35
18 37
18 38
18 39
18 42
19 22
19 23
19 25
19 27
19 30
19 35
19 37
19 38
19 39
19 42
20 21
20 23
20 26
20 28
20 31
20 35
20 37
20 38
20 39
20 42
21 25
21 26
21 28
21 29
21 30
21 31
21 33
21 36
21 38
21 39
21 42
22 24
22 26
22 27
22 29
22 31
22 32
22 33
22 36
22 38
22 39
22 42
23 24
23 25
23 27
23 28
23 30
23 32
23 33
23 36
23 38
23 39
23 42
24 27
24 29
24 30
24 32
24 36
24 39
24 40
24 41
25 27
25 28
25 30
25 31
25 36
25 39
25 40
25 41
26 28
26 29
26 31
26 32
26 36
26 39
26 40
26 41
27 31
27 32
27 33
27 35
27 36
27 40
27 42
28 30
28 32
28 33
28 35
28 36
28 40
28 42
29 30
29 31
29 33
29 35
29 36
29 40
29 42
30 34
30 38
30 40
30 41
30 42
31 34
31 38
31 40
31 41
31 42
32 34
32 38
32 40
32 41
32 42
33 34
33 36
33 37
33 39
33 40
33 42
34 38
34 39
34 41
34 42
35 36
35 37
35 40
36 37
36 38
36 39
36 40
37 38
37 39
37 40
37 41
37 42
38 39
38 40
38 41
38 42
39 41
40 41
40 42
