43
0 1
0 2
0 3
0 6
0 9
0 10
0 12
0 14
0 15
0 16
0 19
0 20
0 22
0 23
0 24
0 26
0 28
0 32
0 33
0 36
1 2
1 4
1 7
1 10
1 11
1 12
1 13
1 16
1 17
1 18
1 20
1 21
1 23
1 24
1 25
1 29
1 30
1 33
1 36
2 5
2 8
2 9
2 11
2 13
2 14
2 15
2 17
2 18
2 19
2 21
2 22
2 25
2 26
2 27
2 31
2 33
2 36
3 4
3 5
3 7
3 8
3 10
3 12
3 14
3 15
3 17
3 19
3 20
3 22
3 23
3 24
3 26
3 27
3 29
3 30
3 31
3 42
4 5
4 6
4 8
4 11
4 12
4 13
4 15
4 16
4 18
4 20
4 21
4 23
4 24
4 25
4 27
4 28
4 31
4 32
4 42
5 6
5 7
5 9
5 13
5 14
5 16
5 17
5 18
5 19
5 21
5 22
5 25
5 26
5 28
5 29
5 30
5 32
5 42
6 7
6 8
6 9
6 10
6 13
6 15
6 16
6 17
6 19
6 21
6 24
6 28
6 30
6 32
6 33
6 34
6 35
6 40
7 8
7 10
7 11
7 14
7 15
7 16
7 17
7 20
7 22
7 25
7 29
7 30
7 31
7 33
7 34
7 35
7 40
8 9
8 11
8 12
8 15
8 16
8 17
8 18
8 23
8 26
8 27
8 31
8 32
8 33
8 34
8 35
8 40
9 10
9 11
9 12
9 15
9 18
9 20
9 23
9 25
9 26
9 28
9 29
9 30
9 32
9 35
9 38
9 40
10 11
10 13
10 16
10 18
10 19
10 21
10 24
10 26
10 27
10 29
10 30
10 31
10 35
10 38
10 40
11 14
11 17
11 19
11 20
11 22
11 24
11 25
11 27
11 28
11 31
11 32
11 35
11 38
11 40
12 17
12 18
12 19
12 20
12 22
12 25
12 28
12 29
12 30
12 33
12 34
12 35
12 37
12 41
12 42
13 15
13 18
13 19
13 20
13 23
13 26
13 27
13 29
13 31
13 33
13 34
13 35
13 37
13 41
13 42
14 16
14 18
14 19
14 20
14 21
14 24
14 27
14 28
14 32
14 33
14 34
14 35
14 37
14 41
14 42
15 19
15 20
15 23
15 25
15 27
15 30
15 34
15 36
15 39
15 40
15 41
16 18
16 20
16 21
16 26
16 28
16 31
16 34
16 36
16 39
16 40
16 41
17 18
17 19
17 22
17 24
17 29
17 32
17 34
17 36
17 39
17 40
17 41
18 22
18 24
18 27
18 30
18 33
18 36
18 37
18 40
18 41
18 42
19 23
19 25
19 28
19 31
19 33
19 36
19 37
19 40
19 41
19 42
20 21
20 26
20 29
20 32
20 33
20 36
20 37
20 40
20 41
20 42
21 24
21 25
21 26
21 27
21 29
21 30
21 32
21 33
21 34
21 36
21 38
21 39
21 42
22 24
22 25
22 26
22 27
22 28
22 30
22 31
22 33
22 34
22 36
22 38
22 39
22 42
23 24
23 25
23 26
23 28
23 29
23 31
23 32
23 33
23 34
23 36
23 38
23 39
23 42
24 27
24 28
24 29
24 32
24 33
24 37
24 38
24 39
25 27
25 28
25 29
25 30
25 33
25 37
25 38
25 39
26 27
26 28
26 29
26 31
26 33
26 37
26 38
26 39
27 30
27 34
27 35
27 37
27 39
27 40
27 42
28 31
28 34
28 35
28 37
28 39
28 40
28 42
29 32
29 34
29 35
29 37
29 39
29 40
29 42
30 34
30 35
30 36
30 37
30 38
30 41
31 34
31 35
31 36
31 37
31 38
31 41
32 34
32 35
32 36
32 37
32 38
32 41
33 34
33 37
33 38
33 40
33 42
34 35
34 38
34 39
34 41
35 36
35 37
35 40
35 42
36 37
36 38
36 39
36 40
36 41
36 42
37 38
37 39
37 40
37 41
38 39
38 41
39 40
39 41
39 42
40 42
41 42
