43
0 1
0 2
0 6
0 7
0 9
0 10
0 12
0 13
0 17
0 19
0 21
0 23
0 26
0 28
0 29
0 30
0 32
0 33
0 34
0 36
1 2
1 7
1 8
1 10
1 11
1 13
1 14
1 15
1 20
1 21
1 22
1 24
1 27
1 29
1 30
1 31
1 33
1 34
1 36
2 6
2 8
2 9
2 11
2 12
2 14
2 16
2 18
2 22
2 23
2 25
2 27
2 28
2 31
2 32
2 33
2 34
2 36
3 4
3 5
3 7
3 8
3 10
3 11
3 12
3 15
3 17
3 18
3 21
3 22
3 25
3 26
3 29
3 30
3 31
3 38
3 39
3 40
4 5
4 6
4 8
4 9
4 11
4 13
4 15
4 16
4 19
4 22
4 23
4 24
4 26
4 27
4 31
4 32
4 38
4 39
4 40
5 6
5 7
5 9
5 10
5 14
5 16
5 17
5 20
5 21
5 23
5 24
5 25
5 28
5 30
5 32
5 38
5 39
5 40
6 7
6 8
6 9
6 12
6 14
6 15
6 17
6 19
6 21
6 23
6 24
6 25
6 27
6 29
6 31
6 32
6 37
6 42
7 8
7 10
7 12
7 13
7 15
7 16
7 20
7 21
7 22
7 25
7 26
7 27
7 28
7 30
7 32
7 37
7 42
8 11
8 13
8 14
8 16
8 17
8 18
8 22
8 23
8 24
8 26
8 28
8 29
8 30
8 31
8 37
8 42
9 10
9 11
9 13
9 16
9 18
9 20
9 21
9 26
9 28
9 29
9 31
9 32
9 36
9 37
9 42
10 11
10 14
10 17
10 18
10 19
10 22
10 24
10 27
10 29
10 30
10 32
10 36
10 37
10 42
11 12
11 15
11 19
11 20
11 23
11 25
11 27
11 28
11 30
11 31
11 36
11 37
11 42
12 17
12 19
12 20
12 21
12 22
12 24
12 25
12 26
12 27
12 28
12 30
12 35
12 36
12 38
12 39
12 41
13 15
13 18
13 20
13 22
13 23
13 24
13 25
13 26
13 28
13 29
13 31
13 35
13 36
13 38
13 39
13 41
14 16
14 18
14 19
14 21
14 23
14 24
14 25
14 26
14 27
14 29
14 32
14 35
14 36
14 38
14 39
14 41
15 18
15 21
15 23
15 25
15 27
15 30
15 31
15 33
15 34
15 35
15 36
15 37
15 40
15 41
16 19
16 21
16 22
16 26
16 28
16 31
16 32
16 33
16 34
16 35
16 36
16 37
16 40
16 41
17 20
17 22
17 23
17 24
17 29
17 30
17 32
17 33
17 34
17 35
17 36
17 37
17 40
17 41
18 22
18 25
18 28
18 29
18 30
18 32
18 35
18 36
18 37
18 38
18 39
18 40
18 42
19 23
19 26
19 27
19 29
19 30
19 31
19 35
19 36
19 37
19 38
19 39
19 40
19 42
20 21
20 24
20 27
20 28
20 31
20 32
20 35
20 36
20 37
20 38
20 39
20 40
20 42
21 24
21 29
21 31
21 33
21 35
21 36
21 40
21 41
21 42
22 25
22 27
22 32
22 33
22 35
22 36
22 40
22 41
22 42
23 26
23 28
23 30
23 33
23 35
23 36
23 40
23 41
23 42
24 27
24 28
24 30
24 33
24 34
24 38
24 39
24 41
24 42
25 28
25 29
25 31
25 33
25 34
25 38
25 39
25 41
25 42
26 27
26 29
26 32
26 33
26 34
26 38
26 39
26 41
26 42
27 32
27 33
27 35
27 40
27 41
27 42
28 30
28 33
28 35
28 40
28 41
28 42
29 31
29 33
29 35
29 40
29 41
29 42
30 34
30 35
30 37
30 38
31 34
31 35
31 37
31 38
32 34
32 35
32 37
32 38
33 34
33 37
33 38
33 40
33 41
33 42
34 36
34 37
34 38
34 39
34 40
34 41
34 42
35 37
35 39
35 40
35 41
36 37
36 39
36 40
36 41
37 38
37 39
37 42
38 39
38 40
39 41
39 42
40 42
