43
0 1
0 2
0 3
0 6
0 9
0 10
0 12
0 13
0 15
0 16
0 17
0 18
0 20
0 23
0 24
0 26
0 29
0 31
0 32
0 38
1 2
1 4
1 7
1 10
1 11
1 13
1 14
1 15
1 16
1 17
1 18
1 19
1 21
1 24
1 25
1 27
1 30
1 32
1 38
2 5
2 8
2 9
2 11
2 12
2 14
2 15
2 16
2 17
2 19
2 20
2 22
2 25
2 26
2 28
2 30
2 31
2 38
3 4
3 5
3 6
3 8
3 9
3 12
3 13
3 15
3 16
3 19
3 21
3 22
3 24
3 26
3 29
3 30
3 35
3 39
3 40
4 5
4 6
4 7
4 10
4 13
4 14
4 16
4 17
4 20
4 22
4 23
4 24
4 25
4 27
4 31
4 35
4 39
4 40
5 7
5 8
5 11
5 12
5 14
5 15
5 17
5 18
5 21
5 23
5 25
5 26
5 28
5 32
5 35
5 39
5 40
6 7
6 8
6 9
6 10
6 14
6 17
6 18
6 20
6 21
6 22
6 24
6 26
6 29
6 31
6 32
6 33
6 34
6 37
7 8
7 10
7 11
7 12
7 15
7 18
7 19
7 22
7 23
7 24
7 25
7 27
7 30
7 32
7 33
7 34
7 37
8 9
8 11
8 13
8 16
8 19
8 20
8 21
8 23
8 25
8 26
8 28
8 30
8 31
8 33
8 34
8 37
9 10
9 11
9 12
9 13
9 17
9 19
9 21
9 22
9 25
9 27
9 28
9 31
9 33
9 35
9 39
9 42
10 11
10 13
10 14
10 15
10 20
10 22
10 23
10 26
10 28
10 29
10 32
10 33
10 35
10 39
10 42
11 12
11 14
11 16
11 18
11 21
11 23
11 24
11 27
11 29
11 30
11 33
11 35
11 39
11 42
12 15
12 19
12 20
12 23
12 24
12 25
12 29
12 30
12 32
12 33
12 38
12 39
12 40
12 41
12 42
13 16
13 18
13 20
13 21
13 25
13 26
13 27
13 30
13 31
13 33
13 38
13 39
13 40
13 41
13 42
14 17
14 18
14 19
14 22
14 24
14 26
14 28
14 31
14 32
14 33
14 38
14 39
14 40
14 41
14 42
15 18
15 19
15 21
15 22
15 26
15 28
15 29
15 30
15 31
15 36
15 37
15 41
15 42
16 19
16 20
16 22
16 23
16 24
16 27
16 29
16 31
16 32
16 36
16 37
16 41
16 42
17 18
17 20
17 21
17 23
17 25
17 27
17 28
17 30
17 32
17 36
17 37
17 41
17 42
18 21
18 25
18 26
18 27
18 29
18 31
18 33
18 34
18 36
18 40
18 41
19 22
19 24
19 26
19 27
19 28
19 32
19 33
19 34
19 36
19 40
19 41
20 23
20 24
20 25
20 28
20 29
20 30
20 33
20 34
20 36
20 40
20 41
21 24
21 28
21 29
21 30
21 32
21 34
21 35
21 36
21 40
21 42
22 25
22 27
22 29
22 30
22 31
22 34
22 35
22 36
22 40
22 42
23 26
23 27
23 28
23 31
23 32
23 34
23 35
23 36
23 40
23 42
24 28
24 30
24 31
24 34
24 35
24 36
24 37
24 38
24 39
24 40
25 29
25 31
25 32
25 34
25 35
25 36
25 37
25 38
25 39
25 40
26 27
26 30
26 32
26 34
26 35
26 36
26 37
26 38
26 39
26 40
27 30
27 33
27 35
27 36
27 37
27 39
27 41
28 31
28 33
28 35
28 36
28 37
28 39
28 41
29 32
29 33
29 35
29 36
29 37
29 39
29 41
30 34
30 37
30 38
30 41
30 42
31 34
31 37
31 38
31 41
31 42
32 34
32 37
32 38
32 41
32 42
33 36
33 37
33 38
33 40
33 41
34 35
34 38
34 39
34 40
34 41
34 42
35 36
35 38
35 39
35 41
36 37
36 40
36 42
37 38
37 39
37 40
37 41
37 42
38 39
38 40
38 41
38 42
39 41
40 42
