43
0 1
0 2
0 3
0 6
0 7
0 9
0 10
0 13
0 14
0 15
0 20
0 21
0 23
0 26
0 29
0 30
0 31
0 37
0 39
0 41
0 42
1 2
1 4
1 7
1 8
1 10
1 11
1 12
1 14
1 16
1 18
1 21
1 22
1 24
1 27
1 31
1 32
1 37
1 39
1 41
1 42
2 5
2 6
2 8
2 9
2 11
2 12
2 13
2 17
2 19
2 22
2 23
2 25
2 28
2 30
2 32
2 37
2 39
2 41
2 42
3 4
3 5
3 7
3 8
3 9
3 10
3 12
3 13
3 16
3 17
3 18
3 19
3 22
3 26
3 28
3 29
3 32
3 36
3 38
3 41
3 42
4 5
4 6
4 8
4 10
4 11
4 13
4 14
4 15
4 17
4 19
4 20
4 23
4 24
4 27
4 29
4 30
4 36
4 38
4 41
4 42
5 6
5 7
5 9
5 11
5 12
5 14
5 15
5 16
5 18
5 20
5 21
5 25
5 27
5 28
5 31
5 36
5 38
5 41
5 42
6 7
6 8
6 10
6 11
6 14
6 15
6 17
6 18
6 23
6 25
6 26
6 28
6 31
6 32
6 35
6 40
6 42
7 8
7 9
7 11
7 12
7 15
7 16
7 19
7 21
7 24
7 26
7 29
7 30
7 32
7 35
7 40
7 42
8 9
8 10
8 13
8 16
8 17
8 20
8 22
8 24
8 25
8 27
8 30
8 31
8 35
8 40
8 42
9 10
9 11
9 13
9 14
9 15
9 20
9 22
9 24
9 25
9 29
9 31
9 36
9 37
9 38
9 39
10 11
10 12
10 14
10 16
10 18
10 23
10 25
10 26
10 27
10 32
10 36
10 37
10 38
10 39
11 12
11 13
11 17
11 19
11 21
11 24
11 26
11 28
11 30
11 36
11 37
11 38
11 39
12 15
12 19
12 22
12 23
12 25
12 26
12 27
12 28
12 32
12 33
12 34
12 38
12 40
12 41
13 16
13 20
13 21
13 23
13 24
13 26
13 28
13 29
13 30
13 33
13 34
13 38
13 40
13 41
14 17
14 18
14 21
14 22
14 24
14 25
14 27
14 29
14 31
14 33
14 34
14 38
14 40
14 41
15 19
15 20
15 21
15 22
15 23
15 24
15 25
15 28
15 30
15 32
15 34
15 35
15 36
15 39
15 41
16 18
16 20
16 21
16 22
16 23
16 25
16 26
16 29
16 30
16 31
16 34
16 35
16 36
16 39
16 41
17 18
17 19
17 21
17 22
17 23
17 24
17 26
17 27
17 31
17 32
17 34
17 35
17 36
17 39
17 41
18 21
18 22
18 25
18 26
18 28
18 29
18 32
18 33
18 34
18 35
18 37
18 38
18 42
19 22
19 23
19 24
19 26
19 27
19 29
19 30
19 33
19 34
19 35
19 37
19 38
19 42
20 21
20 23
20 24
20 25
20 27
20 28
20 31
20 33
20 34
20 35
20 37
20 38
20 42
21 24
21 26
21 27
21 29
21 32
21 35
21 36
21 37
21 40
21 41
22 24
22 25
22 27
22 28
22 30
22 35
22 36
22 37
22 40
22 41
23 25
23 26
23 28
23 29
23 31
23 35
23 36
23 37
23 40
23 41
24 28
24 29
24 31
24 32
24 33
24 34
24 37
25 27
25 29
25 30
25 32
25 33
25 34
25 37
26 27
26 28
26 30
26 31
26 33
26 34
26 37
27 30
27 31
27 33
27 36
27 37
27 38
27 39
27 40
28 31
28 32
28 33
28 36
28 37
28 38
28 39
28 40
29 30
29 32
29 33
29 36
29 37
29 38
29 39
29 40
30 33
30 34
30 36
30 39
30 40
30 42
31 33
31 34
31 36
31 39
31 40
31 42
32 33
32 34
32 36
32 39
32 40
32 42
33 34
33 39
33 40
33 42
34 35
34 38
34 39
34 41
34 42
35 36
35 37
35 38
35 39
35 40
35 41
35 42
36 37
36 39
36 40
36 42
37 38
37 42
38 39
38 40
38 41
39 41
40 41
40 42
41 42
