p cnf 1452 1
-1447 -1446 -1445 -1443 -1442 -1441 -1440 -1439 -1437 -1435 -1432 -1412 -1408 -1407 -1406 -1404 -1403 -1400 -1398 -1394 -1392 -1384 -1383 -1382 -1375 -1366 -1365 -1362 -1361 -1353 -1351 -1350 -1347 -1346 -1344 -1343 -1342 -1335 -1332 -1329 -1327 -1326 -1324 -1322 -1320 -1317 -1316 -1314 -1311 -1310 -1309 -1307 -1306 -1305 -1304 -1303 -1298 -1297 -1296 -1294 -1293 -1292 -1290 -1289 -1288 -1287 -1284 -1279 -1278 -1277 -1275 -1274 -1273 -1270 -1269 -1268 -1248 -1236 -1228 -1220 -1213 -1205 -1200 -1199 -1196 -1190 -1188 -1187 -1183 -1181 -1180 -1177 -1174 -1173 -1163 -1162 -1161 -1160 -1158 -1155 -1153 -1151 -1150 -1148 -1147 -1146 -1139 -1137 -1136 -1135 -1134 -1133 -1132 -1131 -1130 -1127 -1124 -1123 -1122 -1121 -1111 -1110 -1107 -1106 -1103 -1102 -1100 -1099 -1097 -1095 -1094 -1093 -1091 -1085 -1084 -1083 -1080 -1077 -1074 -1072 -1070 -1068 -1066 -1058 -1056 -1055 -1053 -1051 -1047 -1045 -1040 -1039 -1036 -1034 -1033 -1032 -1031 -1030 -1027 -1026 -1025 -1023 -1021 -1020 -1018 -1017 -1016 -1013 -1011 -1010 -1009 -1007 -1005 -999 -998 -996 -995 -994 -992 -989 -988 -987 -985 -980 -976 -971 -963 -962 -961 -960 -956 -955 -954 -948 -947 -945 -941 -939 -938 -937 -936 -935 -934 -932 -931 -927 -926 -923 -919 -917 -915 -914 -913 -912 -907 -906 -903 -902 -901 -900 -899 -897 -896 -895 -893 -892 -886 -864 -863 -861 -858 -856 -855 -852 -851 -844 -841 -837 -836 -830 -822 -812 -810 -809 -808 -807 -801 -800 -799 -798 -797 -796 -795 -794 -793 -792 -785 -783 -782 -781 -780 -778 -777 -776 -775 -767 -764 -761 -760 -758 -757 -756 -755 -754 -753 -752 -749 -739 -738 -736 -731 -730 -722 -721 -720 -717 -712 -711 -704 -703 -701 -700 -699 -698 -695 -694 -693 -690 -685 -683 -680 -679 -678 -677 -676 -673 -671 -662 -659 -658 -656 -654 -652 -650 -648 -646 -643 -634 -629 -626 -625 -623 -622 -620 -619 -617 -616 -615 -614 -613 -612 -611 -610 -609 -608 -607 -588 -587 -586 -585 -582 -581 -580 -579 -578 -577 -576 -575 -566 -562 -561 -560 -559 -558 -557 -556 -555 -554 -553 -552 -551 -550 -549 -548 -547 -546 -545 -544 -543 -542 -541 -536 -530 -529 -518 -517 -516 -515 -514 -513 -512 -511 -510 -509 -508 -507 -506 -504 -503 -502 -501 -500 -497 -495 -490 -489 -488 -487 -485 -482 -480 -479 -478 -476 -475 -474 -473 -472 -471 -470 -469 -468 -466 -465 -464 -463 -462 -461 -453 -448 -447 -444 -442 -439 -438 -437 -436 -435 -433 -432 -431 -430 -429 -428 -427 -426 -425 -424 -423 -422 -421 -420 -418 -416 -413 -412 -411 -410 -409 -403 -402 -399 -388 -387 -386 -385 -384 -383 -381 -380 -379 -378 -377 -376 -375 -374 -373 -372 -371 -370 -369 -368 -366 -365 -364 -363 -362 -361 -348 -347 -346 -344 -343 -342 -340 -339 -338 -337 -336 -335 -334 -332 -331 -330 -329 -328 -327 -326 -325 -324 -323 -322 -321 -320 -319 -317 -316 -315 -314 -313 -312 -311 -310 -309 -308 -307 -306 -305 -303 -302 -301 -299 -298 -297 -295 -294 -293 -292 -291 -290 -289 -288 -287 -286 -285 -283 -282 -280 -278 -277 -275 -273 -261 -260 -259 -258 -257 -256 -255 -254 -253 -252 -250 -249 -248 -246 -245 -244 -242 -241 -240 -239 -238 -235 -233 -229 -227 -226 -222 -221 -217 -216 -215 -214 -213 -212 -211 -210 -209 -208 -207 -206 -205 -204 -203 -202 -201 -198 -197 -195 -184 -183 -182 -181 -180 -179 -178 -177 -176 -175 -174 -172 -170 -168 -158 -157 -156 -153 -151 -148 -147 -146 -145 -144 -143 -142 -139 -137 -136 -135 -134 -133 -132 -127 -126 -125 -124 -123 -119 -116 -114 -96 -93 -91 -90 -88 -85 -83 -82 -80 -78 -76 -73 -72 -68 -64 -61 -59 -56 -51 -50 -47 -46 -44 -43 -42 -41 -40 -39 -38 -37 -36 -35 -34 -33 -32 -31 -29 -27 -26 -25 -24 -23 -22 -19 -18 -17 -16 -15 -14 -11 -10 -9 -8 -7 -6 -4 -3 -2 -1 0
