p cnf 9544 2348
8 1 4 -397 3 2 7 6 5 0
-398 9 11 12 10 15 14 13 1 0
-399 16 17 21 19 18 9 20 2 0
-400 24 22 10 26 23 16 25 3 0
-401 17 29 27 28 30 11 22 4 0
-402 32 33 31 12 18 5 23 27 0
-403 34 6 35 28 13 31 19 24 0
-404 25 36 20 29 7 34 32 14 0
-405 35 33 21 8 30 15 36 26 0
-41 535 0
-535 536 0
-536 537 0
-43 537 0
-537 538 0
-44 538 0
-538 539 0
-539 540 0
-540 541 0
-541 542 0
-48 542 0
-542 543 0
-543 544 0
-50 544 0
-544 545 0
-51 545 0
-545 546 0
-546 547 0
-547 548 0
-54 548 0
-548 549 0
-549 550 0
-56 550 0
-550 551 0
-57 551 0
-551 552 0
-552 553 0
-59 553 0
-553 554 0
-554 555 0
-61 555 0
-555 556 0
-62 556 0
-556 557 0
-63 -556 0
-63 557 0
558 -557 0
-557 -64 0
558 -64 0
559 -558 0
-65 -558 0
559 -65 0
560 -559 0
-66 -559 0
561 -560 0
-67 -560 0
562 -561 0
-68 -561 0
563 -562 0
-69 -562 0
564 -563 0
-70 -563 0
565 -564 0
-71 -564 0
-72 -565 0
-406 44 37 43 38 39 40 41 42 0
-407 37 45 46 47 48 49 50 51 0
66 64 -410 63 58 65 40 53 47 0
-411 41 63 69 59 68 54 48 67 0
70 64 60 -412 67 42 55 49 71 0
-413 43 72 56 70 68 65 61 50 0
-66 414 0
-414 44 62 72 57 51 71 66 69 0
-73 566 0
-566 567 0
-74 567 0
-567 568 0
-75 568 0
-568 569 0
-569 570 0
-77 570 0
-570 571 0
-78 571 0
-571 572 0
-79 572 0
-572 573 0
-80 573 0
-573 574 0
-574 575 0
-82 575 0
-575 576 0
-576 577 0
-577 578 0
-85 578 0
-578 579 0
-86 579 0
-579 580 0
-87 580 0
-580 581 0
-581 582 0
-582 583 0
-583 584 0
-91 584 0
-584 585 0
-92 585 0
-585 586 0
-93 586 0
-586 587 0
-587 588 0
-588 589 0
-96 589 0
-589 590 0
-97 590 0
-590 591 0
-98 591 0
-591 592 0
-99 -591 0
-99 592 0
-592 593 0
-100 593 0
-593 594 0
-101 -593 0
-101 594 0
-594 595 0
-102 595 0
-595 596 0
-103 -595 0
-103 596 0
-596 597 0
-104 -596 0
-104 597 0
-597 598 0
-105 -597 0
-598 599 0
-106 -598 0
-106 599 0
600 -599 0
-599 -107 0
600 -107 0
-108 -600 0
-415 76 75 74 73 77 78 79 80 0
-416 73 81 82 83 84 85 86 87 0
-101 419 0
-102 419 0
-419 76 99 102 101 100 89 83 94 0
-420 99 84 104 103 95 90 77 105 0
106 107 100 78 -421 91 85 103 96 0
-422 79 92 101 108 106 97 104 86 0
423 -107 0
-108 423 0
107 93 87 -423 80 105 102 98 108 0
-113 605 0
-605 606 0
-606 607 0
-607 608 0
608 -116 0
609 -608 0
610 -609 0
611 -610 0
611 -119 0
612 -611 0
-120 612 0
613 -612 0
614 -613 0
615 -614 0
-123 615 0
616 -615 0
617 -616 0
617 -125 0
618 -617 0
-126 618 0
619 -618 0
-127 -618 0
620 -619 0
-128 -619 0
621 -620 0
-129 -620 0
-129 621 0
622 -621 0
-130 -621 0
622 -130 0
623 -622 0
-131 623 0
624 -623 0
-132 -623 0
625 -624 0
-133 -624 0
626 -625 0
-134 -625 0
-134 626 0
627 -626 0
-135 -626 0
627 -135 0
628 -627 0
-136 -627 0
-136 628 0
629 -628 0
-137 -628 0
-137 629 0
630 -629 0
-138 -629 0
-138 630 0
631 -630 0
-139 -630 0
632 -631 0
-140 -631 0
-140 632 0
633 -632 0
-141 -632 0
-141 633 0
634 -633 0
-142 -633 0
634 -142 0
635 -634 0
-143 -634 0
-143 635 0
-144 -635 0
125 119 130 -428 137 138 135 112 136 0
-429 131 135 139 126 113 140 120 141 0
-430 114 132 142 121 136 139 127 143 0
-431 122 137 142 144 128 133 140 115 0
-141 432 0
-144 432 0
-432 116 123 144 138 134 129 141 143 0
-149 640 0
-640 641 0
-150 641 0
-641 642 0
-642 643 0
643 -152 0
644 -643 0
645 -644 0
646 -645 0
647 -646 0
-156 647 0
648 -647 0
-157 648 0
649 -648 0
650 -649 0
-159 650 0
651 -650 0
652 -651 0
653 -652 0
-162 653 0
654 -653 0
-163 654 0
655 -654 0
656 -655 0
-165 656 0
657 -656 0
658 -657 0
-167 658 0
659 -658 0
-168 659 0
660 -659 0
661 -660 0
-170 661 0
662 -661 0
-171 -661 0
662 -171 0
663 -662 0
664 -663 0
-173 -663 0
-173 664 0
665 -664 0
665 -174 0
666 -665 0
-175 -665 0
666 -175 0
667 -666 0
-176 -666 0
668 -667 0
-177 -667 0
-177 668 0
669 -668 0
-178 -668 0
670 -669 0
-179 -669 0
-180 -670 0
-437 171 172 161 174 155 166 148 173 0
-438 149 167 175 171 176 162 156 177 0
-439 150 168 163 178 172 157 175 179 0
-440 164 173 158 176 180 169 178 151 0
-179 441 0
-180 441 0
-441 152 159 170 180 174 165 177 179 0
-185 675 0
-675 676 0
-186 676 0
-676 677 0
-677 678 0
-188 678 0
-678 679 0
-679 680 0
-680 681 0
-681 682 0
-192 682 0
-682 683 0
-193 683 0
-683 684 0
-684 685 0
685 -195 0
686 -685 0
687 -686 0
688 -687 0
-198 688 0
689 -688 0
-199 689 0
690 -689 0
691 -690 0
-201 691 0
692 -691 0
693 -692 0
-203 693 0
694 -693 0
-204 694 0
695 -694 0
696 -695 0
-206 696 0
697 -696 0
697 -207 0
698 -697 0
698 -208 0
699 -698 0
-209 -698 0
699 -209 0
700 -699 0
700 -210 0
701 -700 0
-211 -700 0
-211 701 0
702 -701 0
-212 -701 0
-212 702 0
703 -702 0
-213 -702 0
-213 703 0
704 -703 0
-214 -703 0
704 -214 0
705 -704 0
-215 -704 0
-215 705 0
-216 -705 0
-446 209 207 184 208 191 197 202 210 0
-447 185 207 212 213 203 198 192 211 0
-448 186 208 211 214 199 193 204 215 0
-449 205 209 212 214 216 200 194 187 0
-450 201 195 188 216 213 210 215 206 0
-220 709 0
-709 710 0
-710 711 0
-222 711 0
-711 712 0
-223 712 0
-712 713 0
-224 713 0
-713 714 0
-714 715 0
-715 716 0
-227 716 0
-716 717 0
-717 718 0
-229 718 0
-718 719 0
-230 719 0
-719 720 0
-231 720 0
-720 721 0
-721 722 0
-233 722 0
-722 723 0
-234 -722 0
-234 723 0
-723 724 0
-235 -723 0
-235 724 0
-724 725 0
-236 -724 0
-725 726 0
-237 -725 0
-237 726 0
-726 727 0
-238 727 0
-727 728 0
-239 -727 0
-728 729 0
-240 -728 0
-240 729 0
-729 730 0
-241 -729 0
-730 731 0
-242 -730 0
-242 731 0
-731 732 0
-731 -243 0
732 -243 0
733 -732 0
-244 -732 0
733 -244 0
734 -733 0
-245 -733 0
734 -245 0
735 -734 0
-246 -734 0
735 -246 0
736 -735 0
-247 -735 0
736 -247 0
737 -736 0
-248 -736 0
737 -248 0
738 -737 0
-249 -737 0
739 -738 0
-250 -738 0
740 -739 0
-251 -739 0
-251 740 0
-252 -740 0
455 -243 0
455 -246 0
-455 243 244 245 238 246 220 227 233 0
-234 456 0
-239 456 0
456 -243 0
456 -247 0
456 -248 0
-249 456 0
-456 221 228 247 248 243 239 234 249 0
-457 244 222 251 247 240 235 229 250 0
-458 236 248 245 230 241 252 250 223 0
-237 459 0
224 231 246 242 251 237 249 -459 252 0
-256 744 0
-744 745 0
-257 745 0
-745 746 0
-258 746 0
-746 747 0
-747 748 0
-260 748 0
-748 749 0
-749 750 0
-750 751 0
-263 751 0
-751 752 0
-264 752 0
-752 753 0
-265 753 0
-753 754 0
-754 755 0
-267 755 0
-755 756 0
-756 757 0
-269 757 0
-757 758 0
-270 758 0
-758 759 0
-271 759 0
-759 760 0
-760 761 0
-273 761 0
-761 762 0
-274 762 0
-762 763 0
-275 763 0
-763 764 0
-276 764 0
-764 765 0
-765 766 0
-278 766 0
-766 767 0
-279 767 0
-767 768 0
-280 768 0
-768 769 0
-281 -768 0
-281 769 0
-769 770 0
-282 770 0
-770 771 0
-283 -770 0
771 -283 0
-771 772 0
-284 -771 0
-284 772 0
-772 773 0
-285 -772 0
-285 773 0
-773 774 0
-286 -773 0
775 -774 0
-774 -287 0
775 -287 0
-288 -775 0
256 -464 282 279 280 281 263 274 269 0
-465 257 284 270 285 283 264 279 275 0
-466 280 287 286 276 258 283 271 265 0
-467 277 281 286 288 284 272 259 266 0
-468 287 278 273 288 267 260 285 282 0
-292 779 0
-779 780 0
-293 780 0
-780 781 0
781 -294 0
782 -781 0
783 -782 0
-296 783 0
784 -783 0
785 -784 0
786 -785 0
-299 786 0
787 -786 0
-300 787 0
788 -787 0
-301 788 0
789 -788 0
790 -789 0
-303 790 0
791 -790 0
792 -791 0
-305 792 0
793 -792 0
-306 793 0
794 -793 0
-307 794 0
-794 795 0
-795 796 0
-309 796 0
-796 797 0
-310 797 0
-797 798 0
-311 798 0
-798 799 0
-312 799 0
-799 800 0
-800 801 0
-314 801 0
802 -801 0
-315 -801 0
-315 802 0
803 -802 0
-316 -802 0
-316 803 0
804 -803 0
-317 -803 0
-317 804 0
805 -804 0
-318 -804 0
-318 805 0
806 -805 0
-319 -805 0
-319 806 0
807 -806 0
-320 -806 0
-320 807 0
808 -807 0
-321 -807 0
-321 808 0
809 -808 0
-322 -808 0
810 -809 0
-323 -809 0
810 -323 0
-324 -810 0
292 317 318 316 299 -473 310 315 305 0
-474 306 319 321 320 315 293 300 311 0
-475 301 294 322 323 319 316 312 307 0
-476 308 320 295 317 322 324 313 302 0
-477 296 318 314 321 324 323 303 309 0
-329 815 0
-815 816 0
-330 816 0
-816 817 0
-817 818 0
-332 818 0
-818 819 0
-819 820 0
-820 821 0
-821 822 0
-336 822 0
-822 823 0
-337 823 0
-823 824 0
-824 825 0
-339 825 0
-825 826 0
-826 827 0
-827 828 0
-342 828 0
-828 829 0
-343 829 0
-829 830 0
-830 831 0
-345 831 0
-831 832 0
-832 833 0
-347 833 0
-833 834 0
-348 834 0
-834 835 0
-835 836 0
-350 836 0
-836 837 0
-837 838 0
839 -838 0
-838 -353 0
839 -353 0
840 -839 0
-354 -839 0
-354 840 0
841 -840 0
-355 -840 0
842 -841 0
-356 -841 0
-356 842 0
843 -842 0
-357 -842 0
843 -357 0
844 -843 0
-358 -843 0
845 -844 0
-359 -844 0
845 -359 0
-360 -845 0
341 353 352 335 354 346 -482 351 328 0
329 -483 351 357 356 347 342 336 355 0
-484 348 355 359 358 330 352 343 337 0
-485 331 353 356 360 344 338 358 349 0
486 -354 0
486 -357 0
486 -359 0
-360 486 0
-486 332 350 354 360 357 345 359 339 0
-368 853 0
-853 854 0
-854 855 0
-855 856 0
-856 857 0
-857 858 0
-858 859 0
-859 860 0
-375 860 0
-860 861 0
-861 862 0
-862 863 0
-863 864 0
-864 865 0
-865 866 0
-381 866 0
-866 867 0
-867 868 0
-868 869 0
-869 870 0
871 -870 0
-386 871 0
872 -871 0
873 -872 0
-873 -389 0
874 -389 0
-874 875 0
-875 876 0
877 -876 0
-876 -392 0
877 -392 0
878 -877 0
-877 -393 0
878 -393 0
879 -878 0
-878 -394 0
880 -879 0
-879 -395 0
880 -395 0
-880 -396 0
-491 389 388 377 382 371 387 364 390 0
365 392 -492 378 383 387 391 372 393 0
366 373 -493 379 384 388 391 394 395 0
374 392 389 396 -494 385 394 380 367 0
-495 390 375 381 386 368 393 395 396 0
-989 0
-990 0
-991 0
-992 0
993 0
-1092 0
-994 0
-1093 0
-995 0
-1094 0
-996 0
-1095 0
-997 0
1096 0
-998 397 989 0
-999 398 990 0
399 -1000 991 0
400 -1001 992 0
401 1002 -993 0
402 -1003 994 0
403 -1004 995 0
404 -1005 996 0
405 -1006 997 0
-1 -998 989 0
-999 -1 989 990 0
-2 -998 989 0
-3 -998 989 0
-4 -998 989 0
1002 -4 -993 0
-5 -998 989 0
-1003 -5 989 994 0
-6 -998 989 0
-7 -998 989 0
-1005 -7 989 996 0
-8 -998 989 0
-1006 -8 989 997 0
-999 -9 990 0
-999 -10 990 0
-11 -999 990 0
1002 -11 -993 0
-12 -999 990 0
-1003 -12 990 994 0
-13 -999 990 0
-14 -999 990 0
-1005 -14 990 996 0
-15 -999 990 0
-1006 -15 990 997 0
1002 -17 -993 0
-1003 -18 991 994 0
-1005 -20 991 996 0
-1006 -21 991 997 0
-22 1002 -993 0
-23 -1003 992 994 0
-25 -1005 992 996 0
-1006 -26 992 997 0
-27 -1002 994 0
-27 1003 -993 0
-28 -1002 995 0
-28 1004 -993 0
-29 -1002 996 0
-29 1005 -993 0
-30 1006 -993 0
-31 -1003 994 0
-32 -1003 994 0
-32 -1005 994 996 0
-33 -1003 994 0
-1006 -33 994 997 0
-34 -1005 995 996 0
-35 -1006 995 997 0
-36 -1005 996 0
-36 -1006 996 997 0
-1007 406 998 0
407 -1008 999 0
410 -1011 1002 0
410 1011 -1002 0
1012 411 -1003 0
1013 412 -1004 0
-1014 413 1005 0
1014 413 -1005 0
-1015 414 1006 0
414 1015 -1006 0
-37 -1007 998 0
-37 -1008 998 999 0
-38 -1007 998 0
-39 -1007 998 0
-40 1011 -1002 0
-40 -1011 1002 998 0
-1007 -41 998 0
-42 -1007 998 0
-43 -1007 998 0
-43 1014 -1005 0
-43 -1014 998 1005 0
-44 -1015 1006 998 0
-45 -1008 999 0
-46 -1008 999 0
-47 -1008 999 0
-47 1011 -1002 0
-47 -1011 999 1002 0
-48 -1008 999 0
-49 -1008 999 0
-50 -1008 999 0
-50 1014 -1005 0
-50 -1014 999 1005 0
-51 -1015 999 1006 0
-53 1011 -1002 0
-53 -1011 1002 1000 0
-56 1014 -1005 0
-56 -1014 1000 1005 0
-57 -1015 1000 1006 0
-58 1011 -1002 0
-58 -1011 1002 1001 0
-61 1014 -1005 0
-61 -1014 1001 1005 0
-62 -1015 1001 1006 0
-63 -1011 1002 0
-63 -1011 1003 0
1012 -63 -1002 0
-1011 -64 1002 0
1013 -64 -1002 0
-64 -1013 1002 1004 0
-65 -1011 1002 0
-65 -1011 1005 0
1014 -65 -1002 0
-65 1014 -1005 0
-1014 -65 1002 1005 0
-66 -1011 1006 0
-68 1014 -1003 0
-68 1014 -1005 0
-68 -1014 1003 1005 0
-69 -1015 1006 1003 0
-70 1014 -1004 0
-70 1014 -1005 0
-70 -1014 1004 1005 0
-71 -1015 1004 1006 0
-72 -1014 1005 0
-72 -1014 1006 0
-72 -1015 1006 1005 0
-1016 1007 415 0
416 1008 -1017 0
-1020 419 1011 0
1020 -1011 419 0
1021 420 -1012 0
421 1022 -1013 0
1023 -1014 422 0
-1024 423 1015 0
-73 -1016 1007 0
-74 -1016 1007 0
-75 -1016 1007 0
-76 1020 -1011 0
-77 -1016 1007 0
-78 -1016 1007 0
-79 -1016 1007 0
-79 1023 -1014 0
-81 -1017 1008 0
-83 1020 -1011 0
-84 -1017 1008 0
-86 1023 -1014 0
1020 -89 -1011 0
-92 1023 -1014 0
-94 1020 -1011 0
-97 1023 -1014 0
1021 -99 -1011 0
1022 -100 -1011 0
1023 -101 -1011 0
1023 -101 -1014 0
-104 -1012 1023 0
-104 1023 -1014 0
-106 1023 -1013 0
-106 1023 -1014 0
1013 -1024 -107 1015 0
-108 -1023 1015 0
428 -1029 1020 0
428 1029 -1020 0
1030 429 -1021 0
1031 -1022 430 0
1032 431 -1023 0
1024 -1033 432 0
1029 -1020 -112 0
-115 1032 -1023 0
-1016 1033 -116 0
1029 -1020 -119 0
-122 1032 -1023 0
-1033 -123 1017 1024 0
1029 -1020 -125 0
-128 1032 -1023 0
1029 -1020 -130 0
-133 1032 -1023 0
1030 -135 -1020 0
-136 1031 -1020 0
-137 1032 -1020 0
-137 1032 -1023 0
-140 1032 -1021 0
-140 1032 -1023 0
-141 -1030 1024 0
-1022 -142 1032 0
-142 1032 -1023 0
-144 1024 -1032 0
1029 437 -1038 0
1038 437 -1029 0
1039 438 -1030 0
-1031 1040 439 0
1032 -1041 440 0
1041 440 -1032 0
1033 -1042 441 0
1042 -1033 441 0
1038 -148 -1029 0
-151 1041 -1032 0
1038 -155 -1029 0
-158 1041 -1032 0
1038 -161 -1029 0
-164 1041 -1032 0
1038 -166 -1029 0
-169 1041 -1032 0
1039 -171 -1029 0
1040 -172 -1029 0
-173 1041 -1029 0
-173 1041 -1032 0
-176 -1030 1041 0
-176 1041 -1032 0
-177 1033 -1039 0
-1031 -178 1041 0
-178 1041 -1032 0
1038 446 -1047 0
1047 446 -1038 0
1039 447 -1048 0
1048 447 -1039 0
1049 -1040 448 0
449 1041 -1050 0
1050 449 -1041 0
1042 -1051 450 0
1051 -1042 450 0
-184 1047 -1038 0
-187 -1041 1050 0
-191 1047 -1038 0
-194 -1041 1050 0
-197 1047 -1038 0
-200 -1041 1050 0
-202 1047 -1038 0
-205 -1041 1050 0
1048 -207 -1038 0
1049 -208 -1038 0
-209 1050 -1038 0
-209 -1041 1050 0
-212 -1041 1050 0
-214 -1040 1050 0
-214 -1041 1050 0
-1042 -216 -1041 1050 0
1047 455 -1056 0
1056 455 -1047 0
1057 456 -1048 0
1058 -1049 457 0
1059 458 -1050 0
1051 -1060 459 0
1060 -1051 459 0
-220 1056 -1047 0
-221 -1048 1057 0
-223 -1050 1059 0
-227 1056 -1047 0
-228 -1048 1057 0
-230 -1050 1059 0
-233 1056 -1047 0
-236 -1050 1059 0
-238 1056 -1047 0
-241 -1050 1059 0
-1047 -243 1057 0
1058 -244 -1047 0
1059 -245 -1047 0
1059 -245 -1050 0
-248 -1048 1059 0
-248 -1050 1059 0
-250 1059 -1049 0
-250 -1050 1059 0
464 -1056 1065 0
1066 465 -1057 0
-1058 1067 466 0
1068 467 -1059 0
1060 -1069 468 0
-1060 1069 468 0
-256 -1056 1065 0
-257 -1057 1066 0
-259 1068 -1059 0
-263 -1056 1065 0
-264 -1057 1066 0
-266 1068 -1059 0
-269 -1056 1065 0
-270 -1057 1066 0
-272 1068 -1059 0
-274 -1056 1065 0
-275 -1057 1066 0
-277 1068 -1059 0
-279 -1056 1066 0
-279 -1057 1066 0
-280 -1056 1067 0
-281 -1056 1068 0
-281 1068 -1059 0
-283 -1057 1067 0
-284 -1057 1068 0
-284 1068 -1059 0
-286 -1058 1068 0
-286 1068 -1059 0
-288 1060 -1068 0
-1065 473 1074 0
474 1075 -1066 0
-1067 1076 475 0
1077 476 -1068 0
1069 -1078 477 0
1078 -1069 477 0
-292 -1065 1074 0
-293 1075 -1066 0
-294 -1067 1076 0
-295 -1068 1077 0
-299 -1065 1074 0
-300 1075 -1066 0
-301 -1067 1076 0
-302 -1068 1077 0
-305 -1065 1074 0
-306 1075 -1066 0
-307 -1067 1076 0
-308 -1068 1077 0
-310 -1065 1074 0
-311 1075 -1066 0
-312 -1067 1076 0
-313 -1068 1077 0
-315 1075 -1065 0
-315 1075 -1066 0
-316 1076 -1065 0
-316 -1067 1076 0
1077 -1065 -317 0
1077 -317 -1068 0
-319 1076 -1066 0
-319 -1067 1076 0
-320 1077 -1066 0
-1068 -320 1077 0
-322 -1067 1077 0
-322 -1068 1077 0
-324 -1069 -1068 1077 0
482 -1074 1083 0
483 -1075 1084 0
-1076 1085 484 0
1086 485 -1077 0
1078 -1087 486 0
-1078 1087 486 0
-328 -1074 1083 0
-329 -1075 1084 0
-330 -1076 1085 0
-331 1086 -1077 0
-335 -1074 1083 0
-336 -1075 1084 0
-337 -1076 1085 0
-338 1086 -1077 0
-341 -1074 1083 0
-342 -1075 1084 0
-343 -1076 1085 0
-344 1086 -1077 0
-346 -1074 1083 0
-347 -1075 1084 0
-348 -1076 1085 0
-349 1086 -1077 0
-351 -1074 1084 0
-351 -1075 1084 0
-352 -1074 1085 0
-352 -1076 1085 0
-1074 -353 1086 0
-353 1086 -1077 0
-355 -1075 1085 0
-355 -1076 1085 0
-356 -1075 1086 0
-356 1086 -1077 0
-358 -1076 1086 0
-358 1086 -1077 0
-360 -1078 -1077 1086 0
-1083 491 1092 0
-1084 492 1093 0
-1085 493 1094 0
-1086 494 1095 0
495 1087 -1096 0
-1083 -364 1092 0
-1084 -365 1093 0
-366 -1085 1094 0
-1086 -367 1095 0
-1083 -371 1092 0
-1084 -372 1093 0
-373 -1085 1094 0
-1086 -374 1095 0
-1083 -377 1092 0
-378 -1084 1093 0
-379 -1085 1094 0
-1086 -380 1095 0
-382 -1083 1092 0
-383 -1084 1093 0
-384 -1085 1094 0
-1086 -385 1095 0
-387 -1083 1093 0
-387 -1084 1093 0
-388 -1083 1094 0
-388 -1085 1094 0
-389 -1083 1095 0
-1086 -389 1095 0
-391 -1084 1094 0
-391 -1085 1094 0
-392 -1084 1095 0
-392 -1086 1095 0
-394 -1085 1095 0
-394 -1086 1095 0
-1087 -396 -1086 1095 0
-1097 0
-1098 0
-1099 0
-1102 0
-1103 0
-1104 0
1203 0
-1105 0
1204 0
-1114 405 1105 0
-1114 -8 1097 1105 0
-1114 -15 1098 1105 0
-21 -1114 1099 1105 0
-1114 -33 1102 1105 0
-35 -1114 1103 1105 0
-1114 -36 1104 1105 0
-1123 414 1114 0
-1122 -72 1114 0
1122 -1131 422 0
-1132 423 1123 0
-1131 -108 1123 0
1131 -1140 431 0
1132 -1141 432 0
-1140 -144 1132 0
1140 -1149 440 0
1141 -1150 441 0
-180 -1149 1141 0
1149 -1158 449 0
1150 -1159 450 0
-1158 -216 1150 0
1158 -1167 458 0
1159 -1168 459 0
1167 -1176 467 0
1168 -1177 468 0
-1176 -288 1168 0
1176 -1185 476 0
1177 -1186 477 0
-1185 -324 1177 0
1185 -1194 485 0
1186 -1195 486 0
-360 1186 -1194 0
494 1194 -1203 0
495 1195 -1204 0
-396 1195 -1203 0
1209 0
1210 0
-1211 0
-1212 0
1311 0
-1213 0
1312 0
1218 401 -1209 0
-1222 405 1213 0
-27 1218 -1209 -1210 0
-28 -1218 1211 0
-1218 -29 1212 0
410 1227 -1218 0
-1231 414 1222 0
1236 -1227 419 0
-1240 423 1231 0
1240 -1249 432 0
1249 -1258 441 0
1258 -1267 450 0
-1266 -216 1258 0
1266 -1275 458 0
1267 -1276 459 0
1275 -1284 467 0
1276 -1285 468 0
1284 -1293 476 0
1285 -1294 477 0
1293 -1302 485 0
1294 -1303 486 0
494 1302 -1311 0
495 1303 -1312 0
-1313 0
-1317 0
-1318 0
-1319 0
-1321 0
1420 0
-1322 397 1313 0
-1326 401 1317 0
-1328 403 1319 0
-1330 405 1321 0
-1322 -1 1313 0
-1322 -2 1313 0
-1322 -3 1313 0
-1322 -4 1313 0
-1322 -5 1313 0
-1322 -6 1313 0
-1322 -7 1313 0
-1322 -8 1313 0
-27 -1326 1317 0
-1327 -27 1317 1318 0
-30 -1330 1317 1321 0
-1331 406 1322 0
-1335 410 1326 0
-1339 414 1330 0
-37 -1331 1322 0
-38 -1331 1322 0
-39 -1331 1322 0
-40 -1331 1322 0
-41 -1331 1322 0
-42 -1331 1322 0
-43 -1331 1322 0
-44 -1331 1322 0
-1339 -44 1330 1322 0
-1339 -66 1330 1326 0
-69 -1339 1327 1330 0
-1340 1331 415 0
-1344 419 1335 0
-1348 423 1339 0
-80 1331 1339 -1348 0
-102 -1348 1335 1339 0
-1353 428 1344 0
1348 -1357 432 0
-1357 -116 1340 1348 0
-138 -1357 1344 1348 0
-1362 1353 437 0
1357 -1366 441 0
-174 1353 -1366 1357 0
-1371 1362 446 0
1366 -1375 450 0
-210 1362 -1375 1366 0
-1380 1371 455 0
1375 -1384 459 0
1375 1371 -1384 -246 0
-1389 1380 464 0
1384 -1393 468 0
1384 -1393 1380 -282 0
-1398 1389 473 0
1393 -1402 477 0
-318 -1402 1389 1393 0
1402 -1411 486 0
1398 -354 -1411 1402 0
495 1411 -1420 0
-1425 0
-1426 0
-1427 0
1527 0
-1429 0
1528 0
-1434 401 1425 0
-1436 403 1427 0
-1438 405 1429 0
-1435 -27 1425 1426 0
-1443 410 1434 0
-1444 411 1435 0
-1447 414 1438 0
-1447 -66 1434 1438 0
-1452 419 1443 0
-1456 423 1447 0
-105 1444 -1456 1447 0
-1461 428 1452 0
1456 -1465 432 0
-1470 1461 437 0
1465 -1474 441 0
-1474 -174 1461 1465 0
-1479 1470 446 0
1474 -1483 450 0
-210 -1483 1470 1474 0
1483 -1492 459 0
1479 -246 -1492 1483 0
-1491 -252 1483 0
1491 -1500 467 0
1492 -1501 468 0
1500 -1509 476 0
1501 -1510 477 0
1509 -1518 485 0
1510 -1519 486 0
494 1518 -1527 0
495 1519 -1528 0
-1745 0
-1746 0
-1747 0
-1748 0
1749 0
-1848 0
-1750 0
-1849 0
-1751 0
-1850 0
-1752 0
1851 0
1753 0
1852 0
-1754 397 1745 0
-1755 398 1746 0
-1756 399 1747 0
-1757 400 1748 0
1758 401 -1749 0
-1759 402 1750 0
-1760 403 1751 0
-1761 404 1752 0
1762 405 -1753 0
1758 -4 -1749 0
-1759 -5 1745 1750 0
-1760 -6 1745 1751 0
-1761 -7 1745 1752 0
1762 -8 -1753 0
-11 1758 -1749 0
-1759 -12 1746 1750 0
-13 -1760 1746 1751 0
-1761 -14 1746 1752 0
1762 -15 -1753 0
1758 -17 -1749 0
-1759 -18 1747 1750 0
-19 -1760 1747 1751 0
-1761 -20 1747 1752 0
1762 -21 -1753 0
1758 -22 -1749 0
-1759 -23 1748 1750 0
-24 -1760 1748 1751 0
-1761 -25 1748 1752 0
-26 1762 -1753 0
-27 -1758 1750 0
-27 1759 -1749 0
-28 -1758 1751 0
-28 1760 -1749 0
-29 -1758 1752 0
-29 1761 -1749 0
-30 1758 -1749 -1753 0
-30 1762 -1749 0
-31 -1759 1750 0
-31 -1760 1750 1751 0
-1759 -32 1750 0
-1761 -32 1750 1752 0
-1759 -33 1750 0
1762 -33 -1753 0
-1760 -34 1751 0
-1761 -34 1751 1752 0
-1760 -35 1751 0
1762 -35 -1753 0
-1761 -36 1752 0
1762 -36 -1753 0
410 1767 -1758 0
-1768 411 1759 0
1768 411 -1759 0
412 -1769 1760 0
412 1769 -1760 0
1770 413 -1761 0
1771 414 -1762 0
-40 1767 -1758 0
-41 -1768 1754 1759 0
-42 1769 -1760 0
-42 -1769 1754 1760 0
-43 1770 -1761 0
1771 -44 -1762 0
-47 1767 -1758 0
-48 -1768 1755 1759 0
-49 1769 -1760 0
-49 -1769 1760 1755 0
-50 1770 -1761 0
-51 1771 -1762 0
-53 1767 -1758 0
-54 -1768 1756 1759 0
-55 1769 -1760 0
-55 -1769 1760 1756 0
-56 1770 -1761 0
-57 1771 -1762 0
-58 1767 -1758 0
-59 -1768 1757 1759 0
-60 1769 -1760 0
-60 -1769 1760 1757 0
-61 1770 -1761 0
-62 1771 -1762 0
-63 -1767 1759 0
1768 -63 -1758 0
-1768 -63 1758 1759 0
-1767 -64 1760 0
1769 -64 -1758 0
1769 -64 -1760 0
-1769 -64 1758 1760 0
-65 -1767 1761 0
1770 -65 -1758 0
-66 -1767 1758 0
-66 1767 -1762 -1758 0
1771 -66 -1762 0
-67 -1768 1759 0
-67 1769 -1760 0
-68 -1768 1759 0
-68 -1768 1761 0
-69 -1768 1759 0
-69 1771 -1762 0
-70 -1769 1761 0
-71 1769 -1760 -1762 0
-71 1771 -1762 0
-1770 -72 1761 0
1770 -72 -1762 -1761 0
-72 1771 -1762 0
-1776 419 1767 0
-1767 1776 419 0
1777 420 -1768 0
421 1778 -1769 0
1779 -1770 422 0
423 1780 -1771 0
-76 -1767 1776 0
-77 1777 -1768 0
-78 1778 -1769 0
-80 1780 -1771 0
-83 -1767 1776 0
-84 1777 -1768 0
-85 1778 -1769 0
-87 1780 -1771 0
-89 -1767 1776 0
-90 1777 -1768 0
-91 1778 -1769 0
-93 1780 -1771 0
-94 -1767 1776 0
-95 1777 -1768 0
-96 1778 -1769 0
-97 1779 -1770 0
-98 1780 -1771 0
-1768 -1767 1776 -99 0
1777 -99 -1767 0
1777 -99 -1768 0
-100 1778 -1767 0
-100 1778 -1769 0
-1770 -101 -1767 1776 0
1779 -101 -1767 0
-102 1776 -1771 -1767 0
-102 1780 -1771 0
-103 1778 -1768 0
-103 1778 -1769 0
-105 -1777 1768 0
-105 1777 -1771 -1768 0
-105 1780 -1771 0
-106 1779 -1770 0
1778 -1771 -107 -1769 0
1780 -1771 -107 0
1779 -108 -1771 -1770 0
-108 1780 -1771 0
428 -1785 1776 0
428 -1776 1785 0
1786 429 -1777 0
1787 430 -1778 0
1788 431 -1779 0
1789 432 -1780 0
-112 -1776 1785 0
-112 -1785 1772 1776 0
-113 1786 -1777 0
-114 1787 -1778 0
-116 1789 -1780 0
-119 -1776 1785 0
1773 -119 -1785 1776 0
-120 1786 -1777 0
-121 1787 -1778 0
-123 1789 -1780 0
-125 -1776 1785 0
1774 -125 -1785 1776 0
-126 1786 -1777 0
-127 -1778 1787 0
-129 1789 -1780 0
-1784 -130 1776 0
-130 -1776 1785 0
1775 -130 -1785 1776 0
-131 1786 -1777 0
-132 1787 -1778 0
-134 1789 -1780 0
-135 -1785 1776 0
1777 -135 -1785 0
1786 -135 -1776 0
1786 -135 -1777 0
-136 -1785 1776 0
-136 -1785 1778 0
-136 -1776 -1778 1785 0
-136 1787 -1776 0
-136 -1778 1787 0
-137 -1785 1776 0
-137 -1776 -1779 1785 0
-137 1788 -1776 0
-138 -1785 1776 0
-138 -1776 1785 -1780 0
-138 1789 -1780 0
-139 -1777 1787 0
-139 1787 -1778 0
-141 -1777 -1780 1786 0
-141 1789 -1780 0
-142 -1778 -1779 1787 0
-142 1788 -1778 0
-143 -1778 -1780 1787 0
-143 1789 -1780 0
1779 -144 -1788 0
-144 1788 -1779 -1780 0
-144 1789 -1780 0
437 1785 -1794 0
437 1794 -1785 0
1795 438 -1786 0
1796 439 -1787 0
1797 440 -1788 0
1798 441 -1789 0
-148 1794 -1785 0
1781 -148 -1794 1785 0
-149 1795 -1786 0
-150 1796 -1787 0
-152 1798 -1789 0
-155 1794 -1785 0
1782 -155 -1794 1785 0
-156 1795 -1786 0
-157 1796 -1787 0
-159 1798 -1789 0
-161 1794 -1785 0
1783 -161 -1794 1785 0
-162 1795 -1786 0
-163 1796 -1787 0
-165 1798 -1789 0
-166 1794 -1785 0
-166 1784 -1794 1785 0
-167 1795 -1786 0
-168 1796 -1787 0
-170 1798 -1789 0
-171 1785 -1794 0
1795 -171 -1785 0
-171 1795 -1786 0
-172 1785 -1794 0
1796 -172 -1785 0
1796 -172 -1787 0
-173 1785 -1794 0
-173 -1785 -1788 1794 0
-173 1797 -1785 0
-174 1794 -1785 -1789 0
-174 1798 -1789 0
-175 1796 -1786 0
-175 1796 -1787 0
1797 -176 -1786 0
-177 -1786 -1789 1795 0
-177 1798 -1789 0
-178 -1788 -1787 1796 0
-178 -1787 1797 0
-179 1796 -1789 -1787 0
-179 1798 -1789 0
-180 1788 -1797 0
-180 1797 -1789 -1788 0
-180 1798 -1789 0
446 1794 -1803 0
446 1803 -1794 0
1804 447 -1795 0
1805 448 -1796 0
1806 449 -1797 0
1807 450 -1798 0
-184 1803 -1794 0
1790 -184 -1803 1794 0
-185 -1795 1804 0
-186 1805 -1796 0
-188 -1798 1807 0
-191 1803 -1794 0
1791 -191 -1803 1794 0
-192 1804 -1795 0
-193 1805 -1796 0
-195 -1798 1807 0
-197 1803 -1794 0
1792 -197 -1803 1794 0
-198 1804 -1795 0
-199 -1796 1805 0
-201 -1798 1807 0
-202 1803 -1794 0
1793 -202 -1803 1794 0
-203 1804 -1795 0
-204 -1796 1805 0
-206 -1798 1807 0
-207 1794 -1803 0
1804 -207 -1794 0
-207 1804 -1795 0
1795 1794 -207 -1804 0
-208 1794 -1803 0
1805 -208 -1794 0
1805 -208 -1796 0
-209 1794 -1803 0
-209 -1797 -1794 1803 0
-209 1806 -1794 0
-210 -1794 -1798 1803 0
-210 -1798 1807 0
-211 1796 -1804 0
-211 1805 -1795 0
-211 -1796 1805 0
-212 -1797 -1795 1804 0
-213 -1795 -1798 1804 0
-213 -1798 1807 0
-214 -1797 -1796 1805 0
-215 1805 -1798 -1796 0
-215 -1798 1807 0
-216 1806 -1798 -1797 0
-216 -1798 1807 0
455 1812 -1803 0
1813 456 -1804 0
1814 457 -1805 0
1815 458 -1806 0
1816 459 -1807 0
-220 1812 -1803 0
-221 1813 -1804 0
-222 1814 -1805 0
1816 -1807 -224 0
-227 1812 -1803 0
-228 1813 -1804 0
-229 1814 -1805 0
-231 1816 -1807 0
-233 1812 -1803 0
-234 1813 -1804 0
-235 1814 -1805 0
-237 1816 -1807 0
-238 1812 -1803 0
-239 1813 -1804 0
-240 1814 -1805 0
-242 1816 -1807 0
1813 -243 -1803 0
-243 1813 -1804 0
1814 -244 -1803 0
1814 -244 -1805 0
1815 -245 -1803 0
-246 -1803 -1807 1812 0
-246 -1807 1816 0
-247 1805 -1813 0
-247 1814 -1804 0
-247 1814 -1805 0
-1806 -248 1813 -1804 0
-249 1813 -1807 -1804 0
-249 1816 -1807 0
-1806 -250 -1805 1814 0
-251 -1805 -1807 1814 0
-251 1816 -1807 0
1815 -252 -1807 -1806 0
-252 1816 -1807 0
1821 -1812 464 0
1822 465 -1813 0
1823 466 -1814 0
1824 467 -1815 0
1825 468 -1816 0
-256 1821 -1812 0
1822 -257 -1813 0
-258 -1814 1823 0
-260 1825 -1816 0
-263 1821 -1812 0
-264 1822 -1813 0
-265 -1814 1823 0
-267 1825 -1816 0
-269 1821 -1812 0
-270 1822 -1813 0
-271 -1814 1823 0
-273 1825 -1816 0
-274 1821 -1812 0
-275 1822 -1813 0
-276 -1814 1823 0
-278 1825 -1816 0
-279 1822 -1812 0
-279 1822 -1813 0
-280 1823 -1812 0
-280 1823 -1814 0
-1815 -281 1821 -1812 0
-281 1824 -1812 0
-1816 -282 -1812 1821 0
1825 -282 -1816 0
1823 -283 -1813 0
1823 -283 -1814 0
-285 1822 -1816 -1813 0
-285 1825 -1816 0
-286 -1815 -1814 1823 0
-286 -1814 1824 0
-287 -1816 -1814 1823 0
1825 -287 -1816 0
-288 1815 -1824 0
1824 -288 -1816 -1815 0
-288 1825 -1816 0
473 1821 -1830 0
473 -1821 1830 0
1831 474 -1822 0
1832 475 -1823 0
1833 476 -1824 0
1834 477 -1825 0
-1817 -292 1830 0
-292 -1821 1830 0
1817 -292 -1830 1821 0
-293 1831 -1822 0
1832 -294 -1823 0
-296 1834 -1825 0
-1818 -299 1830 0
-299 -1821 1830 0
1818 -299 -1830 1821 0
-300 1831 -1822 0
-301 1832 -1823 0
-303 1834 -1825 0
-1819 -305 1830 0
-305 -1821 1830 0
1819 -305 -1830 1821 0
-306 1831 -1822 0
-307 -1823 1832 0
-309 1834 -1825 0
-1820 -310 1830 0
-310 -1821 1830 0
1820 -310 -1830 1821 0
-311 1831 -1822 0
-312 1832 -1823 0
-314 1834 -1825 0
-315 1822 -1830 0
-315 1831 -1821 0
-315 1831 -1822 0
-316 1823 -1830 0
-316 1832 -1821 0
-316 1832 -1823 0
1821 -317 -1830 0
-318 -1825 1830 -1821 0
-318 1834 -1825 0
1832 -319 -1822 0
1832 -319 -1823 0
-321 1831 -1825 -1822 0
-321 1834 -1825 0
-322 -1824 -1823 1832 0
-322 1833 -1823 0
-1825 -323 -1823 1832 0
1834 -323 -1825 0
-324 1824 -1833 0
-324 1833 -1825 -1824 0
-324 1834 -1825 0
482 -1830 1839 0
-1831 483 1840 0
484 -1832 1841 0
486 -1834 1843 0
-328 -1830 1839 0
-329 -1831 1840 0
-330 -1832 1841 0
-332 -1834 1843 0
-335 -1830 1839 0
-336 -1831 1840 0
-337 -1832 1841 0
-339 -1834 1843 0
-341 -1830 1839 0
-342 -1831 1840 0
-343 -1832 1841 0
-345 -1834 1843 0
-346 -1830 1839 0
-347 -1831 1840 0
-348 -1832 1841 0
-350 -1834 1843 0
-351 -1830 1840 0
-351 -1831 1840 0
-352 -1830 1841 0
-352 -1832 1841 0
-1833 -353 -1830 1839 0
1833 1830 -353 -1842 0
-354 -1830 1839 -1834 0
-354 -1834 1843 0
-355 -1831 1841 0
-355 -1832 1841 0
-357 -1831 -1834 1840 0
-357 -1834 1843 0
-359 -1834 1841 -1832 0
-359 -1834 1843 0
-360 -1834 1843 0
-1839 491 1848 0
-1840 492 1849 0
-1841 493 1850 0
1842 494 -1851 0
-1839 -364 1848 0
-1840 -365 1849 0
-1841 -366 1850 0
-367 1835 1842 -1851 0
-1839 -371 1848 0
-1840 -372 1849 0
-1841 -373 1850 0
-374 1836 1842 -1851 0
-1839 -377 1848 0
-1840 -378 1849 0
-1841 -379 1850 0
-380 1837 1842 -1851 0
-1839 -382 1848 0
-1840 -383 1849 0
-1841 -384 1850 0
-385 1838 1842 -1851 0
-387 -1839 1849 0
-1840 -387 1849 0
-388 -1839 1850 0
-1841 -388 1850 0
-1842 -389 -1839 1848 0
-389 1839 1842 -1851 0
-1843 -390 -1839 1848 0
-391 -1840 1850 0
-1841 -391 1850 0
1840 -392 1842 -1851 0
-1843 -393 -1840 1849 0
-394 1841 1842 -1851 0
-1841 -395 -1843 1850 0
-395 1843 1841 -1852 0
1842 -396 -1851 0
1857 0
1861 0
1866 401 -1857 0
1870 405 -1861 0
1867 -27 -1857 0
410 1875 -1866 0
1876 411 -1867 0
1879 414 -1870 0
1876 -63 -1866 0
1884 -1875 419 0
1885 420 -1876 0
1888 423 -1879 0
1885 -1875 -99 0
1893 428 -1884 0
1894 429 -1885 0
1897 -1888 432 0
1894 -135 -1884 0
1903 438 -1894 0
1906 -1897 441 0
1903 -1893 -171 0
1912 447 -1903 0
1915 -1906 450 0
1921 456 -1912 0
1924 -1915 459 0
2183 0
2192 403 -2183 0
2201 -64 -2192 0
2212 -2201 -107 0
-3153 0
-3162 401 3153 0
-3171 410 3162 0
-3180 3171 419 0
-3189 428 3180 0
-3198 3189 437 0
-3207 3198 446 0
-3216 3207 455 0
-3225 3216 464 0
-3234 3225 473 0
-4229 0
4230 0
4231 0
4232 0
4233 0
4234 0
-4235 0
4236 0
4237 0
5312 0
-5313 0
5314 0
5315 0
5316 0
5317 0
-5322 401 5313 0
-5331 410 5322 0
-5340 5331 419 0
-5349 428 5340 0
-5358 5349 437 0
-5367 5358 446 0
-5376 5367 455 0
-5385 5376 464 0
-5394 5385 473 0
-6067 0
6069 0
6070 0
6071 0
6072 0
-6282 0
6285 0
6286 0
6288 0
-6389 0
6393 0
6394 0
6396 0
-6617 -44 1006 998 0
-51 -6617 999 1006 0
6617 -63 -1002 0
6617 -65 -1002 0
-69 -6617 1003 1006 0
-72 -6617 1005 1006 0
-80 -6618 1007 1015 0
-6618 -87 1015 1008 0
6618 -99 -1011 0
6618 -100 -1011 0
6618 -101 -1011 0
-108 1014 -6618 1015 0
-6619 -116 1016 1024 0
6619 -137 -1020 0
-6625 -351 1074 1075 0
-352 -6625 1074 1076 0
-355 -6625 1075 1076 0
6625 -360 -1077 0
-6877 -1 1745 1746 0
-2 -6877 1745 1747 0
-3 -6877 1745 1748 0
-4 6877 -1749 0
-6877 -5 1745 1750 0
-6 -6877 1745 1751 0
-6877 -7 1745 1752 0
6877 -8 -1753 0
-9 -6877 1746 1747 0
-10 -6877 1746 1748 0
-11 6877 -1749 0
-12 -6877 1746 1750 0
-13 -6877 1746 1751 0
-14 -6877 1746 1752 0
-15 6877 -1753 0
-16 -6877 1747 1748 0
-17 6877 -1749 0
-18 -6877 1747 1750 0
-19 -6877 1747 1751 0
-20 -6877 1747 1752 0
-21 6877 -1753 0
-22 6877 -1749 0
-23 -6877 1748 1750 0
-24 -6877 1748 1751 0
-25 -6877 1748 1752 0
-26 6877 -1753 0
-27 6877 -1749 0
-28 6877 -1749 0
-29 6877 -1749 0
-30 6877 -1749 0
-31 -6877 1750 1751 0
-32 -6877 1750 1752 0
-33 6877 -1753 0
-34 -6877 1751 1752 0
-35 6877 -1753 0
-36 6877 -1753 0
-40 6878 -1758 0
-41 6878 -1759 0
-42 6878 -1760 0
-43 6878 -1761 0
-44 6878 -1762 0
-47 6878 -1758 0
-48 6878 -1759 0
-49 6878 -1760 0
-50 6878 -1761 0
-51 6878 -1762 0
-53 6878 -1758 0
-54 6878 -1759 0
-55 6878 -1760 0
-56 6878 -1761 0
-57 6878 -1762 0
-58 6878 -1758 0
-59 6878 -1759 0
-60 6878 -1760 0
-61 6878 -1761 0
-62 6878 -1762 0
-63 6878 -1758 0
-63 6878 -1759 0
6878 -64 -1758 0
6878 -64 -1760 0
-65 6878 -1758 0
-65 6878 -1761 0
-66 6878 -1758 0
-66 6878 -1762 0
-67 6878 -1759 0
-67 6878 -1760 0
-68 6878 -1759 0
-68 6878 -1761 0
-69 6878 -1762 0
-70 6878 -1760 0
-70 6878 -1761 0
-71 6878 -1762 0
-72 6878 -1762 0
-76 6879 -1767 0
-77 6879 -1768 0
-78 6879 -1769 0
-79 -1770 6879 0
-80 6879 -1771 0
-83 6879 -1767 0
-84 6879 -1768 0
-85 6879 -1769 0
-86 -1770 6879 0
6879 -87 -1771 0
-89 6879 -1767 0
-90 6879 -1768 0
-91 6879 -1769 0
-92 -1770 6879 0
-93 6879 -1771 0
-94 6879 -1767 0
-95 6879 -1768 0
-96 6879 -1769 0
-97 -1770 6879 0
-98 6879 -1771 0
-99 6879 -1767 0
6879 -99 -1768 0
-100 6879 -1767 0
-100 6879 -1769 0
-101 6879 -1767 0
-101 -1770 6879 0
-102 6879 -1771 0
-103 -1768 6879 0
-103 6879 -1769 0
-104 -1768 6879 0
-104 -1770 6879 0
-105 6879 -1771 0
-106 6879 -1769 0
-106 -1770 6879 0
6879 -1769 -107 0
6879 -1771 -107 0
-108 6879 -1771 0
-1772 -112 6880 0
-112 -1776 6880 0
-113 -1777 6880 0
-114 -1778 6880 0
-115 -1779 6880 0
-116 6880 -1780 0
-1773 -119 6880 0
-119 -1776 6880 0
-120 -1777 6880 0
-121 -1778 6880 0
-122 -1779 6880 0
-123 6880 -1780 0
-1774 -125 6880 0
-125 -1776 6880 0
-126 -1777 6880 0
-127 -1778 6880 0
-128 -1779 6880 0
-129 6880 -1780 0
-1775 -130 6880 0
-130 -1776 6880 0
-131 -1777 6880 0
-132 -1778 6880 0
-133 -1779 6880 0
-134 6880 -1780 0
-135 -1776 6880 0
-135 -1777 6880 0
-136 -1776 6880 0
-136 -1778 6880 0
-137 -1776 6880 0
-137 -1779 6880 0
-138 -1776 6880 0
-138 6880 -1780 0
-139 -1777 6880 0
-139 -1778 6880 0
1777 -139 -6880 1778 0
-140 -1777 6880 0
-140 -1779 6880 0
-141 6880 -1780 0
-142 -1778 6880 0
-142 -1779 6880 0
-143 6880 -1780 0
-144 6880 -1780 0
-1781 -148 6881 0
-148 -1785 6881 0
-149 -1786 6881 0
-150 -1787 6881 0
-151 -1788 6881 0
-152 -1789 6881 0
-1782 -155 6881 0
-155 -1785 6881 0
-156 -1786 6881 0
-157 -1787 6881 0
-158 -1788 6881 0
-159 -1789 6881 0
-1783 -161 6881 0
-161 -1785 6881 0
-162 -1786 6881 0
-163 -1787 6881 0
-164 -1788 6881 0
-165 -1789 6881 0
-1784 -166 6881 0
-166 -1785 6881 0
-167 -1786 6881 0
-168 -1787 6881 0
-169 -1788 6881 0
-170 -1789 6881 0
-171 -1785 6881 0
-171 -1786 6881 0
-172 -1785 6881 0
-172 -1787 6881 0
-173 -1785 6881 0
-173 -1788 6881 0
-174 -1785 6881 0
-174 -1789 6881 0
-175 -1786 6881 0
-175 -1787 6881 0
-175 1787 -6881 1786 0
-176 -1786 6881 0
-176 -1788 6881 0
-177 -1786 6881 0
-177 -1789 6881 0
-178 -1787 6881 0
-178 -1788 6881 0
-179 -1789 6881 0
-180 -1789 6881 0
-1790 -184 6882 0
-184 -1794 6882 0
-185 -1795 6882 0
-186 -1796 6882 0
-187 -1797 6882 0
-188 -1798 6882 0
-1791 -191 6882 0
-191 -1794 6882 0
-192 -1795 6882 0
-193 -1796 6882 0
-194 -1797 6882 0
-195 -1798 6882 0
-1792 -197 6882 0
-197 -1794 6882 0
-198 -1795 6882 0
-199 -1796 6882 0
-200 -1797 6882 0
-201 -1798 6882 0
-1793 -202 6882 0
-202 -1794 6882 0
-203 -1795 6882 0
-204 -1796 6882 0
-205 -1797 6882 0
-206 -1798 6882 0
-207 -1794 6882 0
-207 -1795 6882 0
-208 -1794 6882 0
-208 -1796 6882 0
-209 -1794 6882 0
-209 -1797 6882 0
-210 -1794 6882 0
-210 -1798 6882 0
-211 -1795 6882 0
-211 -1796 6882 0
-212 -1795 6882 0
-212 -1797 6882 0
-213 -1798 6882 0
-214 -1796 6882 0
-214 -1797 6882 0
-215 -1798 6882 0
-216 -1798 6882 0
-220 -1803 6883 0
-221 -1804 6883 0
-222 -1805 6883 0
-223 -1806 6883 0
-1807 6883 -224 0
-227 -1803 6883 0
-228 -1804 6883 0
-229 -1805 6883 0
-230 -1806 6883 0
-231 -1807 6883 0
-233 -1803 6883 0
-234 -1804 6883 0
-235 -1805 6883 0
-236 -1806 6883 0
-237 -1807 6883 0
-238 -1803 6883 0
-239 -1804 6883 0
-240 -1805 6883 0
-241 -1806 6883 0
-242 -1807 6883 0
-243 -1803 6883 0
-243 -1804 6883 0
1804 1803 -243 -6883 0
-244 -1803 6883 0
-244 -1805 6883 0
-245 -1803 6883 0
-245 -1806 6883 0
-246 -1803 6883 0
-246 -1807 6883 0
-247 -1804 6883 0
-247 -1805 6883 0
-248 -1804 6883 0
-248 -1806 6883 0
-249 -1807 6883 0
-250 -1805 6883 0
-250 -1806 6883 0
-251 -1807 6883 0
-252 -1807 6883 0
-256 -1812 6884 0
-257 -1813 6884 0
-258 -1814 6884 0
-259 -1815 6884 0
-260 -1816 6884 0
-263 -1812 6884 0
-264 -1813 6884 0
-265 -1814 6884 0
-266 -1815 6884 0
-267 -1816 6884 0
-269 -1812 6884 0
-270 -1813 6884 0
-271 -1814 6884 0
-272 -1815 6884 0
-273 -1816 6884 0
-274 -1812 6884 0
-275 -1813 6884 0
-276 -1814 6884 0
-277 -1815 6884 0
-278 -1816 6884 0
-279 -1812 6884 0
-279 -1813 6884 0
-280 -1812 6884 0
-280 -1814 6884 0
-281 -1812 6884 0
-281 -1815 6884 0
-282 -1812 6884 0
-282 -1816 6884 0
-283 -1813 6884 0
-283 -1814 6884 0
-284 -1813 6884 0
-284 -1815 6884 0
-285 -1813 6884 0
-285 -1816 6884 0
-286 -1814 6884 0
-286 -1815 6884 0
-287 -1814 6884 0
-287 -1816 6884 0
-288 -1816 6884 0
-1817 -292 6885 0
-292 -1821 6885 0
1817 -292 -6885 1821 0
-294 -1823 6885 0
-295 -1824 6885 0
-296 -1825 6885 0
-1818 -299 6885 0
-299 -1821 6885 0
1818 -299 -6885 1821 0
-301 -1823 6885 0
-302 -1824 6885 0
-303 -1825 6885 0
-1819 -305 6885 0
-305 -1821 6885 0
1819 -305 -6885 1821 0
-307 -1823 6885 0
-308 -1824 6885 0
-309 -1825 6885 0
-1820 -310 6885 0
-310 -1821 6885 0
1820 -310 -6885 1821 0
-312 -1823 6885 0
-313 -1824 6885 0
-314 -1825 6885 0
-315 -1821 6885 0
-315 -1822 6885 0
-315 1822 -6885 1821 0
-316 -1821 6885 0
-316 -1823 6885 0
-317 -1821 6885 0
-317 -1824 6885 0
-318 -1825 6885 0
-319 -1822 6885 0
-319 -1823 6885 0
-320 -1822 6885 0
-320 -1824 6885 0
-321 -1825 6885 0
-322 -1823 6885 0
-322 -1824 6885 0
-323 -1825 6885 0
-324 -1825 6885 0
-330 -1832 6886 0
-331 -1833 6886 0
-332 -1834 6886 0
-337 -1832 6886 0
-338 -1833 6886 0
-339 -1834 6886 0
-343 -1832 6886 0
-344 -1833 6886 0
-345 -1834 6886 0
-348 -1832 6886 0
-349 -1833 6886 0
-350 -1834 6886 0
-351 -1830 6886 0
-352 -1830 6886 0
-352 -1832 6886 0
-353 -1830 6886 0
-353 -1833 6886 0
-354 -1834 6886 0
-355 -1831 6886 0
-355 -1832 6886 0
-356 -1831 6886 0
-356 -1833 6886 0
-357 -1831 6886 0
-357 -1834 6886 0
-358 -1832 6886 0
-358 -1833 6886 0
-359 -1834 6886 0
-360 -1834 6886 0
-1835 -367 6887 0
-367 6887 -1842 0
-368 -1843 6887 0
-1836 -374 6887 0
-374 6887 -1842 0
-375 -1843 6887 0
-1837 -380 6887 0
-1842 -380 6887 0
-381 -1843 6887 0
-1838 -385 6887 0
-1842 -385 6887 0
-386 -1843 6887 0
-388 -6887 1839 1841 0
-389 6887 -1839 0
-389 6887 -1842 0
-1843 6887 -390 0
-392 6887 -1840 0
-392 6887 -1842 0
6887 -393 -1840 0
-1843 6887 -393 0
-394 6887 -1841 0
-394 6887 -1842 0
-1841 -395 6887 0
-395 6887 -1843 0
-396 -1842 6887 0
6887 -396 -1843 0
6888 -6877 0
6889 -6888 0
6890 -6878 -6888 0
6891 -6890 0
-6890 -6879 0
6889 -6878 0
6892 -6889 0
6891 -6879 -6889 0
6893 -6891 0
-6880 -6891 0
6892 -6879 0
6894 -6892 0
-6880 6893 -6892 0
6895 -6893 0
-6881 -6893 0
6894 -6880 0
6896 -6894 0
-6881 6895 -6894 0
6897 -6895 0
-6882 -6895 0
6896 -6881 0
6898 -6896 0
-6882 6897 -6896 0
6899 -6897 0
-6883 -6897 0
6898 -6882 0
6900 -6898 0
6899 -6883 -6898 0
6901 -6899 0
-6884 -6899 0
6900 -6883 0
6902 -6900 0
6901 -6884 -6900 0
6903 -6901 0
-6885 -6901 0
6902 -6884 0
6904 -6902 0
6903 -6885 -6902 0
6905 -6903 0
-6886 -6903 0
6904 -6885 0
6905 -6886 -6904 0
-6887 -6905 0
7119 -64 -2192 0
7120 -2201 -107 0
7130 -7119 0
7132 -7120 -7130 0
-6 8330 4229 0
8330 -8 4229 0
-13 8330 4235 0
-15 -8330 -4230 -4237 0
-19 8330 4235 0
-21 -8330 -4231 -4237 0
-24 8330 4235 0
-26 -8330 -4232 -4237 0
-8330 -27 -4233 -4234 0
-28 8330 4235 0
-8330 -29 -4233 -4236 0
-30 -8330 -4233 -4237 0
-31 8330 4235 0
-33 -8330 -4234 -4237 0
-34 8330 4235 0
-35 8330 4235 0
-36 -8330 -4236 -4237 0
-26 -8982 -5312 -5317 0
-27 8982 5313 0
-28 8982 5313 0
-29 8982 5313 0
-8982 -33 -5314 -5317 0
-8982 -35 -5315 -5317 0
-8982 -36 -5316 -5317 0
9400 -21 6067 0
-27 -9400 -6069 -6070 0
-28 -9400 -6069 -6071 0
-29 -9400 -6069 -6072 0
9470 -15 6282 0
-27 -9470 -6285 -6286 0
-29 -9470 -6285 -6288 0
9505 -8 6389 0
-27 -9505 -6393 -6394 0
-29 -9505 -6393 -6396 0
