p cnf 10181 2365
10 12 11 1 21 9 27 29 15 4 30 13 14 28 2 16 17 18 19 20 5 22 23 24 25 26 8 3 7 6 31 32 33 34 35 36 0
8 1 -397 3 5 4 6 7 2 0
10 9 11 15 -398 12 13 14 1 0
16 9 17 21 18 -399 19 20 2 0
10 16 22 26 23 -400 24 25 3 0
-401 28 27 4 30 22 29 11 17 0
32 31 33 -402 23 12 18 5 27 0
34 24 6 28 35 13 31 19 -403 0
34 32 36 29 -404 7 14 25 20 0
-405 36 8 26 30 35 33 15 21 0
-40 534 0
-534 535 0
-535 536 0
-536 537 0
-537 538 0
-538 539 0
-539 540 0
-540 541 0
-47 541 0
-541 542 0
-542 543 0
-543 544 0
-544 545 0
-545 546 0
-546 547 0
-53 547 0
-547 548 0
-548 549 0
-549 550 0
-550 551 0
-551 552 0
-58 552 0
-552 553 0
-553 554 0
-554 555 0
-555 556 0
-556 557 0
-557 558 0
-558 559 0
-65 559 0
-559 560 0
-560 561 0
-561 562 0
-562 563 0
-563 564 0
-564 -71 0
410 -63 0
410 -64 0
410 -65 0
410 -66 0
63 64 -410 66 40 65 47 58 53 0
-411 41 63 69 68 59 67 48 54 0
-412 67 64 71 60 55 49 70 42 0
-413 70 56 43 61 50 68 72 65 0
44 51 71 66 -414 69 62 72 57 0
573 -80 0
574 -573 0
575 -574 0
-575 576 0
-576 577 0
-577 578 0
-578 579 0
-579 580 0
-87 580 0
-580 581 0
-581 582 0
-582 583 0
-583 584 0
-584 585 0
-585 586 0
-93 586 0
-586 587 0
-587 588 0
-588 589 0
-589 590 0
-590 591 0
-98 591 0
-591 592 0
-591 -99 0
-99 592 0
-592 593 0
-592 -100 0
593 -100 0
-593 594 0
-101 -593 0
-101 594 0
-594 595 0
-595 596 0
-596 597 0
-597 598 0
-105 -597 0
-598 599 0
600 -599 0
-599 -107 0
-108 -600 0
-419 99 76 101 100 102 94 89 83 0
-420 84 99 104 95 90 103 77 105 0
85 -421 107 100 96 78 103 91 106 0
-422 79 108 104 86 101 92 97 106 0
423 -107 0
-108 423 0
80 -423 87 102 98 105 93 107 108 0
113 135 137 140 138 115 141 116 117 118 119 120 121 122 123 124 125 126 127 128 129 130 131 132 133 134 139 136 114 142 112 111 110 109 144 143 0
-109 601 0
-601 602 0
-110 602 0
-602 603 0
-111 603 0
-603 604 0
-112 604 0
-604 605 0
-113 605 0
-605 606 0
-114 606 0
-606 607 0
-115 607 0
-607 608 0
-116 608 0
-608 609 0
-117 609 0
-609 610 0
-118 610 0
-610 611 0
-119 611 0
-611 612 0
-120 612 0
-612 613 0
-121 613 0
-613 614 0
-122 614 0
-614 615 0
-123 615 0
-615 616 0
-124 616 0
-616 617 0
-125 617 0
-617 618 0
-126 618 0
-618 619 0
-127 619 0
-619 620 0
-128 620 0
-620 621 0
-129 621 0
-621 622 0
-130 622 0
-622 623 0
-131 623 0
-623 624 0
-132 624 0
-624 625 0
-133 625 0
-625 626 0
-134 626 0
-626 627 0
627 -135 0
-627 628 0
-136 -627 0
-136 628 0
-628 629 0
-137 -628 0
-137 629 0
-629 630 0
-138 630 0
631 -630 0
-139 -630 0
-139 631 0
632 -631 0
-140 -631 0
-140 632 0
633 -632 0
-141 -632 0
-141 633 0
634 -633 0
-142 -633 0
635 -634 0
-634 -143 0
635 -143 0
-144 -635 0
-135 428 0
-136 428 0
135 138 136 137 -428 112 119 130 125 0
-429 135 113 141 140 139 131 126 120 0
-430 142 114 143 136 132 127 139 121 0
-431 144 137 115 142 133 122 140 128 0
-141 432 0
432 -144 0
-432 143 129 123 116 141 138 134 144 0
-148 639 0
-639 640 0
-640 641 0
-641 642 0
-642 643 0
-152 643 0
-643 644 0
-644 645 0
-645 646 0
-155 646 0
-646 647 0
-647 648 0
-648 649 0
-649 650 0
650 -159 0
651 -650 0
652 -651 0
-161 652 0
653 -652 0
654 -653 0
655 -654 0
656 -655 0
-165 656 0
657 -656 0
-166 657 0
658 -657 0
-658 659 0
-659 660 0
-660 661 0
661 -170 0
662 -661 0
662 -171 0
663 -662 0
-172 -662 0
663 -172 0
664 -663 0
-173 -663 0
664 -173 0
665 -664 0
-174 665 0
666 -665 0
-175 -665 0
-175 666 0
667 -666 0
-176 -666 0
-176 667 0
668 -667 0
-177 -667 0
-177 668 0
669 -668 0
-178 -668 0
670 -669 0
-179 -669 0
-179 670 0
-670 -180 0
-437 171 173 172 174 155 148 166 161 0
-438 149 175 176 171 167 162 156 177 0
-439 168 178 175 157 172 163 150 179 0
-440 169 180 176 173 164 158 178 151 0
-174 441 0
-179 441 0
-180 441 0
-441 170 152 159 180 179 177 174 165 0
-184 674 0
-674 675 0
-185 675 0
-675 676 0
-186 676 0
-676 677 0
-677 678 0
-188 678 0
-678 679 0
-679 680 0
-680 681 0
-191 681 0
-681 682 0
-192 682 0
-682 683 0
-193 683 0
-683 684 0
-684 685 0
685 -195 0
686 -685 0
687 -686 0
-197 687 0
688 -687 0
-198 688 0
689 -688 0
-199 689 0
690 -689 0
691 -690 0
-201 691 0
692 -691 0
-202 692 0
693 -692 0
-203 693 0
694 -693 0
-204 694 0
695 -694 0
696 -695 0
-206 696 0
697 -696 0
-207 -696 0
697 -207 0
698 -697 0
-208 -697 0
-208 698 0
699 -698 0
-209 -698 0
699 -209 0
700 -699 0
-210 700 0
701 -700 0
-211 -700 0
701 -211 0
702 -701 0
-212 -701 0
-212 702 0
703 -702 0
-213 -702 0
-213 703 0
704 -703 0
-214 -703 0
705 -704 0
-704 -215 0
-215 705 0
-705 -216 0
-446 184 209 207 210 208 197 191 202 0
-447 198 213 207 212 211 203 192 185 0
-448 204 208 215 211 186 214 199 193 0
-449 205 216 212 214 209 200 187 194 0
450 -210 0
450 -213 0
450 -215 0
450 -216 0
195 201 -450 216 188 213 215 210 206 0
-220 709 0
-709 710 0
-221 710 0
-710 711 0
-711 712 0
-712 713 0
-224 713 0
-713 714 0
-714 715 0
-715 716 0
-227 716 0
-716 717 0
-228 717 0
-717 718 0
-718 719 0
-719 720 0
-231 720 0
-720 721 0
-721 722 0
-233 722 0
-722 723 0
-234 723 0
-723 724 0
-724 725 0
-725 726 0
-237 726 0
-726 727 0
-238 727 0
-727 728 0
-239 728 0
-728 729 0
-729 730 0
-730 731 0
-242 731 0
-731 732 0
-243 -731 0
-243 732 0
-732 733 0
-244 -732 0
-244 733 0
-733 734 0
-733 -245 0
-245 734 0
-734 735 0
-246 735 0
-735 736 0
-247 -735 0
-247 736 0
-736 737 0
-248 -736 0
-248 737 0
-737 738 0
-249 -737 0
-249 738 0
739 -738 0
-738 -250 0
739 -250 0
740 -739 0
-251 -739 0
740 -251 0
-740 -252 0
-455 220 245 244 243 246 227 233 238 0
-456 221 247 248 249 243 239 234 228 0
240 235 250 222 -457 244 247 229 251 0
223 -458 245 250 252 248 241 236 230 0
-459 224 252 251 246 249 231 242 237 0
-256 744 0
-744 745 0
-257 745 0
-745 746 0
-746 747 0
-747 748 0
748 -260 0
749 -748 0
750 -749 0
751 -750 0
-263 751 0
752 -751 0
-264 752 0
753 -752 0
754 -753 0
755 -754 0
-267 755 0
756 -755 0
757 -756 0
-269 757 0
758 -757 0
-270 758 0
759 -758 0
760 -759 0
761 -760 0
-273 761 0
762 -761 0
-274 762 0
763 -762 0
-275 763 0
764 -763 0
765 -764 0
766 -765 0
-278 766 0
767 -766 0
-279 -766 0
-279 767 0
768 -767 0
-280 -767 0
-280 768 0
769 -768 0
-281 -768 0
769 -281 0
770 -769 0
-282 -769 0
-282 770 0
771 -770 0
-283 -770 0
-283 771 0
772 -771 0
-284 -771 0
772 -284 0
773 -772 0
-285 -772 0
-285 773 0
774 -773 0
-286 -773 0
775 -774 0
-287 -774 0
-775 -288 0
-464 274 281 280 256 279 263 282 269 0
-465 257 284 275 283 285 279 264 270 0
-466 258 286 280 276 271 283 265 287 0
-467 266 288 286 272 281 277 284 259 0
260 278 -468 288 267 282 285 287 273 0
-292 779 0
-779 780 0
-293 780 0
-780 781 0
-781 782 0
-782 783 0
-296 783 0
-783 784 0
-784 785 0
-785 786 0
-299 786 0
-786 787 0
-300 787 0
-787 788 0
-788 789 0
-789 790 0
-303 790 0
-790 791 0
-791 792 0
-305 792 0
-792 793 0
-306 793 0
-793 794 0
-794 795 0
-795 796 0
-309 796 0
-796 797 0
-310 797 0
-797 798 0
-311 798 0
-798 799 0
-799 800 0
-800 801 0
-314 801 0
-801 802 0
-801 -315 0
-315 802 0
-802 803 0
-802 -316 0
-316 803 0
-803 804 0
-317 -803 0
-317 804 0
-804 805 0
-318 -804 0
-318 805 0
-805 806 0
-319 806 0
-806 807 0
-320 -806 0
-320 807 0
-807 808 0
-321 -807 0
-321 808 0
809 -808 0
-808 -322 0
810 -809 0
-323 -809 0
-324 -810 0
-473 292 317 315 318 316 305 299 310 0
-474 293 320 319 311 315 306 300 321 0
294 322 -475 316 312 307 319 301 323 0
313 322 324 317 -476 295 308 320 302 0
-321 477 0
-324 477 0
-477 324 303 296 323 321 318 314 309 0
811 -325 0
-811 812 0
-326 812 0
-812 813 0
-327 813 0
-813 814 0
-328 814 0
-814 815 0
-329 815 0
-815 816 0
-330 816 0
-816 817 0
-331 817 0
-817 818 0
-332 818 0
-818 819 0
-819 820 0
-820 821 0
-335 821 0
-821 822 0
-822 823 0
-337 823 0
-823 824 0
-824 825 0
-339 825 0
-825 826 0
-826 827 0
-341 827 0
-827 828 0
-342 828 0
-828 829 0
-343 829 0
-829 830 0
-830 831 0
-345 831 0
-831 832 0
-346 832 0
-832 833 0
-833 834 0
-348 834 0
-834 835 0
-835 836 0
-350 836 0
-836 837 0
-351 837 0
-837 838 0
-838 839 0
-838 -353 0
839 -353 0
-839 840 0
-354 840 0
-840 841 0
-355 -840 0
-841 842 0
-356 -841 0
842 -356 0
-842 843 0
-357 -842 0
-357 843 0
844 -843 0
-843 -358 0
845 -844 0
-359 -844 0
-360 -845 0
-328 478 0
-329 478 0
-330 478 0
326 327 -478 325 328 329 330 331 332 0
-482 352 328 354 353 351 335 346 341 0
347 -483 356 355 342 336 351 357 329 0
-484 352 355 359 358 348 330 343 337 0
358 344 360 353 -485 356 331 349 338 0
486 -354 0
-357 486 0
-486 359 360 354 339 350 357 332 345 0
860 -375 0
-860 861 0
-861 862 0
-862 863 0
-863 864 0
-864 865 0
-865 866 0
-381 866 0
-866 867 0
-867 868 0
-868 869 0
-869 870 0
-870 871 0
-386 871 0
-871 872 0
-872 873 0
-873 874 0
874 -389 0
-874 875 0
875 -390 0
-875 876 0
-876 877 0
-876 -392 0
877 -392 0
-877 878 0
-393 -877 0
-393 878 0
879 -878 0
-878 -394 0
880 -879 0
-395 -879 0
-880 -396 0
387 -491 389 371 377 364 388 382 390 0
365 -492 392 393 383 387 391 378 372 0
373 -493 394 395 384 388 391 379 366 0
374 367 392 396 380 389 394 385 -494 0
-495 368 395 396 390 381 393 375 386 0
-989 0
-990 0
-991 0
-992 0
993 0
-1092 0
-994 0
-1093 0
-995 0
-1094 0
-996 0
-1095 0
-997 0
1096 0
-998 397 989 0
-999 398 990 0
-1000 399 991 0
-1001 400 992 0
401 1002 -993 0
-1003 402 994 0
-1004 403 995 0
-1005 404 996 0
405 -1006 997 0
-1 -998 989 0
-999 -1 989 990 0
-2 -998 989 0
-1000 -2 989 991 0
-3 -998 989 0
-1001 -3 989 992 0
-4 -998 989 0
1002 -4 -993 0
-5 -998 994 0
-1003 -5 989 994 0
-6 -998 989 0
-1004 -6 989 995 0
-7 -998 989 0
-1005 -7 989 996 0
-8 -998 989 0
-1006 -8 989 997 0
-9 -999 990 0
-1000 -9 990 991 0
-10 -999 990 0
-1001 -10 990 992 0
-11 -999 990 0
1002 -11 -993 0
-12 -999 990 0
-1003 -12 990 994 0
-13 -999 990 0
-1004 -13 990 995 0
-14 -999 990 0
-1005 -14 990 996 0
-15 -999 997 0
-1006 -15 990 997 0
-16 -1000 992 0
-1001 -16 991 992 0
-17 -1000 991 0
1002 -17 -993 0
-18 -1000 991 0
-1003 -18 991 994 0
-19 -1000 991 0
-1004 -19 991 995 0
-20 -1000 991 0
-1005 -20 991 996 0
-21 -1000 991 0
-1006 -21 991 997 0
-1001 -22 992 0
1002 -22 -993 0
-1001 -23 992 0
-1003 -23 992 994 0
-24 -1001 992 0
-1004 -24 992 995 0
-25 -1001 992 0
-1005 -25 992 996 0
-26 -1001 992 0
-1006 -26 992 997 0
-27 -1002 994 0
-27 1003 -993 0
-28 -1002 995 0
-28 1004 -993 0
-29 -1002 996 0
-29 1005 -993 0
-30 -1002 997 0
-30 1006 -993 0
-31 -1003 994 0
-1004 -31 994 995 0
-32 -1003 994 0
-1005 -32 994 996 0
-33 -1003 994 0
-1006 -33 994 997 0
-34 -1004 995 0
-1005 -34 995 996 0
-35 -1004 995 0
-1006 -35 995 997 0
-1005 -36 996 0
-1006 -36 996 997 0
410 -1011 1002 0
1011 410 -1002 0
1012 411 -1003 0
412 -1013 1004 0
412 1013 -1004 0
413 1014 -1005 0
-1015 414 1006 0
1015 414 -1006 0
-40 1011 -1002 0
-40 -1011 1002 998 0
-43 1014 -1005 0
-1015 -44 998 1006 0
-47 1011 -1002 0
-47 -1011 1002 999 0
-50 1014 -1005 0
-1015 -51 999 1006 0
-53 1011 -1002 0
-53 -1011 1002 1000 0
-56 1014 -1005 0
-57 -1015 1000 1006 0
-58 1011 -1002 0
-58 -1011 1002 1001 0
-61 1014 -1005 0
-62 -1015 1001 1006 0
-63 -1011 1002 0
-63 -1011 1003 0
1012 -63 -1002 0
-64 -1011 1002 0
-64 -1011 1004 0
-64 1013 -1002 0
-65 -1011 1002 0
-65 -1011 1005 0
1014 -65 -1002 0
1014 -65 -1005 0
-1011 -66 1002 0
-1011 -66 1006 0
1015 -66 -1002 0
-1015 -66 1002 1006 0
-68 1014 -1003 0
-68 1014 -1005 0
-69 -1015 1003 1006 0
-70 1014 -1005 0
-1013 -71 1004 0
-1015 -71 1006 1004 0
-72 -1015 1006 1005 0
1020 419 -1011 0
1021 420 -1012 0
421 -1013 1022 0
422 -1014 1023 0
-1024 1015 423 0
-1015 1024 423 0
-76 1020 -1011 0
-79 -1014 1023 0
-83 1020 -1011 0
-86 -1014 1023 0
-89 1020 -1011 0
-92 -1014 1023 0
-94 1020 -1011 0
-97 -1014 1023 0
1021 -99 -1011 0
1022 -100 -1011 0
1023 -101 -1011 0
-1014 -101 1023 0
-104 -1012 1023 0
-104 -1014 1023 0
-105 -1021 1015 0
-1013 -106 1023 0
-1014 -106 1023 0
1013 -107 1015 -1024 0
-108 -1023 1015 0
-108 -1014 1024 0
1020 428 -1029 0
1029 428 -1020 0
1030 -1021 429 0
1022 -1031 430 0
-1022 1031 430 0
431 -1032 1023 0
431 -1023 1032 0
-1033 1024 432 0
-1024 1033 432 0
-112 1029 -1020 0
-113 1030 -1021 0
-115 -1023 1032 0
-1016 -116 1033 0
1016 -116 -1033 1024 0
-119 1029 -1020 0
-120 1030 -1021 0
-122 -1023 1032 0
-125 1029 -1020 0
-126 1030 -1021 0
-128 -1023 1032 0
-130 1029 -1020 0
-131 1030 -1021 0
-133 -1023 1032 0
1030 -1020 -135 0
1020 -136 -1029 0
1031 -136 -1020 0
1023 -137 -1029 0
1032 -137 -1020 0
-1023 1032 -137 0
-138 1024 -1029 0
-138 -1020 1033 0
-140 -1021 1032 0
-140 -1023 1032 0
-1031 -142 1023 0
-1022 -142 1032 0
-142 -1023 1032 0
-144 1023 -1032 0
1024 -144 1023 -1033 0
437 1029 -1038 0
1038 437 -1029 0
1039 438 -1030 0
-1031 1040 439 0
-1032 440 1041 0
-1042 1033 441 0
-1033 1042 441 0
1038 -148 -1029 0
-151 -1032 1041 0
-1025 -152 1042 0
1025 -152 -1042 1033 0
-155 1038 -1029 0
-158 -1032 1041 0
-161 1038 -1029 0
-164 -1032 1041 0
-166 1038 -1029 0
-169 -1032 1041 0
1039 -1029 -171 0
1040 -172 -1029 0
1041 -173 -1029 0
-1032 1041 -173 0
-176 -1030 1041 0
-176 -1032 1041 0
-1031 -178 1041 0
-178 -1032 1041 0
-180 -1041 1033 0
-1033 -180 -1032 1041 0
-180 -1042 1032 1033 0
1038 -1047 446 0
446 -1038 1047 0
1048 447 -1039 0
-1040 1049 448 0
449 -1041 1050 0
-1051 450 1042 0
-1042 1051 450 0
-184 -1038 1047 0
-187 -1041 1050 0
-188 -1042 1051 0
-191 -1038 1047 0
-194 -1041 1050 0
-1042 1051 -195 0
-197 -1038 1047 0
-200 -1041 1050 0
-201 -1042 1051 0
-202 -1038 1047 0
-205 -1041 1050 0
-206 -1042 1051 0
1048 -207 -1038 0
1049 -208 -1038 0
1050 -209 -1038 0
-1041 1050 -209 0
-210 -1047 1042 0
-210 -1038 1051 0
-210 -1042 1051 0
-212 -1039 1050 0
-212 -1041 1050 0
-1042 1051 -213 0
-1040 -214 1050 0
-214 -1041 1050 0
-1042 1051 -215 0
-1042 -216 -1041 1050 0
-216 -1042 1051 0
-1056 1047 455 0
1056 -1047 455 0
-1048 1057 456 0
1058 457 -1049 0
458 -1050 1059 0
1051 -1060 459 0
-1051 1060 459 0
-220 1056 -1047 0
-221 -1048 1057 0
-223 -1050 1059 0
-227 1056 -1047 0
-228 -1048 1057 0
-230 -1050 1059 0
-233 1056 -1047 0
-234 -1048 1057 0
-236 -1050 1059 0
-238 1056 -1047 0
-239 -1048 1057 0
-241 -1050 1059 0
-1047 -243 1057 0
1058 -244 -1047 0
-1047 -245 1059 0
-245 -1050 1059 0
-248 -1048 1059 0
-248 -1050 1059 0
-1049 1059 -250 0
-1050 1059 -250 0
1051 -252 -1059 0
-1051 -252 -1050 1059 0
1060 -252 -1050 0
1065 464 -1056 0
-1057 1066 465 0
466 -1058 1067 0
467 -1059 1068 0
-1069 1060 468 0
1069 -1060 468 0
-256 1065 -1056 0
-257 1066 -1057 0
-259 -1059 1068 0
-263 1065 -1056 0
-264 1066 -1057 0
-266 -1059 1068 0
-269 1065 -1056 0
-270 1066 -1057 0
-272 -1059 1068 0
-274 1065 -1056 0
-275 1066 -1057 0
-277 -1059 1068 0
1066 -279 -1056 0
1066 -1057 -279 0
-280 1067 -1056 0
-1056 -281 1068 0
-281 -1059 1068 0
-1057 -284 1068 0
-284 -1059 1068 0
-1058 -286 1068 0
-286 1068 -1059 0
1060 -288 -1068 0
1068 -288 -1060 -1059 0
1060 -288 1059 -1069 0
1065 -1074 473 0
1074 -1065 473 0
-1066 1075 474 0
-1067 475 1076 0
476 -1068 1077 0
-1078 1069 477 0
-292 1074 -1065 0
-295 -1068 1077 0
-299 1074 -1065 0
-302 -1068 1077 0
-305 1074 -1065 0
-308 -1068 1077 0
-310 1074 -1065 0
-313 -1068 1077 0
-1065 -316 1076 0
-317 -1065 1077 0
-317 -1068 1077 0
-1066 -320 1077 0
-320 -1068 1077 0
-1067 1077 -322 0
-1068 1077 -322 0
-323 -1076 1069 0
-324 -1069 1077 -1068 0
-324 -1078 1069 1068 0
-1074 482 1083 0
-1075 483 1084 0
484 -1076 1085 0
485 -1077 1086 0
1078 486 -1087 0
-328 -1074 1083 0
-331 -1077 1086 0
-335 -1074 1083 0
-338 -1077 1086 0
-341 -1074 1083 0
-344 -1077 1086 0
-346 -1074 1083 0
-349 -1077 1086 0
-351 -1074 1084 0
-352 -1074 1085 0
-1074 -353 1086 0
-353 -1077 1086 0
-1075 -356 1086 0
-356 -1077 1086 0
-1076 -358 1086 0
-358 -1077 1086 0
-1077 -360 1087 0
-1083 491 1092 0
-1084 492 1093 0
-1085 493 1094 0
494 -1086 1095 0
495 1087 -1096 0
-1083 -364 1092 0
-1084 -365 1093 0
-1085 -366 1094 0
-367 -1086 1095 0
-371 -1083 1092 0
-1084 -372 1093 0
-1085 -373 1094 0
-374 -1086 1095 0
1080 -375 1087 -1096 0
-377 -1083 1092 0
-1084 -378 1093 0
-379 -1085 1094 0
-380 -1086 1095 0
-382 -1083 1092 0
-383 -1084 1093 0
-384 -1085 1094 0
-385 -1086 1095 0
-387 -1083 1093 0
-387 -1084 1093 0
-388 -1083 1094 0
-388 -1085 1094 0
-389 -1083 1095 0
-389 -1086 1095 0
-1087 -390 -1083 1092 0
-391 -1084 1094 0
-391 -1085 1094 0
-392 -1084 1095 0
-392 -1086 1095 0
-394 -1085 1095 0
-394 -1086 1095 0
1101 0
1203 0
-1105 0
1204 0
1110 401 -1101 0
-1114 405 1105 0
1119 410 -1110 0
-1123 414 1114 0
1128 419 -1119 0
-1132 1123 423 0
-100 1130 -1121 0
-1130 -107 1123 0
1121 -107 -1132 1123 0
-1131 -108 1123 0
1137 428 -1128 0
1131 -1140 431 0
-1141 432 1132 0
-1140 -144 1132 0
1146 437 -1137 0
-1149 1140 440 0
-1150 1141 441 0
-1149 -180 1141 0
-1158 449 1149 0
-1159 450 1150 0
-1158 -216 1150 0
-1167 458 1158 0
-1168 1159 459 0
-1167 1159 -252 0
-1176 1167 467 0
-1177 1168 468 0
-1176 1168 -288 0
476 1176 -1185 0
-1186 1177 477 0
-324 1177 -1185 0
1185 485 -1194 0
1186 -1195 486 0
-360 1186 -1194 0
494 1194 -1203 0
495 1195 -1204 0
-396 1195 -1203 0
1311 0
1293 485 -1302 0
494 1302 -1311 0
-1313 0
-1314 0
-1315 0
-1316 0
-1317 0
-1318 0
-1319 0
-1321 0
1420 0
-1322 397 1313 0
-1323 398 1314 0
-1324 399 1315 0
-1325 400 1316 0
-1326 401 1317 0
402 -1327 1318 0
403 -1328 1319 0
-1330 405 1321 0
-30 -1330 1317 1321 0
-1335 410 1326 0
-1339 414 1330 0
-44 -1339 1322 1330 0
-1339 -51 1330 1323 0
-57 -1339 1324 1330 0
-62 -1339 1325 1330 0
-1335 -66 1326 0
-1339 -66 1326 1330 0
-69 -1339 1327 1330 0
-71 -1339 1328 1330 0
-1344 419 1335 0
-1348 1339 423 0
1335 -102 -1348 1339 0
-1353 428 1344 0
-1357 1348 432 0
-138 1344 -1357 1348 0
-1362 437 1353 0
-1366 1357 441 0
-174 1353 1357 -1366 0
-1371 446 1362 0
-1375 450 1366 0
-210 1362 -1375 1366 0
-1380 1371 455 0
-1384 1375 459 0
-246 1371 -1384 1375 0
-1389 1380 464 0
-1393 1384 468 0
-1393 -282 1380 1384 0
-1402 1393 477 0
-318 1389 -1402 1393 0
1402 -1411 486 0
495 1411 -1420 0
-1425 0
1527 0
-1429 0
-1434 401 1425 0
-1438 405 1429 0
-1443 410 1434 0
-1447 414 1438 0
-1452 419 1443 0
-1456 1447 423 0
-1461 428 1452 0
-1465 1456 432 0
-1470 437 1461 0
-1474 1465 441 0
-1479 446 1470 0
-1483 450 1474 0
-1488 1479 455 0
-1492 1483 459 0
1491 -1500 467 0
1500 476 -1509 0
1509 485 -1518 0
494 1518 -1527 0
-1635 0
1537 0
1546 405 -1537 0
1555 414 -1546 0
1564 -1555 423 0
1573 -1564 432 0
1582 -1573 441 0
1591 450 -1582 0
1600 -1591 459 0
1609 -1600 468 0
1618 -1609 477 0
-1617 485 1626 0
494 -1626 1635 0
-1745 0
-1746 0
-1747 0
-1748 0
1749 0
-1848 0
-1750 0
-1849 0
-1751 0
-1850 0
-1752 0
1851 0
1753 0
1852 0
1758 401 -1749 0
403 -1760 1751 0
404 -1761 1752 0
1762 405 -1753 0
1758 -4 -1749 0
1762 -8 -1753 0
1758 -11 -1749 0
1762 -15 -1753 0
1758 -17 -1749 0
1762 -21 -1753 0
1758 -22 -1749 0
1762 -26 -1753 0
-1758 -27 1750 0
-27 1759 -1749 0
-28 -1758 1751 0
-28 1760 -1749 0
-29 -1758 1752 0
-29 1761 -1749 0
-30 1758 -1749 -1753 0
-30 1762 -1753 0
1762 -33 -1753 0
1762 -35 -1753 0
1762 -36 -1753 0
1767 410 -1758 0
1768 411 -1759 0
-1760 1769 412 0
413 1770 -1761 0
414 1771 -1762 0
-40 1767 -1758 0
-41 1768 -1759 0
-43 1770 -1761 0
-44 1771 -1762 0
-47 1767 -1758 0
-48 1768 -1759 0
-50 1770 -1761 0
-51 1771 -1762 0
-53 1767 -1758 0
-54 1768 -1759 0
-57 1771 -1762 0
-58 1767 -1758 0
-59 1768 -1759 0
-62 1771 -1762 0
1768 -63 -1758 0
1768 -63 -1759 0
1769 -64 -1758 0
-65 1770 -1758 0
1767 -66 -1762 -1758 0
-66 1771 -1762 0
-67 1769 -1759 0
1768 -1759 -1762 -69 0
-69 1771 -1762 0
1769 -1760 -1762 -71 0
1771 -71 -1762 0
-72 -1770 1761 0
-72 -1761 -1762 1770 0
-72 1771 -1762 0
1776 419 -1767 0
420 -1768 1777 0
421 -1769 1778 0
422 -1770 1779 0
423 1780 -1771 0
-76 1776 -1767 0
-77 -1768 1777 0
-78 -1769 1778 0
-80 1780 -1771 0
-83 1776 -1767 0
-84 -1768 1777 0
-85 -1769 1778 0
-87 1780 -1771 0
-89 1776 -1767 0
-90 -1768 1777 0
-91 -1769 1778 0
-93 1780 -1771 0
-94 1776 -1767 0
-95 -1768 1777 0
-96 -1769 1778 0
-98 1780 -1771 0
1768 -99 -1776 0
1777 -99 -1767 0
-1768 1777 -99 0
1769 -100 -1776 0
1778 -100 -1767 0
-1769 1778 -100 0
-1770 -101 -1767 1776 0
-101 1779 -1767 0
-102 1776 -1771 -1767 0
-102 1780 -1771 0
-103 -1768 1778 0
-103 -1769 1778 0
-104 -1768 1779 0
-105 -1768 -1771 1777 0
-105 1780 -1771 0
-1769 -107 -1771 1778 0
-107 -1771 1780 0
-108 -1779 1770 0
-108 -1770 -1771 1779 0
-108 1780 -1771 0
428 -1776 1785 0
-1777 429 1786 0
1787 -1778 430 0
431 -1779 1788 0
432 1789 -1780 0
-112 -1776 1785 0
-113 -1777 1786 0
-114 1787 -1778 0
-115 -1779 1788 0
-116 1789 -1780 0
-119 -1776 1785 0
-120 -1777 1786 0
-121 1787 -1778 0
-122 -1779 1788 0
-123 1789 -1780 0
-125 -1776 1785 0
-126 -1777 1786 0
-127 1787 -1778 0
-128 -1779 1788 0
-129 1789 -1780 0
-130 -1776 1785 0
-1777 -131 1786 0
-132 1787 -1778 0
-133 -1779 1788 0
-134 1789 -1780 0
-1776 1786 -135 0
-1777 1786 -135 0
1787 -136 -1776 0
1787 -136 -1778 0
1779 -137 -1785 0
-1779 -137 -1776 1785 0
1788 -137 -1776 0
-1779 1788 -137 0
-138 1785 -1780 -1776 0
-138 1789 -1780 0
-139 -1777 -1778 1786 0
-139 -1777 1787 0
-139 1787 -1778 0
-140 -1777 1788 0
-140 -1779 1788 0
-141 -1777 -1780 1786 0
-141 1789 -1780 0
-142 -1787 1779 0
-142 -1778 1788 0
-142 -1779 1788 0
-142 1778 1779 -1788 0
1787 -143 -1780 -1778 0
-143 1789 -1780 0
-144 1779 -1788 0
-144 1788 -1780 -1779 0
-144 1789 -1780 0
1794 437 -1785 0
438 -1786 1795 0
439 -1787 1796 0
440 -1788 1797 0
1798 441 -1789 0
-148 1794 -1785 0
-149 -1786 1795 0
-150 -1787 1796 0
-151 -1788 1797 0
-152 1798 -1789 0
-155 1794 -1785 0
-156 -1786 1795 0
-157 -1787 1796 0
-158 -1788 1797 0
-159 1798 -1789 0
-161 1794 -1785 0
-162 -1786 1795 0
-163 -1787 1796 0
-164 -1788 1797 0
-165 1798 -1789 0
-166 1794 -1785 0
-167 -1786 1795 0
-168 -1787 1796 0
-169 -1788 1797 0
1798 -170 -1789 0
-1786 1794 -171 -1785 0
1795 -1785 -171 0
-1786 1795 -171 0
-172 1796 -1785 0
-172 -1787 1796 0
-173 -1788 -1785 1794 0
1797 -173 -1785 0
-173 1797 -1788 0
-174 1794 -1789 -1785 0
-174 1798 -1789 0
-175 1787 -1795 0
-175 -1786 1796 0
-175 -1787 1796 0
-176 -1795 1788 0
-176 -1786 -1788 1795 0
-176 -1786 1797 0
-176 -1788 1797 0
-177 -1786 -1789 1795 0
-177 1798 -1789 0
-178 -1787 1797 0
-178 -1788 1797 0
-179 -1787 -1789 1796 0
-179 1798 -1789 0
-180 -1797 1788 0
-180 1797 -1789 -1788 0
-180 1798 -1789 0
1803 446 -1794 0
447 -1795 1804 0
448 -1796 1805 0
449 -1797 1806 0
450 1807 -1798 0
-184 -1794 1803 0
-185 -1795 1804 0
-186 -1796 1805 0
-187 -1797 1806 0
-188 1807 -1798 0
-191 -1794 1803 0
-192 -1795 1804 0
-193 -1796 1805 0
-194 -1797 1806 0
-195 1807 -1798 0
-197 1803 -1794 0
-198 -1795 1804 0
-199 -1796 1805 0
-200 -1797 1806 0
-201 1807 -1798 0
-202 -1794 1803 0
-203 -1795 1804 0
-204 -1796 1805 0
-205 -1797 1806 0
-206 1807 -1798 0
1795 -207 -1803 0
-1795 1803 -207 -1794 0
1804 -207 -1794 0
-1795 1804 -207 0
-208 1796 -1803 0
-208 -1796 1803 -1794 0
-208 -1794 1805 0
-208 -1796 1805 0
-1797 -209 -1794 1803 0
-209 -1794 1806 0
-209 -1797 1806 0
-210 -1794 -1798 1803 0
-210 1807 -1798 0
-1795 -211 1805 0
-211 -1796 1805 0
-212 -1797 -1795 1804 0
-212 -1795 1806 0
-212 -1797 1806 0
-213 -1795 -1798 1804 0
-213 1807 -1798 0
-214 1797 -1805 0
-1797 -214 -1796 1805 0
-214 -1796 1806 0
-214 -1797 1806 0
-215 -1796 -1798 1805 0
-215 1807 -1798 0
-216 1797 -1806 0
-216 -1798 1806 -1797 0
-216 1807 -1798 0
-1803 1812 455 0
-1804 1813 456 0
457 -1805 1814 0
458 -1806 1815 0
1816 -1807 459 0
-220 -1803 1812 0
-221 -1804 1813 0
-222 -1805 1814 0
-223 -1806 1815 0
-224 1816 -1807 0
-227 -1803 1812 0
-228 -1804 1813 0
-229 -1805 1814 0
-230 -1806 1815 0
-231 1816 -1807 0
-233 -1803 1812 0
-234 -1804 1813 0
-235 -1805 1814 0
-236 -1806 1815 0
-237 1816 -1807 0
-238 -1803 1812 0
-1804 -239 1813 0
-240 -1805 1814 0
-241 -1806 1815 0
1802 -241 -1815 1806 0
-242 1816 -1807 0
1804 -243 -1812 0
-1803 -243 1812 -1804 0
-243 -1803 1813 0
-1804 -243 1813 0
1804 -243 -1813 1803 0
-244 -1812 1805 0
-244 -1803 1814 0
-244 -1805 1814 0
-245 -1812 1806 0
-1806 -1803 -245 1812 0
-1803 -245 1815 0
-1806 -245 1815 0
-246 -1803 -1807 1812 0
-246 1816 -1807 0
-247 -1813 1805 0
-247 -1804 -1805 1813 0
-247 -1804 1814 0
-247 -1805 1814 0
-248 -1806 -1804 1813 0
-248 -1804 1815 0
-248 -1806 1815 0
-249 -1804 -1807 1813 0
-249 1816 -1807 0
-1814 1806 -250 0
-1806 -1805 -250 1814 0
-250 -1805 1815 0
-250 -1806 1815 0
-250 -1815 1806 1805 0
-1807 -251 -1805 1814 0
-251 1816 -1807 0
-252 1806 -1815 0
-1806 -1807 1815 -252 0
-252 1816 -1807 0
464 -1812 1821 0
-1813 1822 465 0
466 -1814 1823 0
1815 467 -1824 0
1824 467 -1815 0
1825 468 -1816 0
-256 -1812 1821 0
-257 -1813 1822 0
-258 -1814 1823 0
-259 1824 -1815 0
1808 -259 -1824 1815 0
1825 -260 -1816 0
-263 -1812 1821 0
-264 -1813 1822 0
-265 -1814 1823 0
-266 1824 -1815 0
1809 -266 -1824 1815 0
-267 1825 -1816 0
-269 -1812 1821 0
-270 -1813 1822 0
-271 -1814 1823 0
-272 1824 -1815 0
1810 -272 -1824 1815 0
-273 1825 -1816 0
-274 -1812 1821 0
-275 -1813 1822 0
-276 -1814 1823 0
-277 1824 -1815 0
1811 -277 -1824 1815 0
-278 1825 -1816 0
1813 -279 -1821 0
-1813 -279 -1812 1821 0
1822 -279 -1812 0
-279 -1813 1822 0
-280 -1821 1814 0
-280 -1814 -1812 1821 0
-280 -1812 1823 0
-280 -1814 1823 0
-1821 1815 -281 0
-281 -1812 -1815 1821 0
1824 -281 -1812 0
1824 -281 -1815 0
-281 1812 -1824 1815 0
-282 1821 -1816 -1812 0
-282 1825 -1816 0
-283 -1813 1823 0
-283 -1814 1823 0
-284 -1813 -1815 1822 0
-284 1824 -1813 0
-284 1824 -1815 0
1813 -284 1815 -1824 0
-285 1813 -1822 0
-285 -1813 1822 -1816 0
-285 1825 -1816 0
-286 -1814 -1815 1823 0
1824 -286 -1814 0
-286 1824 -1815 0
-286 1814 -1824 1815 0
-287 -1814 -1816 1823 0
-287 1825 -1816 0
-288 1815 -1824 0
1824 -1815 -1816 -288 0
-288 1825 -1816 0
-1821 1830 473 0
-1822 1831 474 0
475 1832 -1823 0
476 -1824 1833 0
1834 -1825 477 0
-292 -1821 1830 0
-293 -1822 1831 0
-294 1832 -1823 0
-295 -1824 1833 0
-296 1834 -1825 0
-299 -1821 1830 0
-300 -1822 1831 0
-301 1832 -1823 0
-302 -1824 1833 0
-303 1834 -1825 0
-305 -1821 1830 0
-306 -1822 1831 0
-307 1832 -1823 0
-308 -1824 1833 0
-309 1834 -1825 0
-310 -1821 1830 0
-311 -1822 1831 0
-312 1832 -1823 0
-313 1833 -1824 0
-314 1834 -1825 0
1822 -315 -1830 0
-1822 -315 1830 -1821 0
-315 -1821 1831 0
-315 -1822 1831 0
-316 -1830 1823 0
-316 -1823 -1821 1830 0
-316 -1821 1832 0
-316 1832 -1823 0
1824 -317 -1830 0
-317 -1821 -1824 1830 0
-317 -1821 1833 0
-317 -1824 1833 0
1824 1821 -1833 -317 0
-318 -1821 -1825 1830 0
-318 1834 -1825 0
-319 -1822 1832 0
-319 1832 -1823 0
-320 -1822 -1824 1831 0
-320 -1822 1833 0
-320 -1824 1833 0
-321 -1822 1831 -1825 0
-321 1834 -1825 0
1824 -1832 -322 0
-1823 -1824 -322 1832 0
-1823 1833 -322 0
-1824 1833 -322 0
1824 -322 -1833 1823 0
-323 1832 -1825 -1823 0
-323 1834 -1825 0
-324 -1824 1833 -1825 0
-324 1834 -1825 0
-1830 1839 482 0
483 -1831 1840 0
484 -1832 1841 0
485 -1842 1833 0
485 1842 -1833 0
-1834 1843 486 0
-328 -1830 1839 0
-329 -1831 1840 0
-330 -1832 1841 0
-331 1842 -1833 0
1826 -331 -1842 1833 0
-332 -1834 1843 0
-335 -1830 1839 0
-1827 -336 1840 0
-336 -1831 1840 0
-337 -1832 1841 0
-338 1842 -1833 0
1827 -338 -1842 1833 0
-339 -1834 1843 0
-341 -1830 1839 0
-342 -1831 1840 0
-343 -1832 1841 0
-344 1842 -1833 0
1828 -344 -1842 1833 0
-345 -1834 1843 0
-346 -1830 1839 0
-1829 -347 1840 0
-347 -1831 1840 0
-348 -1832 1841 0
-349 1842 -1833 0
1829 -349 -1842 1833 0
-350 -1834 1843 0
-351 -1830 1840 0
-351 -1831 1840 0
-352 -1830 1841 0
-352 -1832 1841 0
-1830 1839 -1833 -353 0
-353 -1830 1842 0
-1842 -353 1833 1830 0
-354 -1830 1839 -1834 0
-354 -1834 1843 0
-355 -1831 1841 0
-355 -1832 1841 0
-356 -1831 -1833 1840 0
-1831 -356 1842 0
-356 1842 -1833 0
1831 -356 -1842 1833 0
-357 -1834 1840 -1831 0
-357 -1834 1843 0
-1832 -358 -1833 1841 0
-1832 -358 1842 0
-358 1842 -1833 0
1832 1833 -358 -1842 0
-1834 -359 -1832 1841 0
-359 -1834 1843 0
-360 1833 -1842 0
-360 1842 -1833 -1834 0
-360 -1834 1843 0
-1839 491 1848 0
-1840 492 1849 0
-1841 493 1850 0
1842 494 -1851 0
-1839 -364 1848 0
-1840 -365 1849 0
-1841 -366 1850 0
-367 1835 1842 -1851 0
-1839 -371 1848 0
-1840 -372 1849 0
-1841 -373 1850 0
-374 1836 1842 -1851 0
-1839 -377 1848 0
-1840 -378 1849 0
-1841 -379 1850 0
-380 1837 1842 -1851 0
-1839 -382 1848 0
-1840 -383 1849 0
-1841 -384 1850 0
-385 1838 1842 -1851 0
-1839 -387 1849 0
-387 -1840 1849 0
-388 -1839 1850 0
-1841 -388 1850 0
-1842 -1839 -389 1848 0
-389 1839 1842 -1851 0
-1843 -390 -1839 1848 0
1839 -390 1843 -1852 0
-391 -1840 1850 0
-1841 -391 1850 0
-1842 -392 -1840 1849 0
-392 1840 1842 -1851 0
-1843 -393 -1840 1849 0
-1842 -1841 -394 1850 0
-394 1841 1842 -1851 0
-395 -1841 -1843 1850 0
1842 -396 -1851 0
-2289 0
-2292 0
2391 0
2293 0
-2298 401 2289 0
2302 405 -2293 0
-2301 -29 2289 2292 0
-2307 410 2298 0
2311 414 -2302 0
-2310 -72 2301 0
-2316 419 2307 0
-2319 2310 422 0
2320 -2311 423 0
-2325 428 2316 0
2319 -2328 431 0
2329 -2320 432 0
-2334 437 2325 0
2328 -2337 440 0
2338 -2329 441 0
-2343 446 2334 0
2337 -2346 449 0
2347 450 -2338 0
-2352 2343 455 0
2346 -2355 458 0
2356 -2347 459 0
-2361 2352 464 0
2355 -2364 467 0
2365 -2356 468 0
2364 476 -2373 0
2373 485 -2382 0
494 2382 -2391 0
3153 0
3154 0
-3156 0
3157 0
402 3163 -3154 0
404 -3165 3156 0
-30 3162 -3153 -3157 0
4665 0
4666 0
-4667 0
4668 0
5529 0
-5530 0
5532 0
-5745 0
5844 0
-5754 401 5745 0
-30 -5754 5745 0
-5763 410 5754 0
-5763 -66 5754 0
-5772 419 5763 0
-5772 -102 5763 0
-5781 428 5772 0
-5781 -138 5772 0
-5790 437 5781 0
-5790 -174 5781 0
-5799 446 5790 0
-5799 -210 5790 0
-5808 5799 455 0
-5808 -246 5799 0
-5817 5808 464 0
-5817 -282 5808 0
-5826 5817 473 0
-5826 5817 -316 0
-318 -5826 5817 0
5826 482 -5835 0
-352 5826 -5835 0
5826 -354 -5835 0
-389 5835 -5844 0
-6176 0
6177 0
6178 0
6180 0
6393 0
6495 0
6397 0
6402 401 -6393 0
6406 405 -6397 0
6411 410 -6402 0
6415 414 -6406 0
6420 419 -6411 0
6424 -6415 423 0
6429 428 -6420 0
6433 -6424 432 0
6438 437 -6429 0
6442 -6433 441 0
6447 446 -6438 0
6451 450 -6442 0
6477 485 -6486 0
494 6486 -6495 0
-6499 0
6501 0
6502 0
6504 0
-6605 0
6609 0
6610 0
6612 0
-6714 0
6717 0
6718 0
6720 0
-6920 0
6925 0
6926 0
-6919 -6911 -368 6920 0
-392 6916 -6925 0
6918 -392 -6925 0
-394 6917 -6926 0
-394 6918 -6926 0
-37 -7049 998 999 0
-38 -7049 998 1000 0
-39 -7049 998 1001 0
-40 7049 -1002 0
-41 -7049 998 1003 0
-42 -7049 998 1004 0
-43 -7049 998 1005 0
-7049 -44 998 1006 0
-45 -7049 999 1000 0
-46 -7049 999 1001 0
-47 7049 -1002 0
-48 -7049 999 1003 0
-49 -7049 1004 999 0
-50 -7049 999 1005 0
-7049 -51 999 1006 0
-52 -7049 1000 1001 0
-53 7049 -1002 0
-54 -7049 1000 1003 0
-55 -7049 1000 1004 0
-56 -7049 1000 1005 0
-57 -7049 1000 1006 0
-58 7049 -1002 0
-59 -7049 1001 1003 0
-60 -7049 1001 1004 0
-61 -7049 1001 1005 0
-62 -7049 1001 1006 0
-63 7049 -1002 0
-64 7049 -1002 0
-65 7049 -1002 0
-67 -7049 1004 1003 0
-69 -7049 1003 1006 0
-70 -7049 1004 1005 0
-7049 -71 1006 1004 0
-72 -7049 1005 1006 0
-7050 1011 -101 1014 0
7050 -107 -1015 0
-1016 -116 7051 0
-116 7051 -1024 0
1016 -7051 -116 1024 0
7051 -137 -1020 0
-7051 1020 -137 1023 0
-1025 -152 7052 0
-152 7052 -1033 0
1025 -152 -7052 1033 0
7052 -159 -1033 0
-165 7052 -1033 0
7052 -173 -1029 0
-173 1029 1032 -7052 0
-176 1032 -7052 1030 0
-178 1032 -7052 1031 0
-188 7053 -1042 0
7053 -1042 -195 0
-201 7053 -1042 0
-206 7053 -1042 0
-7053 1038 -209 1041 0
7053 -213 -1042 0
7053 -215 -1042 0
-220 -1047 7054 0
7054 -243 -1047 0
-7054 -248 1050 1048 0
-7054 1050 -252 1051 0
7055 -1060 -260 0
-267 7055 -1060 0
-273 7055 -1060 0
-278 7055 -1060 0
7055 -279 -1056 0
7055 -280 -1056 0
-7055 1056 -281 1059 0
-285 7055 -1060 0
-287 7055 -1060 0
7055 -288 -1060 0
-288 -7055 1059 1060 0
-292 7056 -1065 0
7056 -315 -1065 0
-324 -7056 1068 1069 0
-1080 -375 7058 0
-7058 -392 1086 1084 0
-7058 -394 1086 1085 0
-7309 -1 1745 1746 0
-7309 -2 1745 1747 0
-7309 -3 1745 1748 0
-4 7309 -1749 0
-7309 -5 1745 1750 0
-7309 -6 1745 1751 0
-7309 -7 1745 1752 0
7309 -8 -1753 0
-9 -7309 1746 1747 0
-10 -7309 1746 1748 0
-11 7309 -1749 0
-12 -7309 1746 1750 0
-13 -7309 1746 1751 0
-14 -7309 1746 1752 0
-15 7309 -1753 0
-16 -7309 1747 1748 0
-17 7309 -1749 0
-18 -7309 1747 1750 0
-19 -7309 1747 1751 0
-20 -7309 1747 1752 0
-21 7309 -1753 0
-22 7309 -1749 0
-23 -7309 1748 1750 0
-24 -7309 1748 1751 0
-25 -7309 1748 1752 0
-26 7309 -1753 0
-27 7309 -1749 0
-28 7309 -1749 0
-29 7309 -1749 0
-30 7309 -1749 0
-31 -7309 1750 1751 0
-32 -7309 1750 1752 0
-33 7309 -1753 0
-34 -7309 1751 1752 0
-35 7309 -1753 0
-36 7309 -1753 0
-40 7310 -1758 0
-41 7310 -1759 0
-42 -1760 7310 0
-43 7310 -1761 0
7310 -44 -1762 0
-47 7310 -1758 0
-48 7310 -1759 0
-49 -1760 7310 0
-50 7310 -1761 0
-51 7310 -1762 0
-53 7310 -1758 0
-54 7310 -1759 0
-55 -1760 7310 0
-56 7310 -1761 0
-57 7310 -1762 0
-58 7310 -1758 0
-59 7310 -1759 0
-60 -1760 7310 0
-61 7310 -1761 0
-62 7310 -1762 0
-63 7310 -1758 0
-63 7310 -1759 0
-7310 1758 1759 -63 0
-64 7310 -1758 0
-1760 -64 7310 0
-65 7310 -1758 0
-65 7310 -1761 0
7310 -66 -1758 0
7310 -66 -1762 0
-67 7310 -1759 0
-67 -1760 7310 0
-68 7310 -1759 0
-68 7310 -1761 0
-69 7310 -1762 0
-70 -1760 7310 0
-70 7310 -1761 0
-71 7310 -1762 0
-72 7310 -1762 0
-76 -1767 7311 0
-77 -1768 7311 0
-78 -1769 7311 0
-79 -1770 7311 0
-80 7311 -1771 0
-83 -1767 7311 0
-84 -1768 7311 0
-85 -1769 7311 0
-86 -1770 7311 0
-87 7311 -1771 0
-89 -1767 7311 0
-90 -1768 7311 0
-91 -1769 7311 0
-92 -1770 7311 0
-93 7311 -1771 0
-94 -1767 7311 0
-95 -1768 7311 0
-96 -1769 7311 0
-97 -1770 7311 0
-98 7311 -1771 0
-99 -1767 7311 0
-1768 -99 7311 0
-100 -1767 7311 0
-1769 -100 7311 0
-101 -1767 7311 0
-101 -1770 7311 0
-102 7311 -1771 0
-103 -1768 7311 0
-103 -1769 7311 0
-104 -1768 7311 0
-104 -1770 7311 0
-105 7311 -1771 0
-106 -1769 7311 0
-1770 -106 7311 0
-107 7311 -1771 0
-108 7311 -1771 0
-112 -1776 7312 0
-113 -1777 7312 0
-114 -1778 7312 0
-115 -1779 7312 0
-116 7312 -1780 0
-119 -1776 7312 0
-120 -1777 7312 0
-121 -1778 7312 0
-122 -1779 7312 0
7312 -123 -1780 0
-125 -1776 7312 0
-126 -1777 7312 0
-127 -1778 7312 0
-128 -1779 7312 0
-129 7312 -1780 0
-130 -1776 7312 0
-131 -1777 7312 0
-132 -1778 7312 0
-133 -1779 7312 0
-134 7312 -1780 0
-1776 7312 -135 0
-1777 7312 -135 0
1776 -7312 -135 1777 0
-136 -1776 7312 0
-136 -1778 7312 0
1778 1776 -7312 -136 0
-137 -1776 7312 0
-1779 -137 7312 0
-138 -1776 7312 0
-138 7312 -1780 0
-139 -1777 7312 0
-139 -1778 7312 0
-140 -1777 7312 0
-140 -1779 7312 0
-141 7312 -1780 0
-142 -1778 7312 0
-142 -1779 7312 0
-1778 -143 7312 0
-143 7312 -1780 0
-144 7312 -1780 0
-148 -1785 7313 0
-149 -1786 7313 0
-150 -1787 7313 0
-151 -1788 7313 0
-152 7313 -1789 0
-155 -1785 7313 0
-156 -1786 7313 0
-157 -1787 7313 0
-158 -1788 7313 0
-159 7313 -1789 0
-161 -1785 7313 0
-162 -1786 7313 0
-163 -1787 7313 0
-164 -1788 7313 0
-165 7313 -1789 0
-166 -1785 7313 0
-167 -1786 7313 0
-168 -1787 7313 0
-169 -1788 7313 0
-170 7313 -1789 0
-1785 7313 -171 0
-1786 7313 -171 0
-172 -1785 7313 0
-172 -1787 7313 0
-173 -1785 7313 0
-173 -1788 7313 0
-174 7313 -1789 0
-175 -1786 7313 0
-175 -1787 7313 0
-176 -1786 7313 0
-176 -1788 7313 0
-177 7313 -1789 0
-178 -1787 7313 0
-178 -1788 7313 0
-179 7313 -1789 0
-180 7313 -1789 0
-184 -1794 7314 0
-185 -1795 7314 0
-186 -1796 7314 0
-187 -1797 7314 0
-188 7314 -1798 0
-191 -1794 7314 0
-192 -1795 7314 0
-193 -1796 7314 0
-194 -1797 7314 0
7314 -195 -1798 0
-197 -1794 7314 0
-198 -1795 7314 0
-199 -1796 7314 0
-200 -1797 7314 0
-201 7314 -1798 0
-202 -1794 7314 0
-203 -1795 7314 0
-204 -1796 7314 0
-1797 -205 7314 0
-206 7314 -1798 0
-207 -1794 7314 0
-1795 -207 7314 0
-208 -1794 7314 0
-208 -1796 7314 0
-209 -1794 7314 0
-209 -1797 7314 0
-210 7314 -1798 0
-211 -1795 7314 0
-1796 -211 7314 0
-212 -1795 7314 0
-212 -1797 7314 0
-213 7314 -1798 0
-214 -1796 7314 0
-214 -1797 7314 0
-215 7314 -1798 0
-216 7314 -1798 0
-220 -1803 7315 0
-221 -1804 7315 0
-222 -1805 7315 0
-223 -1806 7315 0
-224 -1807 7315 0
-227 -1803 7315 0
-228 -1804 7315 0
-229 -1805 7315 0
-230 -1806 7315 0
-231 -1807 7315 0
-233 -1803 7315 0
-235 -1805 7315 0
-236 -1806 7315 0
-237 -1807 7315 0
-238 -1803 7315 0
-240 -1805 7315 0
-1802 -241 7315 0
-241 -1806 7315 0
-242 -1807 7315 0
-243 -1803 7315 0
-1804 -243 7315 0
-244 -1803 7315 0
-244 -1805 7315 0
-1803 -245 7315 0
-1806 7315 -245 0
-246 -1807 7315 0
-247 -1804 7315 0
-247 -1805 7315 0
-248 -1804 7315 0
-248 -1806 7315 0
-249 -1807 7315 0
-1805 -250 7315 0
-1806 -250 7315 0
-251 -1807 7315 0
-252 -1807 7315 0
-256 -1812 7316 0
-258 -1814 7316 0
-1808 -259 7316 0
-259 -1815 7316 0
-260 -1816 7316 0
-263 -1812 7316 0
-265 -1814 7316 0
-1809 -266 7316 0
-266 -1815 7316 0
-267 -1816 7316 0
-269 -1812 7316 0
-271 -1814 7316 0
-1810 -272 7316 0
-272 -1815 7316 0
-273 -1816 7316 0
-274 -1812 7316 0
-276 -1814 7316 0
-1811 -277 7316 0
-277 -1815 7316 0
-278 -1816 7316 0
-279 -1812 7316 0
-280 -1812 7316 0
-280 -1814 7316 0
-1812 -281 7316 0
-281 -1815 7316 0
-282 -1812 7316 0
-282 -1816 7316 0
-283 -1813 7316 0
-283 -1814 7316 0
-1813 -284 7316 0
-284 -1815 7316 0
-285 -1816 7316 0
-286 -1814 7316 0
-286 -1815 7316 0
-287 -1816 7316 0
-288 -1816 7316 0
-292 -1821 7317 0
-293 -1822 7317 0
-294 -1823 7317 0
-295 -1824 7317 0
-296 -1825 7317 0
-299 -1821 7317 0
-300 -1822 7317 0
-301 -1823 7317 0
-302 -1824 7317 0
-303 -1825 7317 0
-305 -1821 7317 0
-306 -1822 7317 0
-307 -1823 7317 0
-308 -1824 7317 0
-309 -1825 7317 0
-310 -1821 7317 0
-311 -1822 7317 0
-312 -1823 7317 0
-313 -1824 7317 0
-314 -1825 7317 0
-315 -1821 7317 0
-1822 -315 7317 0
-316 -1821 7317 0
-316 -1823 7317 0
-317 -1821 7317 0
-317 -1824 7317 0
-318 -1825 7317 0
-319 -1822 7317 0
-319 -1823 7317 0
-320 -1822 7317 0
-320 -1824 7317 0
-321 -1825 7317 0
-1823 -322 7317 0
7317 -322 -1824 0
-323 -1825 7317 0
-324 -1825 7317 0
-328 -1830 7318 0
-329 -1831 7318 0
-330 -1832 7318 0
-1826 -331 7318 0
-331 7318 -1833 0
-332 -1834 7318 0
-335 -1830 7318 0
-336 -1831 7318 0
-336 1827 -7318 1831 0
-337 -1832 7318 0
-1827 -338 7318 0
-338 7318 -1833 0
-339 -1834 7318 0
-341 -1830 7318 0
-342 -1831 7318 0
-343 -1832 7318 0
-1828 -344 7318 0
-344 7318 -1833 0
-345 -1834 7318 0
-346 -1830 7318 0
-347 -1831 7318 0
-347 1829 -7318 1831 0
-348 -1832 7318 0
-1829 -349 7318 0
-349 7318 -1833 0
-350 -1834 7318 0
-351 -1830 7318 0
-1831 -351 7318 0
-352 -1830 7318 0
-352 -1832 7318 0
-1830 -353 7318 0
-353 7318 -1833 0
-354 -1830 7318 0
-354 -1834 7318 0
-355 -1831 7318 0
-355 -1832 7318 0
-355 -7318 1831 1832 0
-1831 -356 7318 0
-356 7318 -1833 0
-357 -1831 7318 0
-357 -1834 7318 0
-1832 7318 -358 0
7318 -358 -1833 0
-359 -1832 7318 0
-359 -1834 7318 0
-360 -1834 7318 0
-1835 7319 -367 0
-1842 7319 -367 0
-1843 7319 -368 0
-1836 -374 7319 0
-374 -1842 7319 0
-375 -1843 7319 0
-1837 -380 7319 0
-380 -1842 7319 0
-381 -1843 7319 0
-1838 -385 7319 0
-385 -1842 7319 0
-386 -1843 7319 0
7319 -1839 -389 0
-1842 7319 -389 0
-1839 7319 -390 0
7319 -390 -1843 0
7319 -392 -1840 0
-1842 7319 -392 0
-393 7319 -1840 0
-393 7319 -1843 0
-1841 7319 -394 0
-1842 7319 -394 0
-395 -1841 7319 0
-395 -1843 7319 0
-396 -1842 7319 0
-1843 7319 -396 0
7320 -7309 0
7321 -7320 0
7322 -7310 -7320 0
-7322 7323 0
-7322 -7311 0
7321 -7310 0
7324 -7321 0
-7311 7323 -7321 0
-7323 7325 0
-7323 -7312 0
-7311 7324 0
7326 -7324 0
7325 -7312 -7324 0
-7325 7327 0
-7325 -7313 0
7326 -7312 0
7328 -7326 0
-7313 7327 -7326 0
-7327 7329 0
-7327 -7314 0
-7313 7328 0
7330 -7328 0
7329 -7314 -7328 0
-7329 7331 0
-7329 -7315 0
7330 -7314 0
7332 -7330 0
7331 -7315 -7330 0
-7331 7333 0
-7331 -7316 0
7332 -7315 0
7334 -7332 0
-7316 7333 -7332 0
-7333 7335 0
-7333 -7317 0
7334 -7316 0
7336 -7334 0
-7317 7335 -7334 0
-7335 7337 0
-7335 -7318 0
7336 -7317 0
7337 -7318 -7336 0
-7319 -7337 0
-27 -8085 -3153 -3154 0
8085 -36 3156 0
-8086 -63 -3162 -3163 0
8086 -72 3165 0
-27 -8996 -4665 -4666 0
-29 -8996 -4665 -4668 0
8996 -35 4667 0
-29 -9504 -5529 -5532 0
9504 -33 5530 0
9897 -26 6176 0
-27 -9897 -6177 -6178 0
-29 -9897 -6177 -6180 0
10029 -21 6499 0
-27 -10029 -6501 -6502 0
-29 -10029 -6501 -6504 0
10064 -8 6605 0
-27 -10064 -6609 -6610 0
-29 -10064 -6609 -6612 0
10103 -15 6714 0
-27 -10103 -6717 -6718 0
-29 -10103 -6717 -6720 0
6911 -368 10152 0
6919 -368 10152 0
-10152 -6916 -6918 -392 0
-10152 -6918 -6917 -394 0
