p cnf 9571 3138
30 4 27 3 8 11 9 10 17 26 12 15 28 33 29 18 13 20 2 22 6 21 23 24 25 14 1 7 5 19 31 32 16 34 35 36 0
523 -28 0
-523 -29 0
5 4 1 8 -397 3 6 2 7 0
-398 1 12 15 14 11 9 13 10 0
399 -2 0
-399 16 17 21 9 20 19 18 2 0
-400 3 26 10 16 24 25 23 22 0
11 4 27 -401 29 22 30 17 28 0
-402 18 27 23 12 31 32 33 5 0
-403 19 13 35 6 28 24 31 34 0
-404 7 14 36 32 29 20 25 34 0
-405 30 33 15 35 8 26 21 36 0
49 48 37 38 39 40 42 43 44 41 64 63 47 50 51 52 53 54 55 56 57 58 59 60 61 62 46 45 65 66 67 68 69 70 71 72 0
531 -37 0
-531 532 0
-531 -38 0
-532 533 0
533 -39 0
534 -533 0
-40 534 0
535 -534 0
-41 535 0
536 -535 0
-42 536 0
537 -536 0
-43 537 0
538 -537 0
538 -44 0
539 -538 0
-45 -538 0
540 -539 0
-46 -539 0
541 -540 0
-47 -540 0
542 -541 0
-48 -541 0
543 -542 0
-49 -542 0
544 -543 0
-50 -543 0
545 -544 0
-51 -544 0
545 -51 0
546 -545 0
-52 -545 0
547 -546 0
-53 -546 0
548 -547 0
-54 -547 0
549 -548 0
-55 -548 0
550 -549 0
-56 -549 0
551 -550 0
-57 -550 0
552 -551 0
-58 -551 0
553 -552 0
-59 -552 0
554 -553 0
-60 -553 0
555 -554 0
-61 -554 0
556 -555 0
-62 -555 0
-62 556 0
557 -556 0
-63 -556 0
558 -557 0
-64 -557 0
559 -558 0
-65 -558 0
559 -65 0
560 -559 0
-66 -559 0
561 -560 0
-67 -560 0
562 -561 0
-68 -561 0
563 -562 0
-69 -562 0
564 -563 0
-70 -563 0
565 -564 0
-71 -564 0
-72 -565 0
-40 406 0
-41 406 0
-42 406 0
-43 406 0
-44 406 0
-406 43 44 37 38 39 40 41 42 0
45 -408 38 57 52 53 54 55 56 0
-66 410 0
-410 65 40 47 53 58 63 66 64 0
-411 69 41 48 54 59 63 67 68 0
-412 70 42 49 60 64 67 71 55 0
-413 72 43 50 65 68 56 61 70 0
-414 72 44 57 51 71 69 62 66 0
-76 569 0
-569 570 0
-77 570 0
-570 571 0
-78 571 0
-571 572 0
-79 572 0
-572 573 0
-80 573 0
574 -573 0
-573 -81 0
575 -574 0
576 -575 0
577 -576 0
578 -577 0
-85 578 0
579 -578 0
580 -579 0
-87 580 0
581 -580 0
582 -581 0
583 -582 0
584 -583 0
584 -91 0
585 -584 0
586 -585 0
-93 586 0
587 -586 0
588 -587 0
589 -588 0
-96 589 0
590 -589 0
591 -590 0
-98 591 0
592 -591 0
593 -592 0
-101 -593 0
-101 594 0
595 -594 0
596 -595 0
-103 -595 0
597 -596 0
598 -597 0
-105 -597 0
599 -598 0
-106 -598 0
-107 -599 0
-415 75 74 73 76 77 78 79 80 0
-416 82 73 81 83 84 85 86 87 0
93 -417 81 74 88 89 91 92 90 0
-419 94 76 89 99 100 101 102 83 0
-420 104 103 99 77 95 90 84 105 0
-421 106 91 100 96 78 85 103 107 0
-422 108 104 101 79 92 97 106 86 0
-423 108 80 87 102 98 105 107 93 0
-111 603 0
-603 604 0
-112 604 0
-604 605 0
-113 605 0
-605 606 0
-114 606 0
-606 607 0
-115 607 0
-607 608 0
-116 608 0
-608 609 0
-608 -117 0
610 -609 0
611 -610 0
612 -611 0
-120 612 0
613 -612 0
-121 613 0
614 -613 0
-122 614 0
615 -614 0
-123 615 0
616 -615 0
617 -616 0
618 -617 0
-126 618 0
619 -618 0
-127 619 0
620 -619 0
-128 620 0
621 -620 0
621 -129 0
622 -621 0
623 -622 0
-131 623 0
624 -623 0
-132 624 0
625 -624 0
-133 625 0
626 -625 0
-134 626 0
627 -626 0
-135 -626 0
-135 627 0
628 -627 0
-136 628 0
629 -628 0
-137 -628 0
-137 629 0
630 -629 0
-138 -629 0
-138 630 0
631 -630 0
-139 -630 0
632 -631 0
-140 -631 0
-140 632 0
633 -632 0
-141 -632 0
634 -633 0
-142 -633 0
635 -634 0
-143 -634 0
-144 -635 0
-424 111 109 110 112 113 114 115 116 0
-425 118 109 117 119 120 121 122 123 0
-426 117 110 129 128 124 125 126 127 0
-428 119 125 112 135 138 137 130 136 0
-429 131 113 135 139 140 126 120 141 0
-430 136 114 143 127 142 139 132 121 0
-431 133 144 128 137 115 140 142 122 0
432 -138 0
-432 134 116 138 141 143 144 123 129 0
-147 638 0
-638 639 0
-148 639 0
-639 640 0
-149 640 0
-640 641 0
-150 641 0
-641 642 0
-151 642 0
-642 643 0
-152 643 0
-643 644 0
-643 -153 0
645 -644 0
646 -645 0
647 -646 0
-156 647 0
648 -647 0
-157 648 0
649 -648 0
650 -649 0
-159 650 0
651 -650 0
652 -651 0
653 -652 0
-162 653 0
654 -653 0
-163 654 0
655 -654 0
656 -655 0
-165 656 0
657 -656 0
658 -657 0
-167 658 0
659 -658 0
-168 659 0
660 -659 0
661 -660 0
-170 661 0
662 -661 0
-171 -661 0
-171 662 0
663 -662 0
-172 -662 0
-172 663 0
664 -663 0
-173 -663 0
-173 664 0
665 -664 0
-174 665 0
666 -665 0
-175 -665 0
667 -666 0
-176 -666 0
-176 667 0
668 -667 0
-177 -667 0
-177 668 0
669 -668 0
-178 -668 0
670 -669 0
-179 -669 0
-180 -670 0
-433 147 152 146 145 148 149 150 151 0
-434 154 145 153 155 156 157 158 159 0
-435 165 153 146 160 162 161 164 163 0
-437 174 148 172 173 166 171 161 155 0
-438 167 176 171 175 177 162 156 149 0
-439 168 175 172 179 178 163 150 157 0
-440 169 176 151 164 178 158 180 173 0
441 -174 0
-441 174 165 179 152 177 180 159 170 0
-183 673 0
-673 674 0
-184 674 0
-674 675 0
-185 675 0
-675 676 0
-186 676 0
-676 677 0
-187 677 0
-677 678 0
-188 678 0
-678 679 0
-678 -189 0
680 -679 0
681 -680 0
-191 681 0
682 -681 0
-192 682 0
683 -682 0
-193 683 0
684 -683 0
685 -684 0
-195 685 0
686 -685 0
687 -686 0
-197 687 0
688 -687 0
-198 688 0
689 -688 0
-199 689 0
690 -689 0
691 -690 0
-201 691 0
692 -691 0
-202 692 0
693 -692 0
-203 693 0
694 -693 0
-204 694 0
695 -694 0
696 -695 0
-206 696 0
697 -696 0
-207 697 0
698 -697 0
-208 698 0
699 -698 0
-209 -698 0
-209 699 0
700 -699 0
-210 -699 0
-210 700 0
701 -700 0
-211 -700 0
702 -701 0
-212 -701 0
-212 702 0
703 -702 0
-213 -702 0
-213 703 0
704 -703 0
-214 -703 0
705 -704 0
-215 -704 0
-216 -705 0
-442 183 182 188 181 184 185 186 187 0
-443 190 181 189 191 192 193 194 195 0
-444 196 189 182 197 198 199 200 201 0
-446 208 184 210 209 202 191 207 197 0
-447 207 212 211 185 198 192 203 213 0
448 -208 0
-448 208 211 214 186 204 215 199 193 0
-216 449 0
-449 205 216 187 212 200 214 194 209 0
-210 450 0
-213 450 0
-215 450 0
450 -216 0
-450 206 216 215 195 210 201 213 188 0
-219 708 0
-708 709 0
-220 709 0
-709 710 0
-221 710 0
-710 711 0
-222 711 0
-711 712 0
-223 712 0
-712 713 0
-224 713 0
714 -713 0
-713 -225 0
715 -714 0
716 -715 0
-227 716 0
717 -716 0
718 -717 0
-229 718 0
719 -718 0
720 -719 0
720 -231 0
721 -720 0
722 -721 0
-233 722 0
723 -722 0
724 -723 0
-235 724 0
725 -724 0
726 -725 0
-237 726 0
727 -726 0
-238 727 0
728 -727 0
729 -728 0
-240 729 0
730 -729 0
731 -730 0
-242 731 0
732 -731 0
-243 732 0
733 -732 0
-244 733 0
734 -733 0
-245 -733 0
-245 734 0
735 -734 0
-246 735 0
736 -735 0
737 -736 0
-248 -736 0
-248 737 0
738 -737 0
-249 -737 0
-249 738 0
739 -738 0
-250 -738 0
-251 -739 0
-451 217 218 219 220 221 222 223 224 0
-452 226 225 217 227 228 229 230 231 0
-218 453 0
232 233 225 218 -453 234 235 236 237 0
-455 246 220 245 243 244 233 238 227 0
-456 247 248 221 243 239 234 228 249 0
-457 247 244 250 222 240 235 229 251 0
-458 252 241 248 245 236 230 250 223 0
-246 459 0
-459 252 237 231 224 246 249 251 242 0
-255 743 0
-743 744 0
-256 744 0
-744 745 0
-257 745 0
-745 746 0
-258 746 0
-746 747 0
-259 747 0
-747 748 0
-260 748 0
-748 749 0
-748 -261 0
750 -749 0
751 -750 0
-263 751 0
752 -751 0
-264 752 0
753 -752 0
-265 753 0
754 -753 0
755 -754 0
-267 755 0
756 -755 0
757 -756 0
-269 757 0
758 -757 0
-270 758 0
759 -758 0
-271 759 0
760 -759 0
761 -760 0
-273 761 0
762 -761 0
-274 762 0
763 -762 0
-275 763 0
764 -763 0
-276 764 0
765 -764 0
766 -765 0
-278 766 0
767 -766 0
-279 767 0
768 -767 0
-280 768 0
769 -768 0
-281 -768 0
-281 769 0
770 -769 0
-282 770 0
771 -770 0
-283 771 0
772 -771 0
-284 -771 0
772 -284 0
773 -772 0
-285 -772 0
-285 773 0
774 -773 0
-286 -773 0
774 -286 0
775 -774 0
-287 -774 0
-287 775 0
-288 -775 0
-460 255 254 253 256 257 258 259 260 0
-461 262 253 261 263 264 265 266 267 0
-462 261 268 254 269 270 271 272 273 0
-464 282 256 281 280 279 274 269 263 0
-465 283 284 257 279 275 270 264 285 0
-466 283 258 286 280 276 271 265 287 0
-467 277 286 288 266 281 259 272 284 0
-285 468 0
-287 468 0
-468 282 260 287 288 278 273 285 267 0
-291 778 0
-778 779 0
-292 779 0
-779 780 0
-293 780 0
-780 781 0
-294 781 0
-781 782 0
-295 782 0
-782 783 0
-296 783 0
784 -783 0
-783 -297 0
785 -784 0
786 -785 0
-299 786 0
787 -786 0
-300 787 0
788 -787 0
789 -788 0
790 -789 0
-303 790 0
791 -790 0
792 -791 0
-305 792 0
793 -792 0
-306 -792 0
-306 793 0
794 -793 0
795 -794 0
796 -795 0
796 -309 0
797 -796 0
-310 797 0
798 -797 0
798 -311 0
799 -798 0
800 -799 0
801 -800 0
-314 801 0
802 -801 0
-315 -801 0
-315 802 0
803 -802 0
-316 -802 0
-316 803 0
804 -803 0
-317 -803 0
804 -317 0
805 -804 0
805 -318 0
806 -805 0
-319 -805 0
-319 806 0
807 -806 0
-320 -806 0
-320 807 0
808 -807 0
-321 -807 0
-321 808 0
809 -808 0
-322 -808 0
809 -322 0
810 -809 0
-323 -809 0
-324 -810 0
-469 291 290 289 292 293 294 295 296 0
-470 298 289 297 299 300 301 302 303 0
307 -471 297 290 304 305 306 308 309 0
-473 318 292 316 315 317 310 299 305 0
-474 311 315 320 293 306 319 300 321 0
-475 312 322 307 294 316 319 301 323 0
-476 313 308 317 322 324 302 320 295 0
477 -318 0
-323 477 0
477 -324 0
-477 318 296 324 309 314 321 303 323 0
-326 812 0
-812 813 0
-327 813 0
-813 814 0
-328 814 0
-814 815 0
-329 815 0
-815 816 0
-330 816 0
-816 817 0
-331 817 0
-817 818 0
-332 818 0
819 -818 0
-818 -333 0
820 -819 0
821 -820 0
-335 821 0
822 -821 0
-336 822 0
823 -822 0
-337 823 0
824 -823 0
825 -824 0
-339 825 0
826 -825 0
-340 -825 0
827 -826 0
-341 -826 0
-341 827 0
828 -827 0
-342 -827 0
-342 828 0
829 -828 0
-343 -828 0
-343 829 0
830 -829 0
-344 -829 0
831 -830 0
-345 -830 0
-345 831 0
832 -831 0
-346 832 0
833 -832 0
-347 833 0
834 -833 0
-348 834 0
835 -834 0
836 -835 0
-350 836 0
837 -836 0
-351 837 0
838 -837 0
-352 838 0
839 -838 0
-353 -838 0
839 -353 0
840 -839 0
-354 840 0
841 -840 0
841 -355 0
842 -841 0
-356 -841 0
-356 842 0
843 -842 0
-357 -842 0
-357 843 0
844 -843 0
-358 -843 0
844 -358 0
845 -844 0
-359 -844 0
-359 845 0
-360 -845 0
-326 478 0
326 327 325 -478 332 330 328 331 329 0
338 -479 325 333 334 335 336 337 339 0
333 -480 326 340 341 344 345 342 343 0
351 -482 328 353 352 354 346 341 335 0
355 -483 336 356 329 351 347 342 357 0
-484 355 358 337 348 352 330 343 359 0
-485 349 331 353 360 344 356 338 358 0
-486 354 332 357 360 350 339 359 345 0
-363 848 0
-848 849 0
849 -364 0
-849 850 0
850 -365 0
-850 851 0
851 -366 0
-851 852 0
852 -367 0
-852 853 0
853 -368 0
-853 -369 0
856 -371 0
857 -856 0
858 -857 0
858 -373 0
859 -858 0
859 -374 0
860 -859 0
-375 860 0
861 -860 0
862 -861 0
862 -377 0
863 -862 0
864 -863 0
864 -379 0
865 -864 0
865 -380 0
866 -865 0
866 -381 0
867 -866 0
867 -382 0
868 -867 0
869 -868 0
869 -384 0
870 -869 0
870 -385 0
871 -870 0
-386 871 0
872 -871 0
872 -387 0
873 -872 0
873 -388 0
874 -873 0
-873 -389 0
874 -389 0
875 -874 0
-874 -390 0
875 -390 0
876 -875 0
876 -391 0
877 -876 0
-876 -392 0
877 -392 0
878 -877 0
-877 -393 0
878 -393 0
879 -878 0
-878 -394 0
879 -394 0
880 -879 0
-879 -395 0
880 -395 0
-880 -396 0
-487 363 362 361 364 365 366 367 368 0
-488 361 369 370 371 372 373 374 375 0
-489 376 369 362 377 378 379 380 381 0
-491 389 364 371 390 382 387 388 377 0
-492 392 365 378 383 387 391 372 393 0
-493 391 394 395 366 373 388 384 379 0
-494 385 367 389 392 394 396 374 380 0
-495 386 368 396 390 375 393 395 381 0
-989 0
-990 0
-991 0
-992 0
993 0
-1092 0
-994 0
-1093 0
-995 0
-1094 0
-996 0
-1095 0
-997 0
1096 0
398 -999 990 0
399 -1000 991 0
400 -1001 992 0
1002 401 -993 0
402 -1003 994 0
404 -1005 996 0
405 -1006 997 0
-1000 -2 989 991 0
1002 -4 -993 0
-1003 -5 989 994 0
-1005 -7 989 996 0
-1000 -9 990 991 0
-11 1002 -993 0
-12 -1003 990 994 0
-14 -1005 990 996 0
-1000 -16 992 0
-1000 -17 991 0
-17 1002 -993 0
-1000 -18 991 0
-18 -1003 991 994 0
-19 -1000 991 0
-20 -1000 991 0
-20 -1005 991 996 0
-21 -1000 997 0
-22 1002 -993 0
-23 -1003 992 994 0
-25 -1005 992 996 0
-27 -1002 994 0
-28 -1002 995 0
-28 1004 -993 0
-29 -1002 996 0
-29 1005 -993 0
-30 -1002 997 0
-31 -1003 994 0
-32 -1003 994 0
-32 -1005 994 996 0
-33 -1003 994 0
-34 -1005 995 996 0
-36 -1005 996 0
-36 -1006 996 997 0
-1011 410 1002 0
1011 410 -1002 0
1013 -1004 412 0
1014 413 -1005 0
-1015 414 1006 0
-47 1011 -1002 0
-47 -1011 1002 999 0
-50 1014 -1005 0
-999 1015 -51 0
-53 1011 -1002 0
-53 -1011 1002 1000 0
-56 1014 -1005 0
-58 1011 -1002 0
-58 -1011 1002 1001 0
-61 1014 -1005 0
-62 -1015 1001 1006 0
-63 -1011 1002 0
-63 -1011 1003 0
1012 -63 -1002 0
-64 -1011 1002 0
1013 -64 -1002 0
-1011 -65 1005 0
1014 -65 -1002 0
1014 -65 -1005 0
-68 1014 -1005 0
-70 1014 -1005 0
-72 -1015 1006 1005 0
1020 -1011 419 0
1021 -1012 420 0
1022 -1013 421 0
1023 -1014 422 0
-1024 1015 423 0
-1015 1024 423 0
-76 1020 -1011 0
-79 1023 -1014 0
-83 1020 -1011 0
-86 1023 -1014 0
-89 1020 -1011 0
-92 1023 -1014 0
-94 1020 -1011 0
-97 1023 -1014 0
-99 -1020 1011 0
-99 1021 -1011 0
-100 -1020 1011 0
1022 -100 -1011 0
-101 -1020 1011 0
1023 -101 -1011 0
1023 -101 -1014 0
-102 1024 -1011 0
-1012 1023 -104 0
1023 -104 -1014 0
1023 -106 -1013 0
1023 -106 -1014 0
-108 -1015 -1014 1023 0
1029 -1020 428 0
-1021 1030 429 0
1031 -1022 430 0
1032 -1023 431 0
-1033 1024 432 0
-1024 1033 432 0
-112 1029 -1020 0
-115 1032 -1023 0
-119 1029 -1020 0
-122 1032 -1023 0
-125 1029 -1020 0
-128 1032 -1023 0
-130 1029 -1020 0
-133 1032 -1023 0
1030 -135 -1020 0
1031 -136 -1020 0
1032 -137 -1020 0
1032 -137 -1023 0
1033 -1020 -138 0
1020 -1033 -138 1024 0
-1021 -140 1032 0
-140 1032 -1023 0
1032 -142 -1022 0
1032 -142 -1023 0
-1029 1038 437 0
1039 -1030 438 0
1040 -1031 439 0
1041 -1032 440 0
1033 -1042 441 0
-1033 1042 441 0
-148 -1029 1038 0
-1032 1041 -151 0
-155 -1029 1038 0
-1032 1041 -158 0
-161 -1029 1038 0
1041 -1032 -164 0
-166 -1029 1038 0
-1032 1041 -169 0
-171 1039 -1029 0
1040 -172 -1029 0
1041 -1029 -173 0
1041 -1032 -173 0
-1029 1042 -174 0
1041 -1030 -176 0
-1032 1041 -176 0
1041 -1031 -178 0
1041 -1032 -178 0
-1033 -180 -1032 1041 0
1047 -1038 446 0
-1039 1048 447 0
1049 -1040 448 0
1050 -1041 449 0
1042 -1051 450 0
1051 -1042 450 0
-184 1047 -1038 0
1050 -1041 -187 0
-191 1047 -1038 0
1050 -1041 -194 0
-197 1047 -1038 0
-1041 -200 1050 0
-202 1047 -1038 0
1050 -1041 -205 0
-207 1048 -1038 0
-208 1049 -1038 0
-1038 -209 1050 0
-209 1050 -1041 0
-210 1051 -1038 0
-1039 1050 -212 0
1050 -1041 -212 0
1050 -1040 -214 0
1050 -1041 -214 0
1056 -1047 455 0
-1048 1057 456 0
-1049 1058 457 0
1059 -1050 458 0
1051 -1060 459 0
1060 -1051 459 0
-220 -1047 1056 0
-223 -1050 1059 0
-227 -1047 1056 0
-230 -1050 1059 0
-233 -1047 1056 0
-236 -1050 1059 0
-238 -1047 1056 0
-241 -1050 1059 0
-243 1057 -1047 0
-244 1058 -1047 0
-245 -1047 1059 0
-245 -1050 1059 0
-246 1060 -1047 0
-1048 -248 1059 0
-248 -1050 1059 0
-1049 -250 1059 0
-250 -1050 1059 0
-1051 -252 -1050 1059 0
1056 -1065 464 0
1065 -1056 464 0
-1057 1066 465 0
-1058 1067 466 0
-1068 1059 467 0
1068 -1059 467 0
1060 -1069 468 0
1069 -1060 468 0
-256 1065 -1056 0
-1059 1068 -259 0
-263 1065 -1056 0
-1059 1068 -266 0
-269 1065 -1056 0
-1059 1068 -272 0
-274 1065 -1056 0
-1059 1068 -277 0
-279 1066 -1056 0
-280 -1056 1067 0
-281 -1056 1068 0
-281 -1059 1068 0
-1056 -282 1069 0
-1057 1068 -284 0
-1059 1068 -284 0
-1058 1068 -286 0
-1059 1068 -286 0
1065 -1074 473 0
1074 -1065 473 0
-1066 1075 474 0
-1067 1076 475 0
1068 -1077 476 0
-1068 1077 476 0
1069 -1078 477 0
1078 -1069 477 0
-292 1074 -1065 0
-294 -1067 1076 0
-295 -1068 1077 0
1078 -1061 -296 0
1069 -296 1061 -1078 0
-299 1074 -1065 0
-301 -1067 1076 0
-302 -1068 1077 0
-305 1074 -1065 0
-1067 1076 -307 0
-308 -1068 1077 0
-310 1074 -1065 0
-312 -1067 1076 0
-313 -1068 1077 0
-315 1075 -1065 0
-316 -1065 1076 0
-316 -1067 1076 0
-317 -1065 1077 0
-1068 -317 1077 0
1078 -318 -1065 0
-319 -1067 1076 0
-1066 -320 1077 0
-320 -1068 1077 0
-1067 -322 1077 0
-1068 -322 1077 0
-1074 482 1083 0
483 -1075 1084 0
484 -1076 1085 0
-1077 485 1086 0
1078 486 -1087 0
-1078 486 1087 0
-328 -1074 1083 0
-329 -1075 1084 0
-330 -1076 1085 0
-331 -1077 1086 0
-335 -1074 1083 0
-336 -1075 1084 0
-337 -1076 1085 0
-338 -1077 1086 0
-341 -1074 1083 0
-342 -1075 1084 0
-343 -1076 1085 0
-344 -1077 1086 0
-346 -1074 1083 0
-347 -1075 1084 0
-348 -1076 1085 0
-349 -1077 1086 0
-351 -1074 1084 0
-351 -1075 1084 0
-352 -1074 1085 0
-352 -1076 1085 0
1077 -353 -1083 0
-1074 -353 1086 0
-1077 -353 1086 0
-354 -1074 1087 0
-1075 -355 1085 0
-1076 -355 1085 0
-1075 -356 1086 0
-356 -1077 1086 0
-357 -1078 1087 0
-358 -1076 1086 0
-1077 -358 1086 0
-359 -1078 1087 0
-360 -1078 1087 0
-1083 491 1092 0
-1084 492 1093 0
-1085 493 1094 0
494 -1086 1095 0
1087 495 -1096 0
-1083 -364 1092 0
-1084 -365 1093 0
-1085 -366 1094 0
-367 -1086 1095 0
-1083 -371 1092 0
-372 -1084 1093 0
-1085 -373 1094 0
-374 -1086 1095 0
-1083 -377 1092 0
-378 -1084 1093 0
-1085 -379 1094 0
-380 -1086 1095 0
-1083 -382 1092 0
-383 -1084 1093 0
-384 -1085 1094 0
-385 -1086 1095 0
-1083 -387 1093 0
-387 -1084 1093 0
-388 -1083 1094 0
-388 -1085 1094 0
-389 -1083 1095 0
-389 -1086 1095 0
-1087 -390 -1083 1092 0
-391 -1084 1094 0
-391 -1085 1094 0
-392 -1084 1095 0
-392 -1086 1095 0
-394 -1085 1095 0
-394 -1086 1095 0
-1086 -1087 -396 1095 0
-396 1086 1087 -1096 0
-1098 0
-1099 0
1100 0
1101 0
-1102 0
-1103 0
-1104 0
1203 0
-1105 0
1204 0
-1107 398 1098 0
-1108 399 1099 0
1110 401 -1101 0
-1111 402 1102 0
-1112 403 1103 0
-1114 405 1105 0
1110 -4 -1101 0
1110 -11 -1101 0
1110 -17 -1101 0
1110 -22 -1100 0
-27 1111 -1101 0
-28 1112 -1101 0
-29 -1110 1104 0
1119 410 -1110 0
-1123 414 1114 0
-1123 -51 1107 1114 0
-57 -1123 1108 1114 0
1122 -65 -1110 0
-71 -1123 1112 1114 0
-72 -1122 1114 0
1128 -1119 419 0
-1131 1122 422 0
1131 -1122 422 0
-1132 1123 423 0
1131 -101 -1119 0
-102 1132 -1119 0
-108 -1131 1123 0
1137 -1128 428 0
1131 -1140 431 0
1140 -1131 431 0
-1141 1132 432 0
-1140 1132 -144 0
1146 -1137 437 0
-1149 1140 440 0
1149 -1140 440 0
1141 -1150 441 0
-1137 1150 -174 0
-180 -1149 1141 0
-1158 1149 449 0
1158 -1149 449 0
1150 -1159 450 0
-1158 -216 1150 0
-1167 1158 458 0
1167 -1158 458 0
1159 -1168 459 0
-1167 -252 1159 0
-1176 1167 467 0
1176 -1167 467 0
1168 -1177 468 0
1176 -1167 -259 0
1176 -1167 -266 0
-272 1176 -1167 0
-277 1176 -1167 0
-281 1176 -1167 0
1176 -1167 -284 0
1176 -1167 -286 0
-288 1168 -1176 0
-1185 1176 476 0
1177 -1186 477 0
-1185 -324 1177 0
1185 485 -1194 0
1186 486 -1195 0
1186 -360 -1194 0
494 1194 -1203 0
495 1195 -1204 0
-396 1195 -1203 0
-1205 0
-1206 0
-1207 0
-1208 0
-1209 0
-1210 0
-1211 0
1212 0
-1311 0
-1213 0
1312 0
-1218 401 1209 0
1221 404 -1212 0
-1222 405 1213 0
-8 -1222 1205 1213 0
-15 -1222 1206 1213 0
-21 -1222 1207 1213 0
-26 -1222 1208 1213 0
-27 -1218 1209 0
-30 -1222 1209 1213 0
-1222 -33 1210 1213 0
-35 -1222 1211 1213 0
-1227 410 1218 0
1230 413 -1221 0
-1231 414 1222 0
-50 1230 -1221 0
-56 1230 -1221 0
-61 1230 -1221 0
1230 -65 -1221 0
-66 -1231 1218 1222 0
-68 1230 -1221 0
-70 1230 -1221 0
-1236 1227 419 0
1239 -1230 422 0
-1240 1231 423 0
-102 -1240 1231 1227 0
1239 -104 -1230 0
-1245 1236 428 0
1248 -1239 431 0
-1249 1240 432 0
1236 -1249 -138 1240 0
-1254 1245 437 0
1257 -1248 440 0
1249 -1258 441 0
-1258 1249 -174 1245 0
-1263 1254 446 0
1266 -1257 449 0
1258 -1267 450 0
-210 -1267 1258 1254 0
-1272 1263 455 0
1275 -1266 458 0
1267 -1276 459 0
1259 -224 -1276 1267 0
-1263 -245 1275 0
1275 -245 -1266 0
-246 -1276 1267 1263 0
-1281 1272 464 0
1284 -1275 467 0
1276 -1285 468 0
1272 -282 -1285 1276 0
-1284 1293 476 0
1285 -1294 477 0
-1294 -318 1281 1285 0
-1293 485 1302 0
1294 486 -1303 0
494 -1302 1311 0
495 1303 -1312 0
-1317 0
-1321 0
1420 0
-1326 401 1317 0
-1330 405 1321 0
-1335 410 1326 0
-1339 414 1330 0
-1344 1335 419 0
-1348 1339 423 0
-1353 1344 428 0
-1357 1348 432 0
-1362 1353 437 0
1357 -1366 441 0
-1371 1362 446 0
1366 -1375 450 0
-210 -1375 1366 1362 0
-1380 1371 455 0
1375 -1384 459 0
-1389 1380 464 0
1384 -1393 468 0
1393 -1402 477 0
1402 486 -1411 0
495 1411 -1420 0
-1527 0
1429 0
1528 0
1438 405 -1429 0
1447 414 -1438 0
1456 -1447 423 0
1465 -1456 432 0
1474 -1465 441 0
1483 -1474 450 0
-1482 1491 458 0
1492 -1483 459 0
-1491 1500 467 0
1501 -1492 468 0
-1500 1509 476 0
1510 -1501 477 0
-1509 485 1518 0
494 -1518 1527 0
1511 -368 1519 -1528 0
-392 -1516 1527 0
-392 -1518 1527 0
-1529 0
-1530 0
-1531 0
-1532 0
1533 0
-1632 0
-1534 0
-1633 0
-1535 0
-1634 0
-1536 0
1635 0
1537 0
-1539 398 1530 0
-1540 399 1531 0
-1541 400 1532 0
1542 401 -1533 0
-1543 402 1534 0
-1544 403 1535 0
-1545 404 1536 0
1546 405 -1537 0
1542 -4 -1533 0
-1543 -5 1529 1534 0
-1544 -6 1529 1535 0
1546 -8 -1537 0
1542 -11 -1533 0
-1543 -12 1530 1534 0
-1544 -13 1530 1535 0
1546 -15 -1537 0
1542 -17 -1533 0
-1543 -18 1531 1534 0
-1544 -19 1531 1535 0
1546 -21 -1537 0
1542 -22 -1533 0
-1543 -23 1532 1534 0
-1544 -24 1532 1535 0
-26 1546 -1537 0
-27 -1542 1534 0
-27 1543 -1533 0
-28 -1542 1535 0
1544 -28 -1533 0
-29 -1542 1536 0
-29 1545 -1533 0
-30 1542 -1533 -1537 0
1546 -30 -1537 0
-31 -1543 1534 0
-1544 -31 1534 1535 0
-1543 -32 1534 0
-1543 -33 1534 0
1546 -33 -1537 0
-1544 -34 1535 0
-35 -1544 1535 0
-35 1546 -1537 0
1546 -36 -1537 0
-1551 410 1542 0
1551 410 -1542 0
1552 411 -1543 0
1553 -1544 412 0
-1554 413 1545 0
1554 -1545 413 0
1555 414 -1546 0
-47 1551 -1542 0
-47 -1551 1539 1542 0
-48 1552 -1543 0
-49 1553 -1544 0
-50 1554 -1545 0
-50 -1554 1539 1545 0
-51 1555 -1546 0
-53 1551 -1542 0
-53 -1551 1540 1542 0
-54 1552 -1543 0
-55 1553 -1544 0
-56 1554 -1545 0
-56 -1554 1540 1545 0
-57 1555 -1546 0
-58 1551 -1542 0
-58 -1551 1541 1542 0
-59 1552 -1543 0
-60 1553 -1544 0
-61 1554 -1545 0
-61 -1554 1541 1545 0
-62 1555 -1546 0
-63 -1551 1542 0
-63 -1551 1543 0
-63 1552 -1542 0
1552 -63 -1543 0
-64 -1551 1542 0
-64 -1551 1544 0
-64 1553 -1542 0
-64 1553 -1544 0
-65 -1551 1542 0
1554 -65 -1542 0
1554 -65 -1545 0
-1554 -65 1545 1542 0
-66 -1551 1542 0
-66 1551 -1546 -1542 0
-66 1555 -1546 0
-67 1553 -1544 0
-68 -1552 1545 0
-68 1554 -1545 0
-68 -1554 1545 1543 0
-69 1552 -1546 -1543 0
-69 1555 -1546 0
-70 1554 -1544 0
-70 1554 -1545 0
-71 1553 -1546 -1544 0
-71 1555 -1546 0
-72 -1554 1545 0
-72 1554 -1546 -1545 0
-72 1555 -1546 0
1560 -1551 419 0
1561 -1552 420 0
1562 -1553 421 0
1563 -1554 422 0
1564 -1555 423 0
-76 -1551 1560 0
-77 1561 -1552 0
-78 -1553 1562 0
-79 1563 -1554 0
-80 1564 -1555 0
-83 1560 -1551 0
-84 1561 -1552 0
-85 1562 -1553 0
-86 1563 -1554 0
-87 1564 -1555 0
-89 1560 -1551 0
-90 1561 -1552 0
-1553 1562 -91 0
-92 1563 -1554 0
-93 1564 -1555 0
-94 1560 -1551 0
-95 1561 -1552 0
-96 1562 -1553 0
-97 1563 -1554 0
-98 1564 -1555 0
-99 -1560 1552 0
-99 1561 -1551 0
-99 1561 -1552 0
-100 -1560 1553 0
-100 1562 -1551 0
-100 -1553 1562 0
-101 -1560 1554 0
-101 1560 -1554 -1551 0
-101 1563 -1551 0
-101 1563 -1554 0
-102 1560 -1555 -1551 0
-102 1564 -1555 0
-103 1562 -1552 0
-103 -1553 1562 0
-104 -1561 1554 0
-104 -1552 -1554 1561 0
1563 -104 -1552 0
-104 1563 -1554 0
-105 1561 -1555 -1552 0
-105 1564 -1555 0
-106 -1562 1554 0
-106 1563 -1553 0
-106 1563 -1554 0
-107 -1553 -1555 1562 0
-107 1564 -1555 0
-108 -1563 1554 0
-108 1563 -1555 -1554 0
-108 1564 -1555 0
-1560 1569 428 0
-1561 1570 429 0
-1562 1571 430 0
1572 -1563 431 0
1573 -1564 432 0
-112 -1560 1569 0
-113 -1561 1570 0
-114 -1562 1571 0
-115 1572 -1563 0
-116 1573 -1564 0
-119 -1560 1569 0
-120 -1561 1570 0
-121 -1562 1571 0
-122 1572 -1563 0
-123 1573 -1564 0
-125 -1560 1569 0
-126 -1561 1570 0
-127 -1562 1571 0
-128 1572 -1563 0
1573 -1564 -129 0
-130 -1560 1569 0
-131 -1561 1570 0
-132 -1562 1571 0
-133 1572 -1563 0
1559 -133 -1572 1563 0
-134 1573 -1564 0
-1561 -135 1569 -1560 0
-135 -1560 1570 0
-1561 -135 1570 0
-136 -1560 1571 0
-1562 -136 1571 0
-137 -1560 -1563 1569 0
-137 -1560 1572 0
-137 1572 -1563 0
-137 1560 -1572 1563 0
-1560 1569 -1564 -138 0
1573 -138 -1564 0
-139 -1561 1571 0
-139 -1562 1571 0
-140 -1561 -1563 1570 0
-140 -1561 1572 0
-140 1572 -1563 0
-141 -1561 -1564 1570 0
-141 1573 -1564 0
-142 -1562 -1563 1571 0
-142 -1562 1572 0
-142 1572 -1563 0
1562 -142 -1572 1563 0
-143 -1562 -1564 1571 0
-143 1573 -1564 0
1563 -1572 -144 0
1572 -1563 -1564 -144 0
1573 -144 -1564 0
-1569 1578 437 0
-1570 1579 438 0
-1571 1580 439 0
-1581 1572 440 0
1581 -1572 440 0
1582 -1573 441 0
-148 -1569 1578 0
-149 -1570 1579 0
-150 -1571 1580 0
-151 -1572 1581 0
1565 -151 -1581 1572 0
-152 1582 -1573 0
-155 -1569 1578 0
-156 -1570 1579 0
-157 -1571 1580 0
-158 -1572 1581 0
1566 -158 -1581 1572 0
-159 1582 -1573 0
-161 -1569 1578 0
-162 -1570 1579 0
-163 -1571 1580 0
-164 1581 -1572 0
1567 -164 -1581 1572 0
-165 1582 -1573 0
-166 -1569 1578 0
-167 -1570 1579 0
-168 -1571 1580 0
-169 1581 -1572 0
1568 -169 -1581 1572 0
-170 1582 -1573 0
-171 1570 -1578 0
-171 -1569 1579 0
-171 -1570 1579 0
-172 1571 -1578 0
-172 -1571 1578 -1569 0
-172 1580 -1569 0
-172 -1571 1580 0
-173 1572 -1578 0
-1572 -173 -1569 1578 0
-1569 -173 1581 0
-173 1581 -1572 0
-173 1569 -1581 1572 0
-174 -1569 1578 -1573 0
-174 1582 -1573 0
-175 -1570 1580 0
-175 -1571 1580 0
-1579 -176 1572 0
-1570 -176 -1572 1579 0
-176 -1570 1581 0
-176 -1572 1581 0
1570 -176 -1581 1572 0
-177 -1570 -1573 1579 0
-177 1582 -1573 0
-1580 -178 1572 0
-1571 -178 -1572 1580 0
-178 -1571 1581 0
-178 1581 -1572 0
1571 -178 -1581 1572 0
-179 -1571 -1573 1580 0
-179 1582 -1573 0
-180 -1581 1572 0
-180 -1572 1581 -1573 0
-180 1582 -1573 0
-1578 1587 446 0
1579 -1588 447 0
1588 -1579 447 0
1580 -1589 448 0
-1580 1589 448 0
-1590 1581 449 0
1590 -1581 449 0
1591 -1582 450 0
-184 1587 -1578 0
-185 -1579 1588 0
-186 -1580 1589 0
-187 1590 -1581 0
1574 -187 -1590 1581 0
-188 1591 -1582 0
-191 1587 -1578 0
-192 -1579 1588 0
-193 -1580 1589 0
-194 1590 -1581 0
1575 -194 -1590 1581 0
-195 1591 -1582 0
-197 1587 -1578 0
-198 -1579 1588 0
-199 -1580 1589 0
-200 1590 -1581 0
1576 -200 -1590 1581 0
-201 1591 -1582 0
-202 1587 -1578 0
-203 -1579 1588 0
-204 -1580 1589 0
-205 1590 -1581 0
1577 -205 -1590 1581 0
-206 1591 -1582 0
-207 1579 -1587 0
-207 -1579 -1578 1587 0
-207 1588 -1578 0
-207 -1579 1588 0
-208 1580 -1587 0
-208 -1580 -1578 1587 0
-208 1589 -1578 0
-208 -1580 1589 0
-208 1580 -1589 1578 0
-209 1581 -1587 0
-209 -1581 1587 -1578 0
1590 -209 -1578 0
1590 -209 -1581 0
-209 -1590 1578 1581 0
-210 1587 -1582 -1578 0
-210 1591 -1582 0
-211 -1579 1589 0
-211 -1580 1589 0
1588 -1579 -212 -1581 0
-1579 1590 -212 0
-212 1590 -1581 0
1579 -212 1581 -1590 0
-213 -1579 -1582 1588 0
-213 1591 -1582 0
-214 1581 -1589 0
-1580 -214 -1581 1589 0
1590 -214 -1580 0
1590 -214 -1581 0
-1590 -214 1581 1580 0
-215 -1580 -1582 1589 0
-215 1591 -1582 0
-216 -1590 1581 0
1590 -216 -1582 -1581 0
1591 -216 -1582 0
-1587 1596 455 0
-1588 1597 456 0
-1589 1598 457 0
1599 -1590 458 0
1600 -1591 459 0
-220 -1587 1596 0
-221 -1588 1597 0
-222 -1589 1598 0
-223 -1590 1599 0
-224 1600 -1591 0
-227 -1587 1596 0
-228 -1588 1597 0
-229 -1589 1598 0
-230 -1590 1599 0
-231 1600 -1591 0
-233 -1587 1596 0
-234 -1588 1597 0
-235 -1589 1598 0
-236 -1590 1599 0
-237 1600 -1591 0
-238 -1587 1596 0
-239 -1588 1597 0
-240 -1589 1598 0
-241 -1590 1599 0
-242 1600 -1591 0
-243 1588 -1596 0
-243 -1588 -1587 1596 0
-243 -1587 1597 0
-243 -1588 1597 0
-244 1589 -1596 0
-244 -1589 1596 -1587 0
-244 1598 -1587 0
-244 -1589 1598 0
-245 1590 -1596 0
-245 -1590 1596 -1587 0
-245 -1587 1599 0
-245 -1590 1599 0
-246 -1587 1596 -1591 0
-246 1600 -1591 0
-247 1598 -1588 0
-247 -1589 1598 0
-248 -1588 1597 -1590 0
-248 -1588 1599 0
-248 -1590 1599 0
-249 -1588 -1591 1597 0
-249 1600 -1591 0
-250 -1589 -1590 1598 0
-250 -1589 1599 0
-250 -1590 1599 0
-251 -1589 1598 -1591 0
-251 1600 -1591 0
-252 1590 -1599 0
-252 -1591 1599 -1590 0
-252 1600 -1591 0
-1596 1605 464 0
-1597 1606 465 0
-1598 1607 466 0
1599 -1608 467 0
1608 -1599 467 0
1609 -1600 468 0
-256 -1596 1605 0
-257 -1597 1606 0
-258 -1598 1607 0
-259 1608 -1599 0
1592 -259 -1608 1599 0
-260 1609 -1600 0
-263 -1596 1605 0
-264 -1597 1606 0
-265 -1598 1607 0
-266 1608 -1599 0
-266 -1608 1593 1599 0
-267 1609 -1600 0
-269 -1596 1605 0
-270 -1597 1606 0
-271 -1598 1607 0
-272 1608 -1599 0
1594 -272 -1608 1599 0
-273 1609 -1600 0
-274 -1596 1605 0
-275 -1597 1606 0
-276 -1598 1607 0
-277 1608 -1599 0
1595 -277 -1608 1599 0
-278 1609 -1600 0
-279 1597 -1605 0
-279 -1596 1606 0
-279 -1597 1606 0
-280 1598 -1605 0
-280 -1596 1607 0
-280 -1598 1607 0
-281 1599 -1605 0
-281 -1596 1605 -1599 0
-281 1608 -1596 0
-281 1608 -1599 0
-281 1599 1596 -1608 0
1605 -282 -1600 -1596 0
-282 1609 -1600 0
-283 1598 -1606 0
-283 -1597 1607 0
-283 -1598 1607 0
-1606 -284 1599 0
-284 1606 -1599 -1597 0
-284 1608 -1597 0
-284 1608 -1599 0
-1608 -284 1599 1597 0
-285 -1597 -1600 1606 0
-285 1609 -1600 0
-1607 -286 1599 0
-1598 -286 -1599 1607 0
-286 -1598 1608 0
-286 1608 -1599 0
1598 -286 1599 -1608 0
-287 -1598 -1600 1607 0
-287 1609 -1600 0
-288 1608 -1599 -1600 0
-288 1609 -1600 0
1614 -1605 473 0
1615 -1606 474 0
-1607 1616 475 0
1617 -1608 476 0
1618 -1609 477 0
-292 1614 -1605 0
-293 1615 -1606 0
-1607 1616 -294 0
-295 -1608 1617 0
-296 1618 -1609 0
-299 1614 -1605 0
-300 -1606 1615 0
-301 -1607 1616 0
-302 -1608 1617 0
-303 1618 -1609 0
-305 1614 -1605 0
1615 -306 -1606 0
-1607 1616 -307 0
-308 -1608 1617 0
-309 1618 -1609 0
-310 1614 -1605 0
1615 -311 -1606 0
-312 -1607 1616 0
-313 -1608 1617 0
-314 1618 -1609 0
-315 1606 -1614 0
-315 -1606 -1605 1614 0
-315 1615 -1605 0
-315 1615 -1606 0
-316 1607 -1614 0
-1607 -316 1614 -1605 0
-316 1616 -1605 0
-316 -1607 1616 0
-317 1608 -1614 0
-317 -1605 -1608 1614 0
-317 -1605 1617 0
-317 -1608 1617 0
-318 1614 -1609 -1605 0
-318 1618 -1609 0
-319 -1607 -1606 1615 0
-319 1616 -1606 0
-319 -1607 1616 0
-320 -1606 -1608 1615 0
-320 -1606 1617 0
-320 -1608 1617 0
-321 -1606 -1609 1615 0
-321 1618 -1609 0
-322 -1607 -1608 1616 0
-322 -1607 1617 0
-322 -1608 1617 0
-323 -1607 1616 -1609 0
-323 1618 -1609 0
-324 -1617 1608 0
-324 -1609 1617 -1608 0
-324 1618 -1609 0
482 -1614 1623 0
483 -1615 1624 0
-1616 484 1625 0
1626 485 -1617 0
1627 486 -1618 0
-328 -1614 1623 0
-329 1624 -1615 0
-1616 -330 1625 0
-331 -1617 1626 0
-332 1627 -1618 0
-335 -1614 1623 0
-336 -1615 1624 0
-337 -1616 1625 0
-338 -1617 1626 0
-339 1627 -1618 0
-341 -1614 1623 0
-342 1624 -1615 0
-343 -1616 1625 0
-344 -1617 1626 0
1627 -1618 -345 0
-346 -1614 1623 0
-347 -1615 1624 0
-348 -1616 1625 0
-349 -1617 1626 0
-350 1627 -1618 0
-351 1615 -1623 0
-351 -1614 1624 0
-351 -1615 1624 0
-352 -1614 1625 0
-352 -1616 1625 0
-1617 -353 -1614 1623 0
-353 -1614 1626 0
-353 -1617 1626 0
-354 -1618 -1614 1623 0
-354 1627 -1618 0
-355 -1615 1625 0
-1616 -355 1625 0
-356 -1617 -1615 1624 0
-356 -1615 1626 0
-356 -1617 1626 0
-357 -1618 -1615 1624 0
-357 1627 -1618 0
-1616 -358 -1617 1625 0
-1616 -358 1626 0
-1617 -358 1626 0
-359 -1616 1625 -1618 0
-359 1627 -1618 0
-360 1617 -1626 0
-360 -1617 1626 -1618 0
1627 -360 -1618 0
491 -1623 1632 0
-1624 492 1633 0
-1625 493 1634 0
-364 -1623 1632 0
-1624 -365 1633 0
-1625 -366 1634 0
-371 -1623 1632 0
-1624 -372 1633 0
-1625 -373 1634 0
-377 -1623 1632 0
-1624 -378 1633 0
-379 -1625 1634 0
-382 -1623 1632 0
-1624 -383 1633 0
-384 -1625 1634 0
-387 -1623 1633 0
-1624 -387 1633 0
-388 -1623 1634 0
-388 -1625 1634 0
-1626 -389 -1623 1632 0
-1627 -390 -1623 1632 0
-391 -1624 1634 0
-1625 -391 1634 0
-1624 -1626 -392 1633 0
-1627 -1624 -393 1633 0
-1626 -394 -1625 1634 0
-1627 -395 -1625 1634 0
1626 -396 -1635 0
1851 0
1797 -1806 449 0
1806 -1815 458 0
1815 -1824 467 0
1824 -1833 476 0
1833 485 -1842 0
494 1842 -1851 0
1857 0
1858 0
-1860 0
1866 -27 -1857 -1858 0
-29 -1866 1860 0
2175 0
2121 -2130 449 0
2130 -2139 458 0
2139 -2148 467 0
2148 -2157 476 0
2157 485 -2166 0
2166 494 -2175 0
2610 0
-2611 0
-9 2620 -2610 0
-2620 -16 2611 0
-2620 -18 2611 0
-2620 -19 2611 0
-2620 -20 2611 0
2719 0
-2818 0
2728 399 -2719 0
2737 408 -2728 0
2746 417 -2737 0
2755 426 -2746 0
2764 -2755 435 0
2773 -2764 444 0
2782 453 -2773 0
2791 462 -2782 0
2800 -2791 471 0
480 2809 -2800 0
2809 -2800 -326 0
-2800 2809 -333 0
-362 -2809 2818 0
-369 -2809 2818 0
-3585 0
-3594 401 3585 0
-3603 410 3594 0
-3612 3603 419 0
-3621 3612 428 0
-3630 3621 437 0
-3639 3630 446 0
-3648 3639 455 0
-3657 3648 464 0
-3666 3657 473 0
4230 0
-4329 0
4231 0
-9 4239 -4230 -4231 0
-37 4248 -4239 0
-4248 416 4257 0
-4257 4266 425 0
-4266 4275 434 0
-4275 4284 443 0
-4284 4293 452 0
-4293 4302 461 0
-4302 4311 470 0
-4311 4320 479 0
488 -4320 4329 0
-5313 0
5412 0
5415 0
-5322 401 5313 0
-5331 410 5322 0
-5340 5331 419 0
-5340 -102 5331 0
-5349 5340 428 0
-5349 5340 -138 0
-5358 5349 437 0
-5358 5349 -174 0
-5367 5358 446 0
-5367 -210 5358 0
-5376 5367 455 0
-5376 -246 5367 0
-5385 5376 464 0
-5385 5376 -282 0
5385 -5394 473 0
-5394 -316 5385 0
-5394 -318 5385 0
5394 482 -5403 0
-352 5394 -5403 0
5394 -353 -5403 0
-354 5394 -5403 0
491 5403 -5412 0
-389 5403 -5412 0
-390 5403 -5412 0
-396 5406 -5415 0
-396 5407 -5415 0
-5957 0
-6056 0
5958 0
-6057 0
-5959 0
6058 0
5960 0
5961 0
6060 0
5962 0
5963 0
6062 0
5964 0
6063 0
5965 0
-5966 397 5957 0
-5968 399 5959 0
5970 401 -5961 0
5974 405 -5965 0
-5966 -1 5957 0
-5966 -2 5959 0
-5968 -2 5957 5959 0
-3 -5966 5957 0
-5966 -4 5957 0
-5966 -5 5957 0
-6 -5966 5957 0
-5966 -7 5957 0
-5966 -8 5957 0
-9 -5967 5959 0
-5968 -16 5959 0
-5968 -17 5959 0
-5968 -18 5959 0
-5968 -19 5959 0
-5968 -20 5959 0
-5968 -21 5959 0
-5975 406 5966 0
408 -5977 5968 0
5979 410 -5970 0
5983 414 -5974 0
-37 -5975 5966 0
5976 -37 -5967 0
-37 -5976 5967 5966 0
-38 -5975 5966 0
-5977 -38 5968 5966 0
-39 -5975 5966 0
-40 -5975 5966 0
-41 -5975 5966 0
-42 -5975 5966 0
-43 -5975 5966 0
-44 -5975 5966 0
-5976 -45 5968 0
-45 5967 5968 -5977 0
-52 -5977 5968 0
-53 -5977 5968 0
-54 -5977 5968 0
-55 -5977 5968 0
-56 -5977 5968 0
-57 -5977 5968 0
-5984 415 5975 0
416 5976 -5985 0
417 -5986 5977 0
5988 -5979 419 0
5992 -5983 423 0
-73 -5984 5975 0
-73 -5976 5985 0
-74 -5984 5975 0
-74 -5986 5975 5977 0
-75 -5984 5975 0
-76 -5984 5975 0
-77 -5984 5975 0
-78 -5984 5975 0
-79 -5984 5975 0
-80 -5984 5975 0
-81 -5985 5977 0
5976 -81 -5986 5977 0
-88 -5986 5977 0
-89 -5986 5977 0
-90 -5986 5977 0
-91 -5986 5977 0
-92 -5986 5977 0
-93 -5986 5977 0
-5993 424 5984 0
425 5985 -5994 0
426 -5995 5986 0
5997 -5988 428 0
6001 -5992 432 0
-109 -5993 5984 0
-109 -5985 5994 0
-110 -5993 5984 0
-110 5984 -5995 5986 0
-111 -5993 5984 0
-112 -5993 5984 0
-113 -5993 5984 0
-114 -5993 5984 0
-115 -5993 5984 0
-116 -5993 5984 0
-117 -5994 5986 0
-5985 -117 5995 0
5985 -117 -5995 5986 0
-124 -5995 5986 0
-125 -5995 5986 0
-126 -5995 5986 0
-127 -5995 5986 0
-128 -5995 5986 0
-129 -5995 5986 0
-6002 433 5993 0
434 -6003 5994 0
435 5995 -6004 0
6006 -5997 437 0
6010 -6001 441 0
-6002 -145 5993 0
-145 6003 -5994 0
-146 -6002 5993 0
-146 5993 -6004 5995 0
-147 -6002 5993 0
-148 -6002 5993 0
-149 -6002 5993 0
-150 -6002 5993 0
-151 -6002 5993 0
-152 -6002 5993 0
-6003 -153 5995 0
5994 -153 -6004 5995 0
-160 -6004 5995 0
-161 -6004 5995 0
-162 -6004 5995 0
-163 -6004 5995 0
-164 -6004 5995 0
-165 -6004 5995 0
-6011 442 6002 0
443 6003 -6012 0
444 -6013 6004 0
6015 -6006 446 0
6019 -6010 450 0
-181 -6011 6002 0
-181 6012 -6003 0
-182 -6011 6002 0
-182 6002 -6013 6004 0
-183 -6011 6002 0
-184 -6011 6002 0
-185 -6011 6002 0
-186 -6011 6002 0
-187 -6011 6002 0
-188 -6011 6002 0
-189 -6012 6004 0
6003 -189 -6013 6004 0
-196 -6013 6004 0
-197 -6013 6004 0
-198 -6013 6004 0
-199 -6013 6004 0
-200 -6013 6004 0
-201 -6013 6004 0
-6020 451 6011 0
452 6012 -6021 0
453 6013 -6022 0
6024 -6015 455 0
6028 -6019 459 0
-217 6011 -6020 0
-217 6021 -6012 0
-218 6011 -6020 0
-218 6013 -6022 6011 0
-219 6011 -6020 0
-220 6011 -6020 0
-221 6011 -6020 0
-222 6011 -6020 0
-223 6011 -6020 0
-224 6011 -6020 0
-225 6013 -6021 0
-6012 -225 6022 0
6012 -225 -6022 6013 0
-6022 -232 6013 0
-233 -6022 6013 0
-234 -6022 6013 0
-235 -6022 6013 0
-236 -6022 6013 0
-237 -6022 6013 0
-6029 460 6020 0
-6030 461 6021 0
-6031 462 6022 0
6033 -6024 464 0
6037 -6028 468 0
-253 -6029 6020 0
-253 6030 -6021 0
-6029 -254 6020 0
-254 -6031 6020 6022 0
-255 -6029 6020 0
-256 -6029 6020 0
-257 -6029 6020 0
-258 -6029 6020 0
-259 -6029 6020 0
-260 -6029 6020 0
-6030 -261 6022 0
6021 -6031 -261 6022 0
-268 -6031 6022 0
-269 -6031 6022 0
-270 -6031 6022 0
-271 -6031 6022 0
-272 -6031 6022 0
-273 -6031 6022 0
-6038 469 6029 0
470 6030 -6039 0
471 -6040 6031 0
6042 -6033 473 0
-289 -6038 6029 0
-289 -6030 6039 0
-290 -6038 6029 0
-290 6029 -6040 6031 0
-291 -6038 6029 0
-292 -6038 6029 0
-293 -6038 6029 0
-294 -6038 6029 0
-295 -6038 6029 0
-296 -6038 6029 0
-297 6031 -6039 0
-297 6031 6030 -6040 0
-304 6031 -6040 0
-305 -6040 6031 0
-306 -6040 6031 0
-307 -6040 6031 0
-308 -6040 6031 0
-309 -6040 6031 0
-6047 478 6038 0
479 -6048 6039 0
480 -6049 6040 0
-6047 -325 6038 0
-6039 6048 -325 0
-6047 6038 -326 0
-6049 6038 -326 6040 0
-327 -6047 6038 0
-328 -6047 6038 0
-329 -6047 6038 0
-330 -6047 6038 0
-331 -6047 6038 0
-332 -6047 6038 0
-6048 -333 6040 0
-333 6039 6040 -6049 0
-340 -6049 6040 0
-341 -6049 6040 0
-342 -6049 6040 0
-343 -6049 6040 0
-344 -6049 6040 0
-345 -6049 6040 0
6049 489 -6058 0
-6048 -361 6057 0
6047 -362 6049 -6058 0
-6047 -6055 -368 6056 0
6048 -369 6049 -6058 0
-376 6049 -6058 0
6049 -377 -6058 0
6049 -378 -6058 0
6049 -379 -6058 0
6049 -380 -6058 0
6049 -381 -6058 0
6051 -389 -6060 0
6054 -389 -6060 0
6051 -390 -6060 0
6055 -390 -6060 0
6053 -394 -6062 0
6054 -394 -6062 0
-396 6054 -6063 0
-396 6055 -6063 0
6065 0
-6164 0
6066 0
6165 0
-6067 0
6166 0
6068 0
6069 0
6070 0
6071 0
6072 0
6073 0
6074 397 -6065 0
6075 398 -6066 0
-6076 399 6067 0
6077 400 -6068 0
6078 401 -6069 0
6079 402 -6070 0
6080 403 -6071 0
6081 404 -6072 0
6082 405 -6073 0
-1 6075 -6066 0
-6074 -2 6067 0
-9 -6075 6067 0
-9 6076 -6066 0
-10 6075 -6066 -6068 0
6075 -11 -6066 -6069 0
6075 -12 -6066 -6070 0
-13 6075 -6066 -6071 0
-14 6075 -6066 -6072 0
6075 -15 -6066 -6073 0
-6076 -16 6067 0
-6076 -17 6067 0
-6076 -18 6067 0
-6076 -19 6067 0
-6076 -20 6067 0
-6076 -21 6067 0
-6085 408 6076 0
6084 -37 -6074 0
6084 -37 -6075 0
-6083 -38 6076 0
-38 6083 -6076 -6074 0
6085 -38 -6074 0
6083 -39 -6077 -6074 0
-40 6083 -6078 -6074 0
-41 6083 -6079 -6074 0
-42 6083 -6074 -6080 0
-43 6083 -6081 -6074 0
-44 6083 -6082 -6074 0
-45 -6084 6076 0
-45 -6085 6075 6076 0
-52 -6085 6076 0
-53 -6085 6076 0
-54 -6085 6076 0
-55 -6085 6076 0
-56 -6085 6076 0
-57 -6085 6076 0
6092 -6083 415 0
-6094 417 6085 0
6084 -6093 -81 0
-6093 -81 6085 0
-88 -6094 6085 0
-89 -6094 6085 0
-90 -6094 6085 0
-6094 -91 6085 0
-92 -6094 6085 0
-93 -6094 6085 0
6101 -6092 424 0
-6102 6093 425 0
-6103 426 6094 0
-6102 -117 6094 0
-124 6094 -6103 0
-125 6094 -6103 0
-126 6094 -6103 0
-127 6094 -6103 0
-128 6094 -6103 0
-129 6094 -6103 0
6110 -6101 433 0
-6111 6102 434 0
-6112 6103 435 0
-6111 6103 -153 0
6119 -6110 442 0
-6120 6111 443 0
-6121 6112 444 0
-189 6112 -6120 0
6128 -6119 451 0
-6129 6120 452 0
-6130 453 6121 0
6121 -6129 -225 0
6137 -6128 460 0
-6138 461 6129 0
-6139 462 6130 0
-6138 6130 -261 0
6146 -6137 469 0
-6147 470 6138 0
-6148 6139 471 0
-6147 -297 6139 0
478 -6146 6155 0
6147 479 -6156 0
480 -6157 6148 0
-6156 6148 -333 0
-340 -6157 6148 0
-341 -6157 6148 0
-342 -6157 6148 0
-343 -6157 6148 0
-344 -6157 6148 0
-345 -6157 6148 0
487 -6155 6164 0
6156 488 -6165 0
6157 489 -6166 0
-369 6157 -6165 0
-376 6157 -6166 0
6157 -377 -6166 0
6157 -378 -6166 0
6157 -379 -6166 0
6157 -380 -6166 0
6157 -381 -6166 0
6281 0
-6380 0
6283 0
6290 397 -6281 0
6292 399 -6283 0
6299 -38 -6292 -6290 0
6308 -6299 415 0
6317 -6308 424 0
6326 -6317 433 0
6335 -6326 442 0
6344 -6335 451 0
6353 -6344 460 0
6362 -6353 469 0
478 -6362 6371 0
487 -6371 6380 0
-6389 0
6390 0
6391 0
6616 -4 -993 0
-8 -6616 989 997 0
6616 -11 -993 0
-15 -6616 990 997 0
-17 6616 -993 0
-21 -6616 991 997 0
6616 -22 -993 0
-26 -6616 992 997 0
-27 6616 -993 0
-28 6616 -993 0
-29 6616 -993 0
-30 6616 -993 0
-33 -6616 994 997 0
-35 -6616 995 997 0
-36 -6616 996 997 0
-6617 -51 999 1006 0
-57 -6617 1000 1006 0
-65 6617 -1002 0
-69 -6617 1003 1006 0
-150 -1031 6620 0
-157 -1031 6620 0
-163 -1031 6620 0
-168 -1031 6620 0
6620 -172 -1031 0
1030 -6620 -176 1032 0
6620 -179 -1031 0
-1061 6624 -296 0
6624 -296 -1069 0
-6624 -296 1061 1069 0
6624 -317 -1065 0
1065 -6624 1068 -317 0
-322 1067 -6624 1068 0
-1259 6698 -224 0
-224 -1267 6698 0
-6698 1266 -245 1263 0
-1511 -368 6778 0
-1519 -368 6778 0
-6778 -392 1516 1518 0
-1 -6797 1529 1530 0
-2 -6797 1529 1531 0
-3 -6797 1529 1532 0
6797 -4 -1533 0
-5 -6797 1529 1534 0
-6 -6797 1529 1535 0
-7 -6797 1529 1536 0
-8 6797 -1537 0
-9 -6797 1530 1531 0
-10 -6797 1530 1532 0
-11 6797 -1533 0
-12 -6797 1530 1534 0
-13 -6797 1530 1535 0
-14 -6797 1530 1536 0
-15 6797 -1537 0
-16 -6797 1531 1532 0
-17 6797 -1533 0
-18 -6797 1531 1534 0
-19 -6797 1531 1535 0
-20 -6797 1531 1536 0
-21 6797 -1537 0
-22 6797 -1533 0
-23 -6797 1532 1534 0
-24 -6797 1532 1535 0
-25 -6797 1532 1536 0
-26 6797 -1537 0
-27 6797 -1533 0
-28 6797 -1533 0
-29 6797 -1533 0
-30 6797 -1533 0
-31 -6797 1534 1535 0
-32 -6797 1534 1536 0
-33 6797 -1537 0
-34 -6797 1535 1536 0
-35 6797 -1537 0
-36 6797 -1537 0
-47 6798 -1542 0
-49 -1544 6798 0
-50 -1545 6798 0
-51 6798 -1546 0
-53 6798 -1542 0
-55 -1544 6798 0
-56 6798 -1545 0
-57 6798 -1546 0
-58 6798 -1542 0
-60 -1544 6798 0
-61 -1545 6798 0
-62 6798 -1546 0
-63 6798 -1542 0
-64 6798 -1542 0
-64 -1544 6798 0
-65 6798 -1542 0
-65 -1545 6798 0
-66 6798 -1546 0
-67 6798 -1543 0
-67 -1544 6798 0
-68 6798 -1543 0
-68 -1545 6798 0
-69 6798 -1546 0
-70 -1544 6798 0
-70 -1545 6798 0
-71 6798 -1546 0
-72 6798 -1546 0
-76 -1551 6799 0
-77 -1552 6799 0
-78 -1553 6799 0
-79 6799 -1554 0
-80 -1555 6799 0
-83 6799 -1551 0
-84 -1552 6799 0
-85 -1553 6799 0
-86 6799 -1554 0
-87 6799 -1555 0
-89 6799 -1551 0
-90 -1552 6799 0
-1553 6799 -91 0
-92 6799 -1554 0
-93 6799 -1555 0
-94 6799 -1551 0
-95 -1552 6799 0
-96 -1553 6799 0
-97 6799 -1554 0
-98 6799 -1555 0
-99 6799 -1551 0
-99 -1552 6799 0
-100 6799 -1551 0
-100 -1553 6799 0
-101 6799 -1551 0
-101 6799 -1554 0
-102 6799 -1555 0
-103 -1552 6799 0
-103 -1553 6799 0
-104 -1552 6799 0
-104 6799 -1554 0
-105 6799 -1555 0
-106 -1553 6799 0
-106 6799 -1554 0
-107 6799 -1555 0
-108 6799 -1555 0
-112 -1560 6800 0
-113 -1561 6800 0
-114 -1562 6800 0
-115 6800 -1563 0
-116 6800 -1564 0
-119 -1560 6800 0
-120 -1561 6800 0
-121 -1562 6800 0
-122 6800 -1563 0
-123 6800 -1564 0
-125 -1560 6800 0
-126 -1561 6800 0
-127 -1562 6800 0
-128 6800 -1563 0
6800 -1564 -129 0
-130 -1560 6800 0
-131 -1561 6800 0
-132 -1562 6800 0
-1559 -133 6800 0
-133 6800 -1563 0
-134 6800 -1564 0
-135 -1560 6800 0
-1561 -135 6800 0
-136 -1560 6800 0
-1562 -136 6800 0
-137 -1560 6800 0
-137 6800 -1563 0
-138 6800 -1564 0
-139 -1561 6800 0
-139 -1562 6800 0
-140 -1561 6800 0
-140 6800 -1563 0
-141 6800 -1564 0
-142 -1562 6800 0
-142 6800 -1563 0
-143 -1562 6800 0
-143 6800 -1564 0
6800 -144 -1564 0
-148 -1569 6801 0
-149 -1570 6801 0
-150 -1571 6801 0
-1565 -151 6801 0
-151 -1572 6801 0
-152 -1573 6801 0
-155 -1569 6801 0
-156 -1570 6801 0
-157 -1571 6801 0
-1566 -158 6801 0
-158 -1572 6801 0
-159 -1573 6801 0
-161 -1569 6801 0
-162 -1570 6801 0
-163 -1571 6801 0
-1567 -164 6801 0
-164 -1572 6801 0
-165 -1573 6801 0
-166 -1569 6801 0
-167 -1570 6801 0
-168 -1571 6801 0
-1568 -169 6801 0
-169 -1572 6801 0
-170 -1573 6801 0
-171 -1569 6801 0
-171 -1570 6801 0
-172 -1569 6801 0
-172 -1571 6801 0
-173 -1569 6801 0
-173 -1572 6801 0
-174 -1573 6801 0
-175 -1570 6801 0
-175 -1571 6801 0
-1570 -176 6801 0
-176 -1572 6801 0
-177 -1573 6801 0
-1571 -178 6801 0
-178 -1572 6801 0
-179 -1573 6801 0
-180 -1572 6801 0
-180 -1573 6801 0
-184 -1578 6802 0
-185 -1579 6802 0
-186 -1580 6802 0
-1574 -187 6802 0
-187 -1581 6802 0
-188 -1582 6802 0
-191 -1578 6802 0
-192 -1579 6802 0
-193 -1580 6802 0
-1575 -194 6802 0
-194 -1581 6802 0
-195 -1582 6802 0
-197 -1578 6802 0
-198 -1579 6802 0
-199 -1580 6802 0
-1576 -200 6802 0
-200 -1581 6802 0
-201 -1582 6802 0
-202 -1578 6802 0
-203 -1579 6802 0
-204 -1580 6802 0
-1577 -205 6802 0
-205 -1581 6802 0
-206 -1582 6802 0
-207 -1578 6802 0
-207 -1579 6802 0
-208 -1578 6802 0
-208 -1580 6802 0
-209 -1578 6802 0
-209 -1581 6802 0
-210 -1582 6802 0
-211 -1579 6802 0
-211 -1580 6802 0
-1579 -212 6802 0
-212 -1581 6802 0
-213 -1582 6802 0
-1580 -214 6802 0
-214 -1581 6802 0
-215 -1582 6802 0
-216 -1582 6802 0
-220 -1587 6803 0
-221 -1588 6803 0
-222 -1589 6803 0
-223 -1590 6803 0
-224 -1591 6803 0
-227 -1587 6803 0
-228 -1588 6803 0
-229 -1589 6803 0
-230 -1590 6803 0
-231 -1591 6803 0
-233 -1587 6803 0
-234 -1588 6803 0
-235 -1589 6803 0
-236 -1590 6803 0
-237 -1591 6803 0
-238 -1587 6803 0
-239 -1588 6803 0
-240 -1589 6803 0
-241 -1590 6803 0
-242 -1591 6803 0
-243 -1587 6803 0
-243 -1588 6803 0
-244 -1587 6803 0
-244 -1589 6803 0
-245 -1587 6803 0
-245 -1590 6803 0
-246 -1591 6803 0
-247 -1588 6803 0
-247 -1589 6803 0
-248 -1588 6803 0
-248 -1590 6803 0
-249 -1591 6803 0
-250 -1589 6803 0
-250 -1590 6803 0
-251 -1589 6803 0
-251 -1591 6803 0
-252 -1591 6803 0
-256 -1596 6804 0
-257 -1597 6804 0
-258 -1598 6804 0
-1592 -259 6804 0
-259 -1599 6804 0
-260 -1600 6804 0
-263 -1596 6804 0
-264 -1597 6804 0
-265 -1598 6804 0
-1593 -266 6804 0
-266 -1599 6804 0
-267 -1600 6804 0
-269 -1596 6804 0
-270 -1597 6804 0
-271 -1598 6804 0
-1594 -272 6804 0
-272 -1599 6804 0
-273 -1600 6804 0
-274 -1596 6804 0
-275 -1597 6804 0
-276 -1598 6804 0
-1595 -277 6804 0
-277 -1599 6804 0
-278 -1600 6804 0
-279 -1596 6804 0
-279 -1597 6804 0
-280 -1596 6804 0
-280 -1598 6804 0
-281 -1596 6804 0
-281 -1599 6804 0
-282 -1600 6804 0
-283 -1597 6804 0
-283 -1598 6804 0
-1597 -284 6804 0
-284 -1599 6804 0
-285 -1600 6804 0
-1598 -286 6804 0
-286 -1599 6804 0
-287 -1598 6804 0
-287 -1600 6804 0
-288 -1600 6804 0
-292 -1605 6805 0
-293 -1606 6805 0
-1607 -294 6805 0
-295 -1608 6805 0
-296 -1609 6805 0
-299 -1605 6805 0
-300 -1606 6805 0
-302 -1608 6805 0
-303 -1609 6805 0
-305 -1605 6805 0
-306 -1606 6805 0
-1607 6805 -307 0
-308 -1608 6805 0
-309 -1609 6805 0
-310 -1605 6805 0
-311 -1606 6805 0
-312 -1607 6805 0
-313 -1608 6805 0
-314 -1609 6805 0
-315 -1605 6805 0
-315 -1606 6805 0
-316 -1605 6805 0
-316 -1607 6805 0
-317 -1605 6805 0
-317 -1608 6805 0
-318 -1609 6805 0
-319 -1606 6805 0
-320 -1606 6805 0
-320 -1608 6805 0
-321 -1609 6805 0
-322 -1607 6805 0
-322 -1608 6805 0
-322 1608 1607 -6805 0
-323 -1609 6805 0
-324 -1609 6805 0
-328 -1614 6806 0
-331 -1617 6806 0
-332 -1618 6806 0
-335 -1614 6806 0
-338 -1617 6806 0
-339 -1618 6806 0
-341 -1614 6806 0
-344 -1617 6806 0
-1618 6806 -345 0
-346 -1614 6806 0
-349 -1617 6806 0
-350 -1618 6806 0
-351 -1614 6806 0
-352 -1614 6806 0
-353 -1614 6806 0
-353 -1617 6806 0
-354 -1618 6806 0
-355 -1615 6806 0
-356 -1615 6806 0
-356 -1617 6806 0
-357 -1618 6806 0
-1616 -358 6806 0
-358 -1617 6806 0
-359 -1618 6806 0
-360 -1617 6806 0
-360 -1618 6806 0
-367 -1626 6807 0
-1627 6807 -368 0
-374 -1626 6807 0
-375 -1627 6807 0
-1626 6807 -380 0
-1627 6807 -381 0
-385 6807 -1626 0
-386 -1627 6807 0
-387 -6807 1623 1624 0
-6807 -388 1623 1625 0
6807 -389 -1623 0
-1626 6807 -389 0
6807 -390 -1623 0
-1627 6807 -390 0
6807 -392 -1624 0
-1626 6807 -392 0
-1627 6807 -393 0
6807 -394 -1625 0
-1626 6807 -394 0
6807 -395 -1625 0
-1627 6807 -395 0
-396 -1626 6807 0
6807 -396 -1627 0
6808 -6797 0
6809 -6808 0
6810 -6798 -6808 0
-6810 6811 0
-6810 -6799 0
6809 -6798 0
6812 -6809 0
-6799 6811 -6809 0
-6811 6813 0
-6811 -6800 0
6812 -6799 0
6814 -6812 0
6813 -6800 -6812 0
6815 -6813 0
-6813 -6801 0
6814 -6800 0
6816 -6814 0
-6801 6815 -6814 0
6817 -6815 0
-6802 -6815 0
6816 -6801 0
6818 -6816 0
-6802 6817 -6816 0
6819 -6817 0
-6803 -6817 0
6818 -6802 0
6820 -6818 0
-6803 6819 -6818 0
6821 -6819 0
-6804 -6819 0
6820 -6803 0
6822 -6820 0
-6804 6821 -6820 0
6823 -6821 0
-6805 -6821 0
6822 -6804 0
6824 -6822 0
-6805 6823 -6822 0
6825 -6823 0
-6806 -6823 0
6824 -6805 0
-6806 6825 -6824 0
-6825 -6807 0
-371 9019 5403 0
9019 -377 5403 0
-382 9019 5403 0
9019 -390 5403 0
-5407 -9019 -396 -5406 0
-1 9398 5957 0
-2 9398 5959 0
-3 9398 5957 0
9398 -4 5957 0
9398 -5 5957 0
-6 9398 5957 0
9398 -7 5957 0
-8 9398 5957 0
-9 9398 5959 0
-10 -9398 -5958 -5960 0
-12 -9398 -5958 -5962 0
-13 -9398 -5958 -5963 0
-14 -9398 -5958 -5964 0
-16 9398 5959 0
-17 9398 5959 0
9398 -18 5959 0
-19 9398 5959 0
-20 9398 5959 0
-21 9398 5959 0
-23 -9398 -5960 -5962 0
-24 -9398 -5960 -5963 0
-25 -9398 -5960 -5964 0
-31 -9398 -5962 -5963 0
-32 -9398 -5962 -5964 0
-34 -9398 -5963 -5964 0
-37 9399 5966 0
-38 9399 5966 0
-39 9399 5966 0
-40 9399 5966 0
-41 9399 5966 0
-42 9399 5966 0
-43 9399 5966 0
-44 9399 5966 0
-45 9399 5968 0
-52 9399 5968 0
-53 9399 5968 0
-54 9399 5968 0
-55 9399 5968 0
-56 9399 5968 0
-57 9399 5968 0
-73 5975 9400 0
-74 5975 9400 0
-75 5975 9400 0
-76 5975 9400 0
-77 5975 9400 0
-78 5975 9400 0
-79 5975 9400 0
-80 5975 9400 0
5976 -81 9400 0
-81 5977 9400 0
-82 5976 9400 0
-83 5976 9400 0
-84 5976 9400 0
-85 5976 9400 0
-86 5976 9400 0
-87 5976 9400 0
-88 5977 9400 0
-89 5977 9400 0
-90 5977 9400 0
-91 5977 9400 0
-92 5977 9400 0
-93 5977 9400 0
-109 5984 9401 0
-109 5985 9401 0
-110 5984 9401 0
-110 5986 9401 0
-111 5984 9401 0
-112 5984 9401 0
-113 5984 9401 0
-114 5984 9401 0
-115 5984 9401 0
-116 5984 9401 0
-117 5985 9401 0
-117 9401 5986 0
-118 5985 9401 0
-119 5985 9401 0
-120 5985 9401 0
-121 5985 9401 0
-122 5985 9401 0
-123 5985 9401 0
-124 9401 5986 0
-125 9401 5986 0
-126 9401 5986 0
-127 9401 5986 0
-128 9401 5986 0
-129 9401 5986 0
-145 5993 9402 0
-145 5994 9402 0
-146 5993 9402 0
-146 5995 9402 0
-147 5993 9402 0
-148 5993 9402 0
-149 5993 9402 0
-150 5993 9402 0
-151 5993 9402 0
-152 5993 9402 0
5994 9402 -153 0
9402 -153 5995 0
-154 5994 9402 0
-155 5994 9402 0
-156 5994 9402 0
-157 5994 9402 0
-158 5994 9402 0
-159 5994 9402 0
-160 9402 5995 0
-161 9402 5995 0
-162 9402 5995 0
-163 9402 5995 0
-164 9402 5995 0
-165 9402 5995 0
-181 6002 9403 0
-181 6003 9403 0
-182 6002 9403 0
-182 6004 9403 0
-183 6002 9403 0
-184 6002 9403 0
-185 6002 9403 0
-186 6002 9403 0
-187 6002 9403 0
-188 6002 9403 0
-189 6003 9403 0
-189 9403 6004 0
-190 6003 9403 0
-191 6003 9403 0
-192 6003 9403 0
-193 6003 9403 0
-194 6003 9403 0
-195 6003 9403 0
-196 9403 6004 0
-197 9403 6004 0
-198 9403 6004 0
-199 9403 6004 0
-200 9403 6004 0
-201 9403 6004 0
-217 6011 9404 0
-217 6012 9404 0
-218 6011 9404 0
-218 6013 9404 0
-219 6011 9404 0
-220 6011 9404 0
-221 6011 9404 0
-222 6011 9404 0
-223 6011 9404 0
-224 6011 9404 0
6012 -225 9404 0
6013 -225 9404 0
-226 6012 9404 0
-227 6012 9404 0
-228 6012 9404 0
-229 6012 9404 0
-230 6012 9404 0
-231 6012 9404 0
-232 6013 9404 0
-233 6013 9404 0
-234 6013 9404 0
-235 6013 9404 0
-236 6013 9404 0
-237 6013 9404 0
-253 6020 9405 0
-253 6021 9405 0
-254 6020 9405 0
-254 9405 6022 0
-255 6020 9405 0
-256 6020 9405 0
-257 6020 9405 0
-258 6020 9405 0
-259 6020 9405 0
-260 6020 9405 0
6021 9405 -261 0
9405 -261 6022 0
-262 6021 9405 0
-263 6021 9405 0
-264 6021 9405 0
-265 6021 9405 0
-266 6021 9405 0
-267 6021 9405 0
-268 9405 6022 0
-269 9405 6022 0
-270 9405 6022 0
-271 9405 6022 0
-272 9405 6022 0
-273 9405 6022 0
-289 6029 9406 0
-289 6030 9406 0
-290 6029 9406 0
-290 6031 9406 0
-291 6029 9406 0
-292 6029 9406 0
-293 6029 9406 0
-294 6029 9406 0
-295 6029 9406 0
-296 6029 9406 0
-297 6030 9406 0
-297 6031 9406 0
-298 6030 9406 0
-299 6030 9406 0
-300 6030 9406 0
-301 6030 9406 0
-302 6030 9406 0
-303 6030 9406 0
9406 -304 6031 0
-305 9406 6031 0
-306 9406 6031 0
9406 -307 6031 0
-308 9406 6031 0
-309 9406 6031 0
-325 9407 6038 0
-325 9407 6039 0
9407 6038 -326 0
9407 6040 -326 0
-327 9407 6038 0
-328 9407 6038 0
-329 9407 6038 0
-330 9407 6038 0
-331 9407 6038 0
-332 9407 6038 0
-333 9407 6039 0
9407 -333 6040 0
-334 9407 6039 0
-335 9407 6039 0
-336 9407 6039 0
-337 9407 6039 0
-338 9407 6039 0
-339 9407 6039 0
-340 9407 6040 0
-341 9407 6040 0
-342 9407 6040 0
-343 9407 6040 0
-344 9407 6040 0
-345 9407 6040 0
-361 9408 6047 0
-361 9408 6048 0
-362 9408 6047 0
9408 -362 6049 0
-363 9408 6047 0
-364 9408 6047 0
-365 9408 6047 0
-366 9408 6047 0
-367 9408 6047 0
9408 6047 -368 0
9408 6055 -368 0
9408 -369 6048 0
-369 9408 6049 0
-370 9408 6048 0
-371 9408 6048 0
-372 9408 6048 0
-373 9408 6048 0
-374 9408 6048 0
-375 9408 6048 0
-6051 -389 -9408 -6054 0
-6051 -9408 -390 -6055 0
-6053 -9408 -394 -6054 0
-6055 -9408 -396 -6054 0
9409 -9398 0
9410 -9409 0
-9399 9411 -9409 0
-9411 9412 0
-9411 -9400 0
-9399 9410 0
9413 -9410 0
-9400 9412 -9410 0
-9412 9414 0
-9401 -9412 0
-9400 9413 0
9415 -9413 0
-9401 9414 -9413 0
-9414 9416 0
-9402 -9414 0
-9401 9415 0
9417 -9415 0
-9402 9416 -9415 0
-9416 9418 0
-9403 -9416 0
-9402 9417 0
9419 -9417 0
-9403 9418 -9417 0
-9418 9420 0
-9404 -9418 0
-9403 9419 0
9421 -9419 0
-9404 9420 -9419 0
-9420 9422 0
-9405 -9420 0
-9404 9421 0
9423 -9421 0
-9405 9422 -9421 0
-9422 9424 0
-9422 -9406 0
-9405 9423 0
9425 -9423 0
9424 -9406 -9423 0
-9424 9426 0
-9424 -9407 0
9425 -9406 0
9426 -9407 -9425 0
-9426 -9408 0
9428 -39 6074 0
9428 -40 6074 0
9428 -41 6074 0
-42 9428 6074 0
-43 9428 6074 0
-9428 -6076 -6075 -45 0
-75 9429 6083 0
-9429 -6085 -81 -6084 0
-2 9532 6389 0
-3 9532 6389 0
9532 -5 6389 0
-6 9532 6389 0
9532 -7 6389 0
-9 -9532 -6390 -6391 0
