p cnf 10557 854
-397 2 8 5 3 6 4 1 7 0
14 -398 15 10 11 9 12 13 1 0
-38 532 0
-532 533 0
-39 533 0
-533 534 0
-40 534 0
-534 535 0
-41 535 0
-535 536 0
-42 536 0
-536 537 0
-43 537 0
-537 538 0
-44 538 0
-538 539 0
-45 -538 0
-539 540 0
-46 -539 0
-540 541 0
-47 -540 0
-541 542 0
-48 -541 0
-542 543 0
-49 -542 0
-543 544 0
-50 -543 0
-544 -51 0
-37 406 0
-406 38 37 44 43 39 40 41 42 0
51 50 37 -407 45 46 47 48 49 0
-74 567 0
-567 568 0
-75 568 0
-568 569 0
-76 569 0
-569 570 0
570 -77 0
571 -570 0
-78 571 0
572 -571 0
-79 572 0
573 -572 0
-80 573 0
574 -573 0
-573 -81 0
575 -574 0
-82 -574 0
576 -575 0
-83 -575 0
577 -576 0
-84 -576 0
578 -577 0
-85 -577 0
579 -578 0
-86 -578 0
-579 -87 0
-415 77 73 78 74 75 76 80 79 0
-73 416 0
-416 82 81 73 87 86 83 84 85 0
424 -109 0
-424 112 111 109 110 113 114 115 116 0
123 122 109 -425 118 117 119 120 121 0
-433 152 145 150 146 147 148 149 151 0
-434 159 145 158 153 154 155 156 157 0
-442 188 181 187 182 183 184 185 186 0
-443 195 181 194 189 190 191 192 193 0
-451 224 217 219 218 223 220 221 222 0
-217 452 0
231 229 217 -452 226 225 227 230 228 0
-460 256 253 259 254 255 258 257 260 0
266 265 253 -461 261 262 263 264 267 0
-469 291 289 290 292 293 294 295 296 0
-289 470 0
303 297 -470 289 299 300 301 302 298 0
-478 327 325 326 332 329 330 328 331 0
336 335 325 -479 333 334 337 338 339 0
-487 366 361 365 362 363 364 367 368 0
370 361 -488 371 369 372 373 374 375 0
-3041 0
3042 0
-3141 0
3043 0
3045 0
3046 0
3049 0
397 -3050 3041 0
3051 398 -3042 0
-9 3051 -3042 -3043 0
-11 3051 -3042 -3045 0
-12 3051 -3042 -3046 0
-15 3051 -3042 -3049 0
-3059 3050 406 0
407 3060 -3051 0
-3060 3069 416 0
-3060 3069 -73 0
-3069 3078 425 0
-3069 -109 3078 0
-3078 3087 434 0
-3078 3087 -145 0
-3087 3096 443 0
-3087 3096 -181 0
-3096 3105 452 0
-3096 -217 3105 0
-3105 3114 461 0
-3105 -253 3114 0
-3114 3123 470 0
-3114 3123 -289 0
-3123 479 3132 0
-3123 -325 3132 0
-3132 488 3141 0
-361 -3132 3141 0
3906 0
-4005 0
3908 0
-10 3915 -3906 -3908 0
407 3924 -3915 0
-3924 -73 3933 0
-3933 3942 425 0
-3942 3951 434 0
-3951 3960 443 0
-3960 3969 452 0
-3969 3978 461 0
-3978 3987 470 0
-3987 3996 479 0
488 -3996 4005 0
5741 0
-5742 0
-5841 0
5744 0
5749 0
5750 397 -5741 0
-5751 398 5742 0
-3 5750 -5741 -5744 0
-8 5750 -5741 -5749 0
5759 -5750 406 0
-5760 407 5751 0
-37 5760 -5750 0
-5760 -51 5751 0
5768 -5759 415 0
-5760 5769 416 0
5769 -73 -5759 0
5777 -5768 424 0
-5769 5778 425 0
5778 -109 -5768 0
5786 -5777 433 0
-5778 5787 434 0
5787 -145 -5777 0
5795 -5786 442 0
5796 -5787 443 0
5796 -181 -5786 0
5804 -5795 451 0
5805 -5796 452 0
-5795 -217 5805 0
5813 -5804 460 0
-5805 5814 461 0
5814 -253 -5804 0
5822 -5813 469 0
-5814 5823 470 0
-5813 -289 5823 0
-5822 5831 478 0
-5823 5832 479 0
5832 -325 -5822 0
488 -5832 5841 0
-5831 -361 5841 0
6605 0
-6704 0
6606 0
6607 0
6609 0
6610 0
6611 0
6612 0
6613 0
6614 397 -6605 0
6615 398 -6606 0
6614 -1 -6605 -6606 0
6614 -2 -6605 -6607 0
-4 6614 -6605 -6609 0
-6 6614 -6605 -6611 0
-7 6614 -6605 -6612 0
6615 -9 -6606 -6607 0
6615 -11 -6606 -6609 0
6615 -12 -6606 -6610 0
-13 6615 -6606 -6611 0
-14 6615 -6606 -6612 0
-15 6615 -6606 -6613 0
6623 406 -6614 0
6624 407 -6615 0
6623 -37 -6615 -6614 0
6632 415 -6623 0
6633 -6624 416 0
-6624 6632 -6623 -73 0
6641 424 -6632 0
6642 -6633 425 0
-6633 -109 -6632 6641 0
6650 433 -6641 0
6651 -6642 434 0
-6642 -145 6650 -6641 0
6659 442 -6650 0
6660 -6651 443 0
-6651 -181 -6650 6659 0
6668 451 -6659 0
6669 -6660 452 0
6668 -217 -6659 -6660 0
6677 460 -6668 0
6678 -6669 461 0
-6669 -253 6677 -6668 0
6686 469 -6677 0
-6678 6687 470 0
-6678 6686 -6677 -289 0
6695 478 -6686 0
-6687 -325 -6686 6695 0
487 -6695 6704 0
-6929 0
-6930 0
-7029 0
-6938 397 6929 0
-6939 398 6930 0
-6939 -1 6929 6930 0
-6938 -2 6929 0
-6938 -3 6929 0
-6938 -4 6929 0
-5 -6938 6929 0
-6938 -6 6929 0
-6938 -7 6929 0
-8 -6938 6929 0
-6939 -9 6930 0
-10 -6939 6930 0
-6939 -11 6930 0
-6939 -12 6930 0
-6939 -13 6930 0
-6939 -14 6930 0
-15 -6939 6930 0
-6947 6938 406 0
407 -6948 6939 0
-6947 -37 6939 0
-37 -6948 6938 6939 0
-38 -6947 6938 0
-39 -6947 6938 0
-40 -6947 6938 0
-41 -6947 6938 0
-42 -6947 6938 0
-43 -6947 6938 0
-44 -6947 6938 0
-45 -6948 6939 0
-46 -6948 6939 0
-47 -6948 6939 0
-48 -6948 6939 0
-49 -6948 6939 0
-50 -6948 6939 0
-51 -6948 6939 0
-6956 6947 415 0
-6957 416 6948 0
-73 -6957 6947 6948 0
-74 -6956 6947 0
-75 -6956 6947 0
-76 -6956 6947 0
-77 -6956 6947 0
-78 -6956 6947 0
-79 -6956 6947 0
-80 -6956 6947 0
-6957 -81 6948 0
-82 -6957 6948 0
-83 -6957 6948 0
-84 -6957 6948 0
-85 -6957 6948 0
-86 -6957 6948 0
-87 -6957 6948 0
-6965 6956 424 0
-6966 425 6957 0
-6966 -109 6956 6957 0
-117 -6966 6957 0
-118 -6966 6957 0
-119 -6966 6957 0
-120 -6966 6957 0
-121 -6966 6957 0
-122 -6966 6957 0
-123 -6966 6957 0
-6974 6965 433 0
-6975 434 6966 0
-145 -6966 6975 0
-6975 -145 6965 6966 0
-153 -6975 6966 0
-154 -6975 6966 0
-155 -6975 6966 0
-156 -6975 6966 0
-157 -6975 6966 0
-158 -6975 6966 0
-159 -6975 6966 0
-6983 6974 442 0
-6984 443 6975 0
-6984 -181 6974 6975 0
-189 -6984 6975 0
-190 -6984 6975 0
-191 -6984 6975 0
-192 -6984 6975 0
-193 -6984 6975 0
-194 -6984 6975 0
-195 -6984 6975 0
-6992 6983 451 0
-6993 452 6984 0
-217 -6993 6983 6984 0
-225 -6993 6984 0
-226 -6993 6984 0
-227 -6993 6984 0
-228 -6993 6984 0
-229 -6993 6984 0
-230 -6993 6984 0
-6993 -231 6984 0
-7001 6992 460 0
461 -7002 6993 0
6992 -253 -7002 6993 0
-261 -7002 6993 0
-262 -7002 6993 0
-263 -7002 6993 0
-264 -7002 6993 0
-265 -7002 6993 0
-266 -7002 6993 0
-267 -7002 6993 0
-7010 7001 469 0
-7011 470 7002 0
-7010 -289 7002 0
-289 -7011 7001 7002 0
-7011 -297 7002 0
-298 -7011 7002 0
-299 -7011 7002 0
-300 -7011 7002 0
-301 -7011 7002 0
-302 -7011 7002 0
-7011 7002 -303 0
479 7011 -7020 0
-7019 -325 7010 0
-7019 -325 7011 0
7011 -7020 7010 -325 0
-7020 -361 7029 0
7037 0
-7038 0
7137 0
7046 397 -7037 0
-7047 398 7038 0
-7047 -9 7038 0
-7047 -10 7038 0
-7047 -11 7038 0
-7047 -12 7038 0
-7047 -13 7038 0
-7047 -14 7038 0
-15 -7047 7038 0
7055 -7046 406 0
407 -7056 7047 0
-45 -7056 7047 0
-46 -7056 7047 0
-47 -7056 7047 0
-48 -7056 7047 0
-49 -7056 7047 0
-50 -7056 7047 0
-7056 -51 7047 0
-7065 7056 416 0
-7065 -81 7056 0
-82 -7065 7056 0
-83 -7065 7056 0
-84 -7065 7056 0
-85 -7065 7056 0
-86 -7065 7056 0
-87 -7065 7056 0
7064 -7073 424 0
-7074 7065 425 0
7064 -109 -7074 7065 0
-117 -7074 7065 0
-118 -7074 7065 0
-119 -7074 7065 0
-120 -7074 7065 0
-121 -7074 7065 0
-122 -7074 7065 0
-7074 -123 7065 0
7073 -7082 433 0
-7083 434 7074 0
7073 -145 -7083 7074 0
-153 -7083 7074 0
-154 -7083 7074 0
-155 -7083 7074 0
-156 -7083 7074 0
-157 -7083 7074 0
-158 -7083 7074 0
-7083 -159 7074 0
-7091 7082 442 0
-7092 443 7083 0
7082 -181 -7092 7083 0
-189 -7092 7083 0
-190 -7092 7083 0
-191 -7092 7083 0
-192 -7092 7083 0
-193 -7092 7083 0
-194 -7092 7083 0
-7092 -195 7083 0
7091 -7100 451 0
452 7092 -7101 0
7091 -217 -7101 7092 0
-225 7092 -7101 0
-226 7092 -7101 0
-227 7092 -7101 0
-228 7092 -7101 0
-229 7092 -7101 0
-230 7092 -7101 0
7092 -231 -7101 0
-7109 7100 460 0
-7110 7101 461 0
7100 -253 -7110 7101 0
-261 7101 -7110 0
-262 7101 -7110 0
-263 7101 -7110 0
-264 7101 -7110 0
-265 7101 -7110 0
7101 -7110 -266 0
-267 7101 -7110 0
-7118 7109 469 0
-7119 470 7110 0
7109 -289 -7119 7110 0
-297 -7119 7110 0
-298 -7119 7110 0
-299 -7119 7110 0
-300 -7119 7110 0
-301 -7119 7110 0
-302 -7119 7110 0
-303 -7119 7110 0
7118 -7127 478 0
479 -7128 7119 0
7118 -325 7119 -7128 0
-333 7119 -7128 0
-334 7119 -7128 0
-335 7119 -7128 0
-336 7119 -7128 0
-337 7119 -7128 0
-338 7119 -7128 0
-339 7119 -7128 0
7128 488 -7137 0
7127 7128 -361 -7137 0
7128 -369 -7137 0
7128 -370 -7137 0
7128 -371 -7137 0
7128 -372 -7137 0
7128 -373 -7137 0
7128 -374 -7137 0
7128 -375 -7137 0
-7145 0
-7244 0
-7154 397 7145 0
-7154 -1 7145 0
-7154 -2 7145 0
-7154 -3 7145 0
-7154 -4 7145 0
-7154 -5 7145 0
-7154 -6 7145 0
-7154 -7 7145 0
-8 -7154 7145 0
-7163 406 7154 0
-7163 -37 7154 0
-7163 -38 7154 0
-39 -7163 7154 0
-40 -7163 7154 0
-41 -7163 7154 0
-42 -7163 7154 0
-43 -7163 7154 0
-7163 -44 7154 0
-7172 415 7163 0
-7172 -73 7163 0
-7172 -74 7163 0
-75 -7172 7163 0
-76 -7172 7163 0
-7172 -77 7163 0
-78 -7172 7163 0
-7172 -79 7163 0
-7172 -80 7163 0
-7181 424 7172 0
-7181 -109 7172 0
-110 -7181 7172 0
-7181 -111 7172 0
-7181 -112 7172 0
-113 -7181 7172 0
-114 -7181 7172 0
-115 -7181 7172 0
-116 -7181 7172 0
-7190 433 7181 0
-7190 -145 7181 0
-146 -7190 7181 0
-147 -7190 7181 0
-148 -7190 7181 0
-149 -7190 7181 0
-150 -7190 7181 0
-151 -7190 7181 0
-152 -7190 7181 0
-7199 442 7190 0
-7199 -181 7190 0
-182 -7199 7190 0
-183 -7199 7190 0
-184 -7199 7190 0
-185 -7199 7190 0
-186 -7199 7190 0
-187 -7199 7190 0
-188 -7199 7190 0
-7208 451 7199 0
-7208 -217 7199 0
-218 -7208 7199 0
-219 -7208 7199 0
-220 -7208 7199 0
-221 -7208 7199 0
-222 -7208 7199 0
-223 -7208 7199 0
-224 -7208 7199 0
-7217 460 7208 0
-7217 -253 7208 0
-254 -7217 7208 0
-255 -7217 7208 0
-256 -7217 7208 0
-257 -7217 7208 0
-258 -7217 7208 0
-259 -7217 7208 0
-260 -7217 7208 0
-7226 469 7217 0
-7226 -289 7217 0
-7235 478 7226 0
-325 7226 -7235 0
-7226 -7227 -325 7235 0
487 -7235 7244 0
-7236 -7235 -361 7244 0
10462 -1 6930 0
10462 -2 6929 0
10462 -3 6929 0
10462 -4 6929 0
10462 -5 6929 0
10462 -6 6929 0
10462 -7 6929 0
10462 -8 6929 0
10462 -9 6930 0
10462 -10 6930 0
10462 -11 6930 0
10462 -12 6930 0
10462 -13 6930 0
10462 -14 6930 0
10462 -15 6930 0
-37 10463 6939 0
-38 10463 6938 0
-39 10463 6938 0
-40 10463 6938 0
-41 10463 6938 0
-42 10463 6938 0
-43 10463 6938 0
-44 10463 6938 0
-45 10463 6939 0
-46 10463 6939 0
-47 10463 6939 0
-48 10463 6939 0
-49 10463 6939 0
-50 10463 6939 0
10463 -51 6939 0
-73 10464 6948 0
-74 10464 6947 0
-75 10464 6947 0
-76 10464 6947 0
-77 10464 6947 0
-78 10464 6947 0
-79 10464 6947 0
-80 10464 6947 0
-81 10464 6948 0
-82 10464 6948 0
-83 10464 6948 0
-84 10464 6948 0
-85 10464 6948 0
-86 10464 6948 0
-87 10464 6948 0
-109 6956 10465 0
-109 10465 6957 0
-110 6956 10465 0
-111 6956 10465 0
-112 6956 10465 0
-113 6956 10465 0
-114 6956 10465 0
-115 6956 10465 0
-116 6956 10465 0
-117 10465 6957 0
-118 10465 6957 0
-119 10465 6957 0
-120 10465 6957 0
-121 10465 6957 0
-122 10465 6957 0
10465 -123 6957 0
-145 10466 6966 0
-146 6965 10466 0
-147 6965 10466 0
-148 6965 10466 0
-149 6965 10466 0
-150 6965 10466 0
-151 6965 10466 0
-152 6965 10466 0
-153 10466 6966 0
-154 10466 6966 0
-155 10466 6966 0
-156 10466 6966 0
-157 10466 6966 0
-158 10466 6966 0
-159 10466 6966 0
-181 10467 6975 0
-182 6974 10467 0
-183 6974 10467 0
-184 6974 10467 0
-185 6974 10467 0
-186 6974 10467 0
-187 6974 10467 0
-188 6974 10467 0
-189 6975 10467 0
-190 6975 10467 0
-191 6975 10467 0
-192 6975 10467 0
-193 6975 10467 0
-194 6975 10467 0
-195 6975 10467 0
-217 6984 10468 0
-218 6983 10468 0
-219 6983 10468 0
-220 6983 10468 0
-221 6983 10468 0
-222 6983 10468 0
-223 6983 10468 0
-224 6983 10468 0
-225 6984 10468 0
-226 6984 10468 0
-227 6984 10468 0
-228 6984 10468 0
-229 6984 10468 0
-230 6984 10468 0
-231 6984 10468 0
-253 10469 6993 0
-254 6992 10469 0
-255 6992 10469 0
-256 6992 10469 0
-257 6992 10469 0
-258 6992 10469 0
-259 6992 10469 0
-260 6992 10469 0
-261 10469 6993 0
-262 10469 6993 0
-263 10469 6993 0
-264 10469 6993 0
-265 10469 6993 0
10469 -266 6993 0
-267 10469 6993 0
-289 7002 10470 0
-290 7001 10470 0
-291 7001 10470 0
-292 7001 10470 0
-293 7001 10470 0
-294 7001 10470 0
-295 7001 10470 0
-296 7001 10470 0
-297 7002 10470 0
-298 7002 10470 0
-299 7002 10470 0
-300 7002 10470 0
-301 7002 10470 0
-302 7002 10470 0
7002 10470 -303 0
-325 10471 7011 0
-326 7010 10471 0
-327 7010 10471 0
-328 7010 10471 0
-329 7010 10471 0
-330 7010 10471 0
-331 7010 10471 0
-332 7010 10471 0
-333 10471 7011 0
-334 10471 7011 0
-335 10471 7011 0
10471 7011 -336 0
-337 10471 7011 0
-338 10471 7011 0
-339 10471 7011 0
10472 7019 -361 0
10472 7020 -361 0
-362 10472 7019 0
-363 10472 7019 0
-364 10472 7019 0
-365 10472 7019 0
10472 7019 -366 0
-367 10472 7019 0
-368 10472 7019 0
7020 10472 -369 0
7020 10472 -370 0
7020 10472 -371 0
7020 10472 -372 0
7020 10472 -373 0
7020 10472 -374 0
7020 10472 -375 0
10473 -10462 0
10474 -10473 0
-10463 10475 -10473 0
-10475 10476 0
-10475 -10464 0
10474 -10463 0
10477 -10474 0
-10464 10476 -10474 0
-10476 10478 0
-10476 -10465 0
10477 -10464 0
10479 -10477 0
-10465 10478 -10477 0
-10478 10480 0
-10478 -10466 0
10479 -10465 0
10481 -10479 0
-10466 10480 -10479 0
-10480 10482 0
-10480 -10467 0
10481 -10466 0
10483 -10481 0
-10467 10482 -10481 0
-10482 10484 0
-10468 -10482 0
10483 -10467 0
10485 -10483 0
-10468 10484 -10483 0
-10484 10486 0
-10484 -10469 0
10485 -10468 0
10487 -10485 0
-10469 10486 -10485 0
-10486 10488 0
-10470 -10486 0
10487 -10469 0
10489 -10487 0
-10470 10488 -10487 0
-10488 10490 0
-10488 -10471 0
10489 -10470 0
-10471 10490 -10489 0
-10490 -10472 0
10526 -1 7145 0
-2 10526 7145 0
-3 10526 7145 0
-4 10526 7145 0
-5 10526 7145 0
-6 10526 7145 0
-7 10526 7145 0
-8 10526 7145 0
-37 10527 7154 0
-38 10527 7154 0
-39 10527 7154 0
-40 10527 7154 0
-41 10527 7154 0
-42 10527 7154 0
-43 10527 7154 0
-44 10527 7154 0
-73 7163 10528 0
-74 7163 10528 0
-75 7163 10528 0
-76 7163 10528 0
-77 7163 10528 0
-78 7163 10528 0
-79 7163 10528 0
-80 7163 10528 0
-109 7172 10529 0
-110 7172 10529 0
-111 7172 10529 0
-112 7172 10529 0
-113 7172 10529 0
-114 7172 10529 0
-115 7172 10529 0
-116 7172 10529 0
-145 7181 10530 0
-146 7181 10530 0
-147 7181 10530 0
-148 7181 10530 0
-149 7181 10530 0
-150 7181 10530 0
-151 7181 10530 0
-152 7181 10530 0
-181 7190 10531 0
-182 7190 10531 0
-183 7190 10531 0
-184 7190 10531 0
-185 7190 10531 0
-186 7190 10531 0
-187 7190 10531 0
-188 7190 10531 0
-217 7199 10532 0
-218 7199 10532 0
-219 7199 10532 0
-220 7199 10532 0
-221 7199 10532 0
-222 7199 10532 0
-223 7199 10532 0
-224 7199 10532 0
-253 7208 10533 0
-254 7208 10533 0
-255 7208 10533 0
-256 7208 10533 0
-257 7208 10533 0
-258 7208 10533 0
-259 7208 10533 0
-260 7208 10533 0
-289 7217 10534 0
-290 7217 10534 0
-291 7217 10534 0
-292 7217 10534 0
-293 7217 10534 0
-294 7217 10534 0
-295 7217 10534 0
-296 7217 10534 0
-325 7226 10535 0
7227 -325 10535 0
-326 7226 10535 0
-327 7226 10535 0
-328 7226 10535 0
-329 7226 10535 0
-330 7226 10535 0
-331 7226 10535 0
-332 7226 10535 0
-361 7235 10536 0
7236 -361 10536 0
-362 7235 10536 0
-363 7235 10536 0
-364 7235 10536 0
-365 7235 10536 0
-366 7235 10536 0
-367 7235 10536 0
-368 7235 10536 0
10537 -10526 0
10538 -10537 0
-10527 -10537 0
10538 -10527 0
10539 -10538 0
-10528 -10538 0
10539 -10528 0
10540 -10539 0
-10529 -10539 0
-10529 10540 0
10541 -10540 0
-10530 -10540 0
-10530 10541 0
10542 -10541 0
-10531 -10541 0
-10531 10542 0
10543 -10542 0
-10532 -10542 0
-10532 10543 0
10544 -10543 0
-10533 -10543 0
10544 -10533 0
10545 -10544 0
-10534 -10544 0
10545 -10534 0
10546 -10545 0
-10535 -10545 0
10546 -10535 0
-10536 -10546 0
