p cnf 9359 1547
2 1 4 -397 6 7 5 8 3 0
10 1 12 9 -398 15 11 14 13 0
-399 9 17 21 2 16 18 19 20 0
-400 10 22 25 3 24 23 16 26 0
-401 11 4 22 17 27 28 29 30 0
-402 12 5 18 23 27 31 32 33 0
35 -403 24 13 19 28 31 6 34 0
-404 34 25 20 7 14 29 32 36 0
-405 35 8 26 21 30 33 15 36 0
531 -37 0
-38 -531 0
-38 532 0
533 -532 0
-39 533 0
534 -533 0
-40 534 0
535 -534 0
-41 535 0
536 -535 0
-42 536 0
537 -536 0
-43 537 0
538 -537 0
-44 538 0
539 -538 0
-45 -538 0
540 -539 0
-46 -539 0
541 -540 0
-47 -540 0
-48 -541 0
44 37 38 -406 43 39 41 40 42 0
51 37 -407 45 50 46 47 48 49 0
-408 55 45 52 38 54 53 56 57 0
-74 567 0
-567 568 0
-75 568 0
-568 569 0
-76 569 0
-569 570 0
-77 570 0
-570 571 0
-78 571 0
-571 572 0
-79 572 0
-572 573 0
-80 573 0
574 -573 0
-573 -81 0
575 -574 0
-82 -574 0
576 -575 0
-83 -575 0
577 -576 0
-84 -576 0
578 -577 0
-85 -577 0
579 -578 0
-86 -578 0
-87 -579 0
-415 74 79 73 80 75 76 77 78 0
-73 416 0
-416 82 81 73 87 86 84 83 85 0
-110 602 0
-602 603 0
-111 603 0
-603 604 0
-112 604 0
-604 605 0
-113 605 0
-605 606 0
-114 606 0
-606 607 0
-115 607 0
-607 608 0
-116 608 0
-608 609 0
-117 -608 0
-609 610 0
-118 -609 0
-610 611 0
-119 -610 0
-611 612 0
-120 -611 0
-612 613 0
-121 -612 0
-613 614 0
-122 -613 0
-614 -123 0
-424 110 109 111 116 115 112 113 114 0
-109 425 0
-425 123 118 109 117 122 119 120 121 0
637 -146 0
638 -637 0
-147 638 0
639 -638 0
-148 639 0
640 -639 0
-149 640 0
641 -640 0
-150 641 0
642 -641 0
-151 642 0
643 -642 0
-152 643 0
644 -643 0
-153 -643 0
645 -644 0
-154 -644 0
646 -645 0
-155 -645 0
647 -646 0
-156 -646 0
648 -647 0
-157 -647 0
649 -648 0
-158 -648 0
-159 -649 0
-145 433 0
-433 147 146 145 152 151 148 149 150 0
-153 434 0
-154 434 0
-155 434 0
-156 434 0
-157 434 0
-434 158 159 145 153 154 155 156 157 0
-182 672 0
-672 673 0
-183 673 0
-673 674 0
-184 674 0
-674 675 0
-185 675 0
-675 676 0
-186 676 0
-676 677 0
-187 677 0
-677 678 0
-188 678 0
-678 679 0
-678 -189 0
-679 680 0
-190 -679 0
-680 681 0
-191 -680 0
-681 682 0
-192 -681 0
-682 683 0
-193 -682 0
-683 684 0
-683 -194 0
-684 -195 0
-181 442 0
-442 182 183 181 188 187 184 185 186 0
-181 443 0
-443 191 189 181 194 195 193 190 192 0
-218 707 0
-707 708 0
-219 708 0
-708 709 0
-220 709 0
-709 710 0
-221 710 0
-710 711 0
-222 711 0
-711 712 0
712 -223 0
713 -712 0
-224 713 0
714 -713 0
-225 -713 0
715 -714 0
-226 -714 0
716 -715 0
-227 -715 0
717 -716 0
-228 -716 0
718 -717 0
-229 -717 0
719 -718 0
-230 -718 0
-231 -719 0
-451 219 217 218 223 224 220 221 222 0
452 -217 0
-452 231 225 230 217 227 226 228 229 0
-254 742 0
-742 743 0
-255 743 0
-743 744 0
-256 744 0
-744 745 0
-257 745 0
-745 746 0
-258 746 0
-746 747 0
-259 747 0
-747 748 0
748 -260 0
749 -748 0
-261 -748 0
750 -749 0
-262 -749 0
751 -750 0
-263 -750 0
752 -751 0
-264 -751 0
753 -752 0
-265 -752 0
754 -753 0
-266 -753 0
-267 -754 0
460 -253 0
-460 260 253 257 254 255 256 259 258 0
-253 461 0
-461 253 267 261 264 263 266 265 262 0
-290 777 0
-777 778 0
-291 778 0
-778 779 0
-292 779 0
-779 780 0
-293 780 0
-780 781 0
-294 781 0
-781 782 0
-295 782 0
-782 783 0
-296 783 0
-783 784 0
-783 -297 0
-784 785 0
-298 -784 0
-785 786 0
-785 -299 0
787 -786 0
-786 -300 0
788 -787 0
-301 -787 0
-302 -788 0
-289 469 0
-469 291 289 290 296 295 294 293 292 0
470 -289 0
-297 470 0
-299 470 0
-300 470 0
-470 300 303 289 302 299 297 298 301 0
-328 814 0
-814 815 0
-329 815 0
-815 816 0
-330 816 0
-816 817 0
-331 817 0
-817 818 0
-332 818 0
-818 819 0
-333 -818 0
-819 820 0
-334 -819 0
-820 821 0
-820 -335 0
-821 822 0
-336 -821 0
-822 823 0
-337 -822 0
-823 824 0
-338 -823 0
-824 -339 0
-478 327 325 329 326 331 328 330 332 0
-325 479 0
-479 338 325 339 334 333 335 336 337 0
846 -361 0
-846 847 0
-362 -846 0
-362 847 0
-847 848 0
-363 -847 0
-363 848 0
-848 849 0
-364 849 0
-849 850 0
-365 850 0
-850 851 0
-366 851 0
-851 852 0
-367 852 0
-852 853 0
-368 853 0
-853 854 0
-853 -369 0
-854 855 0
-854 -370 0
-855 856 0
-855 -371 0
-856 857 0
-856 -372 0
858 -857 0
-857 -373 0
859 -858 0
-858 -374 0
860 -859 0
-859 -375 0
861 -860 0
-376 -860 0
862 -861 0
-377 -861 0
863 -862 0
-378 -862 0
864 -863 0
-379 -863 0
865 -864 0
-380 -864 0
866 -865 0
-381 -865 0
867 -866 0
-382 -866 0
868 -867 0
-383 -867 0
869 -868 0
-384 -868 0
870 -869 0
-385 -869 0
-386 -870 0
-487 362 363 361 364 365 366 367 368 0
-488 375 361 372 373 370 369 374 371 0
-489 380 362 369 377 376 379 378 381 0
-490 386 370 363 376 383 382 385 384 0
-990 0
398 -999 990 0
-1098 0
398 -1107 1098 0
2609 0
-2708 0
-2610 0
-2709 0
-2710 0
-2711 0
2613 0
2614 0
2615 0
2617 0
2618 397 -2609 0
398 -2619 2610 0
401 2622 -2613 0
402 2623 -2614 0
405 2626 -2617 0
-1 -2618 2610 0
-1 2619 -2609 0
-4 2618 -2609 -2613 0
-5 2618 -2609 -2614 0
-6 2618 -2609 -2615 0
-8 2618 -2609 -2617 0
-8 2626 -2617 0
-15 2626 -2617 0
-21 2626 -2617 0
-26 2626 -2617 0
-30 2626 -2617 0
-33 2626 -2617 0
-35 2626 -2617 0
-36 2626 -2617 0
-2627 406 2618 0
2627 406 -2618 0
-2628 407 2619 0
407 2628 -2619 0
-2627 -37 2619 0
2628 -37 -2618 0
-44 2627 -2626 -2618 0
-47 2628 -2619 -2622 0
-48 2628 -2619 -2623 0
-2636 2627 415 0
-2627 2636 415 0
-2637 2628 416 0
-2628 2637 416 0
-2636 -73 2628 0
2637 -73 -2627 0
-2628 -73 2637 0
-2645 2636 424 0
-2636 2645 424 0
2637 -2646 425 0
-2637 2646 425 0
-2645 -109 2637 0
2646 -109 -2636 0
-2654 2645 433 0
-2645 2654 433 0
2646 -2655 434 0
-2646 2655 434 0
-2654 -145 2646 0
-2645 -145 2655 0
-2663 2654 442 0
-2654 2663 442 0
2655 -2664 443 0
-2655 2664 443 0
-181 -2663 2655 0
-181 -2654 2664 0
-181 2664 -2655 0
-2672 2663 451 0
-2663 2672 451 0
-2673 2664 452 0
-2664 2673 452 0
-2672 -217 2664 0
-2663 -217 2673 0
-2681 2672 460 0
-2672 2681 460 0
-2682 2673 461 0
-2673 2682 461 0
-2681 -253 2673 0
-2672 -253 2682 0
-2673 -253 2682 0
-2681 2690 469 0
-2691 2682 470 0
-2682 2691 470 0
-2681 -289 2691 0
-289 2691 -2682 0
-2690 2699 478 0
-2691 479 2700 0
-2690 -325 2700 0
-326 -2690 2701 0
-327 -2690 2702 0
2706 -331 -2690 0
487 -2699 2708 0
-2700 488 2709 0
489 -2701 2710 0
490 -2702 2711 0
-361 -2699 2709 0
-361 -2700 2709 0
-369 -2700 2710 0
-370 -2700 2711 0
2825 0
-2925 0
2828 0
2830 0
2831 0
397 2834 -2825 0
2837 -23 -2828 -2830 0
-24 2837 -2828 -2831 0
2843 406 -2834 0
-39 2843 -2837 -2834 0
2852 -2843 415 0
-2844 2853 416 0
2853 -73 -2843 0
-2844 2853 -73 0
2861 -2852 424 0
-2853 2862 425 0
2862 -109 -2852 0
2870 -2861 433 0
-2862 2871 434 0
-2861 -145 2871 0
2879 -2870 442 0
-2871 2880 443 0
-2870 -181 2880 0
-2879 2888 451 0
-2880 2889 452 0
-2879 -217 2889 0
-2888 2897 460 0
-2889 2898 461 0
-2888 -253 2898 0
-2897 2906 469 0
-2898 2907 470 0
-2897 -289 2907 0
2907 -289 -2898 0
-2906 2915 478 0
-2907 479 2916 0
-2906 -325 2916 0
488 -2916 2925 0
-361 -2915 2925 0
3473 0
-3474 0
-3573 0
3476 0
3477 0
3480 0
3481 0
3482 397 -3473 0
398 -3483 3474 0
3485 400 -3476 0
3489 404 -3480 0
3483 -1 -3473 0
3485 -16 -3476 0
3489 -20 -3480 0
-22 3485 -3476 -3477 0
-25 3485 -3476 -3480 0
-25 3489 -3480 0
-26 3485 -3476 -3481 0
-29 3489 -3480 0
-32 3489 -3480 0
-34 3489 -3480 0
-36 3489 -3480 -3481 0
3491 406 -3482 0
-39 3491 -3485 -3482 0
-43 3491 -3489 -3482 0
-46 3492 -3483 -3485 0
3500 -3491 415 0
-3492 3501 416 0
3501 -73 -3491 0
3509 -3500 424 0
-3501 3510 425 0
3510 -109 -3500 0
3518 -3509 433 0
-3510 3519 434 0
-3509 -145 3519 0
3527 -3518 442 0
-3519 3528 443 0
-3518 -181 3528 0
-3527 3536 451 0
-3528 3537 452 0
-3527 -217 3537 0
-3536 3545 460 0
-3537 3546 461 0
-3536 -253 3546 0
-3545 3554 469 0
-3546 3555 470 0
-3545 -289 3555 0
3555 -289 -3546 0
-3554 3563 478 0
-3555 479 3564 0
-3554 -325 3564 0
-3555 -325 3564 0
488 -3564 3573 0
-361 -3563 3573 0
4121 0
-4122 0
-4221 0
4123 0
4124 0
4128 0
-4130 -1 4122 0
-2 4130 -4121 -4123 0
-3 4130 -4121 -4124 0
-7 4130 -4121 -4128 0
4139 406 -4130 0
4140 -37 -4130 0
4148 -4139 415 0
-4140 4149 416 0
4149 -73 -4139 0
-4140 4149 -73 0
4157 -4148 424 0
-4149 4158 425 0
-4148 -109 4158 0
4166 -4157 433 0
-4158 4167 434 0
-4157 -145 4167 0
4175 -4166 442 0
-4167 4176 443 0
-4166 -181 4176 0
-4175 4184 451 0
-4176 4185 452 0
-4175 -217 4185 0
-4184 4193 460 0
-4185 4194 461 0
-4184 -253 4194 0
-4193 4202 469 0
-4194 4203 470 0
-4193 -289 4203 0
-4194 -289 4203 0
-4202 4211 478 0
-4203 479 4212 0
-4202 -325 4212 0
488 -4212 4221 0
-361 -4211 4221 0
-4985 0
4986 0
-5085 0
4987 0
4988 0
4989 0
-4990 0
4991 0
4992 0
4993 0
-4994 397 4985 0
4995 398 -4986 0
4996 399 -4987 0
5000 403 -4991 0
5001 404 -4992 0
5002 405 -4993 0
-4994 -1 4985 0
4995 -1 -4986 0
5000 -6 -4991 0
5001 -7 -4992 0
5002 -8 -4993 0
4995 -9 -4986 -4987 0
-10 4995 -4986 -4988 0
-11 4995 -4986 -4989 0
-12 -4995 4990 0
-13 4995 -4986 -4991 0
-13 5000 -4991 0
-14 4995 -4986 -4992 0
-14 5001 -4992 0
4995 -15 -4986 -4993 0
-15 5002 -4993 0
-19 5000 -4991 0
5001 -20 -4992 0
-21 5002 -4993 0
-24 5000 -4991 0
5001 -25 -4992 0
-26 5002 -4993 0
-28 5000 -4991 0
-29 5001 -4992 0
-30 5002 -4993 0
-31 5000 -4991 0
-32 5001 -4992 0
-33 5002 -4993 0
5000 -34 -4991 -4992 0
5001 -34 -4992 0
-35 5000 -4991 -4993 0
-35 5002 -4993 0
-36 5001 -4992 -4993 0
-36 5002 -4993 0
-5003 406 4994 0
407 5004 -4995 0
-5003 -37 4994 0
5004 -37 -4995 0
-38 -5005 4994 4996 0
-41 -5008 4994 4999 0
5004 -45 -4995 -4996 0
5005 -45 -4995 0
-4999 -48 5004 -4995 0
5008 -48 -4995 0
-49 5004 -5000 -4995 0
-50 5004 -5001 -4995 0
-51 5004 -5002 -4995 0
-5012 5003 415 0
-5004 5013 416 0
-5004 -73 5013 0
-5021 5012 424 0
-5013 5022 425 0
5022 -109 -5013 0
-5030 5021 433 0
5022 -5031 434 0
-5022 5031 434 0
-5030 5021 -145 0
5031 -145 -5022 0
-5039 5030 442 0
-5031 5040 443 0
-5039 -181 5030 0
-181 -5031 5040 0
-5048 5039 451 0
-5040 5049 452 0
-5048 5039 -217 0
-217 -5040 5049 0
-5057 5048 460 0
-5049 5058 461 0
-5057 5048 -253 0
5058 -253 -5049 0
-5060 -255 5048 5051 0
-5051 -262 -5049 5058 0
5060 -262 -5049 0
-5058 5067 470 0
-289 5067 -5058 0
-291 -5069 5057 5060 0
-298 -5060 -5058 5067 0
5069 -298 -5058 0
-5067 479 5076 0
-325 -5067 5076 0
-5076 488 5085 0
-361 -5076 5085 0
5633 0
-5634 0
-5733 0
5642 397 -5633 0
-5643 398 5634 0
5651 406 -5642 0
-5652 407 5643 0
5660 -5651 415 0
-5661 5652 416 0
5669 -5660 424 0
-5670 5661 425 0
5678 -5669 433 0
-5679 5670 434 0
5687 -5678 442 0
-5688 5679 443 0
-5687 5696 451 0
-5697 5688 452 0
-5696 5705 460 0
-5706 5697 461 0
-5705 5714 469 0
-5715 5706 470 0
-5721 -331 -5714 5723 0
5730 -331 -5714 0
-5730 -338 5715 5721 0
-361 -5723 5733 0
5957 0
-6056 0
5958 0
6057 0
-5959 0
5960 0
5961 0
5962 0
5963 0
5964 0
5965 0
5966 397 -5957 0
5967 398 -5958 0
-5968 399 5959 0
5969 400 -5960 0
5966 -1 -5957 -5958 0
5967 -1 -5958 0
5966 -3 -5957 -5960 0
5969 -3 -5960 0
5966 -7 -5957 -5964 0
-9 -5967 5959 0
5969 -10 -5960 0
-12 5967 -5958 -5962 0
-16 -5968 5959 0
-16 5969 -5960 0
-5968 -17 5959 0
-5968 -18 5959 0
-5968 -19 5959 0
-5968 -20 5959 0
-21 -5968 5959 0
5969 -22 -5960 -5961 0
5969 -23 -5960 -5962 0
5969 -24 -5960 -5963 0
5969 -25 -5960 -5964 0
5969 -26 -5960 -5965 0
406 5975 -5966 0
5976 407 -5967 0
-5977 408 5968 0
5975 -37 -5966 -5967 0
5976 -37 -5966 0
-39 5975 -5966 -5969 0
-46 5976 -5969 -5967 0
5975 -5984 415 0
-5975 5984 415 0
5985 -5976 416 0
5984 -73 -5976 -5975 0
5985 -73 -5975 0
-74 -5975 5984 -5977 0
5980 -84 -5985 0
-5984 5993 424 0
5985 -5994 425 0
5994 -5985 425 0
-109 -5985 5993 -5984 0
5994 -109 -5984 0
-5993 6002 433 0
5994 -6003 434 0
6003 -5994 434 0
6002 -145 -5993 -5994 0
6003 -145 -5993 0
-6002 6011 442 0
6003 -6012 443 0
6012 -6003 443 0
6011 -181 -6002 -6003 0
-181 6012 -6002 0
6003 -6012 -189 0
-190 6003 -6012 0
-191 6003 -6012 0
-192 6003 -6012 0
-193 6003 -6012 0
6003 -194 -6012 0
6003 -6012 -195 0
-6011 6020 451 0
6012 -6021 452 0
6021 -6012 452 0
6020 -217 -6011 -6012 0
6021 -217 -6011 0
-6015 -220 -6011 6020 0
6012 -225 -6021 0
6012 -226 -6021 0
6012 -227 -6021 0
-227 6015 -6021 0
-228 6012 -6021 0
-229 6012 -6021 0
-230 6012 -6021 0
6012 -231 -6021 0
-6029 6020 460 0
-6020 6029 460 0
6021 -6030 461 0
6030 -6021 461 0
-6020 -253 6029 -6021 0
-6029 6038 469 0
6030 -6039 470 0
6039 -6030 470 0
-289 6038 -6030 -6029 0
-6038 6047 478 0
6039 479 -6048 0
-325 -6038 6047 -6039 0
487 -6047 6056 0
488 6048 -6057 0
-6065 0
-6066 0
-6165 0
6067 0
6068 0
6069 0
6070 0
6071 0
6072 0
6073 0
-6074 397 6065 0
-6075 398 6066 0
-6074 -1 6065 0
-6075 -1 6065 6066 0
-6074 -2 6065 0
-6074 -3 6065 0
-6074 -4 6065 0
-6074 -5 6065 0
-6074 -6 6065 0
-7 -6074 6065 0
-6074 -8 6065 0
-6075 -9 6066 0
-6075 -10 6066 0
-6075 -11 6066 0
-6075 -12 6066 0
-6075 -13 6066 0
-6075 -14 6066 0
-15 -6075 6066 0
-6083 406 6074 0
-6084 407 6075 0
-6083 -37 6074 0
-6084 -37 6074 6075 0
-38 -6083 6074 0
-39 -6083 6074 0
-40 -6083 6074 0
-41 -6083 6074 0
-42 -6083 6074 0
-6083 -43 6074 0
-44 -6083 6074 0
-6084 -45 6075 0
-46 -6084 6075 0
-47 -6084 6075 0
-48 -6084 6075 0
-49 -6084 6075 0
-50 -6084 6075 0
-51 -6084 6075 0
-6092 415 6083 0
-6093 416 6084 0
-6092 -73 6083 0
-73 -6093 6083 6084 0
-74 -6092 6083 0
-75 -6092 6083 0
-76 -6092 6083 0
-77 -6092 6083 0
-78 -6092 6083 0
-79 -6092 6083 0
-80 -6092 6083 0
-6093 -81 6084 0
-82 -6093 6084 0
-83 -6093 6084 0
-84 -6093 6084 0
-85 -6093 6084 0
-86 -6093 6084 0
-87 -6093 6084 0
-6101 424 6092 0
-6102 425 6093 0
-6101 -109 6092 0
-6102 -109 6092 6093 0
-110 -6101 6092 0
-111 -6101 6092 0
-112 -6101 6092 0
-113 -6101 6092 0
-114 -6101 6092 0
-115 -6101 6092 0
-116 -6101 6092 0
-117 -6102 6093 0
-118 -6102 6093 0
-119 -6102 6093 0
-120 -6102 6093 0
-121 -6102 6093 0
-122 -6102 6093 0
-6102 -123 6093 0
-6110 433 6101 0
-6111 434 6102 0
-6110 -145 6101 0
-6111 -145 6101 6102 0
-6110 -146 6101 0
-147 -6110 6101 0
-148 -6110 6101 0
-149 -6110 6101 0
-150 -6110 6101 0
-151 -6110 6101 0
-152 -6110 6101 0
-153 -6111 6102 0
-154 -6111 6102 0
-155 -6111 6102 0
-156 -6111 6102 0
-157 -6111 6102 0
-6111 -158 6102 0
-159 -6111 6102 0
-6119 442 6110 0
-6120 443 6111 0
-181 -6119 6110 0
-181 -6120 6110 6111 0
-182 -6119 6110 0
-183 -6119 6110 0
-184 -6119 6110 0
-185 -6119 6110 0
-186 -6119 6110 0
-187 -6119 6110 0
-188 -6119 6110 0
-6120 -189 6111 0
-190 -6120 6111 0
-191 -6120 6111 0
-192 -6120 6111 0
-193 -6120 6111 0
-6120 -194 6111 0
-6120 -195 6111 0
-6128 451 6119 0
-6129 452 6120 0
-217 -6128 6119 0
-6129 -217 6120 6119 0
-218 -6128 6119 0
-219 -6128 6119 0
-220 -6128 6119 0
-221 -6128 6119 0
-222 -6128 6119 0
-223 -6128 6119 0
-224 -6128 6119 0
-225 -6129 6120 0
-6129 -226 6120 0
-6129 -227 6120 0
-228 -6129 6120 0
-229 -6129 6120 0
-230 -6129 6120 0
-6129 -231 6120 0
-6137 460 6128 0
-6138 461 6129 0
-253 -6137 6128 0
-253 6128 -6138 6129 0
-254 -6137 6128 0
-255 -6137 6128 0
-256 -6137 6128 0
-257 -6137 6128 0
-258 -6137 6128 0
-259 -6137 6128 0
-260 -6137 6128 0
-261 6129 -6138 0
-262 6129 -6138 0
-263 6129 -6138 0
-264 6129 -6138 0
-265 6129 -6138 0
-266 6129 -6138 0
-267 6129 -6138 0
-6146 469 6137 0
-6147 470 6138 0
-6146 -289 6137 0
-6147 -289 6137 6138 0
-290 -6146 6137 0
-291 -6146 6137 0
-292 -6146 6137 0
-293 -6146 6137 0
-6146 -294 6137 0
-295 -6146 6137 0
-6146 -296 6137 0
-6147 -297 6138 0
-298 -6147 6138 0
-299 -6147 6138 0
-6141 -299 -6138 6147 0
-300 -6147 6138 0
-6142 -300 -6138 6147 0
-301 -6147 6138 0
-302 -6147 6138 0
-303 -6147 6138 0
478 6146 -6155 0
-6156 479 6147 0
-6155 -325 6147 0
-325 -6156 6146 6147 0
-333 -6156 6147 0
-334 -6156 6147 0
-335 -6156 6147 0
-336 -6156 6147 0
-337 -6156 6147 0
-338 -6156 6147 0
-339 -6156 6147 0
-361 -6155 6165 0
-6160 -6156 -372 6165 0
6173 0
-6174 0
6273 0
6182 397 -6173 0
-6183 398 6174 0
-6182 -1 6174 0
6183 -1 -6173 0
-6183 -9 6174 0
-10 -6183 6174 0
-11 -6183 6174 0
-6183 -12 6174 0
-13 -6183 6174 0
-14 -6183 6174 0
-15 -6183 6174 0
-6191 406 6182 0
406 6191 -6182 0
407 -6192 6183 0
-6191 -37 6183 0
6185 -39 -6191 0
-45 -6192 6183 0
-6192 -46 6183 0
-47 -6192 6183 0
-6192 -48 6183 0
-49 -6192 6183 0
-50 -6192 6183 0
-51 -6192 6183 0
-6200 415 6191 0
6200 -6191 415 0
6192 -6201 416 0
-6200 -73 6192 0
-6191 -73 6201 0
6191 -73 -6201 6192 0
-6201 6192 -81 0
-82 -6201 6192 0
-83 -6201 6192 0
-6201 6192 -84 0
-85 -6201 6192 0
-86 -6201 6192 0
-6201 6192 -87 0
-6209 424 6200 0
424 -6200 6209 0
6201 -6210 425 0
-6201 6210 425 0
-6209 -109 6201 0
6210 -109 -6200 0
-117 6201 -6210 0
-118 6201 -6210 0
-119 6201 -6210 0
-120 6201 -6210 0
-121 6201 -6210 0
-122 6201 -6210 0
-123 6201 -6210 0
-6218 433 6209 0
-6209 433 6218 0
6210 -6219 434 0
6219 -6210 434 0
6210 -6218 -145 0
-6209 6219 -145 0
6210 -145 6209 -6219 0
-153 6210 -6219 0
-154 6210 -6219 0
-155 6210 -6219 0
-156 6210 -6219 0
-157 6210 -6219 0
-158 6210 -6219 0
-159 6210 -6219 0
-6227 442 6218 0
-6218 6227 442 0
6219 -6228 443 0
6228 -6219 443 0
-6227 -181 6219 0
-6218 -181 6228 0
-181 6219 6218 -6228 0
6219 -6228 -189 0
-190 6219 -6228 0
-191 6219 -6228 0
-192 6219 -6228 0
-193 6219 -6228 0
-194 6219 -6228 0
-195 6219 -6228 0
-6236 451 6227 0
6236 -6227 451 0
6228 -6237 452 0
6237 -6228 452 0
6228 -217 -6236 0
6237 -217 -6227 0
6228 -217 6227 -6237 0
-225 6228 -6237 0
-226 6228 -6237 0
-227 6228 -6237 0
6231 -227 -6237 0
-228 6228 -6237 0
6232 -228 -6237 0
-229 6228 -6237 0
6233 -229 -6237 0
-230 6228 -6237 0
6234 -230 -6237 0
-231 6228 -6237 0
-6245 460 6236 0
-6236 6245 460 0
6237 -6246 461 0
6246 -6237 461 0
6237 -253 -6245 0
-253 -6246 6236 6237 0
6238 -254 -6245 0
6239 -255 -6245 0
-261 6237 -6246 0
6238 -261 -6246 0
-262 6237 -6246 0
6239 -262 -6246 0
-263 6237 -6246 0
6240 -263 -6246 0
-264 6237 -6246 0
-265 6237 -6246 0
-266 6237 -6246 0
6243 -266 -6246 0
-267 6237 -6246 0
-6254 469 6245 0
-6245 6254 469 0
6246 -6255 470 0
6255 -6246 470 0
-6254 -289 6246 0
-6245 -289 6255 0
-289 6246 6245 -6255 0
6247 -290 -6254 0
6248 -291 -6254 0
6249 -292 -6254 0
6250 -293 -6254 0
6251 -6254 -294 0
6252 -295 -6254 0
6253 -296 -6254 0
-297 6246 -6255 0
-298 6246 -6255 0
6246 -299 -6255 0
6249 -299 -6255 0
6246 -300 -6255 0
6250 -300 -6255 0
-301 6246 -6255 0
6251 -301 -6255 0
-302 6246 -6255 0
-302 6252 -6255 0
-303 6246 -6255 0
6253 -303 -6255 0
-6263 478 6254 0
6255 479 -6264 0
-6255 479 6264 0
-6263 -325 6255 0
-6254 -325 6264 0
6254 -325 6255 -6264 0
-326 -6263 6254 0
-327 -6263 6254 0
-328 -6263 6254 0
-6263 -329 6254 0
-330 -6263 6254 0
-331 -6263 6254 0
-332 -6263 6254 0
-333 6255 -6264 0
6256 -333 -6264 0
-334 6255 -6264 0
6257 -334 -6264 0
-335 6255 -6264 0
6258 -335 -6264 0
-336 6255 -6264 0
6259 -336 -6264 0
-337 6255 -6264 0
6260 -337 -6264 0
-338 6255 -6264 0
6261 -338 -6264 0
-339 6255 -6264 0
6262 -339 -6264 0
6264 488 -6273 0
6263 -361 6264 -6273 0
-369 6264 -6273 0
-369 6265 -6273 0
-370 6264 -6273 0
-370 6266 -6273 0
-371 6264 -6273 0
-371 6267 -6273 0
-372 6264 -6273 0
-372 6268 -6273 0
-373 6264 -6273 0
-373 6269 -6273 0
-374 6264 -6273 0
-374 6270 -6273 0
-375 6264 -6273 0
-375 6271 -6273 0
-6281 0
6282 0
6381 0
-6290 397 6281 0
6291 398 -6282 0
-6299 406 6290 0
6300 407 -6291 0
-6308 6299 415 0
6309 -6300 416 0
-6317 6308 424 0
6309 -6318 425 0
6318 -6309 425 0
-6326 6317 433 0
6318 -6327 434 0
6327 -6318 434 0
-6326 6317 -145 0
6327 -6318 -145 0
-6335 6326 442 0
6327 -6336 443 0
6336 -6327 443 0
-6335 -181 6326 0
6336 -181 -6327 0
-6344 6335 451 0
6336 -6345 452 0
6345 -6336 452 0
-6344 6335 -217 0
6345 -6336 -217 0
-6353 6344 460 0
6345 -6354 461 0
6354 -6345 461 0
-6353 6344 -253 0
6354 -6345 -253 0
6354 -6363 470 0
6356 -298 -6363 0
6363 -6372 479 0
6372 488 -6381 0
6372 -369 -6381 0
6372 -370 -6381 0
6372 -371 -6381 0
6372 -372 -6381 0
6372 -373 -6381 0
6372 -374 -6381 0
6372 -375 -6381 0
-9222 -37 -5966 -5967 0
-38 9222 5968 0
-9222 -46 -5969 -5967 0
-52 9222 5968 0
-53 9222 5968 0
-54 9222 5968 0
-55 9222 5968 0
-56 9222 5968 0
-57 9222 5968 0
5977 9223 -74 0
-9223 -5980 -5976 -84 0
9256 -1 6066 0
-2 9256 6065 0
-3 9256 6065 0
9256 -4 6065 0
9256 -5 6065 0
9256 -6 6065 0
-7 9256 6065 0
-8 9256 6065 0
-9 9256 6066 0
-10 9256 6066 0
-11 9256 6066 0
-12 9256 6066 0
-13 9256 6066 0
-14 9256 6066 0
-15 9256 6066 0
-16 -9256 -6067 -6068 0
-17 -9256 -6067 -6069 0
-18 -9256 -6067 -6070 0
-19 -9256 -6067 -6071 0
-20 -9256 -6067 -6072 0
-21 -9256 -6067 -6073 0
-22 -9256 -6068 -6069 0
-23 -9256 -6068 -6070 0
-24 -9256 -6068 -6071 0
-25 -9256 -6068 -6072 0
-26 -9256 -6068 -6073 0
-27 -9256 -6069 -6070 0
-28 -9256 -6069 -6071 0
-29 -9256 -6069 -6072 0
-30 -9256 -6069 -6073 0
-31 -9256 -6070 -6071 0
-32 -9256 -6070 -6072 0
-33 -9256 -6070 -6073 0
9257 -37 6075 0
-38 9257 6074 0
-39 9257 6074 0
-40 9257 6074 0
-41 9257 6074 0
-42 9257 6074 0
-43 9257 6074 0
-44 9257 6074 0
-45 9257 6075 0
-46 9257 6075 0
-47 9257 6075 0
-48 9257 6075 0
-49 9257 6075 0
-50 9257 6075 0
-51 9257 6075 0
-73 6084 9258 0
-74 9258 6083 0
-75 9258 6083 0
-76 9258 6083 0
-77 9258 6083 0
-78 9258 6083 0
-79 9258 6083 0
-80 9258 6083 0
-81 9258 6084 0
-82 9258 6084 0
-83 9258 6084 0
-84 9258 6084 0
-85 9258 6084 0
-86 9258 6084 0
-87 9258 6084 0
-109 9259 6093 0
-110 6092 9259 0
-111 6092 9259 0
-112 6092 9259 0
-113 6092 9259 0
-114 6092 9259 0
-115 6092 9259 0
-116 6092 9259 0
-117 9259 6093 0
-118 9259 6093 0
-119 9259 6093 0
-120 9259 6093 0
-121 9259 6093 0
-122 9259 6093 0
-123 9259 6093 0
-145 6101 9260 0
-145 9260 6102 0
-146 6101 9260 0
-147 6101 9260 0
-148 6101 9260 0
-149 6101 9260 0
-150 6101 9260 0
-151 6101 9260 0
-152 6101 9260 0
-153 6102 9260 0
-154 6102 9260 0
-155 6102 9260 0
-156 6102 9260 0
-157 6102 9260 0
-158 6102 9260 0
-159 6102 9260 0
-181 6110 9261 0
-181 6111 9261 0
-182 6110 9261 0
-183 6110 9261 0
-184 6110 9261 0
-185 6110 9261 0
-186 6110 9261 0
-187 6110 9261 0
-188 6110 9261 0
-189 6111 9261 0
-190 6111 9261 0
-191 6111 9261 0
-192 6111 9261 0
-193 6111 9261 0
-194 6111 9261 0
-195 6111 9261 0
-217 6119 9262 0
-217 6120 9262 0
-218 6119 9262 0
-219 6119 9262 0
-220 6119 9262 0
-221 6119 9262 0
-222 6119 9262 0
-223 6119 9262 0
-224 6119 9262 0
-225 6120 9262 0
-226 6120 9262 0
-227 6120 9262 0
-228 6120 9262 0
-229 6120 9262 0
-230 6120 9262 0
-231 6120 9262 0
-253 6128 9263 0
-253 9263 6129 0
-254 6128 9263 0
-255 6128 9263 0
-256 6128 9263 0
-257 6128 9263 0
-258 6128 9263 0
-259 6128 9263 0
-260 6128 9263 0
-261 6129 9263 0
-262 6129 9263 0
-263 6129 9263 0
-264 6129 9263 0
-265 6129 9263 0
-266 6129 9263 0
-267 6129 9263 0
-289 6137 9264 0
-289 6138 9264 0
-290 6137 9264 0
-291 6137 9264 0
-292 6137 9264 0
-293 6137 9264 0
-294 6137 9264 0
-295 6137 9264 0
-296 6137 9264 0
-297 6138 9264 0
-298 6138 9264 0
-299 6138 9264 0
6141 -299 9264 0
-300 6138 9264 0
6142 -300 9264 0
-301 6138 9264 0
-302 6138 9264 0
-303 6138 9264 0
-325 6146 9265 0
-325 6147 9265 0
-326 6146 9265 0
-327 6146 9265 0
-328 6146 9265 0
-329 6146 9265 0
-330 6146 9265 0
-331 6146 9265 0
-332 6146 9265 0
-333 6147 9265 0
-334 6147 9265 0
-335 6147 9265 0
-336 6147 9265 0
-337 6147 9265 0
-338 6147 9265 0
-339 6147 9265 0
6155 9266 -361 0
6156 9266 -361 0
-362 6155 9266 0
-363 6155 9266 0
-364 6155 9266 0
-365 6155 9266 0
-366 6155 9266 0
-367 6155 9266 0
-368 6155 9266 0
6156 9266 -369 0
6156 9266 -370 0
6156 9266 -371 0
6156 9266 -372 0
6160 9266 -372 0
6156 9266 -373 0
6156 9266 -374 0
6156 9266 -375 0
9267 -9256 0
9268 -9267 0
9269 -9257 -9267 0
9270 -9269 0
-9258 -9269 0
9268 -9257 0
9271 -9268 0
-9258 9270 -9268 0
-9270 9272 0
-9259 -9270 0
-9258 9271 0
9273 -9271 0
-9259 9272 -9271 0
9274 -9272 0
-9260 -9272 0
-9259 9273 0
9275 -9273 0
-9260 9274 -9273 0
9276 -9274 0
-9261 -9274 0
9275 -9260 0
9277 -9275 0
9276 -9261 -9275 0
9278 -9276 0
-9262 -9276 0
9277 -9261 0
9279 -9277 0
9278 -9262 -9277 0
9280 -9278 0
-9263 -9278 0
9279 -9262 0
9281 -9279 0
9280 -9263 -9279 0
9282 -9280 0
-9264 -9280 0
9281 -9263 0
9283 -9281 0
9282 -9264 -9281 0
9284 -9282 0
-9265 -9282 0
9283 -9264 0
9284 -9265 -9283 0
-9266 -9284 0
-39 -9286 -6182 -6185 0
9286 -47 6183 0
9288 -109 6201 0
-218 9291 6227 0
-219 9291 6227 0
-220 9291 6227 0
-221 9291 6227 0
-224 9291 6227 0
-6231 -9291 -6228 -227 0
-6232 -228 -6228 -9291 0
-6233 -229 -6228 -9291 0
-6234 -230 -6228 -9291 0
9292 6237 -253 0
-6238 -254 -6236 -9292 0
-255 9292 6236 0
-6239 -255 -6236 -9292 0
-256 9292 6236 0
-257 9292 6236 0
-258 9292 6236 0
-259 9292 6236 0
9292 -260 6236 0
9292 -261 6237 0
-6238 -9292 -6237 -261 0
-262 9292 6237 0
-6239 -262 -6237 -9292 0
-263 9292 6237 0
-263 -9292 -6237 -6240 0
-264 9292 6237 0
-265 9292 6237 0
-266 9292 6237 0
-6243 -266 -6237 -9292 0
-267 9292 6237 0
-290 6245 9293 0
-290 -9293 -6247 -6245 0
-291 6245 9293 0
-6248 -291 -9293 -6245 0
-292 6245 9293 0
-292 -6249 -9293 -6245 0
-293 6245 9293 0
-293 -9293 -6250 -6245 0
-294 6245 9293 0
-6251 -9293 -294 -6245 0
-295 6245 9293 0
-6252 -295 -9293 -6245 0
-296 6245 9293 0
-296 -9293 -6253 -6245 0
-297 6246 9293 0
-298 6246 9293 0
6246 9293 -299 0
-9293 -299 -6246 -6249 0
6246 9293 -300 0
-9293 -300 -6246 -6250 0
-301 6246 9293 0
-6251 -301 -6246 -9293 0
-302 6246 9293 0
-6252 -302 -6246 -9293 0
6246 -303 9293 0
-9293 -6253 -6246 -303 0
-325 9294 6254 0
-326 9294 6254 0
-327 9294 6254 0
-328 9294 6254 0
-329 9294 6254 0
-330 9294 6254 0
-331 9294 6254 0
-332 9294 6254 0
-6256 -333 -6255 -9294 0
-6257 -334 -6255 -9294 0
-6258 -9294 -6255 -335 0
-6259 -336 -6255 -9294 0
-6260 -337 -6255 -9294 0
-6261 -338 -6255 -9294 0
-6262 -339 -6255 -9294 0
9295 -361 6264 0
6263 -362 9295 0
-363 6263 9295 0
-364 6263 9295 0
-365 6263 9295 0
-366 6263 9295 0
-367 6263 9295 0
-368 6263 9295 0
-6265 -6264 -369 -9295 0
-6266 -6264 -370 -9295 0
-6267 -6264 -371 -9295 0
-9295 -6264 -372 -6268 0
-6269 -6264 -373 -9295 0
-6270 -6264 -374 -9295 0
-9295 -6271 -375 -6264 0
9302 -9288 0
9304 -9302 0
9306 -9304 0
9308 -9306 0
9310 -9308 0
9310 -9292 0
9312 -9310 0
-9293 9311 -9310 0
-9311 9313 0
-9313 -9295 0
-290 9322 6353 0
-292 9322 6353 0
-293 9322 6353 0
9322 6353 -294 0
-295 9322 6353 0
-9322 -6356 -6354 -298 0
