p cnf 10400 2108
4 1 2 5 7 6 -397 3 8 0
10 1 -398 9 14 11 12 13 15 0
-399 2 19 16 18 20 17 9 21 0
400 -3 0
400 -10 0
-400 10 22 3 16 26 23 24 25 0
-401 4 11 17 22 28 29 30 27 0
-402 33 12 5 23 27 32 31 18 0
-403 19 13 6 24 28 31 35 34 0
-404 20 14 25 7 29 32 34 36 0
-405 36 15 26 21 30 8 35 33 0
531 -37 0
-531 532 0
-38 -531 0
-532 533 0
-39 -532 0
-39 533 0
-533 534 0
-534 535 0
-535 536 0
-536 537 0
-537 538 0
-538 539 0
-45 -538 0
-45 539 0
-539 540 0
-46 -539 0
-540 541 0
-47 -540 0
-47 541 0
-541 542 0
-541 -48 0
542 -48 0
543 -542 0
-542 -49 0
543 -49 0
544 -543 0
-50 -543 0
544 -50 0
545 -544 0
-51 -544 0
-51 545 0
546 -545 0
-52 -545 0
547 -546 0
-53 -546 0
548 -547 0
-54 -547 0
549 -548 0
-55 -548 0
550 -549 0
-56 -549 0
551 -550 0
-57 -550 0
552 -551 0
-58 -551 0
553 -552 0
-59 -552 0
554 -553 0
-60 -553 0
555 -554 0
-61 -554 0
556 -555 0
-62 -555 0
-63 -556 0
44 -406 37 39 38 41 43 40 42 0
-407 49 37 50 45 46 51 48 47 0
-408 38 45 57 53 52 54 56 55 0
-409 62 46 39 61 52 58 59 60 0
65 -410 40 47 53 58 64 63 66 0
69 -411 41 48 54 59 63 68 67 0
70 -412 42 49 55 60 64 67 71 0
-413 72 50 43 56 61 65 68 70 0
78 85 82 83 86 87 84 73 89 88 79 81 77 75 74 80 76 90 91 92 93 94 95 96 97 98 99 100 101 102 103 104 105 106 107 108 0
566 -73 0
-566 567 0
-74 -566 0
-74 567 0
-567 568 0
-75 -567 0
-75 568 0
-568 569 0
-76 569 0
-569 570 0
-77 570 0
-570 571 0
-78 571 0
-571 572 0
-79 572 0
-572 573 0
-80 573 0
-573 574 0
-81 -573 0
-81 574 0
-574 575 0
-82 -574 0
-575 576 0
-83 -575 0
-83 576 0
-576 577 0
-84 -576 0
577 -84 0
-577 578 0
-577 -85 0
578 -85 0
579 -578 0
-578 -86 0
579 -86 0
580 -579 0
-87 -579 0
580 -87 0
581 -580 0
-88 -580 0
582 -581 0
-89 -581 0
583 -582 0
-90 -582 0
584 -583 0
-91 -583 0
585 -584 0
-92 -584 0
586 -585 0
-93 -585 0
587 -586 0
-94 -586 0
588 -587 0
-95 -587 0
589 -588 0
-96 -588 0
590 -589 0
-97 -589 0
591 -590 0
-98 -590 0
592 -591 0
-99 -591 0
593 -592 0
-100 -592 0
594 -593 0
-101 -593 0
595 -594 0
-102 -594 0
596 -595 0
-103 -595 0
597 -596 0
-104 -596 0
598 -597 0
-105 -597 0
599 -598 0
-106 -598 0
600 -599 0
-107 -599 0
-108 -600 0
-415 74 76 75 73 77 78 79 80 0
-82 416 0
85 86 87 73 82 -416 84 83 81 0
-417 74 90 81 91 88 89 92 93 0
-418 98 82 75 88 97 95 96 94 0
-109 601 0
-601 602 0
-110 -601 0
-110 602 0
-602 603 0
-111 -602 0
-111 603 0
-603 604 0
-112 604 0
-604 605 0
-113 605 0
-605 606 0
-114 606 0
-606 607 0
-115 607 0
-607 608 0
-116 608 0
609 -608 0
-608 -117 0
609 -117 0
610 -609 0
-118 -609 0
611 -610 0
-119 -610 0
-119 611 0
612 -611 0
-120 -611 0
-120 612 0
613 -612 0
-121 -612 0
-121 613 0
614 -613 0
-122 -613 0
-122 614 0
615 -614 0
-123 -614 0
-123 615 0
616 -615 0
-124 -615 0
617 -616 0
-125 -616 0
618 -617 0
-126 -617 0
619 -618 0
-127 -618 0
620 -619 0
-128 -619 0
621 -620 0
-129 -620 0
622 -621 0
-130 -621 0
623 -622 0
-131 -622 0
624 -623 0
-132 -623 0
625 -624 0
-133 -624 0
-134 -625 0
-424 114 109 111 112 113 110 115 116 0
117 -425 109 118 123 122 119 120 121 0
-426 129 117 124 110 128 125 126 127 0
-427 134 111 124 130 118 131 132 133 0
-145 636 0
-636 637 0
-146 -636 0
-146 637 0
-637 638 0
-637 -147 0
-147 638 0
-638 639 0
-148 639 0
-639 640 0
-149 640 0
-640 641 0
-150 641 0
-641 642 0
-151 642 0
-642 643 0
-152 643 0
-643 644 0
-153 -643 0
-644 645 0
-644 -154 0
-645 646 0
-155 -645 0
-155 646 0
-646 647 0
-156 -646 0
-156 647 0
-647 648 0
-157 -647 0
-157 648 0
-648 649 0
-158 -648 0
-158 649 0
-649 650 0
-159 -649 0
-159 650 0
651 -650 0
-650 -160 0
652 -651 0
-161 -651 0
653 -652 0
-162 -652 0
654 -653 0
-163 -653 0
655 -654 0
-164 -654 0
656 -655 0
-165 -655 0
657 -656 0
-166 -656 0
658 -657 0
-167 -657 0
659 -658 0
-168 -658 0
660 -659 0
-169 -659 0
-170 -660 0
-433 146 145 152 148 149 150 151 147 0
-154 434 0
154 157 145 153 158 155 156 -434 159 0
164 -435 153 165 161 160 146 162 163 0
-436 160 154 147 170 169 167 166 168 0
-439 175 157 150 168 163 172 178 179 0
671 -181 0
672 -671 0
-182 -671 0
-182 672 0
673 -672 0
-672 -183 0
-183 673 0
674 -673 0
-184 674 0
675 -674 0
-185 675 0
676 -675 0
-186 676 0
677 -676 0
-187 677 0
678 -677 0
-188 678 0
-678 679 0
-189 -678 0
-679 680 0
-679 -190 0
-680 681 0
-191 -680 0
-681 682 0
-192 -681 0
-682 683 0
-193 -682 0
683 -193 0
-683 684 0
-194 -683 0
-684 685 0
-195 -684 0
686 -685 0
-685 -196 0
687 -686 0
-197 -686 0
688 -687 0
-198 -687 0
689 -688 0
-199 -688 0
690 -689 0
-200 -689 0
691 -690 0
-201 -690 0
692 -691 0
-202 -691 0
693 -692 0
-203 -692 0
694 -693 0
-204 -693 0
695 -694 0
-205 -694 0
-206 -695 0
-442 182 181 183 184 185 186 187 188 0
-190 443 0
-443 190 194 181 193 195 189 191 192 0
-444 201 189 182 196 197 198 199 200 0
-445 206 183 190 196 204 203 202 205 0
-448 211 193 186 199 204 208 214 215 0
-217 706 0
-706 707 0
-706 -218 0
-218 707 0
-707 708 0
-219 -707 0
-219 708 0
-708 709 0
-220 709 0
-709 710 0
-221 710 0
-710 711 0
-222 711 0
-711 712 0
-223 712 0
-712 713 0
-224 713 0
-713 714 0
-225 -713 0
-225 714 0
-714 715 0
-226 -714 0
715 -226 0
-715 716 0
-227 -715 0
-227 716 0
717 -716 0
-716 -228 0
717 -228 0
-717 718 0
-229 -717 0
-229 718 0
-718 719 0
-230 -718 0
-230 719 0
-719 720 0
-231 -719 0
-231 720 0
721 -720 0
-720 -232 0
722 -721 0
-233 -721 0
723 -722 0
-234 -722 0
724 -723 0
-235 -723 0
725 -724 0
-236 -724 0
726 -725 0
-237 -725 0
727 -726 0
-238 -726 0
728 -727 0
-239 -727 0
729 -728 0
-240 -728 0
730 -729 0
-241 -729 0
-242 -730 0
-451 220 217 219 218 221 222 223 224 0
452 -217 0
-225 452 0
-226 452 0
452 -228 0
-452 227 231 228 217 226 230 225 229 0
-453 218 225 232 236 235 237 233 234 0
232 -454 219 226 241 242 238 239 240 0
-457 247 222 229 235 240 244 250 251 0
-253 741 0
-741 742 0
-254 -741 0
-254 742 0
-742 743 0
-255 -742 0
-255 743 0
-743 744 0
-256 744 0
-744 745 0
-257 745 0
-745 746 0
-258 746 0
-746 747 0
-259 747 0
-747 748 0
-260 748 0
-748 749 0
-748 -261 0
749 -261 0
750 -749 0
-262 -749 0
-262 750 0
751 -750 0
-263 -750 0
-263 751 0
752 -751 0
-264 -751 0
-264 752 0
753 -752 0
-265 -752 0
-265 753 0
754 -753 0
-753 -266 0
754 -266 0
755 -754 0
-267 -754 0
-267 755 0
756 -755 0
-268 -755 0
757 -756 0
-269 -756 0
758 -757 0
-270 -757 0
759 -758 0
-271 -758 0
760 -759 0
-272 -759 0
761 -760 0
-273 -760 0
762 -761 0
-274 -761 0
763 -762 0
-275 -762 0
764 -763 0
-276 -763 0
765 -764 0
-277 -764 0
-278 -765 0
-460 254 253 255 256 257 258 259 260 0
261 263 266 253 -461 267 262 265 264 0
-462 261 268 254 269 273 270 272 271 0
-463 278 255 262 268 277 275 274 276 0
-466 286 258 265 276 271 280 283 287 0
-289 776 0
-776 777 0
-290 777 0
-777 778 0
-291 -777 0
-291 778 0
-778 779 0
-779 780 0
-780 781 0
-781 782 0
-782 783 0
-783 784 0
-297 -783 0
-297 784 0
-784 785 0
-298 -784 0
-785 786 0
-299 -785 0
-786 787 0
-300 -786 0
788 -787 0
-787 -301 0
789 -788 0
-302 -788 0
790 -789 0
-303 -789 0
791 -790 0
-304 -790 0
792 -791 0
793 -792 0
794 -793 0
795 -794 0
796 -795 0
797 -796 0
-310 -796 0
798 -797 0
-311 -797 0
799 -798 0
-312 -798 0
800 -799 0
-313 -799 0
-314 -800 0
293 294 296 291 290 -469 292 295 289 0
301 303 289 -470 298 297 299 300 302 0
309 304 290 297 -471 306 305 308 307 0
-472 314 291 298 304 310 311 312 313 0
317 292 -473 299 310 305 316 315 318 0
319 294 312 301 -475 307 316 322 323 0
-325 811 0
-811 812 0
-811 -326 0
-812 813 0
-812 -327 0
813 -327 0
-813 814 0
-814 815 0
-815 816 0
-816 817 0
-817 818 0
-818 819 0
-333 -818 0
820 -819 0
-819 -334 0
821 -820 0
-335 -820 0
822 -821 0
-336 -821 0
823 -822 0
-337 -822 0
824 -823 0
-338 -823 0
825 -824 0
-339 -824 0
826 -825 0
-340 -825 0
827 -826 0
-341 -826 0
828 -827 0
-342 -827 0
829 -828 0
-343 -828 0
830 -829 0
-344 -829 0
831 -830 0
-345 -830 0
832 -831 0
-346 -831 0
833 -832 0
-347 -832 0
834 -833 0
-348 -833 0
835 -834 0
-349 -834 0
-350 -835 0
329 330 325 327 328 -478 326 331 332 0
-479 338 334 325 333 336 335 339 337 0
326 -480 333 345 340 342 341 344 343 0
-481 350 327 334 340 347 346 349 348 0
-482 353 335 328 341 346 352 351 354 0
-484 358 337 330 343 348 352 355 359 0
-361 846 0
-846 847 0
-846 -362 0
847 -362 0
-847 848 0
-847 -363 0
848 -363 0
-848 849 0
-364 -848 0
-849 850 0
-365 -849 0
-850 851 0
-366 -850 0
-851 852 0
-852 853 0
-853 854 0
-853 -369 0
-854 855 0
-855 856 0
-856 857 0
-856 -372 0
-857 858 0
-858 859 0
860 -859 0
861 -860 0
-860 -376 0
862 -861 0
-861 -377 0
863 -862 0
-862 -378 0
864 -863 0
-863 -379 0
865 -864 0
-864 -380 0
866 -865 0
-865 -381 0
867 -866 0
-866 -382 0
868 -867 0
-867 -383 0
869 -868 0
-868 -384 0
870 -869 0
871 -870 0
872 -871 0
-871 -387 0
873 -872 0
-872 -388 0
874 -873 0
-873 -389 0
875 -874 0
-874 -390 0
876 -875 0
-875 -391 0
877 -876 0
-392 -876 0
878 -877 0
-393 -877 0
879 -878 0
-878 -394 0
-879 -395 0
-487 364 361 363 362 365 366 367 368 0
375 -488 361 371 372 369 373 370 374 0
-489 381 362 369 376 378 377 380 379 0
-490 386 370 363 376 383 382 385 384 0
-491 364 371 389 377 382 388 387 390 0
-492 365 372 393 378 383 387 392 391 0
-493 366 373 394 379 384 388 391 395 0
-989 0
-990 0
-991 0
993 0
-994 0
-995 0
-996 0
-997 0
399 -1000 991 0
401 1002 -993 0
402 -1003 994 0
403 -1004 995 0
404 -1005 996 0
405 -1006 997 0
-1 -999 989 990 0
-58 1011 -1002 0
-1011 -63 1003 0
1099 0
-1100 0
399 1108 -1099 0
400 -1109 1100 0
1117 -38 -1108 0
-1117 -52 1109 0
1209 0
1210 0
-1213 0
401 1218 -1209 0
402 1219 -1210 0
-1222 405 1213 0
1961 0
-1962 0
1965 0
1969 0
-1 -1970 1962 0
1970 -4 -1961 -1965 0
-8 1970 -1961 -1969 0
2609 0
-2610 0
2615 0
-2618 -1 2610 0
-6 2618 -2609 -2615 0
2720 0
-2819 0
2729 400 -2720 0
2738 409 -2729 0
2747 -2738 418 0
2747 -82 -2738 0
2756 427 -2747 0
2765 436 -2756 0
2774 445 -2765 0
2783 454 -2774 0
2792 -2783 463 0
2801 472 -2792 0
2801 -291 -2792 0
2801 -298 -2792 0
2810 481 -2801 0
-363 -2810 2819 0
-370 -2810 2819 0
-3033 0
-2961 2970 425 0
-2970 2979 434 0
-2979 2988 443 0
-2988 2997 452 0
-2997 461 3006 0
-3006 3015 470 0
-3015 3024 479 0
488 -3024 3033 0
-3258 0
-3260 0
-3267 398 3258 0
-3269 400 3260 0
-3276 407 3267 0
-3278 409 3269 0
-3287 3278 418 0
-3287 -82 3276 3278 0
-3296 427 3287 0
-3305 436 3296 0
-3314 445 3305 0
-3323 454 3314 0
-3332 3323 463 0
-4869 0
-4815 4824 443 0
-4824 4833 452 0
-4833 461 4842 0
-4842 4851 470 0
-4851 4860 479 0
488 -4860 4869 0
-5526 0
5527 0
5528 0
5536 399 -5527 0
5537 400 -5528 0
-5534 -1 5526 0
5633 0
-5732 0
5634 0
5733 0
5635 0
5636 0
5637 0
-5638 0
5639 0
5640 0
5641 0
5642 397 -5633 0
5643 398 -5634 0
5644 399 -5635 0
5645 400 -5636 0
-5647 402 5638 0
5642 -1 -5633 -5634 0
5643 -1 -5634 0
-2 5642 -5633 -5635 0
5642 -4 -5633 -5637 0
-5 -5642 5638 0
5642 -6 -5633 -5639 0
-7 5642 -5633 -5640 0
5642 -8 -5633 -5641 0
-23 5647 -5636 0
5651 -37 -5642 -5643 0
-5655 -63 5647 0
5660 -5651 415 0
5655 -83 -5661 0
-5660 5669 424 0
5661 -5670 425 0
-5669 5678 433 0
5670 -5679 434 0
-5678 5687 442 0
5679 -5688 443 0
-5687 5696 451 0
5688 -5697 452 0
-5696 5705 460 0
5697 -5706 461 0
-5705 469 5714 0
5706 -5715 470 0
-5714 5723 478 0
5715 -5724 479 0
487 -5723 5732 0
488 5724 -5733 0
6281 0
-6380 0
-6282 0
-6381 0
6283 0
6382 0
-6284 0
6383 0
6285 0
6384 0
6286 0
6385 0
6287 0
6386 0
6288 0
6289 0
397 6290 -6281 0
398 -6291 6282 0
6292 399 -6283 0
-6293 400 6284 0
6294 401 -6285 0
6295 402 -6286 0
6296 403 -6287 0
6297 404 -6288 0
6298 405 -6289 0
-6290 -1 6282 0
6291 -1 -6281 0
6290 -2 -6281 -6283 0
-3 -6290 6284 0
6293 -3 -6281 0
6290 -4 -6281 -6285 0
6290 -5 -6281 -6286 0
6290 -6 -6281 -6287 0
6296 -6 -6281 0
6290 -7 -6281 -6288 0
6290 -8 -6281 -6289 0
-6291 -9 6282 0
-10 -6291 6282 0
-6293 -10 6282 6284 0
-11 -6291 6282 0
-12 -6291 6282 0
-13 -6291 6282 0
-14 -6291 6282 0
-15 -6291 6282 0
-16 -6292 6284 0
-19 6296 -6283 0
-6293 -22 6284 0
-6293 -23 6284 0
-24 -6293 6284 0
-24 6296 -6287 0
-25 -6293 6284 0
-26 -6293 6284 0
-28 6296 -6285 0
-31 6296 -6286 0
-34 6296 -6287 -6288 0
-35 6296 -6287 -6289 0
-6299 406 6290 0
-6300 407 6291 0
6300 407 -6291 0
-6301 408 6292 0
6301 408 -6292 0
-6302 409 6293 0
410 6303 -6294 0
411 6304 -6295 0
412 6305 -6296 0
413 6306 -6297 0
-37 -6299 6290 0
-6299 -37 6291 0
-37 6300 -6290 0
-37 6300 -6291 0
-37 -6300 6290 6291 0
-38 -6299 6290 0
-39 -6299 6290 0
-6299 -39 6293 0
-39 6302 -6290 0
-39 -6302 6290 6293 0
-40 -6299 6290 0
-41 -6299 6290 0
-41 6304 -6295 0
-42 -6299 6290 0
-42 6305 -6296 0
-43 -6299 6290 0
-43 6306 -6297 0
-44 -6299 6290 0
-45 -6300 6291 0
-45 6300 -6292 -6291 0
-45 6301 -6292 0
-46 -6300 6291 0
-46 -6300 6293 0
-46 -6302 6293 6291 0
-47 -6300 6291 0
-47 6300 -6294 -6291 0
-47 6303 -6291 0
-48 -6300 6291 0
-48 6300 -6295 -6291 0
6304 -48 -6291 0
-6300 -49 6291 0
-49 6300 -6296 -6291 0
6305 -49 -6291 0
-50 -6300 6291 0
-50 6300 -6297 -6291 0
6306 -50 -6291 0
-51 -6300 6291 0
-51 6300 -6298 -6291 0
-52 -6301 6293 0
-52 6302 -6292 0
-53 6301 -6292 -6294 0
-53 6303 -6294 0
6301 -54 -6292 -6295 0
-54 6304 -6295 0
-55 6301 -6292 -6296 0
-55 6305 -6296 0
-56 6301 -6292 -6297 0
-56 6306 -6297 0
-57 6301 -6292 -6298 0
-58 -6302 6293 0
-6302 -59 6293 0
-59 6304 -6295 0
-60 -6302 6293 0
-61 -6302 6293 0
-62 -6302 6293 0
-63 6304 -6294 0
-64 6303 -6294 -6296 0
-64 6305 -6296 0
-65 6303 -6294 -6297 0
-65 6306 -6297 0
-66 6303 -6298 -6294 0
-67 6304 -6295 -6296 0
-67 6305 -6296 0
-68 6304 -6295 -6297 0
-68 6306 -6297 0
-69 6304 -6298 -6295 0
-70 6305 -6296 -6297 0
-70 6306 -6297 0
-71 6305 -6298 -6296 0
-72 6306 -6298 -6297 0
6299 -6308 415 0
416 -6309 6300 0
416 6309 -6300 0
-6310 6301 417 0
-6311 6302 418 0
-73 -6308 6299 0
-6308 -73 6300 0
-73 6309 -6300 0
-6309 -73 6300 6299 0
-74 6299 -6308 0
-75 -6308 6299 0
-75 -6308 6302 0
-6299 -6302 6308 -75 0
-6299 -75 6311 0
-75 -6311 6299 6302 0
-76 6299 -6308 0
-77 6299 -6308 0
-78 6299 -6308 0
-79 6299 -6308 0
-80 6299 -6308 0
-81 -6309 6300 0
-81 -6301 -6300 6309 0
-82 -6309 6300 0
-82 6302 -6309 0
-6302 -82 -6300 6309 0
-82 6311 -6300 0
-82 -6311 6300 6302 0
-83 -6309 6300 0
-6303 -83 -6300 6309 0
-84 -6309 6300 0
-6304 -84 -6300 6309 0
-6309 6300 -85 0
-6305 -6300 -85 6309 0
-6309 -86 6300 0
-6306 -6300 -86 6309 0
-87 -6309 6300 0
-6307 -87 -6300 6309 0
-88 -6310 6302 0
-90 -6310 6301 0
-92 -6310 6301 0
-93 -6310 6301 0
-94 -6311 6302 0
-95 -6311 6302 0
-96 -6311 6302 0
-97 -6311 6302 0
-98 -6311 6302 0
6308 -6317 424 0
-6318 425 6309 0
425 6318 -6309 0
6310 426 -6319 0
-6320 427 6311 0
-109 6308 -6317 0
-109 -6317 6309 0
-109 -6308 6318 0
-109 6318 -6309 0
-109 -6318 6308 6309 0
-110 6308 -6317 0
-111 6308 -6317 0
-111 6311 -6317 0
-111 -6320 6311 6308 0
-112 6308 -6317 0
-113 6308 -6317 0
-114 6308 -6317 0
-115 6308 -6317 0
-116 6308 -6317 0
-117 -6318 6309 0
-6310 -117 -6309 6318 0
-118 -6318 6309 0
-118 -6318 6311 0
-118 6318 -6309 -6311 0
-118 6320 -6309 0
-118 -6311 6320 0
-118 -6320 6311 6309 0
-119 -6318 6309 0
-6312 -119 -6309 6318 0
-120 -6318 6309 0
-6313 -120 -6309 6318 0
-121 -6318 6309 0
-6314 -121 -6309 6318 0
-122 -6318 6309 0
-6315 -122 -6309 6318 0
-123 -6318 6309 0
-6316 -123 -6309 6318 0
-124 -6319 6311 0
-130 -6320 6311 0
-131 -6320 6311 0
-132 -6320 6311 0
-133 -6320 6311 0
-134 -6320 6311 0
6317 -6326 433 0
-6327 6318 434 0
6327 -6318 434 0
435 6319 -6328 0
-6329 436 6320 0
439 6323 -6332 0
-6326 -145 6317 0
-6326 -145 6318 0
-6317 6326 -6318 -145 0
-145 -6317 6327 0
-145 6327 -6318 0
6317 -145 -6327 6318 0
-146 6317 -6326 0
-6326 -147 6317 0
-6326 -147 6320 0
-6317 -147 6329 0
6317 -147 -6329 6320 0
-148 6317 -6326 0
-149 6317 -6326 0
-150 6317 -6326 0
-151 6317 -6326 0
-152 6317 -6326 0
-153 -6327 6318 0
-153 6327 -6319 -6318 0
-153 -6319 6328 0
-6327 6318 -154 0
-6327 6320 -154 0
-6320 -6318 6327 -154 0
6329 -6318 -154 0
-6329 6320 -154 6318 0
-155 -6327 6318 0
-6321 -155 -6318 6327 0
-156 -6327 6318 0
-6322 -156 -6318 6327 0
-157 -6327 6318 0
-157 -6323 -6318 6327 0
-158 -6327 6318 0
-6324 -158 -6318 6327 0
-159 -6327 6318 0
-6325 -159 -6318 6327 0
-6328 -160 6320 0
6319 -160 6320 -6329 0
-166 -6329 6320 0
-167 -6329 6320 0
-168 -6329 6320 0
-169 -6329 6320 0
-170 -6329 6320 0
-6335 442 6326 0
-6336 6327 443 0
444 -6337 6328 0
-6338 445 6329 0
448 6332 -6341 0
-6335 6326 -181 0
-6335 -181 6327 0
-6326 -181 6336 0
6326 -181 -6336 6327 0
-182 -6335 6326 0
-182 -6335 6328 0
-6335 -183 6326 0
-6335 -183 6329 0
6326 -183 6329 -6338 0
-184 -6335 6326 0
-185 -6335 6326 0
-186 -6335 6326 0
-187 -6335 6326 0
-188 -6335 6326 0
-189 -6336 6327 0
-189 -6337 6327 6328 0
6327 -190 -6336 0
6329 -190 -6336 0
-190 6336 -6329 -6327 0
-6329 -190 6338 0
6327 -190 6329 -6338 0
-191 -6336 6327 0
-192 -6336 6327 0
-193 -6336 6327 0
-194 6327 -6336 0
-195 -6336 6327 0
-196 -6337 6328 0
-6337 -196 6329 0
-197 -6337 6328 0
-198 -6337 6328 0
-199 -6337 6328 0
-200 -6337 6328 0
-201 -6337 6328 0
-202 -6338 6329 0
-203 -6338 6329 0
-204 -6338 6329 0
-205 -6338 6329 0
-206 -6338 6329 0
-6344 6335 451 0
-6345 6336 452 0
453 -6346 6337 0
454 -6347 6338 0
457 6341 -6350 0
-217 -6344 6335 0
-217 -6344 6336 0
6344 -217 -6335 -6336 0
-217 -6345 6335 6336 0
-218 -6344 6335 0
-6344 -218 6337 0
-218 -6346 6337 6335 0
-6344 -219 6335 0
-6344 -219 6338 0
-219 -6335 6347 0
-219 6338 6335 -6347 0
-220 -6344 6335 0
-221 -6344 6335 0
-222 -6344 6335 0
-223 -6344 6335 0
-224 -6344 6335 0
-225 -6345 6336 0
-225 6337 6336 -6346 0
-226 -6345 6336 0
-226 6338 -6345 0
-226 6338 6336 -6347 0
-227 -6345 6336 0
-6345 -228 6336 0
-229 -6345 6336 0
-230 -6345 6336 0
-231 -6345 6336 0
-6346 6337 -232 0
-6346 -232 6338 0
-6337 -232 6347 0
6337 -232 -6347 6338 0
-233 -6346 6337 0
-234 -6346 6337 0
-235 -6346 6337 0
-236 -6346 6337 0
-237 -6346 6337 0
-238 6338 -6347 0
-239 6338 -6347 0
-240 6338 -6347 0
-241 6338 -6347 0
-242 6338 -6347 0
6344 -6353 460 0
-6354 6345 461 0
6346 -6355 462 0
6347 -6356 463 0
466 6350 -6359 0
-253 6344 -6353 0
-253 6345 -6353 0
-253 6344 -6354 6345 0
-254 6344 -6353 0
-255 6344 -6353 0
-255 6347 -6353 0
-255 -6344 6356 0
-255 6347 6344 -6356 0
-256 6344 -6353 0
-257 6344 -6353 0
-258 6344 -6353 0
-259 6344 -6353 0
-260 6344 -6353 0
6345 -6354 -261 0
-262 6345 -6354 0
-262 6347 -6354 0
-262 -6345 6356 0
-262 6345 -6356 6347 0
-263 6345 -6354 0
-264 6345 -6354 0
-265 6345 -6354 0
6345 -6354 -266 0
-267 6345 -6354 0
-268 6347 -6355 0
-268 6347 6346 -6356 0
-271 6346 -6355 0
-274 6347 -6356 0
-275 6347 -6356 0
-276 6347 -6356 0
-277 6347 -6356 0
-278 6347 -6356 0
469 6353 -6362 0
469 6362 -6353 0
6354 470 -6363 0
471 6355 -6364 0
-6365 472 6356 0
473 6357 -6366 0
475 6359 -6368 0
-289 6354 -6362 0
6363 -289 -6353 0
6353 -289 6354 -6363 0
-290 6353 -6362 0
-6355 -290 -6353 6362 0
-290 6353 -6364 6355 0
-291 6353 -6362 0
-291 -6362 6356 0
-291 -6353 -6356 6362 0
-291 6353 -6365 6356 0
-292 6353 -6362 0
-6357 -292 -6353 6362 0
-293 6353 -6362 0
-6358 -293 -6353 6362 0
-294 6353 -6362 0
-6359 -294 -6353 6362 0
-295 6353 -6362 0
-6360 -295 -6353 6362 0
-296 6353 -6362 0
-6361 -296 -6353 6362 0
-297 6354 -6363 0
-297 6355 6354 -6364 0
-298 6354 -6363 0
6356 -298 -6363 0
6354 -298 -6365 6356 0
-299 6354 -6363 0
-300 6354 -6363 0
6354 -6363 -301 0
-302 6354 -6363 0
-303 6354 -6363 0
-304 6355 -6364 0
-304 -6364 6356 0
-305 6355 -6364 0
-306 6355 -6364 0
-307 6355 -6364 0
-308 6355 -6364 0
-309 6355 -6364 0
-310 -6365 6356 0
-311 -6365 6356 0
-312 -6365 6356 0
-313 -6365 6356 0
-314 -6365 6356 0
478 6362 -6371 0
478 -6362 6371 0
6363 -6372 479 0
479 -6363 6372 0
480 6364 -6373 0
481 6365 -6374 0
482 6366 -6375 0
484 6368 -6377 0
6363 -325 -6371 0
-325 -6362 6372 0
-325 -6363 6372 0
6363 6362 -6372 -325 0
-326 -6364 -6362 6371 0
6362 -326 6364 -6373 0
-327 -6365 -6362 6371 0
6362 -327 -6374 6365 0
-328 -6366 -6362 6371 0
-6367 -329 -6362 6371 0
-330 -6368 -6362 6371 0
-6369 -331 -6362 6371 0
-6370 -332 -6362 6371 0
-333 -6364 -6363 6372 0
6364 -333 6363 -6373 0
-334 6365 -6372 0
-6363 -6365 -334 6372 0
-334 -6363 6374 0
-334 6363 6365 -6374 0
-335 -6366 -6363 6372 0
-6367 -336 -6363 6372 0
-6368 -337 -6363 6372 0
-6369 -338 -6363 6372 0
-6370 -339 -6363 6372 0
-340 6364 -6373 0
-340 6365 -6373 0
-341 6364 -6373 0
-341 6366 -6373 0
-342 6364 -6373 0
-343 6364 -6373 0
-344 6364 -6373 0
-345 6364 -6373 0
-346 6365 -6374 0
-346 6366 -6374 0
-347 -6374 6365 0
-348 6365 -6374 0
-349 6365 -6374 0
-350 6365 -6374 0
-351 6366 -6375 0
-352 6366 -6375 0
-353 6366 -6375 0
-354 6366 -6375 0
-6372 488 6381 0
489 6373 -6382 0
6374 490 -6383 0
491 6375 -6384 0
492 6376 -6385 0
493 6377 -6386 0
-361 -6371 6381 0
-361 -6372 6381 0
6371 -362 6373 -6382 0
-6374 -363 -6371 6380 0
6371 -363 6374 -6383 0
-6373 -369 -6372 6381 0
-6374 -370 -6372 6381 0
-370 6372 6374 -6383 0
-6375 -371 -6372 6381 0
-6376 -372 -6372 6381 0
-6377 -373 -6372 6381 0
-6378 -374 -6372 6381 0
-6379 -375 -6372 6381 0
-376 6373 -6382 0
-376 6374 -6382 0
-377 6373 -6382 0
6375 -377 -6382 0
-378 6373 -6382 0
-379 6373 -6382 0
6377 -379 -6382 0
-380 6373 -6382 0
-381 6373 -6382 0
-382 6374 -6383 0
6375 -382 -6383 0
-383 6374 -6383 0
-384 6374 -6383 0
6377 -384 -6383 0
-385 6374 -6383 0
-386 6374 -6383 0
6375 -387 -6384 0
6375 -388 -6384 0
6377 -388 -6384 0
6375 -389 -6384 0
6375 -390 -6384 0
6377 -391 -6385 0
6377 -394 -6386 0
6377 -395 -6386 0
6389 0
-6488 0
6390 0
6489 0
6391 0
-6392 0
6394 0
6399 398 -6390 0
-6401 400 6392 0
6398 -1 -6389 -6390 0
-3 -6398 6392 0
6398 -5 -6389 -6394 0
6407 406 -6398 0
-6410 409 6401 0
6407 -37 -6398 -6399 0
6416 -6407 415 0
-6419 6410 418 0
-94 -6419 6410 0
-95 -6419 6410 0
-96 -6419 6410 0
-97 -6419 6410 0
-6419 -98 6410 0
-6416 6425 424 0
-6428 427 6419 0
-6425 6434 433 0
-6437 436 6428 0
-6435 6428 -154 0
-6434 6443 442 0
6435 -6444 443 0
-6446 445 6437 0
-6444 -190 6437 0
-6443 6452 451 0
6444 -6453 452 0
-6455 454 6446 0
-6453 -226 6446 0
-238 -6455 6446 0
-239 -6455 6446 0
-240 -6455 6446 0
-241 -6455 6446 0
-242 -6455 6446 0
-6452 6461 460 0
6453 -6462 461 0
-6464 6455 463 0
-6462 -262 6455 0
-6461 469 6470 0
6462 -6471 470 0
-6473 6464 472 0
-6471 6464 -298 0
-310 -6473 6464 0
-311 -6473 6464 0
-312 -6473 6464 0
-313 -6473 6464 0
-314 -6473 6464 0
-6470 6479 478 0
6471 -6480 479 0
6473 -6482 481 0
6473 -6480 -334 0
487 -6479 6488 0
488 6480 -6489 0
-370 6482 -6489 0
6714 0
-6813 0
6716 0
6717 0
6718 0
6719 0
6720 0
6721 0
6723 398 -6714 0
6725 400 -6716 0
6727 402 -6718 0
6723 -1 -6714 0
6723 -10 -6714 -6716 0
6723 -11 -6714 -6717 0
6723 -12 -6714 -6718 0
6723 -13 -6714 -6719 0
-14 6723 -6714 -6720 0
-15 6723 -6714 -6721 0
6732 407 -6723 0
6734 409 -6725 0
6732 -37 -6723 0
-46 6732 -6723 -6725 0
6732 -48 -6727 -6723 0
6741 416 -6732 0
6743 -6734 418 0
6741 -73 -6732 0
-82 6741 -6732 -6734 0
6743 -82 -6732 0
6750 -6741 425 0
6752 427 -6743 0
-109 6750 -6741 0
6750 -118 -6741 -6743 0
6759 -6750 434 0
6761 436 -6752 0
6759 -145 -6750 0
6759 -6750 -154 -6752 0
6768 -6759 443 0
6770 445 -6761 0
6768 -181 -6759 0
-6759 -190 -6761 6768 0
-6768 6777 452 0
6779 454 -6770 0
6777 -217 -6768 0
-6777 461 6786 0
-253 -6777 6786 0
-6786 6795 470 0
-6786 -289 6795 0
-6795 479 6804 0
-6795 -325 6804 0
488 -6804 6813 0
-361 -6804 6813 0
6929 0
-6930 0
7029 0
6932 0
6936 0
-6939 398 6930 0
6941 400 -6932 0
-6939 -9 6930 0
-6939 -10 6930 0
-6939 -11 6930 0
-6939 -12 6930 0
-6939 -13 6930 0
-6939 -14 6930 0
-6939 -15 6930 0
-6948 407 6939 0
6950 409 -6941 0
-45 -6948 6939 0
-46 -6948 6939 0
-47 -6948 6939 0
-48 -6948 6939 0
-49 -6948 6939 0
-50 -6948 6939 0
-51 -6948 6939 0
416 -6957 6948 0
6959 -6950 418 0
-6956 -73 6948 0
-81 -6957 6948 0
-82 -6957 6948 0
6959 -82 -6950 0
-83 -6957 6948 0
-84 -6957 6948 0
-85 -6957 6948 0
-86 -6957 6948 0
-87 -6957 6948 0
425 -6966 6957 0
425 6966 -6957 0
6968 427 -6959 0
6956 -109 6957 -6966 0
-117 -6966 6957 0
-118 -6966 6957 0
-119 -6966 6957 0
-120 -6966 6957 0
-121 -6966 6957 0
-122 -6966 6957 0
-123 -6966 6957 0
434 -6975 6966 0
6977 436 -6968 0
6965 -6974 -147 0
-153 -6975 6966 0
-154 -6975 6966 0
-155 -6975 6966 0
-156 -6975 6966 0
-157 -6975 6966 0
-158 -6975 6966 0
-159 -6975 6966 0
-6983 6974 442 0
443 6975 -6984 0
6986 445 -6977 0
-6983 -181 6975 0
6974 -181 6975 -6984 0
6977 -6983 -183 0
-189 -6984 6975 0
-190 6975 -6984 0
-191 -6984 6975 0
-192 -6984 6975 0
-193 -6984 6975 0
-194 -6984 6975 0
-195 -6984 6975 0
-6992 6983 451 0
6984 -6993 452 0
6995 454 -6986 0
6983 -217 6984 -6993 0
-225 -6993 6984 0
-226 -6993 6984 0
-227 -6993 6984 0
-228 -6993 6984 0
-229 -6993 6984 0
-230 -6993 6984 0
-231 -6993 6984 0
6992 -7001 460 0
461 -7002 6993 0
7004 -6995 463 0
-261 -7002 6993 0
-262 -7002 6993 0
-263 -7002 6993 0
-264 -7002 6993 0
-265 -7002 6993 0
-266 -7002 6993 0
-267 -7002 6993 0
7001 469 -7010 0
470 -7011 7002 0
-297 -7011 7002 0
-298 -7011 7002 0
-299 -7011 7002 0
-300 -7011 7002 0
-301 -7011 7002 0
-302 -7011 7002 0
-303 -7011 7002 0
479 -7020 7011 0
7010 -325 7011 -7020 0
-333 -7020 7011 0
-334 -7020 7011 0
-335 -7020 7011 0
-336 -7020 7011 0
-337 -7020 7011 0
-338 -7020 7011 0
-339 -7020 7011 0
7020 488 -7029 0
7020 -369 -7029 0
7020 -370 -7029 0
7020 -371 -7029 0
7020 -372 -7029 0
7020 -373 -7029 0
7020 -374 -7029 0
7020 -375 -7029 0
-7037 0
7038 0
7039 0
7041 0
7043 0
7044 0
7045 0
-40 9683 5534 0
-42 9683 5534 0
-43 9683 5534 0
-44 9683 5534 0
-9683 -52 -5536 -5537 0
-9721 -1 -5633 -5634 0
-5 9721 5638 0
-18 9721 5638 0
-27 9721 5638 0
-31 9721 5638 0
-32 9721 5638 0
-33 9721 5638 0
-41 9722 5647 0
-52 -9722 -5644 -5645 0
10085 -1 6282 0
-2 -10085 -6281 -6283 0
-3 10085 6284 0
-4 -10085 -6281 -6285 0
-10085 -5 -6281 -6286 0
-6 -10085 -6281 -6287 0
-10085 -7 -6281 -6288 0
-8 -10085 -6281 -6289 0
-9 10085 6282 0
-10 10085 6284 0
-11 10085 6282 0
-12 10085 6282 0
-13 10085 6282 0
-14 10085 6282 0
-15 10085 6282 0
-16 10085 6284 0
-17 -10085 -6283 -6285 0
-18 -10085 -6283 -6286 0
-19 -10085 -6283 -6287 0
-20 -10085 -6283 -6288 0
-21 -10085 -6283 -6289 0
-22 10085 6284 0
-23 10085 6284 0
-24 10085 6284 0
-25 10085 6284 0
-26 10085 6284 0
-27 -10085 -6285 -6286 0
-28 -10085 -6285 -6287 0
-29 -10085 -6285 -6288 0
-30 -10085 -6285 -6289 0
-31 -10085 -6286 -6287 0
-32 -10085 -6286 -6288 0
-33 -10085 -6286 -6289 0
-34 -10085 -6287 -6288 0
-35 -10085 -6287 -6289 0
-36 -10085 -6288 -6289 0
-37 10086 6291 0
-38 10086 6290 0
-38 10086 6292 0
-39 10086 6290 0
-39 10086 6293 0
-40 10086 6290 0
-41 10086 6290 0
-42 10086 6290 0
-43 10086 6290 0
-44 10086 6290 0
-45 10086 6291 0
-45 10086 6292 0
-46 10086 6291 0
-46 10086 6293 0
-47 10086 6291 0
-47 -10086 -6291 -6294 0
-48 10086 6291 0
-49 10086 6291 0
-10086 -49 -6291 -6296 0
-50 10086 6291 0
-50 -10086 -6291 -6297 0
-51 10086 6291 0
-52 10086 6292 0
-52 10086 6293 0
-53 10086 6292 0
-54 10086 6292 0
-55 10086 6292 0
-56 10086 6292 0
-57 10086 6292 0
-58 10086 6293 0
-59 10086 6293 0
-60 10086 6293 0
-61 10086 6293 0
-62 10086 6293 0
-73 6299 10087 0
-73 6300 10087 0
-74 6299 10087 0
-74 6301 10087 0
-75 6299 10087 0
-75 6302 10087 0
-76 6299 10087 0
-77 6299 10087 0
-78 6299 10087 0
-79 6299 10087 0
-80 6299 10087 0
-81 6300 10087 0
6301 -81 10087 0
-82 6300 10087 0
-82 6302 10087 0
-83 6300 10087 0
-83 6303 10087 0
-6303 -10087 -6300 -83 0
-84 6300 10087 0
-84 6304 10087 0
6300 10087 -85 0
6305 10087 -85 0
-6305 -10087 -6300 -85 0
-86 6300 10087 0
6306 -86 10087 0
-10087 -6306 -6300 -86 0
-87 6300 10087 0
6307 -87 10087 0
-88 6301 10087 0
-88 6302 10087 0
-89 6301 10087 0
-91 6301 10087 0
-94 6302 10087 0
-95 6302 10087 0
-96 6302 10087 0
-97 6302 10087 0
-98 6302 10087 0
-109 6308 10088 0
-109 6309 10088 0
-110 6308 10088 0
-110 6310 10088 0
-111 6308 10088 0
-111 6311 10088 0
-112 6308 10088 0
-113 6308 10088 0
-114 6308 10088 0
-115 6308 10088 0
-116 6308 10088 0
-117 10088 6309 0
6310 -117 10088 0
-118 10088 6309 0
-118 6311 10088 0
-119 10088 6309 0
6312 -119 10088 0
-120 10088 6309 0
6313 -120 10088 0
-121 10088 6309 0
6314 -121 10088 0
-122 10088 6309 0
6315 -122 10088 0
-123 10088 6309 0
6316 -123 10088 0
6310 -124 10088 0
-124 6311 10088 0
-125 6310 10088 0
-126 6310 10088 0
-127 6310 10088 0
-128 6310 10088 0
-129 6310 10088 0
-130 6311 10088 0
-131 6311 10088 0
-132 6311 10088 0
-133 6311 10088 0
-134 6311 10088 0
-145 6317 10089 0
-145 6318 10089 0
-146 6317 10089 0
-146 6319 10089 0
6317 -147 10089 0
-147 6320 10089 0
-148 6317 10089 0
-149 6317 10089 0
-150 6317 10089 0
-151 6317 10089 0
-152 6317 10089 0
-153 6318 10089 0
-153 6319 10089 0
6318 10089 -154 0
6320 10089 -154 0
-155 6318 10089 0
6321 -155 10089 0
-156 6318 10089 0
6322 -156 10089 0
-157 6318 10089 0
-157 6323 10089 0
-158 6318 10089 0
6324 -158 10089 0
-159 6318 10089 0
6325 -159 10089 0
-160 6319 10089 0
-160 6320 10089 0
-161 6319 10089 0
-162 6319 10089 0
-163 6319 10089 0
-163 6323 10089 0
-164 6319 10089 0
-165 6319 10089 0
-166 6320 10089 0
-167 6320 10089 0
-168 6320 10089 0
-168 6323 10089 0
-169 6320 10089 0
-170 6320 10089 0
-172 6323 10089 0
-175 6323 10089 0
-178 6323 10089 0
-179 6323 10089 0
-181 6326 10090 0
-181 6327 10090 0
-182 6326 10090 0
-182 6328 10090 0
-183 6326 10090 0
-183 6329 10090 0
-184 6326 10090 0
-185 6326 10090 0
-186 6326 10090 0
-187 6326 10090 0
-188 6326 10090 0
-189 6327 10090 0
-189 6328 10090 0
-190 6327 10090 0
6329 -190 10090 0
-191 6327 10090 0
-192 6327 10090 0
-193 6327 10090 0
-194 6327 10090 0
-195 6327 10090 0
-196 6329 10090 0
-199 6332 10090 0
-202 6329 10090 0
-203 6329 10090 0
-204 6329 10090 0
-204 6332 10090 0
-205 6329 10090 0
-206 6329 10090 0
-208 6332 10090 0
-211 6332 10090 0
-214 6332 10090 0
-215 6332 10090 0
-217 6335 10091 0
-217 6336 10091 0
-10091 -217 -6335 -6336 0
-218 6335 10091 0
-218 6337 10091 0
-219 6335 10091 0
-219 6338 10091 0
-220 6335 10091 0
-221 6335 10091 0
-222 6335 10091 0
-223 6335 10091 0
-224 6335 10091 0
-225 6336 10091 0
-225 6337 10091 0
-226 6336 10091 0
-226 6338 10091 0
-227 6336 10091 0
-228 6336 10091 0
-229 6336 10091 0
-230 6336 10091 0
-231 6336 10091 0
-232 6338 10091 0
-235 6341 10091 0
-238 6338 10091 0
-239 6338 10091 0
-240 6338 10091 0
-240 6341 10091 0
-241 6338 10091 0
-242 6338 10091 0
-244 6341 10091 0
-247 6341 10091 0
-250 6341 10091 0
-251 6341 10091 0
-253 6344 10092 0
-253 6345 10092 0
-254 6344 10092 0
-254 6346 10092 0
-255 6344 10092 0
-255 6347 10092 0
-256 6344 10092 0
-257 6344 10092 0
-258 6344 10092 0
-259 6344 10092 0
-260 6344 10092 0
6345 10092 -261 0
6346 10092 -261 0
-262 6345 10092 0
-262 6347 10092 0
-263 6345 10092 0
-264 6345 10092 0
-265 6345 10092 0
6345 10092 -266 0
-267 6345 10092 0
-268 6346 10092 0
-268 6347 10092 0
-269 6346 10092 0
-270 6346 10092 0
-271 6350 10092 0
-272 6346 10092 0
-273 6346 10092 0
-274 10092 6347 0
-275 10092 6347 0
-276 10092 6347 0
-276 6350 10092 0
-277 10092 6347 0
-278 10092 6347 0
-280 6350 10092 0
-283 6350 10092 0
-286 6350 10092 0
-287 6350 10092 0
-289 6353 10093 0
-289 6354 10093 0
-290 6353 10093 0
6355 -290 10093 0
-291 6353 10093 0
-291 10093 6356 0
-292 6353 10093 0
6357 -292 10093 0
-293 6353 10093 0
6358 -293 10093 0
-294 6353 10093 0
6359 -294 10093 0
-295 6353 10093 0
6360 -295 10093 0
-296 6353 10093 0
6361 -296 10093 0
-297 6354 10093 0
-297 6355 10093 0
-298 6354 10093 0
6356 -298 10093 0
-299 6354 10093 0
-300 6354 10093 0
6354 10093 -301 0
-302 6354 10093 0
-303 6354 10093 0
-304 10093 6356 0
-305 6357 10093 0
-307 6359 10093 0
-310 10093 6356 0
-310 6357 10093 0
-311 10093 6356 0
-312 10093 6356 0
-312 6359 10093 0
-313 10093 6356 0
-314 10093 6356 0
-315 6357 10093 0
-316 6357 10093 0
-316 6359 10093 0
-317 6357 10093 0
-318 6357 10093 0
-319 6359 10093 0
-322 6359 10093 0
-323 6359 10093 0
-325 6362 10094 0
6363 -325 10094 0
-326 6362 10094 0
-326 6364 10094 0
6362 -327 10094 0
-327 6365 10094 0
-328 6362 10094 0
6366 -328 10094 0
-329 6362 10094 0
6367 -329 10094 0
-330 6362 10094 0
-330 6368 10094 0
-331 6362 10094 0
6369 -331 10094 0
-332 6362 10094 0
6370 -332 10094 0
-333 6363 10094 0
6364 -333 10094 0
6363 -334 10094 0
-334 6365 10094 0
-335 6363 10094 0
6366 -335 10094 0
-336 6363 10094 0
6367 -336 10094 0
-337 6363 10094 0
6368 -337 10094 0
-338 6363 10094 0
6369 -338 10094 0
-339 6363 10094 0
6370 -339 10094 0
-340 6365 10094 0
-343 6368 10094 0
-346 6365 10094 0
-347 6365 10094 0
-348 6365 10094 0
-348 6368 10094 0
-349 6365 10094 0
-350 6365 10094 0
-352 6368 10094 0
-355 6368 10094 0
-358 6368 10094 0
-359 6368 10094 0
10095 -361 6371 0
10095 -361 6372 0
-362 10095 6371 0
10095 -362 6373 0
10095 6371 -363 0
10095 6374 -363 0
-364 10095 6371 0
-365 10095 6371 0
-366 10095 6371 0
-367 10095 6371 0
-368 10095 6371 0
10095 -369 6372 0
10095 -369 6373 0
10095 6372 -370 0
10095 -370 6374 0
10095 6372 -371 0
6375 10095 -371 0
10095 -372 6372 0
10095 -372 6376 0
10095 6372 -373 0
6377 10095 -373 0
10095 6372 -374 0
6378 10095 -374 0
10095 -375 6372 0
6379 10095 -375 0
10096 -10085 0
10097 -10096 0
-10086 10098 -10096 0
-10098 10099 0
-10098 -10087 0
-10086 10097 0
10100 -10097 0
-10087 10099 -10097 0
-10099 10101 0
-10099 -10088 0
-10087 10100 0
10102 -10100 0
-10088 10101 -10100 0
-10101 10103 0
-10101 -10089 0
-10088 10102 0
10104 -10102 0
-10089 10103 -10102 0
-10103 10105 0
-10103 -10090 0
-10089 10104 0
10106 -10104 0
-10090 10105 -10104 0
-10105 10107 0
-10091 -10105 0
-10090 10106 0
10108 -10106 0
-10091 10107 -10106 0
-10107 10109 0
-10092 -10107 0
-10091 10108 0
10110 -10108 0
-10092 10109 -10108 0
-10109 10111 0
-10109 -10093 0
-10092 10110 0
10112 -10110 0
-10093 10111 -10110 0
-10111 10113 0
-10111 -10094 0
10112 -10093 0
-10094 10113 -10112 0
-10113 -10095 0
-10114 -1 -6389 -6390 0
-10114 -9 -6390 -6391 0
-16 10114 6392 0
-22 10114 6392 0
-23 10114 6392 0
-24 10114 6392 0
-25 10114 6392 0
-26 10114 6392 0
10326 -1 6930 0
-7 -10326 -6929 -6936 0
-81 10328 6948 0
-82 10328 6948 0
-83 10328 6948 0
-84 10328 6948 0
10328 -85 6948 0
-86 10328 6948 0
-87 10328 6948 0
-117 10329 6957 0
-118 10329 6957 0
-119 10329 6957 0
-120 10329 6957 0
-121 10329 6957 0
-122 10329 6957 0
-123 10329 6957 0
10330 -145 6966 0
-6965 -147 -10330 -6968 0
-153 10330 6966 0
10330 -154 6966 0
-155 10330 6966 0
-156 10330 6966 0
-157 10330 6966 0
-158 10330 6966 0
-159 10330 6966 0
10331 -181 6975 0
-189 10331 6975 0
-190 10331 6975 0
-191 10331 6975 0
-192 10331 6975 0
-193 10331 6975 0
-194 10331 6975 0
-195 10331 6975 0
-225 10332 6984 0
-226 10332 6984 0
-227 10332 6984 0
-228 10332 6984 0
-229 10332 6984 0
-230 10332 6984 0
-231 10332 6984 0
10333 -253 6993 0
10333 -261 6993 0
-262 10333 6993 0
-263 10333 6993 0
-264 10333 6993 0
-265 10333 6993 0
10333 -266 6993 0
-267 10333 6993 0
-289 10334 7002 0
-298 10334 7002 0
-325 10335 7011 0
-333 10335 7011 0
-334 10335 7011 0
-337 10335 7011 0
-361 10336 7020 0
10341 -10328 0
10343 -10341 0
-10329 -10341 10342 0
-10342 10344 0
10343 -10329 0
10345 -10343 0
-10330 -10343 10344 0
-10344 10346 0
-10344 -10331 0
10347 -10345 0
-10331 -10345 10346 0
-10346 10348 0
10349 -10347 0
-10332 -10347 10348 0
-10348 10350 0
-10348 -10333 0
10351 -10349 0
-10333 -10349 10350 0
-10350 10352 0
-10334 -10350 0
10353 -10351 0
-10334 -10351 10352 0
-10352 10354 0
-10335 -10352 0
-10335 -10353 10354 0
-10354 -10336 0
10355 -1 7037 0
10355 -3 7037 0
-9 -10355 -7038 -7039 0
-17 -10355 -7039 -7041 0
-19 -10355 -7039 -7043 0
-20 -10355 -7039 -7044 0
-21 -10355 -7039 -7045 0
-28 -10355 -7041 -7043 0
-29 -10355 -7041 -7044 0
-30 -10355 -7041 -7045 0
-34 -10355 -7043 -7044 0
-35 -10355 -7043 -7045 0
-36 -10355 -7044 -7045 0
