p cnf 9036 1433
504 -9 0
-10 -504 0
397 -1 0
-2 397 0
-3 397 0
-5 397 0
-6 397 0
-7 397 0
-8 397 0
-397 2 8 4 1 3 5 6 7 0
11 9 13 15 1 10 12 14 -398 0
21 9 -399 2 20 19 16 17 18 0
-400 10 22 16 3 24 25 23 26 0
-401 28 22 4 17 27 29 11 30 0
-402 12 23 5 18 27 31 32 33 0
-403 28 24 13 6 19 31 34 35 0
-404 25 14 20 7 29 32 34 36 0
-405 26 15 8 21 30 33 35 36 0
533 -39 0
534 -533 0
-40 534 0
535 -534 0
-41 535 0
536 -535 0
-42 536 0
537 -536 0
-43 537 0
538 -537 0
-44 538 0
539 -538 0
-45 -538 0
540 -539 0
541 -540 0
542 -541 0
543 -542 0
544 -543 0
545 -544 0
-52 -545 0
39 40 37 -406 44 38 43 41 42 0
51 50 -407 37 45 46 47 48 49 0
53 -408 45 52 38 54 56 57 55 0
566 -73 0
567 -566 0
-74 -566 0
568 -567 0
568 -75 0
569 -568 0
-76 569 0
570 -569 0
-77 570 0
571 -570 0
-78 571 0
572 -571 0
-79 572 0
573 -572 0
-80 573 0
574 -573 0
-81 -573 0
575 -574 0
576 -575 0
577 -576 0
578 -577 0
579 -578 0
580 -579 0
581 -580 0
-88 -580 0
582 -581 0
-89 -581 0
583 -582 0
-90 -582 0
584 -583 0
-91 -583 0
585 -584 0
-92 -584 0
-93 -585 0
-73 415 0
-74 415 0
-415 76 75 73 74 80 79 77 78 0
86 85 73 -416 81 82 83 87 84 0
-417 74 81 93 88 89 90 91 92 0
-111 603 0
-603 604 0
-112 604 0
-604 605 0
-113 605 0
-605 606 0
-114 606 0
-606 607 0
-115 607 0
-607 608 0
-116 608 0
-608 -117 0
-109 424 0
-110 424 0
-424 115 111 110 109 112 113 114 116 0
122 121 109 -425 123 118 120 117 119 0
126 -426 110 117 129 124 125 127 128 0
-147 638 0
-638 639 0
639 -148 0
640 -639 0
-149 640 0
641 -640 0
-150 641 0
642 -641 0
-151 642 0
643 -642 0
643 -152 0
-153 -643 0
-145 433 0
-146 433 0
-433 148 147 146 145 152 151 149 150 0
158 157 145 -434 159 154 153 155 156 0
-435 164 153 146 160 161 162 163 165 0
-183 673 0
-673 674 0
-184 674 0
-674 675 0
-185 675 0
-675 676 0
-186 676 0
-676 677 0
-187 677 0
-677 678 0
678 -188 0
-189 -678 0
-181 442 0
-182 442 0
-442 188 185 181 182 187 184 183 186 0
194 193 181 -443 189 195 190 191 192 0
196 -444 182 189 197 198 201 200 199 0
-219 708 0
-708 709 0
-220 709 0
-709 710 0
-221 710 0
-710 711 0
-222 711 0
-711 712 0
-223 712 0
-712 713 0
713 -224 0
-225 -713 0
-217 451 0
451 -218 0
224 223 -451 218 217 220 221 219 222 0
-452 231 225 217 229 226 227 228 230 0
235 -453 218 225 236 237 232 233 234 0
-253 741 0
-741 742 0
-741 -254 0
-742 743 0
-255 743 0
-743 744 0
-256 744 0
-744 745 0
-257 745 0
-745 746 0
-258 746 0
-746 747 0
-259 747 0
-747 748 0
-260 748 0
749 -748 0
-748 -261 0
750 -749 0
751 -750 0
752 -751 0
753 -752 0
754 -753 0
755 -754 0
756 -755 0
-268 -755 0
757 -756 0
-269 -756 0
758 -757 0
-270 -757 0
759 -758 0
-271 -758 0
760 -759 0
-272 -759 0
-273 -760 0
-253 460 0
460 -254 0
254 -460 260 253 255 259 258 257 256 0
261 -461 264 253 263 262 267 265 266 0
254 272 261 -462 268 269 271 270 273 0
-289 776 0
-776 777 0
-290 -776 0
-777 778 0
-291 778 0
-778 779 0
-292 779 0
-779 780 0
-293 780 0
-780 781 0
-294 781 0
-781 782 0
-295 782 0
-782 783 0
-296 783 0
-783 -297 0
-289 469 0
-290 469 0
-469 291 289 290 295 296 292 293 294 0
303 302 289 -470 297 300 299 298 301 0
-471 304 297 290 306 305 307 308 309 0
811 -325 0
-811 812 0
812 -326 0
-812 813 0
-327 813 0
-813 814 0
-328 814 0
-814 815 0
-329 815 0
-815 816 0
-330 816 0
-816 817 0
-331 817 0
-817 818 0
-332 818 0
-818 -333 0
-478 327 326 331 325 332 328 329 330 0
-479 339 325 333 336 334 337 335 338 0
344 343 333 326 -480 340 341 342 345 0
-363 848 0
-848 849 0
-364 849 0
-849 850 0
-365 850 0
-850 851 0
-366 851 0
-851 852 0
-367 852 0
-852 853 0
-368 853 0
-853 -369 0
-487 363 361 362 364 365 366 367 368 0
-488 375 374 361 369 370 371 372 373 0
-489 376 369 362 377 378 379 380 381 0
2611 0
-2710 0
399 2620 -2611 0
2629 408 -2620 0
2638 -2629 417 0
2647 -2638 426 0
2656 -2647 435 0
2656 -146 -2647 0
-2656 444 2665 0
-2665 2674 453 0
2674 -2665 -218 0
-2674 2683 462 0
2683 -2674 -254 0
-2683 2692 471 0
2692 -290 -2683 0
-2692 2701 480 0
2701 -326 -2692 0
-362 -2701 2710 0
-369 -2701 2710 0
2826 0
-2827 0
2830 0
2831 0
2833 0
2835 -1 -2826 0
-9 -2835 2827 0
2835 -12 -2826 -2830 0
-13 2835 -2826 -2831 0
-15 2835 -2826 -2833 0
3258 0
-3259 0
3264 0
-3267 -9 3259 0
-14 3267 -3258 -3264 0
4013 0
-4112 0
4014 0
-4113 0
-4015 0
4016 0
4017 0
4018 0
4020 0
4021 0
4022 397 -4013 0
4023 398 -4014 0
-4024 399 4015 0
4025 400 -4016 0
4023 -11 -4014 -4017 0
4023 -12 -4014 -4018 0
-14 4023 -4014 -4020 0
4023 -15 -4014 -4021 0
-4024 -16 4015 0
-17 -4024 4015 0
-4024 -18 4015 0
-4024 -19 4015 0
-4024 -20 4015 0
-4024 -21 4015 0
406 4031 -4022 0
-4033 408 4024 0
-39 4031 -4022 -4025 0
-4031 4040 415 0
-4042 4033 417 0
-4040 4049 424 0
-4051 4042 426 0
-4049 4058 433 0
-4060 4051 435 0
-4058 4067 442 0
-4069 4060 444 0
-4067 4076 451 0
-4078 4069 453 0
-4076 4085 460 0
4086 -253 -4076 0
4078 -4086 -261 0
-4085 4094 469 0
4095 -4086 470 0
-289 -4085 4095 0
-4094 4103 478 0
-4095 479 4104 0
-4094 -325 4104 0
487 -4103 4112 0
488 -4104 4113 0
-361 -4103 4113 0
-4877 0
4878 0
4879 0
-4882 0
5417 0
-5516 0
-5517 0
5419 0
-5420 0
5421 0
5422 0
5423 0
5424 0
5425 0
5426 397 -5417 0
5428 399 -5419 0
-5429 400 5420 0
5430 401 -5421 0
5431 402 -5422 0
5432 403 -5423 0
5433 404 -5424 0
5434 405 -5425 0
-2 5426 -5417 -5419 0
-4 5430 -5421 0
5428 -9 -5419 0
5430 -11 -5421 0
-17 5430 -5421 0
5430 -22 -5421 0
-27 5430 -5421 -5422 0
-28 5430 -5421 -5423 0
-29 5430 -5421 -5424 0
-30 5430 -5421 -5425 0
5435 406 -5426 0
5437 408 -5428 0
5436 -37 -5426 0
-38 5435 -5428 -5426 0
-40 5435 -5430 -5426 0
-41 5435 -5426 -5431 0
-42 5435 -5426 -5432 0
-43 5435 -5426 -5433 0
-44 5435 -5426 -5434 0
-5435 415 5444 0
-5436 5445 416 0
5446 -5437 417 0
5445 -73 -5435 0
-74 -5437 5444 -5435 0
-5453 5444 424 0
-5444 5453 424 0
-5445 5454 425 0
5455 -5446 426 0
-109 5454 -5444 0
-5446 -110 -5444 5453 0
-5462 433 5453 0
-5453 5462 433 0
-5454 5463 434 0
5464 -5455 435 0
5463 -145 -5453 0
-5453 -5455 -146 5462 0
-5471 5462 442 0
-5462 5471 442 0
-5463 5472 443 0
5473 -5464 444 0
5472 -181 -5462 0
-5464 -182 5471 -5462 0
-5471 5480 451 0
-5472 5481 452 0
5482 -5473 453 0
5481 -217 -5471 0
-5473 5480 -218 -5471 0
-5480 5489 460 0
-5481 461 5490 0
5491 -5482 462 0
-5482 5489 -254 -5480 0
-5489 5498 469 0
-5490 5499 470 0
-289 -5489 5499 0
5498 -290 -5491 -5489 0
-5498 5507 478 0
-5499 479 5508 0
-5498 -325 5508 0
487 -5507 5516 0
488 -5508 5517 0
-361 -5507 5517 0
-5633 0
5634 0
-5733 0
-5635 0
5734 0
5636 0
5637 0
5638 0
5639 0
5640 0
5641 0
-5642 397 5633 0
398 5643 -5634 0
399 -5644 5635 0
-1 -5642 5633 0
-1 5643 -5634 0
-2 -5642 5633 0
-2 -5644 5633 5635 0
-3 -5642 5633 0
-4 -5642 5633 0
-5 -5642 5633 0
-6 -5642 5633 0
-7 -5642 5633 0
-8 -5642 5633 0
-5643 -9 5635 0
5644 -9 -5634 0
5643 -10 -5634 -5636 0
-11 5643 -5634 -5637 0
-12 5643 -5634 -5638 0
-13 5643 -5634 -5639 0
-14 5643 -5634 -5640 0
-15 5643 -5634 -5641 0
-16 -5644 5635 0
-17 -5644 5635 0
-18 -5644 5635 0
-19 -5644 5635 0
-20 -5644 5635 0
-21 -5644 5635 0
-5651 406 5642 0
407 -5652 5643 0
408 -5653 5644 0
-37 -5651 5642 0
-37 5652 -5643 0
-37 -5652 5642 5643 0
-38 -5651 5642 0
-38 -5653 5642 5644 0
-5651 -39 5642 0
-40 -5651 5642 0
-41 -5651 5642 0
-42 -5651 5642 0
-43 -5651 5642 0
-44 -5651 5642 0
-5652 -45 5644 0
-45 5653 -5643 0
-52 -5653 5644 0
-53 -5653 5644 0
-54 -5653 5644 0
-55 -5653 5644 0
-56 -5653 5644 0
-57 -5653 5644 0
-5660 5651 415 0
416 5652 -5661 0
-5662 417 5653 0
-5660 -73 5651 0
-5661 -73 5651 5652 0
-74 -5660 5651 0
-74 -5662 5651 5653 0
-5660 -75 5651 0
-76 -5660 5651 0
-77 -5660 5651 0
-78 -5660 5651 0
-79 -5660 5651 0
-80 -5660 5651 0
-81 5652 -5661 0
-81 5653 -5661 0
5652 -81 5653 -5662 0
-82 5652 -5661 0
5652 -5661 -83 0
-84 5652 -5661 0
-85 5652 -5661 0
5652 -5661 -86 0
-87 5652 -5661 0
-88 5653 -5662 0
-89 5653 -5662 0
-90 5653 -5662 0
-91 5653 -5662 0
-92 5653 -5662 0
-93 5653 -5662 0
424 5660 -5669 0
425 5661 -5670 0
426 -5671 5662 0
-109 -5669 5660 0
-109 5670 -5661 0
-109 5661 5660 -5670 0
-110 -5669 5660 0
-110 -5671 5660 5662 0
-111 -5669 5660 0
-112 -5669 5660 0
-113 -5669 5660 0
-114 -5669 5660 0
-115 -5669 5660 0
-116 -5669 5660 0
5661 -117 -5670 0
-117 -5670 5662 0
-117 -5661 5671 0
5661 -117 5662 -5671 0
-118 5661 -5670 0
-119 5661 -5670 0
-120 5661 -5670 0
-121 5661 -5670 0
5661 -5670 -122 0
-123 5661 -5670 0
-124 -5671 5662 0
-125 -5671 5662 0
-126 -5671 5662 0
-127 -5671 5662 0
-128 -5671 5662 0
-129 -5671 5662 0
433 -5678 5669 0
434 5670 -5679 0
434 5679 -5670 0
435 -5680 5671 0
-145 -5678 5669 0
-145 5679 -5670 0
-145 5670 5669 -5679 0
-146 -5678 5669 0
-146 -5680 5669 5671 0
-147 -5678 5669 0
-148 -5678 5669 0
-149 -5678 5669 0
-150 -5678 5669 0
-151 -5678 5669 0
-152 -5678 5669 0
-153 5670 -5679 0
-5679 -153 5671 0
5679 -153 -5671 -5670 0
5670 -153 5671 -5680 0
-154 5670 -5679 0
-5672 -154 -5670 5679 0
-155 5670 -5679 0
-5673 -155 -5670 5679 0
-156 5670 -5679 0
-5674 -156 -5670 5679 0
-157 5670 -5679 0
-5675 -157 -5670 5679 0
5670 -5679 -158 0
-5676 -5670 -158 5679 0
-159 5670 -5679 0
-5677 -159 -5670 5679 0
-160 -5680 5671 0
-161 -5680 5671 0
-162 -5680 5671 0
-163 -5680 5671 0
-164 -5680 5671 0
-165 -5680 5671 0
442 5678 -5687 0
-5688 443 5679 0
444 5680 -5689 0
-181 5678 -5687 0
-181 -5679 5688 0
-181 -5688 5679 5678 0
-182 5678 -5687 0
-182 -5689 5678 5680 0
-183 5678 -5687 0
-184 5678 -5687 0
-185 5678 -5687 0
-186 5678 -5687 0
-187 5678 -5687 0
-188 5678 -5687 0
-189 5679 -5688 0
-5688 -189 5680 0
-5679 -189 5689 0
5679 -189 5680 -5689 0
-190 5679 -5688 0
-191 5679 -5688 0
-192 5679 -5688 0
-193 5679 -5688 0
5679 -5688 -194 0
-195 5679 -5688 0
-196 5680 -5689 0
-197 5680 -5689 0
-198 5680 -5689 0
-199 5680 -5689 0
-200 5680 -5689 0
-201 5680 -5689 0
451 5687 -5696 0
5696 451 -5687 0
-5697 452 5688 0
453 5689 -5698 0
-217 5687 -5696 0
-217 -5688 -5687 5696 0
-217 -5688 5697 0
-217 5688 5687 -5697 0
5687 -218 -5696 0
-218 -5698 5687 5689 0
-219 5687 -5696 0
-220 5687 -5696 0
-221 5687 -5696 0
-222 5687 -5696 0
-223 5687 -5696 0
-224 5687 -5696 0
-225 5688 -5697 0
-225 -5697 5689 0
-5688 -225 5698 0
-225 -5689 5698 0
5688 -225 5689 -5698 0
-226 5688 -5697 0
-227 5688 -5697 0
-228 5688 -5697 0
-229 5688 -5697 0
-230 5688 -5697 0
-231 5688 -5697 0
-232 5689 -5698 0
-233 5689 -5698 0
-234 5689 -5698 0
-235 5689 -5698 0
-236 5689 -5698 0
-237 5689 -5698 0
-5705 460 5696 0
-5706 461 5697 0
462 5698 -5707 0
-5705 -253 5696 0
5706 -5697 -253 0
-5706 -253 5697 5696 0
-5705 5696 -254 0
5696 -254 -5707 5698 0
-255 -5705 5696 0
-256 -5705 5696 0
-257 -5705 5696 0
-258 -5705 5696 0
-259 -5705 5696 0
-260 -5705 5696 0
-5706 5697 -261 0
-5706 5698 -261 0
-5697 -261 5707 0
5697 -5707 -261 5698 0
-262 -5706 5697 0
-263 -5706 5697 0
-5706 5697 -264 0
-265 -5706 5697 0
-266 -5706 5697 0
-267 -5706 5697 0
-268 -5707 5698 0
-269 5698 -5707 0
-270 5698 -5707 0
-271 -5707 5698 0
-272 -5707 5698 0
-273 -5707 5698 0
-5714 469 5705 0
-5715 5706 470 0
471 5707 -5716 0
-289 -5714 5705 0
-5715 -289 5705 5706 0
-290 -5714 5705 0
-5714 -290 5707 0
-290 5707 -5716 5705 0
-291 -5714 5705 0
-292 -5714 5705 0
-293 -5714 5705 0
-294 -5714 5705 0
-295 -5714 5705 0
-296 -5714 5705 0
-5715 -297 5707 0
-297 5707 5706 -5716 0
-298 -5715 5706 0
-299 -5715 5706 0
-300 -5715 5706 0
-301 -5715 5706 0
-302 -5715 5706 0
-5715 5706 -303 0
-304 5707 -5716 0
-305 5707 -5716 0
-306 5707 -5716 0
-307 5707 -5716 0
-308 5707 -5716 0
-309 5707 -5716 0
478 5714 -5723 0
-5724 5715 479 0
480 5716 -5725 0
-325 5714 -5723 0
-325 -5715 5724 0
-5724 -325 5714 5715 0
-5723 -326 5716 0
-326 5716 -5725 5714 0
-327 5714 -5723 0
-328 5714 -5723 0
-329 5714 -5723 0
-330 5714 -5723 0
-331 5714 -5723 0
-332 5714 -5723 0
-5724 -333 5716 0
-333 5715 -5725 5716 0
-340 -5725 5716 0
-341 -5725 5716 0
-342 5716 -5725 0
-343 -5725 5716 0
-344 -5725 5716 0
-345 5716 -5725 0
5725 489 -5734 0
-361 -5723 5733 0
-5724 -361 5733 0
5723 -362 5725 -5734 0
-369 5724 5725 -5734 0
5725 -376 -5734 0
5725 -377 -5734 0
5725 -378 -5734 0
5725 -379 -5734 0
5725 -380 -5734 0
5725 -381 -5734 0
5741 0
-5840 0
5742 0
5841 0
-5743 0
5744 0
5745 0
5746 0
5747 0
5748 0
5749 0
5750 397 -5741 0
-5752 399 5743 0
5753 400 -5744 0
5750 -1 -5741 -5742 0
5752 -2 -5741 0
5750 -3 -5741 -5744 0
-3 5753 -5744 0
5750 -4 -5741 -5745 0
5750 -5 -5741 -5746 0
5750 -6 -5741 -5747 0
5750 -7 -5741 -5748 0
-8 5750 -5741 -5749 0
-5751 -9 5743 0
5753 -10 -5744 0
-16 -5752 5743 0
-16 5753 -5744 0
-17 -5752 5743 0
-18 -5752 5743 0
-19 -5752 5743 0
-20 -5752 5743 0
-21 -5752 5743 0
5753 -22 -5744 -5745 0
-23 5753 -5744 -5746 0
-24 5753 -5744 -5747 0
-25 5753 -5744 -5748 0
-26 5753 -5744 -5749 0
406 5759 -5750 0
-5760 407 5751 0
408 -5761 5752 0
-39 5759 -5753 -5750 0
-5760 -45 5752 0
-52 -5761 5752 0
-53 -5761 5752 0
-54 -5761 5752 0
-55 -5761 5752 0
-56 -5761 5752 0
-57 -5761 5752 0
-5759 5768 415 0
-5769 416 5760 0
5761 417 -5770 0
-5769 5761 -81 0
-88 5761 -5770 0
-89 5761 -5770 0
-90 5761 -5770 0
-91 5761 -5770 0
-92 5761 -5770 0
-93 5761 -5770 0
-5768 5777 424 0
-5778 425 5769 0
5770 426 -5779 0
-5778 -117 5769 0
-5778 -117 5770 0
-118 5769 -5778 0
-119 5769 -5778 0
-120 5769 -5778 0
-121 5769 -5778 0
5769 -5778 -122 0
-123 5769 -5778 0
-124 5770 -5779 0
-125 5770 -5779 0
-126 5770 -5779 0
-127 5770 -5779 0
-128 5770 -5779 0
-129 5770 -5779 0
-5777 5786 433 0
5778 434 -5787 0
435 5779 -5788 0
5778 -5787 -153 0
5779 -5787 -153 0
-154 5778 -5787 0
-155 5778 -5787 0
-156 5778 -5787 0
-157 5778 -5787 0
5778 -5787 -158 0
-159 5778 -5787 0
-160 5779 -5788 0
-161 5779 -5788 0
-162 5779 -5788 0
-163 5779 -5788 0
-164 5779 -5788 0
-165 5779 -5788 0
-5786 5795 442 0
5787 -5796 443 0
5788 444 -5797 0
5787 -5796 -189 0
5788 -5796 -189 0
-190 5787 -5796 0
-191 5787 -5796 0
-192 5787 -5796 0
-193 5787 -5796 0
5787 -5796 -194 0
-195 5787 -5796 0
-196 5788 -5797 0
-197 5788 -5797 0
-198 5788 -5797 0
-199 5788 -5797 0
-200 5788 -5797 0
-201 5788 -5797 0
-5795 5804 451 0
5796 -5805 452 0
5797 -5806 453 0
5796 -225 -5805 0
5797 -225 -5805 0
-226 5796 -5805 0
-227 5796 -5805 0
-228 5796 -5805 0
-229 5796 -5805 0
-230 5796 -5805 0
-231 5796 -5805 0
-232 5797 -5806 0
-233 5797 -5806 0
-234 5797 -5806 0
-235 5797 -5806 0
-236 5797 -5806 0
-237 5797 -5806 0
-5804 5813 460 0
461 -5814 5805 0
5806 -5815 462 0
-5805 -253 5813 -5804 0
-5814 5805 -261 0
5806 -5814 -261 0
-262 -5814 5805 0
-263 -5814 5805 0
-264 -5814 5805 0
-265 -5814 5805 0
-266 -5814 5805 0
-267 -5814 5805 0
-268 5806 -5815 0
-269 5806 -5815 0
-270 5806 -5815 0
-271 5806 -5815 0
-272 5806 -5815 0
-273 5806 -5815 0
-5813 5822 469 0
5814 -5823 470 0
5815 -5824 471 0
-5822 -290 5815 0
-290 5824 -5813 0
5814 -297 -5823 0
5815 -297 -5823 0
5824 -297 -5814 0
5824 -5815 -297 0
-298 5814 -5823 0
-299 5814 -5823 0
-300 5814 -5823 0
-301 5814 -5823 0
-302 5814 -5823 0
5814 -5823 -303 0
-304 -5824 5815 0
-305 -5824 5815 0
-306 -5824 5815 0
-307 -5824 5815 0
-308 -5824 5815 0
-309 -5824 5815 0
-5822 5831 478 0
5823 479 -5832 0
5824 -5833 480 0
5823 -333 -5832 0
5824 -333 -5832 0
-334 5823 -5832 0
-335 5823 -5832 0
-336 5823 -5832 0
-337 5823 -5832 0
-338 5823 -5832 0
-339 5823 -5832 0
-340 -5833 5824 0
-341 -5833 5824 0
-342 -5833 5824 0
-343 -5833 5824 0
-344 -5833 5824 0
-345 -5833 5824 0
487 -5831 5840 0
5832 488 -5841 0
5832 -369 -5841 0
-369 5833 -5841 0
5832 -370 -5841 0
-371 5832 -5841 0
5832 -372 -5841 0
5832 -373 -5841 0
5832 -374 -5841 0
5832 -375 -5841 0
-5849 0
-5850 0
-5858 397 5849 0
-5859 398 5850 0
-1 -5858 5849 0
-5859 -1 5849 5850 0
-5858 -2 5849 0
-5858 -3 5849 0
-5858 -4 5849 0
-5858 -5 5849 0
-5858 -6 5849 0
-5858 -7 5849 0
-8 -5858 5849 0
-5859 -9 5850 0
-5859 -10 5850 0
-5859 -11 5850 0
-5859 -12 5850 0
-5859 -13 5850 0
-5859 -14 5850 0
-5859 -15 5850 0
407 -5868 5859 0
-37 -5868 5858 5859 0
-5867 -39 5858 0
-45 -5868 5859 0
-46 -5868 5859 0
-47 -5868 5859 0
-48 -5868 5859 0
-49 -5868 5859 0
-50 -5868 5859 0
-51 -5868 5859 0
-5876 5867 415 0
416 -5877 5868 0
-81 -5877 5868 0
-82 -5877 5868 0
-83 -5877 5868 0
-84 -5877 5868 0
-85 -5877 5868 0
-86 -5877 5868 0
-87 -5877 5868 0
-5885 5876 424 0
425 -5886 5877 0
-117 -5886 5877 0
-118 -5886 5877 0
-119 -5886 5877 0
-120 -5886 5877 0
-121 -5886 5877 0
-122 -5886 5877 0
-123 -5886 5877 0
-5894 5885 433 0
434 -5895 5886 0
-153 -5895 5886 0
-154 -5895 5886 0
-155 -5895 5886 0
-156 -5895 5886 0
-157 -5895 5886 0
-158 -5895 5886 0
-159 -5895 5886 0
443 -5904 5895 0
-189 -5904 5895 0
-190 -5904 5895 0
-191 -5904 5895 0
-192 -5904 5895 0
-193 -5904 5895 0
-194 -5904 5895 0
-195 -5904 5895 0
5957 0
-6056 0
-5958 0
6057 0
5959 0
5960 0
5961 0
5963 0
5964 0
5965 0
5966 397 -5957 0
-5967 398 5958 0
5968 399 -5959 0
5966 -2 -5957 -5959 0
-5967 -9 5958 0
-5967 -10 5958 0
-5967 -11 5958 0
-5967 -12 5958 0
-5967 -13 5958 0
-5967 -14 5958 0
-15 -5967 5958 0
5975 406 -5966 0
-5976 407 5967 0
5977 408 -5968 0
-5976 -45 5967 0
-5975 5984 415 0
416 5976 -5985 0
5986 -5977 417 0
5976 -81 -5985 0
-82 -5985 5976 0
-83 -5985 5976 0
-84 -5985 5976 0
-85 -5985 5976 0
-5985 5976 -86 0
-87 -5985 5976 0
-5984 5993 424 0
-5994 425 5985 0
5995 -5986 426 0
-109 -5984 -5985 5993 0
-5994 5985 -117 0
-118 -5994 5985 0
-119 -5994 5985 0
-120 -5994 5985 0
-121 -5994 5985 0
-5994 5985 -122 0
-123 -5994 5985 0
-5993 6002 433 0
5994 434 -6003 0
6003 -5994 434 0
-145 -5993 -5994 6002 0
5994 -6003 -153 0
-154 5994 -6003 0
-155 5994 -6003 0
-156 5994 -6003 0
-157 5994 -6003 0
5994 -6003 -158 0
-159 5994 -6003 0
-6002 6011 442 0
6003 -6012 443 0
-6002 -181 -6003 6011 0
6003 -6012 -189 0
-190 6003 -6012 0
-191 6003 -6012 0
-192 6003 -6012 0
-193 6003 -6012 0
6003 -6012 -194 0
-195 6003 -6012 0
-6011 6020 451 0
6012 -6021 452 0
-6011 -6013 -218 6020 0
6012 -225 -6021 0
6013 -225 -6021 0
-226 6012 -6021 0
-227 6012 -6021 0
-228 6012 -6021 0
-229 6012 -6021 0
-230 6012 -6021 0
-231 6012 -6021 0
-6020 6029 460 0
461 -6030 6021 0
-6021 461 6030 0
-261 -6030 6021 0
-262 6021 -6030 0
-263 6021 -6030 0
-264 6021 -6030 0
-265 6021 -6030 0
-266 6021 -6030 0
-267 6021 -6030 0
-6029 6038 469 0
470 -6039 6030 0
-289 -6029 -6030 6038 0
-297 -6039 6030 0
-298 -6039 6030 0
-299 -6039 6030 0
-300 -6039 6030 0
-301 -6039 6030 0
-302 -6039 6030 0
-303 -6039 6030 0
-6038 6047 478 0
6039 479 -6048 0
6039 -333 -6048 0
-334 6039 -6048 0
-335 6039 -6048 0
-336 6039 -6048 0
-337 6039 -6048 0
-338 6039 -6048 0
-339 6039 -6048 0
487 -6047 6056 0
6048 488 -6057 0
6048 -369 -6057 0
6048 -370 -6057 0
6048 -371 -6057 0
6048 -372 -6057 0
6048 -373 -6057 0
6048 -374 -6057 0
6048 -375 -6057 0
-3 8433 4877 0
-4 8433 4877 0
-5 8433 4877 0
-6 8433 4877 0
-7 8433 4877 0
-8 8433 4877 0
-8433 -9 -4878 -4879 0
-23 8433 4882 0
-27 8433 4882 0
-31 8433 4882 0
-32 8433 4882 0
-33 8433 4882 0
8753 -39 5429 0
-53 -8753 -5430 -5428 0
-54 -8753 -5428 -5431 0
-55 -8753 -5428 -5432 0
-56 -8753 -5428 -5433 0
-57 -8753 -5428 -5434 0
-1 8863 5633 0
-2 8863 5635 0
-3 8863 5633 0
-4 8863 5633 0
-5 8863 5633 0
-6 8863 5633 0
-7 8863 5633 0
-8 8863 5633 0
8863 -9 5635 0
-16 8863 5635 0
-17 8863 5635 0
-18 8863 5635 0
-19 8863 5635 0
-20 8863 5635 0
-21 8863 5635 0
-37 8864 5642 0
-38 8864 5642 0
8864 -39 5642 0
-40 8864 5642 0
-41 8864 5642 0
-42 8864 5642 0
-43 8864 5642 0
-44 8864 5642 0
-45 8864 5643 0
8864 -45 5644 0
-46 8864 5643 0
-47 8864 5643 0
-48 8864 5643 0
-49 8864 5643 0
-50 8864 5643 0
8864 -51 5643 0
-52 8864 5644 0
-53 8864 5644 0
-54 8864 5644 0
-55 8864 5644 0
-56 8864 5644 0
-57 8864 5644 0
-73 5651 8865 0
-74 5651 8865 0
-75 5651 8865 0
-76 5651 8865 0
-77 5651 8865 0
-78 5651 8865 0
-79 5651 8865 0
-80 5651 8865 0
-81 5652 8865 0
-81 5653 8865 0
-82 5652 8865 0
5652 8865 -83 0
-84 5652 8865 0
-85 5652 8865 0
5652 8865 -86 0
-87 5652 8865 0
-88 5653 8865 0
-89 5653 8865 0
-90 5653 8865 0
-91 5653 8865 0
-92 5653 8865 0
-93 5653 8865 0
-109 8866 5660 0
-110 8866 5660 0
-111 8866 5660 0
-112 8866 5660 0
-113 8866 5660 0
-114 8866 5660 0
-115 8866 5660 0
-116 8866 5660 0
-117 5661 8866 0
-117 5662 8866 0
-118 5661 8866 0
-119 5661 8866 0
-120 5661 8866 0
-121 5661 8866 0
5661 8866 -122 0
-123 5661 8866 0
-124 5662 8866 0
-125 5662 8866 0
-126 5662 8866 0
-127 5662 8866 0
-128 5662 8866 0
-129 5662 8866 0
-145 8867 5669 0
-146 8867 5669 0
-147 8867 5669 0
-148 8867 5669 0
-149 8867 5669 0
-150 8867 5669 0
-151 8867 5669 0
-152 8867 5669 0
-153 5670 8867 0
-153 5671 8867 0
-154 5670 8867 0
5672 -154 8867 0
-155 5670 8867 0
5673 -155 8867 0
-156 5670 8867 0
5674 -156 8867 0
-157 5670 8867 0
5675 -157 8867 0
5670 8867 -158 0
5676 8867 -158 0
-159 5670 8867 0
5677 -159 8867 0
-160 5671 8867 0
-161 5671 8867 0
-162 5671 8867 0
-163 5671 8867 0
-164 5671 8867 0
-165 5671 8867 0
-181 5678 8868 0
-182 5678 8868 0
-182 5680 8868 0
-183 5678 8868 0
-184 5678 8868 0
-185 5678 8868 0
-186 5678 8868 0
-187 5678 8868 0
-188 5678 8868 0
-189 5679 8868 0
-189 5680 8868 0
-190 5679 8868 0
-191 5679 8868 0
-192 5679 8868 0
-193 5679 8868 0
5679 8868 -194 0
-195 5679 8868 0
-196 5680 8868 0
-197 5680 8868 0
-198 5680 8868 0
-199 5680 8868 0
-200 5680 8868 0
-201 5680 8868 0
-217 5687 8869 0
-217 5688 8869 0
-218 5687 8869 0
-218 5689 8869 0
-219 5687 8869 0
-220 5687 8869 0
-221 5687 8869 0
-222 5687 8869 0
-223 5687 8869 0
-224 5687 8869 0
-225 5688 8869 0
-225 5689 8869 0
-226 5688 8869 0
-227 5688 8869 0
-228 5688 8869 0
-229 5688 8869 0
-230 5688 8869 0
-231 5688 8869 0
-232 5689 8869 0
-233 5689 8869 0
-234 5689 8869 0
-235 5689 8869 0
-236 5689 8869 0
-237 5689 8869 0
-253 5696 8870 0
-253 5697 8870 0
5696 -254 8870 0
-254 5698 8870 0
-255 5696 8870 0
-256 5696 8870 0
-257 5696 8870 0
-258 5696 8870 0
-259 5696 8870 0
-260 5696 8870 0
8870 5697 -261 0
8870 5698 -261 0
-262 5697 8870 0
-263 5697 8870 0
5697 -264 8870 0
-265 5697 8870 0
-266 5697 8870 0
-267 5697 8870 0
-268 5698 8870 0
-269 8870 5698 0
-270 8870 5698 0
-271 5698 8870 0
-272 5698 8870 0
-273 5698 8870 0
-289 5705 8871 0
-289 5706 8871 0
-290 8871 5705 0
-290 5707 8871 0
-291 5705 8871 0
-292 5705 8871 0
-293 5705 8871 0
-294 5705 8871 0
-295 5705 8871 0
-296 5705 8871 0
-297 5706 8871 0
-297 5707 8871 0
-298 5706 8871 0
-299 5706 8871 0
-300 5706 8871 0
-301 5706 8871 0
-302 5706 8871 0
5706 8871 -303 0
-304 5707 8871 0
-305 5707 8871 0
-306 5707 8871 0
-307 5707 8871 0
-308 5707 8871 0
-309 5707 8871 0
-325 5714 8872 0
-325 5715 8872 0
-326 5714 8872 0
-326 5716 8872 0
-327 5714 8872 0
-328 5714 8872 0
-329 5714 8872 0
-330 5714 8872 0
-331 5714 8872 0
-332 5714 8872 0
-333 5715 8872 0
-333 5716 8872 0
-334 5715 8872 0
-335 5715 8872 0
-336 5715 8872 0
-337 5715 8872 0
-338 5715 8872 0
-339 5715 8872 0
-340 5716 8872 0
-341 5716 8872 0
-342 5716 8872 0
-343 5716 8872 0
-344 5716 8872 0
-345 5716 8872 0
-361 5723 8873 0
5723 8873 -362 0
5725 8873 -362 0
-363 5723 8873 0
-364 5723 8873 0
-365 5723 8873 0
-366 5723 8873 0
-367 5723 8873 0
-368 5723 8873 0
-369 5724 8873 0
5725 8873 -369 0
5724 8873 -370 0
5724 8873 -371 0
5724 8873 -372 0
5724 8873 -373 0
5724 8873 -374 0
5724 8873 -375 0
8874 -8863 0
8875 -8874 0
8876 -8864 -8874 0
-8876 8877 0
-8876 -8865 0
8875 -8864 0
8878 -8875 0
-8865 8877 -8875 0
-8877 8879 0
-8877 -8866 0
8878 -8865 0
8880 -8878 0
-8866 8879 -8878 0
-8879 8881 0
-8879 -8867 0
-8866 8880 0
8882 -8880 0
-8867 8881 -8880 0
-8881 8883 0
-8881 -8868 0
8882 -8867 0
8884 -8882 0
-8868 8883 -8882 0
-8883 8885 0
-8869 -8883 0
8884 -8868 0
8886 -8884 0
-8869 8885 -8884 0
8887 -8885 0
-8885 -8870 0
8886 -8869 0
8888 -8886 0
8887 -8870 -8886 0
8889 -8887 0
-8871 -8887 0
8888 -8870 0
8890 -8888 0
8889 -8871 -8888 0
8891 -8889 0
-8872 -8889 0
8890 -8871 0
8891 -8872 -8890 0
-8873 -8891 0
-8893 -39 -5753 -5750 0
-45 8893 5752 0
-327 5822 8901 0
-328 5822 8901 0
-8901 -333 -5823 -5824 0
8927 -13 5850 0
8928 -39 5858 0
8938 -8927 0
8940 -8928 -8938 0
8941 -8940 0
8945 -8941 0
8948 -8945 0
8951 -8948 0
8962 -9 5958 0
-22 -8962 -5960 -5961 0
-24 -8962 -5960 -5963 0
-25 -8962 -5960 -5964 0
-26 -8962 -5960 -5965 0
-28 -8962 -5961 -5963 0
-29 -8962 -5961 -5964 0
-30 -8962 -5961 -5965 0
-34 -8962 -5963 -5964 0
-35 -8962 -5963 -5965 0
-36 -8962 -5964 -5965 0
8963 -45 5967 0
-219 8968 6011 0
-220 8968 6011 0
-221 8968 6011 0
-222 8968 6011 0
-223 8968 6011 0
-8968 -6013 -225 -6012 0
8973 -8962 0
8974 -8973 0
8974 -8963 0
8979 -8974 0
8982 -8979 0
8985 -8982 0
