p cnf 10077 2562
8 -397 3 1 2 5 6 7 4 0
-398 11 1 9 13 10 14 12 15 0
21 16 2 9 -399 19 20 17 18 0
-400 16 3 10 26 23 25 22 24 0
-401 27 11 22 4 17 28 29 30 0
-402 27 23 18 5 12 32 31 33 0
-403 35 13 24 6 31 28 19 34 0
-404 14 7 25 36 32 20 34 29 0
-405 30 21 26 8 15 33 35 36 0
-37 531 0
-531 532 0
-532 533 0
-39 533 0
-533 534 0
-534 535 0
-535 536 0
-536 537 0
-43 537 0
-537 538 0
-44 538 0
-538 539 0
-539 540 0
-539 -46 0
-540 541 0
-541 542 0
-542 543 0
-543 544 0
-544 545 0
-545 -52 0
-406 40 44 43 39 37 41 38 42 0
48 -407 46 37 47 45 49 50 51 0
-408 45 52 53 55 56 57 38 54 0
61 62 39 52 46 -409 58 59 60 0
-410 47 53 40 58 66 63 64 65 0
-411 69 48 41 59 54 67 63 68 0
-412 71 42 55 60 49 67 64 70 0
-413 50 56 61 43 72 65 68 70 0
-414 57 62 51 44 72 66 69 71 0
-74 567 0
-567 -75 0
-75 568 0
-568 569 0
-569 570 0
-77 570 0
-570 571 0
-78 571 0
-571 572 0
-79 572 0
-572 573 0
-80 573 0
-573 574 0
-573 -81 0
574 -81 0
-574 575 0
-574 -82 0
-82 575 0
-575 576 0
-576 577 0
-577 578 0
-578 579 0
-579 580 0
581 -580 0
-580 -88 0
582 -581 0
-89 -581 0
583 -582 0
-90 -582 0
584 -583 0
-91 -583 0
585 -584 0
-92 -584 0
-93 -585 0
-415 76 74 75 73 79 80 77 78 0
87 73 82 81 -416 83 84 85 86 0
93 74 88 81 -417 89 90 91 92 0
-418 95 75 88 82 98 94 96 97 0
-419 102 76 83 94 89 99 100 101 0
-420 99 90 84 95 77 103 104 105 0
-421 107 78 85 96 91 100 103 106 0
-422 101 79 86 97 92 104 106 108 0
-423 87 98 80 93 102 105 107 108 0
-109 601 0
-601 602 0
-601 -110 0
-110 602 0
-602 603 0
-111 -602 0
-603 604 0
-112 604 0
-604 605 0
-113 605 0
-605 606 0
-114 606 0
-606 607 0
-115 607 0
-607 608 0
-116 608 0
-608 609 0
-117 -608 0
-117 609 0
-609 610 0
-609 -118 0
610 -118 0
611 -610 0
612 -611 0
613 -612 0
-613 614 0
-614 615 0
616 -615 0
-615 -124 0
617 -616 0
-125 -616 0
618 -617 0
-126 -617 0
619 -618 0
-127 -618 0
620 -619 0
-128 -619 0
621 -620 0
-129 -620 0
622 -621 0
-130 -621 0
623 -622 0
-131 -622 0
624 -623 0
-132 -623 0
625 -624 0
-133 -624 0
-134 -625 0
-424 112 111 110 116 109 115 113 114 0
-425 122 118 109 117 119 121 123 120 0
129 -426 110 117 124 125 127 126 128 0
-427 132 111 118 124 134 131 133 130 0
-145 636 0
-636 637 0
-636 -146 0
-146 637 0
-637 638 0
-637 -147 0
-638 639 0
-148 639 0
-639 640 0
-149 640 0
-640 641 0
-150 641 0
-641 642 0
-151 642 0
-642 643 0
-152 643 0
-643 644 0
-644 645 0
-644 -154 0
-645 646 0
-646 647 0
-647 648 0
-648 649 0
-649 650 0
-650 651 0
-650 -160 0
-651 652 0
-161 -651 0
-652 653 0
-162 -652 0
-653 654 0
-163 -653 0
-654 655 0
-164 -654 0
-655 656 0
-165 -655 0
-656 657 0
-166 -656 0
-657 658 0
-167 -657 0
659 -658 0
-658 -168 0
660 -659 0
-169 -659 0
-170 -660 0
-433 148 147 145 152 151 149 146 150 0
156 157 153 145 154 -434 155 158 159 0
-146 435 0
-435 146 153 160 164 165 162 161 163 0
-436 160 147 154 166 168 167 170 169 0
-181 671 0
-671 672 0
-671 -182 0
672 -182 0
-672 673 0
-183 -672 0
-673 674 0
-184 674 0
-674 675 0
-185 675 0
-675 676 0
-186 676 0
-676 677 0
-187 677 0
-677 678 0
-188 678 0
-678 679 0
-189 679 0
-679 680 0
-679 -190 0
681 -680 0
682 -681 0
683 -682 0
684 -683 0
685 -684 0
686 -685 0
-196 -685 0
687 -686 0
688 -687 0
689 -688 0
690 -689 0
691 -690 0
692 -691 0
-202 -691 0
693 -692 0
-203 -692 0
694 -693 0
-204 -693 0
695 -694 0
-205 -694 0
-206 -695 0
-442 187 183 182 184 181 188 185 186 0
192 195 181 -443 189 190 191 194 193 0
200 201 182 -444 189 196 197 199 198 0
-183 445 0
196 -445 183 206 190 204 202 203 205 0
-217 706 0
-706 707 0
-706 -218 0
-218 707 0
-707 708 0
-219 -707 0
708 -219 0
-708 709 0
-220 709 0
-709 710 0
-221 710 0
-710 711 0
-222 711 0
-711 712 0
-223 712 0
-712 713 0
-224 713 0
-713 714 0
-713 -225 0
-225 714 0
715 -714 0
-714 -226 0
-715 716 0
-716 717 0
-717 718 0
-718 719 0
-719 720 0
-720 721 0
-720 -232 0
-721 722 0
-722 723 0
-723 724 0
-724 725 0
-725 726 0
-726 727 0
-238 -726 0
728 -727 0
-727 -239 0
729 -728 0
-240 -728 0
730 -729 0
-241 -729 0
-242 -730 0
-451 221 217 218 219 224 222 220 223 0
-452 229 217 225 226 231 230 228 227 0
234 236 218 225 232 -453 237 233 235 0
454 -219 0
454 -226 0
454 -232 0
-454 241 232 219 226 242 239 240 238 0
-253 741 0
-741 742 0
-741 -254 0
-254 742 0
-742 743 0
-255 -742 0
-743 744 0
-256 744 0
-744 745 0
-257 745 0
-745 746 0
-258 746 0
-746 747 0
-259 747 0
-747 748 0
-260 748 0
-748 749 0
-261 749 0
-749 750 0
-262 -749 0
-750 751 0
-751 752 0
-752 753 0
-753 754 0
-754 755 0
-755 756 0
-268 -755 0
-756 757 0
-757 758 0
-758 759 0
-759 760 0
-760 761 0
-761 762 0
-274 -761 0
-762 763 0
-275 -762 0
-763 764 0
-276 -763 0
-764 765 0
-277 -764 0
-765 -278 0
-460 255 254 260 253 257 256 259 258 0
263 266 262 261 -461 253 265 264 267 0
-254 462 0
462 -261 0
272 271 254 269 268 261 -462 273 270 0
278 277 268 255 262 -463 274 275 276 0
-289 776 0
-776 777 0
-776 -290 0
-290 777 0
-777 778 0
-291 -777 0
-291 778 0
-778 779 0
-292 779 0
-779 780 0
-293 780 0
-780 781 0
-294 781 0
-781 782 0
-295 782 0
-782 783 0
-296 783 0
-783 784 0
-783 -297 0
-297 784 0
-784 785 0
-298 -784 0
785 -298 0
-785 786 0
-786 787 0
-787 788 0
-788 789 0
-789 790 0
791 -790 0
-790 -304 0
792 -791 0
-305 -791 0
793 -792 0
-306 -792 0
794 -793 0
-307 -793 0
795 -794 0
-308 -794 0
796 -795 0
-309 -795 0
797 -796 0
-310 -796 0
798 -797 0
-311 -797 0
799 -798 0
-312 -798 0
800 -799 0
-313 -799 0
-314 -800 0
-469 289 292 296 290 291 295 293 294 0
299 -470 298 297 289 300 303 301 302 0
309 304 297 290 -471 308 306 305 307 0
-472 314 304 291 298 312 313 310 311 0
-325 811 0
812 -811 0
-811 -326 0
812 -326 0
813 -812 0
-327 -812 0
813 -327 0
814 -813 0
-328 814 0
815 -814 0
-329 815 0
816 -815 0
-330 816 0
817 -816 0
-331 817 0
818 -817 0
-332 818 0
819 -818 0
-818 -333 0
819 -333 0
820 -819 0
-334 -819 0
821 -820 0
-335 -820 0
822 -821 0
-336 -821 0
823 -822 0
-337 -822 0
824 -823 0
-338 -823 0
825 -824 0
-339 -824 0
826 -825 0
-340 -825 0
827 -826 0
-341 -826 0
828 -827 0
-342 -827 0
829 -828 0
-343 -828 0
830 -829 0
-344 -829 0
831 -830 0
-345 -830 0
832 -831 0
-346 -831 0
833 -832 0
-347 -832 0
834 -833 0
-348 -833 0
835 -834 0
-349 -834 0
-350 -835 0
-325 478 0
332 -478 325 327 328 329 326 331 330 0
-479 339 325 334 333 335 336 337 338 0
333 345 326 -480 340 341 342 343 344 0
-481 350 327 349 334 340 346 348 347 0
-361 846 0
-846 847 0
-846 -362 0
-362 847 0
-847 848 0
-847 -363 0
-848 849 0
-364 849 0
-849 850 0
-365 850 0
-850 851 0
-366 851 0
-851 852 0
-367 852 0
-852 853 0
-368 853 0
-853 854 0
-369 854 0
-854 -370 0
-487 363 361 362 366 364 365 367 368 0
-488 375 369 361 370 374 373 371 372 0
-489 381 362 369 376 378 377 380 379 0
386 -490 363 370 382 383 384 385 376 0
2504 0
-2603 0
400 2513 -2504 0
-3 2513 -2504 0
2522 409 -2513 0
2531 418 -2522 0
2540 427 -2531 0
2549 436 -2540 0
2549 -147 -2540 0
2558 445 -2549 0
2567 454 -2558 0
2576 463 -2567 0
2585 -2576 472 0
-2585 2594 481 0
-370 -2594 2603 0
2611 0
-2710 0
2612 0
-16 2620 -2611 -2612 0
2629 408 -2620 0
2638 -2629 417 0
2647 -2638 426 0
2656 -2647 435 0
2665 -2656 444 0
2674 -2665 453 0
2683 -2674 462 0
-2683 2692 471 0
-2692 2701 480 0
-362 -2701 2710 0
-4445 0
-4448 0
397 -4454 4445 0
400 -4457 4448 0
-4463 406 4454 0
-4466 409 4457 0
-4472 415 4463 0
-4475 418 4466 0
-4481 4472 424 0
-4484 427 4475 0
-4490 4481 433 0
-4493 436 4484 0
-4499 4490 442 0
-4502 445 4493 0
-4508 4499 451 0
-4517 4508 460 0
-4526 4517 469 0
4553 0
-4652 0
-4653 0
4555 0
4562 397 -4553 0
-2 4562 -4553 -4555 0
4571 406 -4562 0
4571 -4580 415 0
4580 415 -4571 0
4581 -73 -4571 0
4589 -4580 424 0
-4581 4590 425 0
4590 -109 -4580 0
4598 -4589 433 0
-4590 4599 434 0
4599 -145 -4589 0
4607 -4598 442 0
4608 -4599 443 0
4608 -181 -4598 0
4616 -4607 451 0
-4608 4617 452 0
4617 -217 -4607 0
-4608 -217 4617 0
4625 -4616 460 0
-4617 4626 461 0
4626 -253 -4616 0
4626 -4617 -253 0
4634 -4625 469 0
-4626 4635 470 0
-4625 -289 4635 0
-4626 -289 4635 0
4643 -4634 478 0
-4635 4644 479 0
-4634 -325 4644 0
-4635 -325 4644 0
-4643 487 4652 0
488 -4644 4653 0
-361 -4643 4653 0
-361 -4644 4653 0
5417 0
-5516 0
5418 0
5419 0
5420 0
5421 0
5423 0
5424 0
5425 0
5426 397 -5417 0
5427 398 -5418 0
400 5429 -5420 0
403 5432 -5423 0
5433 404 -5424 0
-3 5426 -5417 -5420 0
-6 5432 -5423 0
-7 5433 -5424 0
5427 -9 -5418 -5419 0
-10 5427 -5418 -5420 0
-10 5429 -5420 0
-11 5427 -5418 -5421 0
-13 5427 -5418 -5423 0
-13 5432 -5423 0
-14 5427 -5418 -5424 0
-14 5433 -5424 0
-15 5427 -5418 -5425 0
-16 5428 -5419 -5420 0
-16 5429 -5420 0
-19 5432 -5423 0
-20 5433 -5424 0
-24 5432 -5423 0
-25 5433 -5424 0
-28 5432 -5423 0
-29 5433 -5424 0
-31 5432 -5423 0
-32 5433 -5424 0
-34 5432 -5423 -5424 0
-34 5433 -5424 0
-35 5432 -5423 -5425 0
-36 5433 -5424 -5425 0
5435 406 -5426 0
5436 407 -5427 0
408 5437 -5428 0
5438 409 -5429 0
-37 5435 -5426 -5427 0
-38 5435 -5428 -5426 0
5435 -39 -5429 -5426 0
-42 5435 -5432 -5426 0
-43 5435 -5433 -5426 0
5436 -46 -5427 -5429 0
5444 415 -5435 0
-5436 5445 416 0
-5437 5446 417 0
5447 418 -5438 0
5444 -73 -5436 -5435 0
5444 -75 -5438 -5435 0
5453 -5444 424 0
-5445 5454 425 0
-5446 5455 426 0
5456 427 -5447 0
-5445 -109 -5444 5453 0
5453 -111 -5447 -5444 0
5462 -5453 433 0
-5454 5463 434 0
-5455 5464 435 0
5465 436 -5456 0
5462 -147 -5456 -5453 0
5471 -5462 442 0
-5463 5472 443 0
-5464 5473 444 0
5474 445 -5465 0
-5463 5471 -5462 -181 0
-5462 -183 5471 -5465 0
5480 -5471 451 0
-5472 5481 452 0
-5473 5482 453 0
5483 454 -5474 0
-5472 -217 -5471 5480 0
5480 -219 -5474 -5471 0
5489 -5480 460 0
-5481 5490 461 0
-5482 5491 462 0
5492 463 -5483 0
-5481 -253 -5480 5489 0
-5489 469 5498 0
-5490 5499 470 0
-5491 5500 471 0
5501 -5492 472 0
-5490 -289 -5489 5498 0
-5491 -290 5498 -5489 0
-5492 -291 5498 -5489 0
-5498 5507 478 0
-5499 -5498 -325 5507 0
-5500 -5498 -326 5507 0
-5501 -327 -5498 5507 0
487 -5507 5516 0
-6065 0
6066 0
-6165 0
6067 0
6166 0
-6068 0
6167 0
6069 0
6070 0
6071 0
6072 0
6073 0
-6074 397 6065 0
398 6075 -6066 0
6076 399 -6067 0
-6077 400 6068 0
6078 401 -6069 0
6080 403 -6071 0
6081 404 -6072 0
6082 405 -6073 0
-1 -6074 6065 0
6075 -1 -6066 0
-2 -6074 6065 0
-2 6076 -6067 0
-6074 -3 6065 0
-6077 -3 6065 6068 0
-4 -6074 6065 0
-5 -6074 6065 0
-6 -6074 6065 0
-6074 -7 6065 0
-8 -6074 6065 0
6075 -9 -6066 -6067 0
6076 -9 -6066 0
-6075 -10 6068 0
6077 -10 -6066 0
6075 -11 -6066 -6069 0
-12 6075 -6066 -6070 0
6075 -13 -6066 -6071 0
6075 -14 -6066 -6072 0
6075 -15 -6066 -6073 0
-16 -6076 6068 0
-16 6077 -6067 0
-17 6076 -6067 -6069 0
-18 6076 -6067 -6070 0
6076 -19 -6067 -6071 0
6076 -20 -6067 -6072 0
-21 6076 -6067 -6073 0
-22 -6077 6068 0
-23 -6077 6068 0
-24 -6077 6068 0
-25 -6077 6068 0
-26 -6077 6068 0
-6083 406 6074 0
-6084 407 6075 0
-6085 408 6076 0
408 6085 -6076 0
-6086 409 6077 0
-37 -6083 6074 0
-37 6084 -6075 0
-38 -6083 6074 0
-39 -6083 6074 0
-6086 -39 6074 6077 0
-40 -6083 6074 0
-41 -6083 6074 0
-42 -6083 6074 0
-43 -6083 6074 0
-44 -6083 6074 0
6085 -45 -6076 0
-6084 -46 6077 0
-46 6086 -6075 0
-6085 -52 6077 0
6085 -52 -6077 -6076 0
-53 6085 -6078 -6076 0
-54 6085 -6076 -6079 0
-55 6085 -6076 -6080 0
-56 6085 -6081 -6076 0
-57 6085 -6082 -6076 0
-58 -6086 6077 0
-59 -6086 6077 0
-60 -6086 6077 0
-6086 -61 6077 0
-62 -6086 6077 0
-6092 415 6083 0
-6093 416 6084 0
-6094 6085 417 0
-6095 418 6086 0
-73 -6092 6083 0
-6093 -73 6083 6084 0
-74 -6092 6083 0
-74 -6094 6083 6085 0
-75 -6092 6083 0
-75 6086 6083 -6095 0
-76 -6092 6083 0
-77 -6092 6083 0
-78 -6092 6083 0
-79 -6092 6083 0
-80 -6092 6083 0
6085 6084 -81 -6094 0
-6093 -82 6086 0
6085 -6094 -88 0
-6094 6086 -88 0
-6085 6095 -88 0
-89 6085 -6094 0
-90 6085 -6094 0
-91 6085 -6094 0
-92 6085 -6094 0
-93 6085 -6094 0
-94 -6095 6086 0
-95 -6095 6086 0
-96 -6095 6086 0
-97 -6095 6086 0
-98 -6095 6086 0
-6101 6092 424 0
-6102 6093 425 0
-6103 6094 426 0
-6104 427 6095 0
-109 6092 -6101 0
-6093 -109 6102 0
-6102 -109 6092 6093 0
6092 -110 -6101 0
-6101 -110 6094 0
-110 -6103 6094 6092 0
-111 6092 -6101 0
-111 6092 6095 -6104 0
-112 6092 -6101 0
-113 6092 -6101 0
-114 6092 -6101 0
-115 6092 -6101 0
-116 6092 -6101 0
-6102 -118 6095 0
-6104 6093 -118 6095 0
-6103 6094 -124 0
-6103 -124 6095 0
-125 -6103 6094 0
-126 -6103 6094 0
-127 -6103 6094 0
-128 -6103 6094 0
-129 -6103 6094 0
-130 -6104 6095 0
-131 -6104 6095 0
-132 -6104 6095 0
-133 -6104 6095 0
-134 -6104 6095 0
-6110 6101 433 0
-6111 6102 434 0
-6112 6103 435 0
-6113 436 6104 0
-6110 -145 6101 0
-6111 -145 6101 6102 0
-6110 -146 6101 0
-6110 -146 6103 0
6101 -146 -6112 6103 0
-6110 -147 6101 0
6101 -147 6104 -6113 0
-148 6101 -6110 0
-149 -6110 6101 0
-150 -6110 6101 0
-151 6101 -6110 0
-152 -6110 6101 0
-6111 -154 6104 0
-6112 -160 6103 0
-6112 -160 6104 0
-161 -6112 6103 0
-162 -6112 6103 0
-163 -6112 6103 0
-164 -6112 6103 0
-165 -6112 6103 0
-166 -6113 6104 0
-167 -6113 6104 0
-168 -6113 6104 0
-169 -6113 6104 0
-170 -6113 6104 0
-6119 6110 442 0
-6120 6111 443 0
-6121 6112 444 0
-6122 445 6113 0
-181 -6119 6110 0
-6120 -181 6110 6111 0
-182 -6119 6110 0
-182 6110 -6121 6112 0
-183 -6119 6110 0
-183 -6122 6110 6113 0
-184 -6119 6110 0
-185 -6119 6110 0
-186 -6119 6110 0
-187 -6119 6110 0
-188 -6119 6110 0
-6120 -190 6113 0
-6121 -196 6112 0
-6121 -196 6113 0
-197 -6121 6112 0
-198 -6121 6112 0
-199 -6121 6112 0
-6121 6112 -200 0
-201 -6121 6112 0
-202 -6122 6113 0
-203 -6122 6113 0
-204 -6122 6113 0
-205 -6122 6113 0
-206 -6122 6113 0
-6128 6119 451 0
-6129 6120 452 0
-6130 6121 453 0
-6131 454 6122 0
-217 6119 -6128 0
-6129 6119 6120 -217 0
6119 -218 -6128 0
-6119 -218 6130 0
-218 -6130 6119 6121 0
-219 6119 -6128 0
-219 6122 6119 -6131 0
-220 6119 -6128 0
-221 6119 -6128 0
-222 6119 -6128 0
-223 6119 -6128 0
-224 6119 -6128 0
-6129 -226 6122 0
-6130 -232 6121 0
-6130 -232 6122 0
-233 -6130 6121 0
-6130 6121 -234 0
-235 -6130 6121 0
-236 -6130 6121 0
-237 -6130 6121 0
-238 -6131 6122 0
-239 -6131 6122 0
-240 -6131 6122 0
-241 -6131 6122 0
-242 -6131 6122 0
-6137 6128 460 0
-6138 6129 461 0
-6139 6130 462 0
-6140 463 6131 0
-253 6128 -6137 0
-253 6128 -6138 6129 0
-254 6128 -6137 0
6128 -254 -6139 6130 0
-255 6128 -6137 0
-255 6140 -6131 0
-255 -6140 6128 6131 0
-256 6128 -6137 0
-257 6128 -6137 0
-258 6128 -6137 0
-259 6128 -6137 0
-260 6128 -6137 0
-6138 -262 6131 0
6140 -6131 -262 0
-6139 6130 -268 0
-6139 6131 -268 0
6140 -6131 -268 0
-6139 6130 -269 0
-270 -6139 6130 0
-271 -6139 6130 0
-6139 6130 -272 0
-273 -6139 6130 0
-274 -6140 6131 0
-275 -6140 6131 0
-276 -6140 6131 0
-6140 -277 6131 0
-6140 6131 -278 0
-6146 6137 469 0
-6147 6138 470 0
-6148 471 6139 0
-6149 6140 472 0
-289 -6146 6137 0
-289 6137 6138 -6147 0
-6146 -290 6137 0
-290 6139 6137 -6148 0
-291 -6146 6137 0
-291 6140 6137 -6149 0
-292 -6146 6137 0
-293 -6146 6137 0
-294 -6146 6137 0
-295 -6146 6137 0
-6146 -296 6137 0
-6147 6140 -298 0
-6138 -6140 -298 6147 0
6149 -6140 -298 0
6139 -6148 -304 0
6140 -6148 -304 0
-305 6139 -6148 0
-306 6139 -6148 0
-307 6139 -6148 0
-308 6139 -6148 0
-309 6139 -6148 0
-310 -6149 6140 0
-311 -6149 6140 0
-312 -6149 6140 0
-313 -6149 6140 0
-6149 -314 6140 0
6146 478 -6155 0
6147 479 -6156 0
-6147 6156 479 0
6148 480 -6157 0
6149 481 -6158 0
-325 6146 -6155 0
-6147 -325 6156 0
6147 6146 -6156 -325 0
-6155 6146 -326 0
6148 -326 -6157 6146 0
-327 6146 -6155 0
6149 6146 -6158 -327 0
-328 -6155 6146 0
-329 6146 -6155 0
-330 6146 -6155 0
-331 6146 -6155 0
-332 6146 -6155 0
-6147 -6148 -333 6156 0
-334 6149 -6156 0
-6147 -334 -6149 6156 0
6147 -334 6149 -6158 0
-340 6149 -6157 0
-341 6148 -6157 0
-342 6148 -6157 0
-343 6148 -6157 0
-344 6148 -6157 0
-345 6148 -6157 0
-346 6149 -6158 0
6150 -346 -6158 0
-347 6149 -6158 0
-348 6149 -6158 0
6149 -349 -6158 0
-350 6149 -6158 0
489 6157 -6166 0
490 6158 -6167 0
-361 -6155 6165 0
-361 -6156 6165 0
6155 -362 6157 -6166 0
-363 6155 6158 -6167 0
-6157 -369 -6156 6165 0
-6158 -6156 -370 6165 0
6156 6158 -370 -6167 0
6157 -376 -6166 0
-376 6158 -6166 0
-377 6157 -6166 0
-378 6157 -6166 0
-379 6157 -6166 0
-380 6157 -6166 0
-381 6157 -6166 0
-382 6158 -6167 0
-383 6158 -6167 0
-384 6158 -6167 0
-385 6158 -6167 0
-386 6158 -6167 0
6173 0
-6272 0
6174 0
6273 0
6175 0
6274 0
-6176 0
6275 0
6177 0
6178 0
6179 0
6180 0
6181 0
6182 397 -6173 0
6183 398 -6174 0
6184 399 -6175 0
-6185 400 6176 0
6186 401 -6177 0
6187 402 -6178 0
6188 403 -6179 0
6189 404 -6180 0
6190 405 -6181 0
6182 -1 -6173 -6174 0
-1 6183 -6174 0
6182 -2 -6173 -6175 0
-2 6184 -6175 0
-3 -6182 6176 0
6185 -3 -6173 0
6182 -4 -6173 -6177 0
-4 6186 -6177 0
6182 -5 -6173 -6178 0
-5 6187 -6178 0
6182 -6 -6173 -6179 0
-6 6188 -6179 0
6182 -7 -6173 -6180 0
6189 -7 -6180 0
6182 -8 -6173 -6181 0
6190 -8 -6181 0
6183 -9 -6174 -6175 0
6184 -9 -6175 0
-6183 -10 6176 0
6185 -10 -6174 0
6183 -11 -6174 -6177 0
6186 -11 -6177 0
6183 -12 -6174 -6178 0
6187 -12 -6178 0
6183 -13 -6174 -6179 0
6188 -13 -6179 0
6183 -14 -6174 -6180 0
6189 -14 -6180 0
6183 -15 -6174 -6181 0
6190 -15 -6181 0
-6184 -16 6176 0
6185 -16 -6175 0
6184 -17 -6175 -6177 0
6186 -17 -6177 0
6184 -18 -6175 -6178 0
6187 -18 -6178 0
6184 -19 -6175 -6179 0
6188 -19 -6179 0
6184 -20 -6175 -6180 0
6189 -20 -6180 0
-21 6184 -6175 -6181 0
-21 6190 -6181 0
-22 -6185 6176 0
-22 6186 -6177 0
-23 -6185 6176 0
-23 6187 -6178 0
-24 -6185 6176 0
-24 6188 -6179 0
-25 -6185 6176 0
-25 6189 -6180 0
-26 -6185 6176 0
-26 6190 -6181 0
-27 6186 -6177 -6178 0
-27 6187 -6178 0
6186 -28 -6177 -6179 0
-28 6188 -6179 0
6186 -29 -6177 -6180 0
-29 6189 -6180 0
-30 6186 -6177 -6181 0
-30 6190 -6181 0
6187 -31 -6178 -6179 0
-31 6188 -6179 0
6187 -32 -6178 -6180 0
6189 -32 -6180 0
-33 6187 -6178 -6181 0
-33 6190 -6181 0
6188 -34 -6179 -6180 0
6189 -34 -6180 0
6188 -35 -6179 -6181 0
6190 -35 -6181 0
-36 6189 -6180 -6181 0
-36 6190 -6181 0
-6191 406 6182 0
6191 406 -6182 0
407 -6192 6183 0
407 6192 -6183 0
408 -6193 6184 0
408 6193 -6184 0
409 -6194 6185 0
6195 410 -6186 0
6196 411 -6187 0
6197 412 -6188 0
6198 413 -6189 0
6199 414 -6190 0
-37 6192 -6183 0
-38 6193 -6184 0
-6191 -39 6185 0
-40 6191 -6186 -6182 0
-40 6195 -6186 0
-41 6191 -6187 -6182 0
-41 6196 -6187 0
-42 6197 -6188 0
-43 6198 -6189 0
6191 -44 -6190 -6182 0
6199 -44 -6190 0
-45 -6192 6183 0
-45 6192 -6184 -6183 0
-45 6193 -6184 0
-46 -6192 6183 0
-6192 -46 6185 0
-46 6194 -6183 0
-47 -6192 6183 0
-47 6192 -6186 -6183 0
-47 6195 -6183 0
-48 -6192 6183 0
-48 6192 -6187 -6183 0
-48 6196 -6183 0
-49 -6192 6183 0
-49 6192 -6188 -6183 0
-49 6197 -6183 0
-50 -6192 6183 0
-50 6192 -6189 -6183 0
-50 6198 -6183 0
-51 -6192 6183 0
-51 6192 -6190 -6183 0
-51 6199 -6183 0
-52 -6193 6184 0
-52 -6193 6185 0
-52 6193 -6185 -6184 0
-53 -6193 6184 0
-53 6193 -6186 -6184 0
6195 -53 -6184 0
-54 -6193 6184 0
-54 6193 -6187 -6184 0
6196 -54 -6184 0
-55 -6193 6184 0
-55 6193 -6188 -6184 0
6197 -55 -6184 0
-56 -6193 6184 0
-56 6193 -6189 -6184 0
6198 -56 -6184 0
-57 -6193 6184 0
-57 6193 -6190 -6184 0
-57 6199 -6184 0
-58 -6194 6185 0
6195 -58 -6186 0
-59 -6194 6185 0
-59 6196 -6187 0
-60 -6194 6185 0
-60 6197 -6188 0
-61 -6194 6185 0
6198 -61 -6189 0
-62 -6194 6185 0
-62 6199 -6190 0
-63 6195 -6186 -6187 0
-63 6196 -6186 0
-64 6195 -6188 -6186 0
-64 6197 -6186 0
-65 6195 -6186 -6189 0
-65 6198 -6189 0
-66 6195 -6190 -6186 0
-66 6199 -6186 0
-67 6196 -6188 -6187 0
-67 6197 -6187 0
-68 6196 -6187 -6189 0
-68 6198 -6187 0
-69 6196 -6190 -6187 0
-69 6199 -6187 0
-70 6197 -6188 -6189 0
-70 6198 -6188 0
-71 6197 -6190 -6188 0
-71 6199 -6188 0
-72 6198 -6190 -6189 0
-72 6199 -6189 0
6191 -6200 415 0
6200 415 -6191 0
416 6192 -6201 0
416 6201 -6192 0
417 6193 -6202 0
417 -6193 6202 0
418 6194 -6203 0
6204 419 -6195 0
6205 420 -6196 0
6206 421 -6197 0
6207 422 -6198 0
6208 423 -6199 0
-73 6191 -6200 0
-73 6200 -6192 -6191 0
-73 -6191 6201 0
-73 6201 -6192 0
-74 6191 -6200 0
-74 6200 -6191 -6193 0
-74 -6191 6202 0
6191 -6200 -75 0
-6200 -75 6194 0
-75 -6191 6203 0
-76 6191 -6200 0
-76 -6195 6200 -6191 0
-77 6191 -6200 0
-77 -6196 6200 -6191 0
-78 6191 -6200 0
-78 6200 -6197 -6191 0
-79 6191 -6200 0
-79 -6198 6200 -6191 0
-80 6191 -6200 0
-80 6200 -6199 -6191 0
6192 -81 -6201 0
6193 -81 -6201 0
-6192 6201 -81 -6193 0
-6192 -81 6202 0
-81 -6193 6202 0
6192 -82 -6201 0
6194 -82 -6201 0
6201 -6192 -6194 -82 0
-82 -6192 6203 0
6192 -82 6194 -6203 0
-83 6192 -6201 0
-83 -6195 6201 -6192 0
6204 -83 -6192 0
-84 6192 -6201 0
-84 -6196 6201 -6192 0
-85 6192 -6201 0
-85 -6197 6201 -6192 0
6206 -85 -6192 0
-86 6192 -6201 0
-86 -6198 6201 -6192 0
-87 6192 -6201 0
-87 -6199 6201 -6192 0
-88 6193 -6202 0
6194 -88 -6202 0
6203 -6193 -88 0
-89 6193 -6202 0
-89 -6195 -6193 6202 0
-89 6204 -6193 0
-90 6193 -6202 0
-90 -6196 -6193 6202 0
-91 6193 -6202 0
-91 -6197 -6193 6202 0
-91 6206 -6193 0
-92 6193 -6202 0
-92 -6198 -6193 6202 0
-93 6193 -6202 0
-93 -6199 -6193 6202 0
-94 6194 -6203 0
-95 6194 -6203 0
-96 6194 -6203 0
-97 6194 -6203 0
-98 6194 -6203 0
-99 6204 -6195 -6196 0
-100 6204 -6197 -6195 0
-100 6206 -6195 0
-101 6204 -6195 -6198 0
-102 6204 -6195 -6199 0
-103 6206 -6196 0
-106 6206 -6197 -6198 0
-107 6206 -6197 -6199 0
6200 -6209 424 0
6209 -6200 424 0
425 6201 -6210 0
425 -6201 6210 0
426 6202 -6211 0
426 6211 -6202 0
-6212 427 6203 0
6200 -109 -6209 0
-109 -6209 6201 0
-109 6209 -6201 -6200 0
-109 -6201 6210 0
6200 -109 6201 -6210 0
6200 -110 -6209 0
-110 -6209 6202 0
6209 -110 -6202 -6200 0
6200 -111 -6209 0
-111 -6209 6203 0
-112 6200 -6209 0
-112 -6204 6209 -6200 0
-113 6200 -6209 0
-114 6200 -6209 0
-114 -6206 6209 -6200 0
-115 6200 -6209 0
6200 -116 -6209 0
-117 6201 -6210 0
-117 6202 -6210 0
-117 6210 -6202 -6201 0
-118 6201 -6210 0
-118 -6210 6203 0
-118 6210 -6203 -6201 0
-118 -6201 6212 0
-118 6201 6203 -6212 0
-119 6201 -6210 0
-119 -6204 -6201 6210 0
-120 6201 -6210 0
-120 -6205 -6201 6210 0
-121 6201 -6210 0
-121 -6206 -6201 6210 0
-122 6201 -6210 0
-122 -6207 -6201 6210 0
-123 6201 -6210 0
-123 -6208 -6201 6210 0
-6211 -124 6202 0
-6211 -124 6203 0
-124 6212 -6202 0
-125 6202 -6211 0
-126 6202 -6211 0
-127 6202 -6211 0
-128 6202 -6211 0
-129 6202 -6211 0
-130 6203 -6212 0
-131 6203 -6212 0
-132 -6212 6203 0
-133 -6212 6203 0
-134 -6212 6203 0
-6218 6209 433 0
6218 -6209 433 0
434 6210 -6219 0
434 6219 -6210 0
435 6211 -6220 0
435 6220 -6211 0
436 -6221 6212 0
-145 -6218 6209 0
-6218 -145 6210 0
-145 6218 -6210 -6209 0
-145 6219 -6210 0
-145 6210 6209 -6219 0
-6218 6209 -146 0
-6218 -146 6211 0
-6209 -146 6220 0
6209 -146 6211 -6220 0
-6218 6209 -147 0
-6218 -147 6212 0
-147 -6209 -6212 6218 0
6209 -147 -6221 6212 0
-148 -6218 6209 0
-149 -6218 6209 0
-150 -6218 6209 0
-151 -6218 6209 0
-152 -6218 6209 0
-153 6210 -6219 0
-153 6211 -6219 0
-153 6219 -6211 -6210 0
-153 -6210 6220 0
-153 6210 -6220 6211 0
-154 6210 -6219 0
-154 6212 -6219 0
-6212 6219 -6210 -154 0
-154 -6210 6221 0
6210 -154 6212 -6221 0
-155 6210 -6219 0
-6213 -155 -6210 6219 0
-156 6210 -6219 0
-6214 -6210 -156 6219 0
-157 6210 -6219 0
-6215 -157 -6210 6219 0
-158 6210 -6219 0
-6216 -158 -6210 6219 0
-159 6210 -6219 0
-6217 -159 -6210 6219 0
-160 6211 -6220 0
-160 -6220 6212 0
-160 6211 6212 -6221 0
-161 6211 -6220 0
-162 6211 -6220 0
-163 6211 -6220 0
-164 6211 -6220 0
-165 6211 -6220 0
-166 -6221 6212 0
-167 -6221 6212 0
-168 6212 -6221 0
-169 6212 -6221 0
-170 -6221 6212 0
-6227 6218 442 0
6227 -6218 442 0
443 6219 -6228 0
444 6220 -6229 0
444 -6220 6229 0
445 -6230 6221 0
-181 -6227 6218 0
-181 -6227 6219 0
-181 6228 -6219 0
-181 6218 6219 -6228 0
-6227 -182 6218 0
-6227 -182 6220 0
-182 6218 6220 -6229 0
-183 -6227 6218 0
-183 -6227 6221 0
-183 6218 6221 -6230 0
-184 -6227 6218 0
-185 -6227 6218 0
-186 -6227 6218 0
-187 -6227 6218 0
-188 -6227 6218 0
-189 6219 -6228 0
-189 6220 -6228 0
-189 6228 -6220 -6219 0
-189 -6219 6229 0
6219 -190 -6228 0
-190 6221 -6228 0
-190 -6219 6230 0
6219 -190 -6230 6221 0
-191 6219 -6228 0
-192 6219 -6228 0
-193 6219 -6228 0
-194 6219 -6228 0
-195 6219 -6228 0
-196 6220 -6229 0
-196 -6229 6221 0
-196 -6220 6230 0
-196 6220 -6230 6221 0
-197 6220 -6229 0
-198 6220 -6229 0
-199 6220 -6229 0
-200 6220 -6229 0
-201 6220 -6229 0
-202 6221 -6230 0
-203 -6230 6221 0
-204 6221 -6230 0
-205 -6230 6221 0
-206 -6230 6221 0
-6236 6227 451 0
6236 -6227 451 0
452 6228 -6237 0
453 6229 -6238 0
453 -6229 6238 0
454 6230 -6239 0
-217 6227 -6236 0
-217 -6236 6228 0
-6227 -217 6237 0
-217 -6228 6237 0
6227 -217 6228 -6237 0
-6236 -218 6227 0
-6236 -218 6229 0
-6227 -218 6238 0
6227 -218 6229 -6238 0
6227 -219 -6236 0
-219 -6236 6230 0
-219 -6227 6239 0
-219 6227 6230 -6239 0
-220 6227 -6236 0
-221 6227 -6236 0
-222 6227 -6236 0
-223 6227 -6236 0
-224 6227 -6236 0
-225 6228 -6237 0
-225 -6237 6229 0
-225 -6228 6238 0
-226 6228 -6237 0
-226 6230 -6237 0
-226 -6228 6239 0
-226 6228 -6239 6230 0
-227 6228 -6237 0
-228 6228 -6237 0
-229 6228 -6237 0
-230 6228 -6237 0
-231 6228 -6237 0
-232 -6238 6229 0
-232 6230 -6238 0
-232 -6229 6239 0
-232 6230 6229 -6239 0
-233 6229 -6238 0
-234 6229 -6238 0
-235 6229 -6238 0
-236 6229 -6238 0
-237 6229 -6238 0
-238 6230 -6239 0
-239 6230 -6239 0
-240 6230 -6239 0
-241 6230 -6239 0
-242 6230 -6239 0
6236 -6245 460 0
6245 -6236 460 0
461 6237 -6246 0
461 -6237 6246 0
462 6238 -6247 0
462 6247 -6238 0
463 6239 -6248 0
-253 6236 -6245 0
-253 -6245 6237 0
-253 6245 -6237 -6236 0
-6236 -253 6246 0
-253 6236 6237 -6246 0
6236 -254 -6245 0
-254 -6245 6238 0
-6236 -254 6245 -6238 0
-6236 -254 6247 0
6236 -254 6238 -6247 0
-255 6236 -6245 0
6239 -255 -6245 0
-255 -6236 6248 0
6239 -255 6236 -6248 0
-256 6236 -6245 0
-257 6236 -6245 0
-258 6236 -6245 0
-259 6236 -6245 0
-260 6236 -6245 0
6237 -261 -6246 0
-6246 -261 6238 0
-261 6246 -6238 -6237 0
6237 -262 -6246 0
-262 -6246 6239 0
-262 6246 -6239 -6237 0
-262 -6237 6248 0
6237 -262 6239 -6248 0
-263 -6246 6237 0
-6240 -263 6246 -6237 0
-264 -6246 6237 0
-6241 -264 -6237 6246 0
-265 -6246 6237 0
-6242 -265 -6237 6246 0
-266 -6246 6237 0
-6243 -266 -6237 6246 0
-267 -6246 6237 0
-6244 -267 -6237 6246 0
-268 6238 -6247 0
-268 6239 -6247 0
-268 6248 -6238 0
-268 6239 6238 -6248 0
-269 6238 -6247 0
-270 6238 -6247 0
-271 6238 -6247 0
-272 6238 -6247 0
-273 6238 -6247 0
-274 6239 -6248 0
-275 6239 -6248 0
-276 6239 -6248 0
-277 6239 -6248 0
-278 6239 -6248 0
6245 -6254 469 0
-6245 469 6254 0
470 -6255 6246 0
471 6247 -6256 0
471 6256 -6247 0
472 -6257 6248 0
6257 472 -6248 0
-289 6245 -6254 0
-289 -6254 6246 0
-289 -6245 6255 0
-289 6245 6246 -6255 0
6245 -290 -6254 0
-290 6247 -6254 0
-290 -6245 6256 0
-290 6245 6247 -6256 0
-291 6245 -6254 0
-291 6248 -6254 0
-291 -6245 -6248 6254 0
-291 -6245 6257 0
-291 6245 -6257 6248 0
-292 6245 -6254 0
-293 6245 -6254 0
-294 6245 -6254 0
-295 6245 -6254 0
-296 6245 -6254 0
-297 -6255 6246 0
-6255 -297 6247 0
-297 -6246 6256 0
-297 6247 6246 -6256 0
-298 -6255 6246 0
6248 -298 -6255 0
-298 6257 -6246 0
6248 -298 6246 -6257 0
-299 -6255 6246 0
-300 -6255 6246 0
-301 -6255 6246 0
-302 -6255 6246 0
-303 -6255 6246 0
-304 6247 -6256 0
-304 -6256 6248 0
6247 -304 -6257 6248 0
-305 6247 -6256 0
-306 6247 -6256 0
-307 6247 -6256 0
-308 6247 -6256 0
-309 6247 -6256 0
-310 6248 -6257 0
-311 6248 -6257 0
-312 6248 -6257 0
-313 6248 -6257 0
-314 6248 -6257 0
6254 478 -6263 0
-6254 6263 478 0
6255 479 -6264 0
480 -6265 6256 0
6257 481 -6266 0
6254 -325 -6263 0
-325 6255 -6263 0
-6254 -325 -6255 6263 0
-6254 -325 6264 0
6254 -325 6255 -6264 0
6254 -326 -6263 0
-6254 -326 -6256 6263 0
-326 -6254 6265 0
6254 -326 6256 -6265 0
6254 -327 -6263 0
6257 -327 -6263 0
-327 -6254 -6257 6263 0
6257 -327 6254 -6266 0
-328 6254 -6263 0
-329 6254 -6263 0
-330 6254 -6263 0
6254 -331 -6263 0
-331 -6261 -6254 6263 0
-332 6254 -6263 0
-333 6255 -6264 0
-333 6256 -6264 0
-333 -6255 6265 0
-333 6255 -6265 6256 0
-334 6255 -6264 0
-334 6257 -6264 0
-334 6255 -6266 6257 0
-335 6255 -6264 0
-336 6255 -6264 0
-337 6255 -6264 0
-338 6255 -6264 0
-339 6255 -6264 0
-340 -6265 6256 0
-340 6257 -6265 0
-340 6256 -6266 6257 0
-341 -6265 6256 0
-342 -6265 6256 0
-343 -6265 6256 0
-344 -6265 6256 0
-345 -6265 6256 0
-346 6257 -6266 0
-347 6257 -6266 0
-348 6257 -6266 0
-349 6257 -6266 0
6261 -349 -6266 0
-350 6257 -6266 0
487 -6263 6272 0
6264 488 -6273 0
6265 489 -6274 0
6266 490 -6275 0
6263 -361 6264 -6273 0
6263 6265 -362 -6274 0
-363 -6263 -6266 6272 0
6263 -363 6266 -6275 0
6264 -369 -6273 0
-369 6265 -6273 0
6264 -370 -6273 0
6266 -370 -6273 0
6264 -371 -6273 0
6264 -372 -6273 0
-373 6264 -6273 0
-374 6264 -6273 0
6264 -375 -6273 0
-376 6265 -6274 0
-376 6266 -6274 0
-377 6265 -6274 0
6265 -378 -6274 0
6265 -379 -6274 0
6265 -380 -6274 0
6265 -381 -6274 0
-382 6266 -6275 0
6266 -383 -6275 0
6266 -384 -6275 0
6266 -385 -6275 0
-386 6266 -6275 0
6389 0
-6488 0
-6489 0
6392 0
6393 0
6394 0
6395 0
6396 0
6397 0
6398 397 -6389 0
6401 400 -6392 0
6398 -3 -6389 -6392 0
6398 -4 -6389 -6393 0
6398 -5 -6389 -6394 0
6398 -6 -6389 -6395 0
6398 -7 -6389 -6396 0
6398 -8 -6389 -6397 0
6407 406 -6398 0
6410 409 -6401 0
6407 -39 -6401 -6398 0
6416 415 -6407 0
6419 418 -6410 0
6416 -75 -6410 -6407 0
6425 -6416 424 0
6428 427 -6419 0
6425 -111 -6419 -6416 0
6434 -6425 433 0
6437 436 -6428 0
6434 -147 -6428 -6425 0
6443 -6434 442 0
6446 445 -6437 0
-183 6443 -6434 -6437 0
6452 -6443 451 0
6455 454 -6446 0
6461 -6452 460 0
6461 -255 -6452 -6455 0
-6461 469 6470 0
-6470 6479 478 0
487 -6479 6488 0
-361 -6479 6489 0
-6605 0
-6606 0
-6705 0
-6614 397 6605 0
-6615 -12 6606 0
-6623 406 6614 0
-6702 -6696 -374 6705 0
6713 0
-6812 0
6716 0
6722 397 -6713 0
6725 400 -6716 0
6731 406 -6722 0
6734 409 -6725 0
6731 -39 -6725 -6722 0
6740 415 -6731 0
6743 418 -6734 0
6749 -6740 424 0
6752 427 -6743 0
6758 -6749 433 0
6761 436 -6752 0
6767 -6758 442 0
6770 445 -6761 0
6776 -6767 451 0
6779 454 -6770 0
6785 -6776 460 0
-6778 6787 462 0
6788 463 -6779 0
-6785 469 6794 0
-6787 6796 471 0
6797 -6788 472 0
-6794 6803 478 0
-6796 -6794 6803 -326 0
-6797 -327 6803 -6794 0
487 -6803 6812 0
-6821 0
-6920 0
6822 0
6921 0
6823 0
6824 0
-6830 397 6821 0
-6839 406 6830 0
-6848 415 6839 0
-6857 6848 424 0
-6866 6857 433 0
-6875 6866 442 0
-6884 6875 451 0
-6893 6884 460 0
-6902 6893 469 0
478 6902 -6911 0
-325 6902 -6911 0
-326 6902 -6911 0
-327 6902 -6911 0
-328 6902 -6911 0
-329 6902 -6911 0
-330 6902 -6911 0
-331 6902 -6911 0
-332 6902 -6911 0
-6911 -361 -6912 6920 0
-6911 -363 -6914 6920 0
6912 -369 -6921 0
-369 6913 -6921 0
6912 -370 -6921 0
6914 -370 -6921 0
-1 9762 6065 0
-2 9762 6065 0
-3 9762 6068 0
-4 9762 6065 0
-5 9762 6065 0
-6 9762 6065 0
9762 -7 6065 0
-8 9762 6065 0
-9 -9762 -6066 -6067 0
9762 -10 6068 0
-11 -9762 -6066 -6069 0
-12 -9762 -6066 -6070 0
-13 -9762 -6066 -6071 0
-14 -9762 -6066 -6072 0
-15 -9762 -6066 -6073 0
-16 9762 6068 0
-22 9762 6068 0
-23 9762 6068 0
-24 9762 6068 0
-25 9762 6068 0
-26 9762 6068 0
-37 9763 6074 0
-38 9763 6074 0
-39 9763 6074 0
-40 9763 6074 0
-41 9763 6074 0
-42 9763 6074 0
-43 9763 6074 0
-44 9763 6074 0
-45 9763 6075 0
-45 9763 6076 0
9763 -46 6075 0
9763 -46 6077 0
-47 9763 6075 0
-48 9763 6075 0
-49 9763 6075 0
-50 9763 6075 0
-51 9763 6075 0
9763 -52 6076 0
9763 -52 6077 0
-53 9763 6076 0
-53 9763 6078 0
-54 9763 6076 0
6079 -54 9763 0
-55 9763 6076 0
-55 9763 6080 0
-56 9763 6076 0
-56 9763 6081 0
-57 9763 6076 0
-57 9763 6082 0
-58 9763 6077 0
-59 9763 6077 0
-60 9763 6077 0
9763 -61 6077 0
-62 9763 6077 0
-73 6083 9764 0
-74 6083 9764 0
-74 6085 9764 0
-75 6083 9764 0
-76 6083 9764 0
-77 6083 9764 0
-78 6083 9764 0
-79 6083 9764 0
-80 6083 9764 0
6084 9764 -81 0
6085 9764 -81 0
6084 9764 -82 0
9764 -82 6086 0
-83 6084 9764 0
-84 6084 9764 0
-85 6084 9764 0
-86 6084 9764 0
-87 6084 9764 0
6085 9764 -88 0
6086 9764 -88 0
-89 6085 9764 0
-90 6085 9764 0
-91 6085 9764 0
-92 6085 9764 0
-93 6085 9764 0
-94 6086 9764 0
-95 6086 9764 0
-96 6086 9764 0
-97 6086 9764 0
-98 6086 9764 0
-109 6092 9765 0
-110 6092 9765 0
-110 6094 9765 0
-111 6092 9765 0
-111 6095 9765 0
-112 6092 9765 0
-113 6092 9765 0
-114 6092 9765 0
-115 6092 9765 0
-116 6092 9765 0
-117 6093 9765 0
-117 6094 9765 0
6093 -118 9765 0
9765 -118 6095 0
-119 6093 9765 0
-120 6093 9765 0
-121 6093 9765 0
-122 6093 9765 0
-123 6093 9765 0
6094 9765 -124 0
9765 -124 6095 0
-125 6094 9765 0
-126 6094 9765 0
-127 6094 9765 0
-128 6094 9765 0
-129 6094 9765 0
-130 6095 9765 0
-131 6095 9765 0
-132 6095 9765 0
-133 6095 9765 0
-134 6095 9765 0
-145 6101 9766 0
-146 6101 9766 0
-146 6103 9766 0
-147 6101 9766 0
-148 6101 9766 0
-149 6101 9766 0
-150 6101 9766 0
-151 6101 9766 0
-152 6101 9766 0
-153 6102 9766 0
6103 -153 9766 0
6102 -154 9766 0
9766 -154 6104 0
-155 6102 9766 0
6102 9766 -156 0
-157 6102 9766 0
-158 6102 9766 0
-159 6102 9766 0
-160 6103 9766 0
-160 9766 6104 0
-161 6103 9766 0
-162 6103 9766 0
-163 6103 9766 0
-164 6103 9766 0
-165 6103 9766 0
-166 9766 6104 0
-167 9766 6104 0
-168 9766 6104 0
-169 9766 6104 0
-170 9766 6104 0
-181 6110 9767 0
-182 6110 9767 0
-182 6112 9767 0
-183 6110 9767 0
-184 6110 9767 0
-185 6110 9767 0
-186 6110 9767 0
-187 6110 9767 0
-188 6110 9767 0
-189 6111 9767 0
-189 6112 9767 0
6111 9767 -190 0
9767 -190 6113 0
-191 6111 9767 0
-192 6111 9767 0
-193 6111 9767 0
-194 6111 9767 0
-195 6111 9767 0
-196 6112 9767 0
6113 -196 9767 0
-197 6112 9767 0
-198 6112 9767 0
-199 6112 9767 0
6112 9767 -200 0
-201 6112 9767 0
-202 6113 9767 0
-203 6113 9767 0
-204 6113 9767 0
-205 6113 9767 0
-206 6113 9767 0
-217 6119 9768 0
-218 6119 9768 0
-218 6121 9768 0
-219 6119 9768 0
-219 6122 9768 0
-220 6119 9768 0
-221 6119 9768 0
-222 6119 9768 0
-223 6119 9768 0
-224 6119 9768 0
-225 6120 9768 0
6121 -225 9768 0
6120 -226 9768 0
9768 -226 6122 0
-227 6120 9768 0
-228 6120 9768 0
-229 6120 9768 0
-230 6120 9768 0
-231 6120 9768 0
-232 6121 9768 0
6122 -232 9768 0
-233 6121 9768 0
6121 9768 -234 0
-235 6121 9768 0
-236 6121 9768 0
-237 6121 9768 0
-238 6122 9768 0
-239 6122 9768 0
-240 6122 9768 0
-241 6122 9768 0
-242 6122 9768 0
-253 6128 9769 0
-254 6128 9769 0
-254 6130 9769 0
-255 6128 9769 0
-255 6131 9769 0
-256 6128 9769 0
-257 6128 9769 0
-258 6128 9769 0
-259 6128 9769 0
-260 6128 9769 0
9769 6129 -261 0
6130 9769 -261 0
9769 6129 -262 0
9769 -262 6131 0
9769 6129 -263 0
-264 9769 6129 0
-265 9769 6129 0
-266 9769 6129 0
-267 9769 6129 0
6130 9769 -268 0
9769 6131 -268 0
6130 9769 -269 0
-270 6130 9769 0
-271 6130 9769 0
6130 9769 -272 0
-273 6130 9769 0
-274 9769 6131 0
-275 6131 9769 0
-276 9769 6131 0
-277 9769 6131 0
9769 6131 -278 0
-289 6137 9770 0
-290 6137 9770 0
-290 6139 9770 0
-291 6137 9770 0
-291 6140 9770 0
-292 6137 9770 0
-293 6137 9770 0
-294 6137 9770 0
-295 6137 9770 0
-296 6137 9770 0
9770 6138 -297 0
6139 9770 -297 0
6138 -298 9770 0
6140 -298 9770 0
-299 6138 9770 0
-300 6138 9770 0
-301 6138 9770 0
-302 6138 9770 0
-303 6138 9770 0
6139 9770 -304 0
6140 9770 -304 0
-305 6139 9770 0
-306 6139 9770 0
-307 6139 9770 0
-308 6139 9770 0
-309 6139 9770 0
-310 6140 9770 0
-311 6140 9770 0
-312 6140 9770 0
-313 6140 9770 0
-314 6140 9770 0
9771 -325 6146 0
9771 6146 -326 0
9771 6148 -326 0
-327 9771 6146 0
6149 -327 9771 0
-328 9771 6146 0
-329 9771 6146 0
-330 9771 6146 0
-331 9771 6146 0
-332 9771 6146 0
6147 9771 -333 0
9771 -333 6148 0
6147 -334 9771 0
-334 6149 9771 0
-335 9771 6147 0
-336 9771 6147 0
-337 9771 6147 0
-338 9771 6147 0
-339 9771 6147 0
-340 6148 9771 0
-340 6149 9771 0
-341 6148 9771 0
-342 6148 9771 0
-343 6148 9771 0
-344 6148 9771 0
-345 6148 9771 0
-346 6149 9771 0
-6150 -346 -6149 -9771 0
-347 6149 9771 0
-348 6149 9771 0
6149 -349 9771 0
-350 6149 9771 0
9772 -361 6155 0
9772 -361 6156 0
-362 9772 6155 0
9772 -362 6157 0
9772 6155 -363 0
9772 -363 6158 0
-364 9772 6155 0
-365 9772 6155 0
-366 9772 6155 0
-367 9772 6155 0
-368 9772 6155 0
9772 6156 -369 0
9772 -369 6157 0
9772 6156 -370 0
9772 6158 -370 0
9772 6156 -371 0
9772 6156 -372 0
9772 6156 -373 0
9772 6156 -374 0
9772 6156 -375 0
9773 -9762 0
9774 -9773 0
-9763 9775 -9773 0
-9775 9776 0
-9775 -9764 0
-9763 9774 0
9777 -9774 0
-9764 9776 -9774 0
-9776 9778 0
-9765 -9776 0
-9764 9777 0
9779 -9777 0
-9765 9778 -9777 0
-9778 9780 0
-9766 -9778 0
-9765 9779 0
9781 -9779 0
-9766 9780 -9779 0
-9780 9782 0
-9767 -9780 0
-9766 9781 0
9783 -9781 0
-9767 9782 -9781 0
-9782 9784 0
-9768 -9782 0
-9767 9783 0
9785 -9783 0
-9768 9784 -9783 0
-9784 9786 0
-9784 -9769 0
-9768 9785 0
9787 -9785 0
9786 -9769 -9785 0
-9786 9788 0
-9770 -9786 0
9787 -9769 0
9789 -9787 0
-9770 9788 -9787 0
-9788 9790 0
-9788 -9771 0
9789 -9770 0
9790 -9771 -9789 0
-9790 -9772 0
-9791 -1 -6173 -6174 0
-9791 -2 -6173 -6175 0
-3 9791 6176 0
-9791 -4 -6173 -6177 0
-9791 -5 -6173 -6178 0
-9791 -6 -6173 -6179 0
-9791 -7 -6173 -6180 0
-9791 -8 -6173 -6181 0
-10 9791 6176 0
-16 9791 6176 0
-17 -9791 -6175 -6177 0
-18 -9791 -6175 -6178 0
-19 -9791 -6175 -6179 0
-20 -9791 -6175 -6180 0
-21 -9791 -6175 -6181 0
-22 9791 6176 0
-23 9791 6176 0
-24 9791 6176 0
-25 9791 6176 0
-26 9791 6176 0
-27 -9791 -6177 -6178 0
-28 -9791 -6177 -6179 0
-29 -9791 -6177 -6180 0
-30 -9791 -6177 -6181 0
-31 -9791 -6178 -6179 0
-32 -9791 -6178 -6180 0
-33 -9791 -6178 -6181 0
-34 -9791 -6179 -6180 0
-35 -9791 -6179 -6181 0
-36 -9791 -6180 -6181 0
-37 9792 6182 0
-38 9792 6182 0
-38 -9792 -6184 -6182 0
-39 9792 6182 0
-39 9792 6185 0
-40 9792 6182 0
-40 -9792 -6186 -6182 0
-41 9792 6182 0
-41 -9792 -6187 -6182 0
-42 9792 6182 0
-42 -9792 -6188 -6182 0
-43 9792 6182 0
-43 -9792 -6189 -6182 0
-44 9792 6182 0
-44 -9792 -6182 -6190 0
-45 9792 6184 0
-46 9792 6183 0
-46 9792 6185 0
-9792 -46 -6185 -6183 0
-52 9792 6184 0
-52 9792 6185 0
-9792 -52 -6185 -6184 0
-58 9792 6185 0
-59 9792 6185 0
-60 9792 6185 0
9792 -61 6185 0
-62 9792 6185 0
-73 6191 9793 0
-73 -6192 -9793 -6191 0
-74 6191 9793 0
-74 6193 9793 0
-74 -6191 -6193 -9793 0
-75 6194 9793 0
-76 6191 9793 0
-76 -6195 -6191 -9793 0
-77 6191 9793 0
-77 -6196 -6191 -9793 0
-78 6191 9793 0
-78 -6197 -6191 -9793 0
-79 6191 9793 0
-79 -6198 -6191 -9793 0
-80 6191 9793 0
-80 -6199 -6191 -9793 0
6192 -81 9793 0
6193 -81 9793 0
-82 6192 9793 0
-82 6194 9793 0
-82 -6192 -6194 -9793 0
-83 6192 9793 0
-83 -6195 -9793 -6192 0
-84 6192 9793 0
-84 -6196 -9793 -6192 0
-85 6192 9793 0
-85 -6197 -9793 -6192 0
-86 6192 9793 0
-86 -6198 -9793 -6192 0
-87 6192 9793 0
-87 -6199 -9793 -6192 0
9793 -88 6193 0
6194 -88 9793 0
-89 6193 9793 0
-89 -6195 -9793 -6193 0
-90 6193 9793 0
-6196 -90 -6193 -9793 0
-91 6193 9793 0
-91 -6197 -6193 -9793 0
-92 6193 9793 0
-92 -6198 -6193 -9793 0
-93 6193 9793 0
-93 -6199 -6193 -9793 0
-94 9793 6194 0
-95 9793 6194 0
-96 6194 9793 0
-97 9793 6194 0
-98 6194 9793 0
-99 -6195 -9793 -6196 0
-100 -6195 -9793 -6197 0
-101 -6195 -9793 -6198 0
-102 -6195 -9793 -6199 0
-103 -6196 -9793 -6197 0
-104 -6196 -9793 -6198 0
-105 -6196 -9793 -6199 0
-106 -6197 -9793 -6198 0
-107 -6197 -9793 -6199 0
-108 -6198 -9793 -6199 0
-109 6201 9794 0
-110 6202 9794 0
-111 6203 9794 0
-117 6201 9794 0
-117 6202 9794 0
-118 6201 9794 0
-118 6203 9794 0
-119 6201 9794 0
-120 6201 9794 0
-121 6201 9794 0
-122 6201 9794 0
-123 6201 9794 0
-124 6202 9794 0
-124 6203 9794 0
-125 6202 9794 0
-126 6202 9794 0
-127 6202 9794 0
-128 6202 9794 0
-129 6202 9794 0
-130 6203 9794 0
-131 6203 9794 0
-132 6203 9794 0
-133 6203 9794 0
-134 6203 9794 0
-145 6209 9795 0
-145 6210 9795 0
6209 -146 9795 0
-146 6211 9795 0
6209 -147 9795 0
-147 6212 9795 0
-148 6209 9795 0
-149 6209 9795 0
-150 6209 9795 0
-151 6209 9795 0
-152 6209 9795 0
-153 6210 9795 0
-153 6211 9795 0
-154 6210 9795 0
-154 6212 9795 0
-154 -9795 -6212 -6210 0
-155 6210 9795 0
6213 -155 9795 0
-156 6210 9795 0
6214 -156 9795 0
-157 6210 9795 0
6215 -157 9795 0
-158 6210 9795 0
6216 -158 9795 0
-159 6210 9795 0
6217 -159 9795 0
-160 6211 9795 0
-160 6212 9795 0
-161 6211 9795 0
-162 6211 9795 0
-163 6211 9795 0
-164 6211 9795 0
-165 6211 9795 0
-166 6212 9795 0
-167 6212 9795 0
-168 9795 6212 0
-169 9795 6212 0
-170 6212 9795 0
-181 6218 9796 0
-181 6219 9796 0
-182 6218 9796 0
-182 6220 9796 0
-183 6218 9796 0
-183 6221 9796 0
-184 6218 9796 0
-185 6218 9796 0
-186 6218 9796 0
-187 6218 9796 0
-188 6218 9796 0
-189 6219 9796 0
-189 6220 9796 0
6219 -190 9796 0
-190 6221 9796 0
-190 -6219 -9796 -6221 0
-191 6219 9796 0
-192 6219 9796 0
-193 6219 9796 0
-194 6219 9796 0
-195 6219 9796 0
-196 9796 6220 0
-196 9796 6221 0
-197 6220 9796 0
-198 6220 9796 0
-199 6220 9796 0
-200 6220 9796 0
-201 6220 9796 0
-202 9796 6221 0
-203 6221 9796 0
-204 9796 6221 0
-205 6221 9796 0
-206 6221 9796 0
-217 6227 9797 0
-217 6228 9797 0
-218 6227 9797 0
-218 6229 9797 0
-219 6227 9797 0
-219 6230 9797 0
-220 6227 9797 0
-221 6227 9797 0
-222 6227 9797 0
-223 6227 9797 0
-224 6227 9797 0
-225 6228 9797 0
-225 6229 9797 0
-226 6228 9797 0
-226 6230 9797 0
-226 -9797 -6230 -6228 0
-227 6228 9797 0
-228 6228 9797 0
-229 6228 9797 0
-230 6228 9797 0
-231 6228 9797 0
-232 9797 6229 0
-232 9797 6230 0
-232 -9797 -6230 -6229 0
-233 9797 6229 0
9797 -234 6229 0
-235 9797 6229 0
-236 9797 6229 0
-237 9797 6229 0
-238 9797 6230 0
-239 9797 6230 0
-240 6230 9797 0
-241 6230 9797 0
-242 9797 6230 0
-253 6236 9798 0
-253 6237 9798 0
-254 6236 9798 0
-254 6238 9798 0
-255 6239 9798 0
-256 6236 9798 0
-257 6236 9798 0
-258 6236 9798 0
-259 6236 9798 0
-260 6236 9798 0
-261 6237 9798 0
-261 6238 9798 0
-261 -6237 -9798 -6238 0
-262 6237 9798 0
-262 6239 9798 0
-262 -6239 -9798 -6237 0
-263 6237 9798 0
6240 -263 9798 0
-264 6237 9798 0
6241 -264 9798 0
-265 6237 9798 0
6242 -265 9798 0
-266 6237 9798 0
6243 -266 9798 0
-267 6237 9798 0
6244 -267 9798 0
6238 -268 9798 0
-268 6239 9798 0
-9798 -268 -6239 -6238 0
9798 -269 6238 0
-270 9798 6238 0
-271 9798 6238 0
9798 -272 6238 0
-273 9798 6238 0
-274 9798 6239 0
-275 6239 9798 0
-276 9798 6239 0
-277 9798 6239 0
9798 -278 6239 0
-289 6245 9799 0
-289 9799 6246 0
-290 6245 9799 0
-290 6247 9799 0
-290 -6245 -6247 -9799 0
-291 6248 9799 0
-292 6245 9799 0
-293 6245 9799 0
-294 6245 9799 0
-295 6245 9799 0
-296 6245 9799 0
-297 9799 6246 0
-297 6247 9799 0
-9799 -297 -6247 -6246 0
-298 9799 6246 0
-298 6248 9799 0
-9799 -298 -6246 -6248 0
-299 9799 6246 0
-300 9799 6246 0
-301 9799 6246 0
-302 9799 6246 0
-303 9799 6246 0
-304 6247 9799 0
-304 6248 9799 0
-304 -9799 -6248 -6247 0
-305 9799 6247 0
-306 9799 6247 0
-307 6247 9799 0
-308 9799 6247 0
-309 6247 9799 0
-310 6248 9799 0
-311 6248 9799 0
-312 6248 9799 0
-313 6248 9799 0
-314 6248 9799 0
6254 -325 9800 0
-325 6255 9800 0
6254 -326 9800 0
-326 9800 6256 0
6254 -327 9800 0
6257 -327 9800 0
-328 6254 9800 0
-329 6254 9800 0
-330 6254 9800 0
6254 -331 9800 0
-332 6254 9800 0
-333 6255 9800 0
-333 9800 6256 0
-334 6255 9800 0
-334 6257 9800 0
-334 -9800 -6257 -6255 0
-335 6255 9800 0
-336 6255 9800 0
-337 6255 9800 0
-338 6255 9800 0
-339 6255 9800 0
-340 9800 6256 0
-340 6257 9800 0
-340 -9800 -6256 -6257 0
-341 9800 6256 0
-342 9800 6256 0
-343 9800 6256 0
-344 9800 6256 0
-345 9800 6256 0
-348 6257 9800 0
-6261 -349 -9800 -6257 0
-361 6263 9801 0
-361 6264 9801 0
6263 -362 9801 0
6265 -362 9801 0
-363 6263 9801 0
-363 6266 9801 0
-364 6263 9801 0
-365 6263 9801 0
-366 6263 9801 0
-367 6263 9801 0
-368 9801 6263 0
-9801 -6266 -370 -6264 0
9802 -9791 0
9803 -9802 0
9804 -9792 -9802 0
-9804 9805 0
9803 -9792 0
9806 -9803 0
-9793 9805 -9803 0
-9805 9807 0
-9805 -9794 0
9806 -9793 0
9808 -9806 0
-9794 9807 -9806 0
-9807 9809 0
-9807 -9795 0
-9794 9808 0
9810 -9808 0
-9795 9809 -9808 0
-9809 9811 0
-9809 -9796 0
-9795 9810 0
9812 -9810 0
-9796 9811 -9810 0
-9811 9813 0
-9811 -9797 0
9812 -9796 0
9814 -9812 0
-9797 9813 -9812 0
-9813 9815 0
-9813 -9798 0
9814 -9797 0
9816 -9814 0
9815 -9798 -9814 0
-9815 9817 0
-9815 -9799 0
9816 -9798 0
9818 -9816 0
9817 -9799 -9816 0
9819 -9817 0
-9817 -9800 0
9818 -9799 0
9819 -9800 -9818 0
-9801 -9819 0
-12 9968 6606 0
9969 -46 6615 0
9970 -73 6623 0
6696 -374 9978 0
6702 -374 9978 0
9979 -9968 0
9981 -9969 -9979 0
-9970 -9981 9983 0
-9983 9984 0
-9984 9987 0
-9987 9990 0
-9990 9993 0
-9993 9996 0
-9996 9999 0
-9999 10002 0
-10002 -9978 0
-1 10038 6821 0
-2 10038 6821 0
-3 10038 6821 0
-4 10038 6821 0
-5 10038 6821 0
10038 -6 6821 0
10038 -7 6821 0
-8 10038 6821 0
-10038 -10 -6822 -6824 0
-16 -10038 -6823 -6824 0
6911 -361 10048 0
-361 6912 10048 0
6911 -362 10048 0
6911 -363 10048 0
10048 6914 -363 0
-364 6911 10048 0
-365 6911 10048 0
-366 6911 10048 0
-367 6911 10048 0
-368 6911 10048 0
-6913 -10048 -6912 -369 0
-10048 -6914 -370 -6912 0
