p cnf 9657 2239
496 -1 0
-2 -496 0
5 1 4 -397 3 6 2 7 8 0
9 1 -398 12 15 11 13 14 10 0
-399 9 21 2 20 16 17 18 19 0
-400 22 3 16 23 10 24 25 26 0
-401 22 4 17 27 11 28 29 30 0
-402 23 18 12 5 27 31 32 33 0
-403 28 6 19 31 13 24 34 35 0
-404 29 7 20 32 14 25 34 36 0
-405 30 21 33 8 15 26 35 36 0
531 -37 0
-531 532 0
-38 -531 0
-38 532 0
-532 533 0
-533 534 0
-534 535 0
-535 536 0
-536 537 0
-537 538 0
-538 539 0
-45 -538 0
-539 540 0
-46 -539 0
-540 541 0
-47 -540 0
541 -47 0
-541 542 0
-48 -541 0
-542 543 0
-49 -542 0
-543 544 0
-50 -543 0
545 -544 0
-544 -51 0
546 -545 0
-52 -545 0
547 -546 0
-53 -546 0
548 -547 0
-54 -547 0
549 -548 0
-55 -548 0
550 -549 0
-56 -549 0
-57 -550 0
44 43 37 38 -406 39 40 41 42 0
51 50 37 45 46 47 -407 49 48 0
-408 56 45 38 53 55 52 54 57 0
566 -73 0
567 -566 0
-74 -566 0
567 -74 0
568 -567 0
-75 568 0
569 -568 0
-76 569 0
570 -569 0
-77 570 0
571 -570 0
571 -78 0
572 -571 0
-79 572 0
573 -572 0
-80 573 0
574 -573 0
-81 -573 0
575 -574 0
-82 -574 0
576 -575 0
-83 -575 0
577 -576 0
-84 -576 0
578 -577 0
-85 -577 0
579 -578 0
-86 -578 0
580 -579 0
-87 -579 0
581 -580 0
-88 -580 0
582 -581 0
-89 -581 0
583 -582 0
-90 -582 0
584 -583 0
-91 -583 0
585 -584 0
-92 -584 0
-93 -585 0
-74 415 0
-415 77 73 78 74 80 79 75 76 0
-73 416 0
-81 416 0
73 85 -416 87 81 82 83 86 84 0
-417 93 81 74 89 90 91 92 88 0
601 -109 0
602 -601 0
-110 -601 0
603 -602 0
604 -603 0
605 -604 0
606 -605 0
607 -606 0
608 -607 0
-116 608 0
609 -608 0
-117 -608 0
610 -609 0
611 -610 0
612 -611 0
613 -612 0
614 -613 0
615 -614 0
616 -615 0
-124 -615 0
617 -616 0
-125 -616 0
618 -617 0
-126 -617 0
619 -618 0
-127 -618 0
620 -619 0
-128 -619 0
-129 -620 0
-110 424 0
-424 113 109 114 116 110 115 112 111 0
122 121 109 117 -425 120 119 118 123 0
-426 128 110 117 129 124 125 126 127 0
-145 636 0
-636 637 0
-636 -146 0
637 -146 0
638 -637 0
639 -638 0
640 -639 0
641 -640 0
642 -641 0
643 -642 0
644 -643 0
645 -644 0
-154 -644 0
646 -645 0
-155 -645 0
647 -646 0
-156 -646 0
648 -647 0
-157 -647 0
649 -648 0
-158 -648 0
650 -649 0
-159 -649 0
651 -650 0
-160 -650 0
652 -651 0
-161 -651 0
653 -652 0
-162 -652 0
654 -653 0
-163 -653 0
655 -654 0
-164 -654 0
-165 -655 0
-433 147 145 146 148 149 150 151 152 0
-145 434 0
-434 158 159 156 145 153 155 154 157 0
-435 165 146 153 160 161 163 162 164 0
671 -181 0
-182 -671 0
-182 672 0
-672 673 0
-673 674 0
-674 675 0
-675 676 0
-676 677 0
-677 678 0
-678 679 0
-679 680 0
-190 -679 0
-680 681 0
-191 -680 0
-681 682 0
-192 -681 0
683 -682 0
-682 -193 0
684 -683 0
-194 -683 0
-195 -684 0
-442 183 181 182 185 184 186 187 188 0
-443 192 181 190 189 194 191 193 195 0
-444 201 189 182 196 198 199 200 197 0
706 -217 0
-218 -706 0
-218 707 0
-707 708 0
-708 709 0
-709 710 0
-710 711 0
-711 712 0
-712 713 0
-713 714 0
715 -714 0
-226 -714 0
716 -715 0
-227 -715 0
717 -716 0
-228 -716 0
718 -717 0
-229 -717 0
719 -718 0
-230 -718 0
-231 -719 0
451 -217 0
451 -218 0
-451 224 217 219 221 218 222 220 223 0
229 225 217 -452 226 231 230 227 228 0
-453 235 218 225 234 237 232 233 236 0
-253 741 0
-741 742 0
-741 -254 0
742 -254 0
-742 743 0
-255 743 0
-743 744 0
-256 744 0
-744 745 0
-257 745 0
-745 746 0
-258 746 0
-746 747 0
-259 747 0
748 -747 0
748 -260 0
749 -748 0
-261 -748 0
750 -749 0
-262 -749 0
751 -750 0
-263 -750 0
752 -751 0
-264 -751 0
753 -752 0
-265 -752 0
754 -753 0
-266 -753 0
755 -754 0
-267 -754 0
756 -755 0
-268 -755 0
757 -756 0
-269 -756 0
758 -757 0
-270 -757 0
759 -758 0
-271 -758 0
760 -759 0
-272 -759 0
-273 -760 0
460 -253 0
-460 257 259 260 254 258 256 253 255 0
461 -253 0
-461 266 253 261 263 264 265 267 262 0
-462 273 261 254 268 271 270 269 272 0
278 -463 268 262 255 275 274 277 276 0
279 -465 270 257 264 275 283 284 285 0
280 -466 271 258 265 276 283 286 287 0
-467 277 272 259 266 281 284 286 288 0
-289 776 0
-776 777 0
-290 -776 0
-290 777 0
-777 778 0
-291 778 0
-778 779 0
-292 779 0
-779 780 0
-293 -779 0
-293 780 0
-780 781 0
-294 781 0
-781 782 0
-295 782 0
-782 783 0
-296 783 0
-783 784 0
-297 -783 0
-784 785 0
-784 -298 0
-785 786 0
-785 -299 0
-786 787 0
-300 -786 0
-787 788 0
-301 -787 0
-788 789 0
-302 -788 0
-789 790 0
-303 -789 0
-790 791 0
-304 -790 0
-791 792 0
-305 -791 0
-792 793 0
-306 -792 0
-793 794 0
-307 -793 0
-794 795 0
-308 -794 0
-795 796 0
-309 -795 0
-796 797 0
-797 798 0
-311 -797 0
-798 799 0
-799 800 0
-800 801 0
-801 802 0
-315 -801 0
-802 803 0
-803 804 0
-804 805 0
-805 806 0
-319 -805 0
-806 807 0
-320 -806 0
-807 -321 0
-469 290 289 296 293 291 292 294 295 0
-470 299 298 297 289 303 300 301 302 0
-471 297 290 309 307 305 306 304 308 0
-472 310 304 291 298 311 312 313 314 0
-473 318 305 299 292 315 310 316 317 0
320 321 293 300 -474 306 311 315 319 0
-475 322 294 301 307 316 319 312 323 0
-476 324 295 302 313 317 320 322 308 0
-477 323 296 303 309 318 321 314 324 0
-325 811 0
-811 812 0
-811 -326 0
-326 812 0
-812 813 0
-327 813 0
-813 814 0
-328 814 0
-814 815 0
-329 815 0
-815 816 0
-330 816 0
-816 817 0
-331 817 0
-817 818 0
-332 818 0
-818 819 0
-333 -818 0
-819 820 0
-334 -819 0
-820 821 0
-335 -820 0
-335 821 0
-821 822 0
-336 -821 0
-822 823 0
-337 -822 0
-823 824 0
-338 -823 0
-338 824 0
825 -824 0
-824 -339 0
825 -339 0
826 -825 0
-340 -825 0
827 -826 0
-341 -826 0
828 -827 0
-342 -827 0
829 -828 0
-343 -828 0
830 -829 0
-344 -829 0
831 -830 0
-345 -830 0
832 -831 0
-346 -831 0
833 -832 0
834 -833 0
835 -834 0
-349 -834 0
836 -835 0
837 -836 0
-351 -836 0
838 -837 0
-352 -837 0
839 -838 0
-353 -838 0
840 -839 0
-354 -839 0
841 -840 0
842 -841 0
-356 -841 0
843 -842 0
844 -843 0
-358 -843 0
845 -844 0
-360 -845 0
-478 332 325 331 329 326 330 328 327 0
-479 339 325 333 335 336 337 334 338 0
-480 326 333 345 340 342 341 343 344 0
350 -481 334 327 340 347 346 349 348 0
-482 354 328 335 352 341 346 351 353 0
357 -483 329 336 342 347 351 356 355 0
359 -484 337 330 343 358 352 348 355 0
-485 360 331 338 344 349 353 356 358 0
359 332 339 354 360 -486 345 350 357 0
388 375 371 366 364 365 367 368 363 376 373 362 372 374 387 369 370 361 377 378 379 380 381 382 383 384 385 386 389 390 391 392 393 394 395 396 0
846 -361 0
-846 847 0
847 -362 0
-847 848 0
848 -363 0
-848 849 0
-848 -364 0
-364 849 0
-849 850 0
850 -365 0
-850 851 0
-366 851 0
-851 852 0
-367 852 0
-852 853 0
-852 -368 0
-368 853 0
-853 854 0
-853 -369 0
-854 855 0
-854 -370 0
-855 856 0
-855 -371 0
-856 857 0
-856 -372 0
-857 858 0
-857 -373 0
-858 859 0
-858 -374 0
860 -859 0
-859 -375 0
861 -860 0
-860 -376 0
862 -861 0
-861 -377 0
863 -862 0
-862 -378 0
864 -863 0
-863 -379 0
865 -864 0
-864 -380 0
866 -865 0
-865 -381 0
867 -866 0
-866 -382 0
868 -867 0
-383 -867 0
869 -868 0
-384 -868 0
870 -869 0
-385 -869 0
871 -870 0
-386 -870 0
872 -871 0
-871 -387 0
873 -872 0
-872 -388 0
874 -873 0
-873 -389 0
875 -874 0
-874 -390 0
876 -875 0
-391 -875 0
877 -876 0
-392 -876 0
878 -877 0
-393 -877 0
879 -878 0
-394 -878 0
880 -879 0
-395 -879 0
-396 -880 0
-487 362 366 363 367 361 365 364 368 0
369 375 -488 371 372 373 361 374 370 0
-489 381 362 369 377 376 378 379 380 0
-490 386 385 370 363 376 382 383 384 0
-491 390 371 364 377 382 387 388 389 0
-492 393 365 372 378 383 387 392 391 0
-493 394 373 366 379 388 391 384 395 0
-494 396 374 389 380 394 392 385 367 0
-495 375 395 368 396 386 390 381 393 0
2287 0
-2386 0
399 2296 -2287 0
2305 408 -2296 0
2314 -2305 417 0
2323 426 -2314 0
2332 435 -2323 0
2341 444 -2332 0
2350 453 -2341 0
2359 462 -2350 0
2368 471 -2359 0
2377 480 -2368 0
-369 -2377 2386 0
2609 0
-2610 0
-2709 0
2611 0
2612 0
2613 0
2615 0
2617 0
2618 397 -2609 0
399 2620 -2611 0
-1 -2618 2610 0
2618 -2 -2609 -2611 0
-3 2618 -2609 -2612 0
-4 2618 -2609 -2613 0
-6 2618 -2609 -2615 0
-8 2618 -2609 -2617 0
2627 406 -2618 0
2627 -38 -2618 -2620 0
2636 -2627 415 0
-2636 2645 424 0
-2645 2654 433 0
2655 -2646 434 0
-2654 2663 442 0
-2655 2664 443 0
-2663 2672 451 0
-2664 2673 452 0
-2672 2681 460 0
-2673 2682 461 0
-2682 2691 470 0
-2681 2691 -289 0
-2691 2700 479 0
488 -2700 2709 0
2933 0
-2934 0
2938 0
-2942 -1 2934 0
-5 2942 -2933 -2938 0
3473 0
-3474 0
3480 0
-3482 -1 3474 0
-7 3482 -3473 -3480 0
-4437 0
-4374 4383 434 0
-4383 4392 443 0
-4392 4401 452 0
-4401 4410 461 0
-4410 4419 470 0
-4419 4428 479 0
488 -4428 4437 0
5309 0
-5408 0
5310 0
5311 0
5312 0
5313 0
-5314 0
5315 0
5316 0
5317 0
5318 397 -5309 0
5319 398 -5310 0
5320 399 -5311 0
5318 -1 -5309 -5310 0
5318 -2 -5309 -5311 0
5318 -3 -5309 -5312 0
5318 -4 -5309 -5313 0
5318 -6 -5309 -5315 0
-7 5318 -5309 -5316 0
5318 -8 -5309 -5317 0
-9 5319 -5310 -5311 0
-10 5319 -5310 -5312 0
-11 5319 -5310 -5313 0
-13 5319 -5310 -5315 0
-14 5319 -5310 -5316 0
-15 5319 -5310 -5317 0
406 5327 -5318 0
5328 407 -5319 0
5329 408 -5320 0
5327 -37 -5318 -5319 0
5327 -38 -5318 -5320 0
-5327 5336 415 0
5337 416 -5328 0
5338 -5329 417 0
5336 -5327 -73 -5328 0
-5336 5345 424 0
5346 -5337 425 0
5347 426 -5338 0
-5336 -5337 5345 -109 0
-5345 5354 433 0
5355 -5346 434 0
5356 435 -5347 0
-5345 -145 5354 -5346 0
-5354 5363 442 0
5364 -5355 443 0
-5355 -181 -5354 5363 0
-5363 5372 451 0
5373 -5364 452 0
-5372 5381 460 0
5381 -253 -5372 -5373 0
-5381 5390 469 0
-5390 478 5399 0
487 -5399 5408 0
5850 0
-5949 0
5851 0
5859 398 -5850 0
5860 399 -5851 0
5859 -1 -5850 0
-5868 407 5859 0
5868 407 -5859 0
5869 408 -5860 0
5868 -37 -5859 0
5868 -45 -5859 -5860 0
5877 416 -5868 0
5878 -5869 417 0
5877 -5868 -73 0
5877 -81 -5869 -5868 0
5886 -5877 425 0
5887 426 -5878 0
5886 -5877 -109 0
5895 -5886 434 0
5896 435 -5887 0
-145 -5886 5895 0
5895 -153 -5887 -5886 0
5904 -5895 443 0
5904 -181 -5895 0
5904 -189 -5895 -5896 0
5913 -5904 452 0
5913 -5904 -217 0
5922 -5913 461 0
5922 -5913 -253 0
5931 -5922 470 0
5931 -5922 -289 0
5940 -5931 479 0
-325 5940 -5931 0
-5940 488 5949 0
-361 -5940 5949 0
6065 0
-6164 0
-6066 0
-6165 0
-6067 0
6166 0
6068 0
6167 0
6069 0
6168 0
6070 0
6169 0
6071 0
6170 0
6072 0
6171 0
6073 0
6172 0
397 6074 -6065 0
398 -6075 6066 0
-6076 399 6067 0
6077 400 -6068 0
6078 401 -6069 0
6079 402 -6070 0
6080 403 -6071 0
6081 404 -6072 0
6082 405 -6073 0
-6074 -1 6066 0
6075 -1 -6065 0
-6074 -2 6067 0
6076 -2 -6065 0
-3 6074 -6065 -6068 0
-4 6074 -6065 -6069 0
-5 6074 -6065 -6070 0
-6 6074 -6065 -6071 0
-7 6074 -6065 -6072 0
-8 6074 -6065 -6073 0
-9 -6075 6066 0
-9 -6076 6066 6067 0
-10 -6075 6066 0
-11 -6075 6066 0
-12 -6075 6066 0
-13 -6075 6066 0
-14 -6075 6066 0
-15 -6075 6066 0
-16 -6076 6067 0
-17 -6076 6067 0
-18 -6076 6067 0
-19 -6076 6067 0
-20 -6076 6067 0
-21 -6076 6067 0
-6083 406 6074 0
407 -6084 6075 0
407 6084 -6075 0
-6085 408 6076 0
-6083 -37 6074 0
-6083 -37 6075 0
6084 -37 -6074 0
6084 -37 -6075 0
-6084 -37 6074 6075 0
-6083 -38 6074 0
-38 -6083 6076 0
-38 -6085 6074 6076 0
-39 -6083 6074 0
-40 -6083 6074 0
-41 -6083 6074 0
-42 -6083 6074 0
-43 -6083 6074 0
-6083 -44 6074 0
-45 -6084 6075 0
-45 -6084 6076 0
-45 6085 -6075 0
-45 -6085 6076 6075 0
-46 -6084 6075 0
-46 6084 -6077 -6075 0
-47 -6084 6075 0
-47 6084 -6075 -6078 0
-48 -6084 6075 0
-48 6084 -6079 -6075 0
-49 -6084 6075 0
-49 6084 -6080 -6075 0
-50 -6084 6075 0
-50 6084 -6081 -6075 0
-6084 -51 6075 0
6084 -51 -6082 -6075 0
-52 -6085 6076 0
-53 -6085 6076 0
-54 -6085 6076 0
-55 -6085 6076 0
-56 -6085 6076 0
-57 -6085 6076 0
-6092 415 6083 0
-6093 6084 416 0
-6094 6085 417 0
6083 -6092 -73 0
-6092 6084 -73 0
6083 6084 -73 -6093 0
-6092 -74 6083 0
-6092 6085 -74 0
-6083 -74 6092 -6085 0
-6083 6094 -74 0
-6094 -74 6083 6085 0
-75 -6092 6083 0
-76 -6092 6083 0
-77 -6092 6083 0
-6092 -78 6083 0
-79 -6092 6083 0
-80 -6092 6083 0
-81 -6093 6084 0
-81 -6093 6085 0
-81 6094 -6084 0
-6094 -81 6085 6084 0
-6093 -82 6084 0
-83 -6093 6084 0
-84 -6093 6084 0
-85 -6093 6084 0
-86 -6093 6084 0
-87 -6093 6084 0
-88 -6094 6085 0
-89 -6094 6085 0
-90 -6094 6085 0
-91 -6094 6085 0
-92 -6094 6085 0
-93 -6094 6085 0
-6101 424 6092 0
-6102 425 6093 0
-6103 426 6094 0
-6101 -109 6092 0
6093 -6101 -109 0
-6092 6102 -109 0
-6093 6102 -109 0
-6102 -109 6092 6093 0
-110 6092 -6101 0
-110 6094 -6101 0
-110 -6092 6103 0
-110 -6103 6094 6092 0
-111 6092 -6101 0
-112 6092 -6101 0
-113 6092 -6101 0
-6101 -114 6092 0
-115 6092 -6101 0
-116 6092 -6101 0
-117 -6102 6093 0
-117 -6102 6094 0
-117 -6103 6094 6093 0
-118 -6102 6093 0
-119 -6102 6093 0
-120 -6102 6093 0
-6102 6093 -121 0
-6102 6093 -122 0
-123 -6102 6093 0
-124 -6103 6094 0
-125 -6103 6094 0
-126 -6103 6094 0
-127 -6103 6094 0
-128 -6103 6094 0
-129 -6103 6094 0
-6110 433 6101 0
-6111 6102 434 0
-6102 434 6111 0
-6112 435 6103 0
-145 -6110 6101 0
-145 6102 -6110 0
-145 -6102 6111 0
-145 6102 6101 -6111 0
-146 -6110 6101 0
-146 6103 -6110 0
-146 -6112 6101 6103 0
-147 -6110 6101 0
-148 -6110 6101 0
-149 -6110 6101 0
-150 -6110 6101 0
-151 -6110 6101 0
-152 -6110 6101 0
-153 -6111 6102 0
-153 -6111 6103 0
-153 -6102 6112 0
-153 6102 -6112 6103 0
-154 -6111 6102 0
-155 -6111 6102 0
-156 -6111 6102 0
-157 -6111 6102 0
-158 -6111 6102 0
-159 -6111 6102 0
-160 -6112 6103 0
-161 -6112 6103 0
-162 6103 -6112 0
-163 -6112 6103 0
-164 -6112 6103 0
-165 -6112 6103 0
-6119 442 6110 0
-6120 6111 443 0
6120 -6111 443 0
-6121 444 6112 0
-181 -6119 6110 0
-6119 -181 6111 0
-181 6120 -6110 0
6120 -6111 -181 0
-6120 6111 6110 -181 0
-182 -6119 6110 0
-182 6112 -6119 0
-182 -6112 -6110 6119 0
-182 6112 6110 -6121 0
-183 -6119 6110 0
-184 -6119 6110 0
-185 -6119 6110 0
-186 -6119 6110 0
-187 -6119 6110 0
-188 -6119 6110 0
-189 -6120 6111 0
-189 -6120 6112 0
-189 -6112 6120 -6111 0
-189 6112 6111 -6121 0
-190 -6120 6111 0
-6113 -190 -6111 6120 0
-191 -6120 6111 0
-6114 -191 -6111 6120 0
-192 -6120 6111 0
-6115 -192 -6111 6120 0
-6120 -193 6111 0
-6116 -6111 -193 6120 0
-194 -6120 6111 0
-6117 -194 -6111 6120 0
-195 -6120 6111 0
-6118 -195 -6111 6120 0
-196 6112 -6121 0
-197 6112 -6121 0
-198 6112 -6121 0
-199 6112 -6121 0
-200 6112 -6121 0
-201 6112 -6121 0
-6128 451 6119 0
452 6120 -6129 0
-6120 452 6129 0
-6130 453 6121 0
-217 6119 -6128 0
-217 6120 -6128 0
-6120 -217 -6119 6128 0
-217 -6119 6129 0
-6120 -217 6129 0
-217 6120 6119 -6129 0
-218 6119 -6128 0
-218 6121 -6128 0
-218 6119 -6130 6121 0
-219 6119 -6128 0
-220 6119 -6128 0
-221 6119 -6128 0
-222 6119 -6128 0
-223 6119 -6128 0
-224 6119 -6128 0
6120 -6129 -225 0
-6129 -225 6121 0
6129 -6121 -225 -6120 0
-6120 -225 6130 0
-6130 6120 -225 6121 0
-226 6120 -6129 0
-6122 -226 -6120 6129 0
-227 6120 -6129 0
-6123 -227 -6120 6129 0
-228 6120 -6129 0
-6124 -228 -6120 6129 0
-229 6120 -6129 0
-6125 -6120 -229 6129 0
-230 6120 -6129 0
-6126 -230 -6120 6129 0
-231 6120 -6129 0
-6127 -231 -6120 6129 0
-232 -6130 6121 0
-233 -6130 6121 0
-234 -6130 6121 0
-235 -6130 6121 0
-236 -6130 6121 0
-237 -6130 6121 0
-6137 460 6128 0
460 -6128 6137 0
-6138 6129 461 0
-6129 6138 461 0
-6139 462 6130 0
-6130 6139 462 0
463 6131 -6140 0
465 6133 -6142 0
466 6134 -6143 0
467 6135 -6144 0
-6137 -253 6129 0
-253 6138 -6128 0
-6129 -253 6138 0
-6138 6129 6128 -253 0
-6137 -254 6130 0
-6128 -254 -6130 6137 0
6139 -254 -6128 0
-6130 6139 -254 0
-254 -6139 6128 6130 0
-255 -6137 6128 0
-6131 -255 -6128 6137 0
-256 -6137 6128 0
-6132 -256 -6128 6137 0
-257 -6137 6128 0
-6133 -257 -6128 6137 0
-258 -6137 6128 0
-6134 -258 -6128 6137 0
-259 -6137 6128 0
-6135 -259 -6128 6137 0
-260 -6137 6128 0
-6136 -260 -6128 6137 0
-6138 -261 6129 0
-6138 -261 6130 0
-6130 -261 6138 -6129 0
-6129 -261 6139 0
-261 -6130 6139 0
6129 -261 -6139 6130 0
-262 -6138 6129 0
-262 -6131 6138 -6129 0
-263 -6138 6129 0
-6132 -263 -6129 6138 0
-263 6141 -6129 0
-264 -6138 6129 0
-264 6138 -6133 -6129 0
-264 -6129 6142 0
-265 -6138 6129 0
-265 -6134 -6129 6138 0
-266 -6138 6129 0
-266 -6135 -6129 6138 0
-267 -6138 6129 0
-6136 -267 -6129 6138 0
-268 -6139 6130 0
-268 -6130 6139 -6131 0
-269 -6139 6130 0
-6132 -269 -6130 6139 0
-270 -6139 6130 0
-270 -6130 6139 -6133 0
-271 -6139 6130 0
-271 -6130 6139 -6134 0
-272 -6139 6130 0
-272 -6130 6139 -6135 0
-273 -6139 6130 0
-6136 -273 -6130 6139 0
-6146 469 6137 0
-6137 6146 469 0
-6147 470 6138 0
-6138 6147 470 0
-6148 471 6139 0
471 -6139 6148 0
472 6140 -6149 0
6141 473 -6150 0
474 6142 -6151 0
474 -6142 6151 0
475 -6152 6143 0
6144 -6153 476 0
476 -6144 6153 0
477 6145 -6154 0
-289 -6146 6137 0
-289 6138 -6146 0
-6137 -6138 -289 6146 0
-6137 -289 6147 0
-6138 6147 -289 0
-289 -6147 6137 6138 0
-290 -6146 6137 0
-290 6139 -6146 0
-6137 -290 -6139 6146 0
-290 6137 -6148 6139 0
-291 -6146 6137 0
-291 -6137 -6140 6146 0
-292 6137 -6146 0
-292 -6137 -6141 6146 0
-293 -6146 6137 0
-293 -6137 -6142 6146 0
-294 6137 -6146 0
-294 -6137 -6143 6146 0
-295 -6146 6137 0
-295 -6137 6146 -6144 0
-295 -6137 6153 0
-296 -6146 6137 0
-296 -6137 -6145 6146 0
-296 -6137 6154 0
-297 -6147 6139 0
-297 -6138 -6139 6147 0
-297 6138 -6148 6139 0
-298 6138 -6147 0
-6138 -298 -6140 6147 0
-299 6138 -6147 0
-6141 -299 -6138 6147 0
-300 6138 -6147 0
-300 -6138 -6142 6147 0
-301 6138 -6147 0
-301 -6138 -6143 6147 0
-302 6138 -6147 0
-302 -6138 -6144 6147 0
-302 -6144 6153 0
-303 6138 -6147 0
-303 -6138 -6145 6147 0
-304 6139 -6148 0
-305 6139 -6148 0
-306 6139 -6148 0
-307 6139 -6148 0
-308 6139 -6148 0
-308 -6139 6153 0
-309 6139 -6148 0
-310 6141 -6149 0
-313 6144 -6149 0
-313 -6144 6153 0
-315 6141 -6150 0
-316 6141 -6150 0
-317 6141 -6150 0
-317 -6144 6153 0
-320 6144 -6151 0
-320 -6144 6153 0
-322 -6144 6153 0
-324 6144 -6153 0
-324 -6144 6153 -6145 0
6146 478 -6155 0
-6146 478 6155 0
6147 479 -6156 0
-6147 479 6156 0
480 6148 -6157 0
480 -6148 6157 0
481 6149 -6158 0
6150 482 -6159 0
-6150 482 6159 0
483 6151 -6160 0
6152 484 -6161 0
6153 485 -6162 0
-6153 485 6162 0
486 6154 -6163 0
-325 6146 -6155 0
-325 -6147 6155 -6146 0
-325 -6146 6156 0
-325 -6147 6156 0
-325 6147 -6156 6146 0
-326 6146 -6155 0
-326 6148 -6155 0
-6146 -326 6155 -6148 0
-326 6148 -6157 6146 0
-327 6146 -6155 0
-327 -6149 6155 -6146 0
6150 -328 -6155 0
-328 -6150 6155 -6146 0
-329 6146 -6155 0
-6151 -329 -6146 6155 0
-330 6146 -6155 0
-6146 -6152 -330 6155 0
-6153 -331 -6146 6155 0
-332 6146 -6155 0
-332 -6154 -6146 6155 0
-333 6147 -6156 0
-6147 -333 -6148 6156 0
-333 -6148 6157 0
-333 6147 6148 -6157 0
-334 6147 -6156 0
-334 -6147 -6149 6156 0
6147 -335 -6156 0
-6147 -335 -6150 6156 0
-336 6147 -6156 0
-336 -6147 -6151 6156 0
-337 6147 -6156 0
-337 -6147 -6152 6156 0
-338 6147 -6156 0
-6153 -338 -6147 6156 0
-6147 -339 6156 -6154 0
-6154 -339 6163 0
-340 6148 -6157 0
-341 6148 -6157 0
-342 6148 -6157 0
-342 6151 -6157 0
-343 6148 -6157 0
-343 6152 -6157 0
-344 6148 -6157 0
-344 6153 -6157 0
-345 6148 -6157 0
-345 6154 -6157 0
-346 6150 -6158 0
-348 6152 -6158 0
-350 6154 -6158 0
-351 6150 -6159 0
-351 6151 -6159 0
-352 6150 -6159 0
-352 6152 -6159 0
6150 -353 -6159 0
-354 6150 -6159 0
-355 6152 -6160 0
-357 6154 -6160 0
-358 6152 -6161 0
-358 6153 -6161 0
-359 6152 -6161 0
-359 6154 -6161 0
-360 6154 -6162 0
487 -6155 6164 0
-6156 488 6165 0
489 6157 -6166 0
490 6158 -6167 0
6159 491 -6168 0
492 6160 -6169 0
493 6161 -6170 0
494 6162 -6171 0
495 6163 -6172 0
-361 -6155 6165 0
-361 -6156 6165 0
-6157 -362 -6155 6164 0
6155 -362 6157 -6166 0
-6158 -363 -6155 6164 0
-6159 -364 -6155 6164 0
-6160 -365 -6155 6164 0
-6161 -366 -6155 6164 0
-6162 -367 -6155 6164 0
-6163 -368 -6155 6164 0
-369 -6157 -6156 6165 0
-369 6156 6157 -6166 0
-370 -6158 -6156 6165 0
-6159 -371 -6156 6165 0
-6160 -372 -6156 6165 0
-6161 -373 -6156 6165 0
-374 -6162 -6156 6165 0
-6163 -375 -6156 6165 0
-376 6157 -6166 0
-377 6157 -6166 0
-377 6159 -6166 0
-378 6157 -6166 0
-379 6157 -6166 0
-380 6157 -6166 0
-381 6157 -6166 0
6159 -382 -6167 0
-387 6159 -6168 0
-388 6159 -6168 0
-389 6159 -6168 0
-390 6159 -6168 0
6173 0
6174 0
6273 0
-6175 0
6274 0
6178 0
6180 0
397 6182 -6173 0
6183 398 -6174 0
-6184 399 6175 0
6182 -1 -6173 -6174 0
-6182 -2 6175 0
6182 -5 -6173 -6178 0
6191 406 -6182 0
6192 407 -6183 0
-6193 408 6184 0
6191 -37 -6183 -6182 0
6200 -6191 415 0
6201 416 -6192 0
-6202 6193 417 0
-88 -6202 6193 0
-89 -6202 6193 0
-90 -6202 6193 0
-91 -6202 6193 0
-92 -6202 6193 0
-93 -6202 6193 0
-6200 6209 424 0
6210 -6201 425 0
-6211 426 6202 0
-6210 -117 6202 0
-6209 6218 433 0
6210 -6219 434 0
-6220 435 6211 0
-6218 -146 6211 0
-6219 -153 6211 0
6217 -159 -6219 0
-160 -6220 6211 0
-161 -6220 6211 0
-162 -6220 6211 0
-163 -6220 6211 0
-164 -6220 6211 0
-165 -6220 6211 0
-6227 6218 442 0
6219 443 -6228 0
-6229 444 6220 0
-189 6220 -6228 0
-196 -6229 6220 0
-6229 -197 6220 0
-198 -6229 6220 0
-199 -6229 6220 0
-200 -6229 6220 0
-201 -6229 6220 0
-6236 6227 451 0
6228 452 -6237 0
-6238 453 6229 0
6228 6227 -6237 -217 0
6228 -6237 -225 0
6229 -225 -6237 0
-226 6228 -6237 0
-227 6228 -6237 0
-228 6228 -6237 0
6228 -6237 -229 0
-230 6228 -6237 0
-231 6228 -6237 0
-232 -6238 6229 0
-233 -6238 6229 0
-234 -6238 6229 0
-235 -6238 6229 0
-236 -6238 6229 0
-237 -6238 6229 0
6237 -6246 461 0
-6247 462 6238 0
6237 6236 -253 -6246 0
-6246 -261 6238 0
-268 -6247 6238 0
-269 -6247 6238 0
-270 -6247 6238 0
-271 -6247 6238 0
-272 -6247 6238 0
-273 -6247 6238 0
6246 470 -6255 0
-6256 471 6247 0
-297 6247 -6255 0
-304 6247 -6256 0
-305 6247 -6256 0
-306 6247 -6256 0
-307 6247 -6256 0
-308 6247 -6256 0
-309 6247 -6256 0
6255 479 -6264 0
480 6256 -6265 0
-333 6255 -6264 0
-333 6256 -6264 0
-334 6255 -6264 0
-335 6255 -6264 0
-336 6255 -6264 0
-337 6255 -6264 0
-338 6255 -6264 0
6255 -339 -6264 0
-340 6256 -6265 0
-341 6256 -6265 0
-342 6256 -6265 0
-343 6256 -6265 0
-344 6256 -6265 0
-345 6256 -6265 0
488 6264 -6273 0
489 6265 -6274 0
-369 6264 -6273 0
-369 6265 -6273 0
-370 6264 -6273 0
-371 6264 -6273 0
-372 6264 -6273 0
-373 6264 -6273 0
-374 6264 -6273 0
-375 6264 -6273 0
-376 6265 -6274 0
-377 6265 -6274 0
6265 -378 -6274 0
6265 -379 -6274 0
6265 -380 -6274 0
6265 -381 -6274 0
-6281 0
-6282 0
-6381 0
6283 0
6284 0
6285 0
6286 0
6287 0
6288 0
6289 0
-6290 397 6281 0
-6291 398 6282 0
6292 399 -6283 0
6293 400 -6284 0
6294 401 -6285 0
6295 402 -6286 0
6296 403 -6287 0
6297 404 -6288 0
6298 405 -6289 0
-6290 -1 6281 0
-6291 -1 6281 6282 0
-6290 -2 6281 0
-6290 -3 6281 0
-6290 -4 6281 0
-6290 -5 6281 0
-6290 -6 6281 0
-6290 -7 6281 0
-6290 -8 6281 0
-6291 -9 6282 0
-6291 -10 6282 0
-6291 -11 6282 0
-6291 -12 6282 0
-6291 -13 6282 0
-6291 -14 6282 0
-6291 -15 6282 0
406 -6299 6290 0
407 -6300 6291 0
-6299 -37 6290 0
-37 -6300 6290 6291 0
-38 -6299 6290 0
-39 -6299 6290 0
-40 -6299 6290 0
-41 -6299 6290 0
-42 -6299 6290 0
-43 -6299 6290 0
-44 -6299 6290 0
-45 -6300 6291 0
-46 -6300 6291 0
-47 -6300 6291 0
-48 -6300 6291 0
-49 -6300 6291 0
-50 -6300 6291 0
-51 -6300 6291 0
-6308 415 6299 0
416 -6309 6300 0
-6308 -73 6300 0
-73 6299 -6309 6300 0
-74 -6308 6299 0
-75 -6308 6299 0
-76 -6308 6299 0
-77 -6308 6299 0
-6308 -78 6299 0
-79 -6308 6299 0
-80 -6308 6299 0
-81 -6309 6300 0
-82 -6309 6300 0
-83 -6309 6300 0
-84 -6309 6300 0
-85 -6309 6300 0
-86 -6309 6300 0
-87 -6309 6300 0
-6317 424 6308 0
425 -6318 6309 0
-6317 -109 6308 0
-6318 -109 6308 6309 0
-110 -6317 6308 0
-111 -6317 6308 0
-112 -6317 6308 0
-113 -6317 6308 0
-114 -6317 6308 0
-115 -6317 6308 0
-116 -6317 6308 0
-117 -6318 6309 0
-118 -6318 6309 0
-119 -6318 6309 0
-120 -6318 6309 0
-121 -6318 6309 0
-122 -6318 6309 0
-123 -6318 6309 0
-6326 433 6317 0
434 -6327 6318 0
-145 -6327 6317 6318 0
-153 -6327 6318 0
-154 -6327 6318 0
-155 -6327 6318 0
-156 -6327 6318 0
-157 -6327 6318 0
-158 -6327 6318 0
-159 -6327 6318 0
-6335 442 6326 0
-6336 6327 443 0
-181 -6336 6326 6327 0
-189 -6336 6327 0
-190 -6336 6327 0
-191 -6336 6327 0
-192 -6336 6327 0
-6336 -193 6327 0
-194 -6336 6327 0
-195 -6336 6327 0
-6344 451 6335 0
452 -6345 6336 0
-225 6336 -6345 0
-226 -6345 6336 0
-227 -6345 6336 0
-228 -6345 6336 0
-229 -6345 6336 0
-230 -6345 6336 0
-231 -6345 6336 0
-6353 460 6344 0
-6354 6345 461 0
6354 470 -6363 0
-289 6353 -6363 6354 0
-297 6354 -6363 0
-298 6354 -6363 0
-299 6354 -6363 0
-300 6354 -6363 0
-301 6354 -6363 0
-302 6354 -6363 0
-303 6354 -6363 0
479 6363 -6372 0
-6371 -325 6363 0
-6370 -6363 -339 6372 0
488 -6372 6381 0
6389 0
-6488 0
-6390 0
6489 0
6391 0
-6399 398 6390 0
6400 399 -6391 0
-6398 -1 6390 0
-6399 -9 6390 0
-6399 -10 6390 0
-6399 -11 6390 0
-6399 -12 6390 0
-6399 -13 6390 0
-6399 -14 6390 0
-15 -6399 6390 0
-6407 406 6398 0
407 -6408 6399 0
6409 408 -6400 0
-45 -6408 6399 0
-46 -6408 6399 0
-47 -6408 6399 0
-48 -6408 6399 0
-49 -6408 6399 0
-50 -6408 6399 0
-6408 -51 6399 0
-6416 6407 415 0
-6417 6408 416 0
6418 -6409 417 0
-6417 -81 6408 0
6409 -81 -6417 0
-6417 6408 -82 0
-83 -6417 6408 0
-84 -6417 6408 0
-85 -6417 6408 0
-86 -6417 6408 0
-87 -6417 6408 0
425 -6426 6417 0
6427 426 -6418 0
-6425 -110 6416 0
6418 -6425 -110 0
-117 -6426 6417 0
6418 -117 -6426 0
-118 -6426 6417 0
-119 -6426 6417 0
-120 -6426 6417 0
-121 -6426 6417 0
-6426 6417 -122 0
-123 -6426 6417 0
6425 -6434 433 0
-6435 6426 434 0
6436 435 -6427 0
6425 -145 -6435 6426 0
6425 -146 -6434 0
-6435 -153 6426 0
-154 -6435 6426 0
-155 -6435 6426 0
-156 -6435 6426 0
-157 -6435 6426 0
-158 -6435 6426 0
-159 -6435 6426 0
6434 -6443 442 0
443 6435 -6444 0
6434 -181 -6444 6435 0
-182 6434 -6443 0
-189 -6444 6435 0
-190 -6444 6435 0
-191 -6444 6435 0
-192 -6444 6435 0
-193 -6444 6435 0
-194 -6444 6435 0
-195 -6444 6435 0
6443 -6452 451 0
-6453 452 6444 0
6443 -217 6444 -6453 0
-6453 6444 -225 0
-226 -6453 6444 0
-227 -6453 6444 0
-228 -6453 6444 0
-229 -6453 6444 0
-230 -6453 6444 0
-231 -6453 6444 0
6452 -6461 460 0
-6462 6453 461 0
6452 -6462 -253 6453 0
-6462 6453 -261 0
-262 -6462 6453 0
-263 -6462 6453 0
-264 -6462 6453 0
-265 -6462 6453 0
-266 -6462 6453 0
-267 -6462 6453 0
-6470 6461 469 0
6462 470 -6471 0
-6470 -289 6462 0
6461 -289 -6471 6462 0
-6470 -290 6461 0
6463 -6470 -290 0
-297 6462 -6471 0
-298 6462 -6471 0
-299 6462 -6471 0
-300 6462 -6471 0
-301 6462 -6471 0
-302 6462 -6471 0
-303 6462 -6471 0
6470 478 -6479 0
6471 -6480 479 0
6471 -325 6470 -6480 0
6470 -326 -6479 0
6472 -326 -6479 0
6471 -333 -6480 0
-334 6471 -6480 0
6471 -335 -6480 0
-336 6471 -6480 0
-337 6471 -6480 0
-338 6471 -6480 0
6471 -339 -6480 0
487 -6479 6488 0
6480 488 -6489 0
6479 -361 6480 -6489 0
6480 -369 -6489 0
6480 -370 -6489 0
6480 -371 -6489 0
6480 -372 -6489 0
6480 -373 -6489 0
6480 -374 -6489 0
6480 -375 -6489 0
-6497 0
6500 0
6501 0
6503 0
6504 0
6505 0
-9060 -1 -5309 -5310 0
-23 9060 5314 0
-27 9060 5314 0
-31 9060 5314 0
-32 9060 5314 0
-33 9060 5314 0
9490 -1 6066 0
9490 -2 6067 0
-9 9490 6067 0
9490 -10 6066 0
9490 -11 6066 0
9490 -12 6066 0
9490 -13 6066 0
9490 -14 6066 0
9490 -15 6066 0
9490 -16 6067 0
9490 -17 6067 0
9490 -18 6067 0
9490 -19 6067 0
9490 -20 6067 0
9490 -21 6067 0
9491 -37 6074 0
9491 -37 6075 0
-38 9491 6074 0
-38 9491 6076 0
-39 9491 6074 0
-40 9491 6074 0
-41 9491 6074 0
-42 9491 6074 0
-43 9491 6074 0
9491 -44 6074 0
-45 9491 6075 0
-45 9491 6076 0
-46 9491 6075 0
-47 9491 6075 0
-48 9491 6075 0
-49 9491 6075 0
-50 9491 6075 0
9491 -51 6075 0
-52 9491 6076 0
-53 9491 6076 0
-54 9491 6076 0
-55 9491 6076 0
-56 9491 6076 0
-57 9491 6076 0
6083 9492 -73 0
9492 6084 -73 0
-74 9492 6083 0
6085 -74 9492 0
-75 9492 6083 0
-76 9492 6083 0
-77 9492 6083 0
-78 9492 6083 0
-79 9492 6083 0
-80 9492 6083 0
-81 6084 9492 0
-81 6085 9492 0
-82 6084 9492 0
-83 6084 9492 0
-84 6084 9492 0
-85 6084 9492 0
-86 6084 9492 0
-87 6084 9492 0
-88 6085 9492 0
-89 6085 9492 0
-90 6085 9492 0
-91 6085 9492 0
-92 6085 9492 0
-93 6085 9492 0
-109 6092 9493 0
6093 -109 9493 0
-110 6092 9493 0
-110 6094 9493 0
-111 6092 9493 0
-112 6092 9493 0
-113 6092 9493 0
-114 6092 9493 0
-115 6092 9493 0
-116 6092 9493 0
-117 6093 9493 0
-117 6094 9493 0
-118 6093 9493 0
-119 6093 9493 0
-120 6093 9493 0
6093 -121 9493 0
6093 9493 -122 0
-123 6093 9493 0
-124 6094 9493 0
-125 6094 9493 0
-126 6094 9493 0
-127 6094 9493 0
-128 6094 9493 0
-129 6094 9493 0
-145 6101 9494 0
-145 6102 9494 0
-146 6101 9494 0
-146 6103 9494 0
-147 6101 9494 0
-148 6101 9494 0
-149 6101 9494 0
-150 6101 9494 0
-151 6101 9494 0
-152 6101 9494 0
-153 6102 9494 0
-153 6103 9494 0
-154 6102 9494 0
-155 6102 9494 0
-156 6102 9494 0
-157 6102 9494 0
-158 6102 9494 0
-159 6102 9494 0
-160 6103 9494 0
-161 6103 9494 0
-162 6103 9494 0
-163 6103 9494 0
-164 6103 9494 0
-165 6103 9494 0
-181 6110 9495 0
-181 6111 9495 0
-182 6110 9495 0
-182 6112 9495 0
-183 6110 9495 0
-184 6110 9495 0
-185 6110 9495 0
-186 6110 9495 0
-187 6110 9495 0
-188 6110 9495 0
-189 6111 9495 0
-189 6112 9495 0
-190 6111 9495 0
6113 -190 9495 0
-191 6111 9495 0
6114 -191 9495 0
-192 6111 9495 0
6115 -192 9495 0
-193 6111 9495 0
6116 -193 9495 0
-194 6111 9495 0
6117 -194 9495 0
-195 6111 9495 0
6118 -195 9495 0
-196 6112 9495 0
-197 6112 9495 0
-198 6112 9495 0
-199 6112 9495 0
-200 6112 9495 0
-201 6112 9495 0
-217 6119 9496 0
-217 6120 9496 0
-218 6119 9496 0
-218 6121 9496 0
-219 6119 9496 0
-220 6119 9496 0
-221 6119 9496 0
-222 6119 9496 0
-223 6119 9496 0
-224 6119 9496 0
6120 -225 9496 0
-225 6121 9496 0
-226 6120 9496 0
6122 -226 9496 0
-227 6120 9496 0
6123 -227 9496 0
-228 6120 9496 0
6124 -228 9496 0
-229 6120 9496 0
6125 -229 9496 0
-230 6120 9496 0
6126 -230 9496 0
-231 6120 9496 0
6127 -231 9496 0
-232 6121 9496 0
-233 6121 9496 0
-234 6121 9496 0
-235 6121 9496 0
-236 6121 9496 0
-237 6121 9496 0
-253 6128 9497 0
6129 -253 9497 0
-254 6128 9497 0
6130 -254 9497 0
-255 6128 9497 0
6131 -255 9497 0
-256 6128 9497 0
6132 -256 9497 0
-257 6128 9497 0
6133 -257 9497 0
-258 6128 9497 0
6134 -258 9497 0
-259 6128 9497 0
6135 -259 9497 0
-260 6128 9497 0
6136 -260 9497 0
-261 6129 9497 0
-261 6130 9497 0
-262 6129 9497 0
-262 6131 9497 0
-263 6129 9497 0
6132 -263 9497 0
-264 6129 9497 0
-264 6133 9497 0
-265 6129 9497 0
-265 6134 9497 0
-266 6129 9497 0
-266 6135 9497 0
-267 6129 9497 0
6136 -267 9497 0
-268 6130 9497 0
-268 6131 9497 0
-269 6130 9497 0
6132 -269 9497 0
-270 6130 9497 0
-270 6133 9497 0
-271 6130 9497 0
-271 6134 9497 0
-272 6130 9497 0
-272 6135 9497 0
-273 6130 9497 0
6136 -273 9497 0
-274 6131 9497 0
-275 6131 9497 0
-275 6133 9497 0
-276 6131 9497 0
-276 6134 9497 0
-277 6131 9497 0
-277 6135 9497 0
-278 6131 9497 0
-279 6133 9497 0
-280 6134 9497 0
-281 6135 9497 0
-283 6133 9497 0
-283 6134 9497 0
-284 6133 9497 0
-284 6135 9497 0
-285 6133 9497 0
-286 6134 9497 0
-286 6135 9497 0
-287 6134 9497 0
-288 6135 9497 0
-289 6137 9498 0
-289 6138 9498 0
-290 6137 9498 0
-290 6139 9498 0
-291 6137 9498 0
-291 6140 9498 0
-292 6137 9498 0
-292 6141 9498 0
-293 6137 9498 0
-293 6142 9498 0
-294 6137 9498 0
-294 6143 9498 0
-295 6137 9498 0
-295 6144 9498 0
-296 6137 9498 0
-296 6145 9498 0
-297 6138 9498 0
-297 6139 9498 0
-298 6138 9498 0
-298 6140 9498 0
-299 6138 9498 0
6141 -299 9498 0
-300 6138 9498 0
-300 6142 9498 0
-301 6138 9498 0
-301 6143 9498 0
-302 6138 9498 0
6144 -302 9498 0
-303 6138 9498 0
-303 6145 9498 0
-304 6139 9498 0
-304 6140 9498 0
-305 6139 9498 0
-305 6141 9498 0
-306 6139 9498 0
-306 6142 9498 0
-307 6139 9498 0
-307 6143 9498 0
-308 6139 9498 0
-308 6144 9498 0
-309 6139 9498 0
-309 6145 9498 0
-310 6140 9498 0
-311 6140 9498 0
-311 6142 9498 0
-312 6140 9498 0
-312 6143 9498 0
-313 6140 9498 0
-313 6144 9498 0
-314 6140 9498 0
-314 6145 9498 0
-315 6142 9498 0
-316 6143 9498 0
-317 6144 9498 0
-318 6141 9498 0
-318 6145 9498 0
-319 6142 9498 0
-319 6143 9498 0
-320 6142 9498 0
-320 6144 9498 0
-321 6142 9498 0
-321 6145 9498 0
-322 6143 9498 0
-322 6144 9498 0
-323 6143 9498 0
-323 6145 9498 0
-324 6144 9498 0
-324 6145 9498 0
-325 6146 9499 0
-325 6147 9499 0
-326 6146 9499 0
6148 -326 9499 0
-327 6146 9499 0
6149 -327 9499 0
-328 6146 9499 0
6150 -328 9499 0
-6150 -9499 -6146 -328 0
-329 6146 9499 0
6151 -329 9499 0
-330 6146 9499 0
6152 -330 9499 0
-331 6146 9499 0
6153 -331 9499 0
-332 6146 9499 0
6154 -332 9499 0
-333 6147 9499 0
-333 6148 9499 0
-334 6147 9499 0
-334 6149 9499 0
6147 -335 9499 0
-335 6150 9499 0
-336 6147 9499 0
-336 6151 9499 0
-337 6147 9499 0
6152 -337 9499 0
-338 6147 9499 0
-338 6153 9499 0
6147 9499 -339 0
6154 9499 -339 0
-340 6148 9499 0
-340 6149 9499 0
-341 6148 9499 0
-341 6150 9499 0
-342 6148 9499 0
-343 6148 9499 0
-344 6148 9499 0
-345 6148 9499 0
-345 6154 9499 0
-346 6149 9499 0
-346 6150 9499 0
-347 6149 9499 0
-347 6151 9499 0
-348 6149 9499 0
-349 6149 9499 0
-349 6153 9499 0
-350 6149 9499 0
-350 6154 9499 0
-351 6150 9499 0
-352 6150 9499 0
-353 6150 9499 0
-353 6153 9499 0
-354 6150 9499 0
-354 6154 9499 0
-355 6151 9499 0
-356 6151 9499 0
-356 6153 9499 0
-357 6151 9499 0
-357 6154 9499 0
-359 6154 9499 0
-360 6153 9499 0
-360 6154 9499 0
-361 6155 9500 0
-362 6155 9500 0
9500 6157 -362 0
-363 6155 9500 0
-363 9500 6158 0
-364 6155 9500 0
-364 9500 6159 0
-365 6155 9500 0
-365 9500 6160 0
-366 6155 9500 0
-366 9500 6161 0
-367 6155 9500 0
-367 9500 6162 0
-367 -9500 -6162 -6155 0
-368 6155 9500 0
-368 9500 6163 0
-368 -6163 -6155 -9500 0
-369 6156 9500 0
9500 -369 6157 0
6156 9500 -370 0
9500 -370 6158 0
6156 9500 -371 0
9500 -371 6159 0
-9500 -6159 -371 -6156 0
6156 9500 -372 0
9500 -372 6160 0
9500 -373 6156 0
9500 -373 6161 0
6156 9500 -374 0
9500 -374 6162 0
9500 -375 6156 0
6163 9500 -375 0
9500 -376 6158 0
9500 -378 6160 0
9500 -379 6161 0
6162 9500 -380 0
6163 9500 -381 0
9500 -382 6158 0
-383 6158 9500 0
-383 9500 6160 0
-384 6158 9500 0
-384 6161 9500 0
-385 6158 9500 0
-385 6162 9500 0
-386 9500 6158 0
-386 6163 9500 0
6160 9500 -387 0
6161 9500 -388 0
6162 9500 -389 0
6163 9500 -390 0
-391 6160 9500 0
-391 6161 9500 0
-392 6160 9500 0
-392 6162 9500 0
-393 6160 9500 0
-393 6163 9500 0
-394 6161 9500 0
-394 6162 9500 0
-395 6161 9500 0
-395 6163 9500 0
-396 6162 9500 0
-396 6163 9500 0
9501 -9490 0
9502 -9501 0
9503 -9491 -9501 0
9504 -9503 0
-9492 -9503 0
9502 -9491 0
9505 -9502 0
-9492 9504 -9502 0
9506 -9504 0
-9493 -9504 0
9505 -9492 0
9507 -9505 0
-9493 9506 -9505 0
9508 -9506 0
-9494 -9506 0
9507 -9493 0
9509 -9507 0
-9494 9508 -9507 0
9510 -9508 0
-9495 -9508 0
9509 -9494 0
9511 -9509 0
-9495 9510 -9509 0
9512 -9510 0
-9496 -9510 0
9511 -9495 0
9513 -9511 0
9512 -9496 -9511 0
9514 -9512 0
-9497 -9512 0
9513 -9496 0
9515 -9513 0
9514 -9497 -9513 0
9516 -9514 0
-9498 -9514 0
9515 -9497 0
9517 -9515 0
-9498 9516 -9515 0
9518 -9516 0
-9499 -9516 0
9517 -9498 0
9518 -9499 -9517 0
-9500 -9518 0
-9519 -1 -6173 -6174 0
-9519 -12 -6174 -6178 0
-9519 -14 -6174 -6180 0
-16 9519 6175 0
-17 9519 6175 0
-18 9519 6175 0
-19 9519 6175 0
-20 9519 6175 0
-21 9519 6175 0
9523 -146 6211 0
-6217 -159 -6210 -9523 0
9548 -1 6282 0
9548 -2 6281 0
9548 -3 6281 0
9548 -4 6281 0
9548 -5 6281 0
9548 -6 6281 0
9548 -7 6281 0
9548 -8 6281 0
9549 -37 6291 0
9549 -38 6290 0
-39 9549 6290 0
-40 9549 6290 0
-41 9549 6290 0
-42 9549 6290 0
-43 9549 6290 0
9549 -44 6290 0
-74 9550 6299 0
-75 9550 6299 0
-76 9550 6299 0
-77 9550 6299 0
-78 9550 6299 0
-79 9550 6299 0
-80 9550 6299 0
9551 -109 6309 0
9553 -181 6326 0
-182 9553 6326 0
-183 9553 6326 0
-184 9553 6326 0
-185 9553 6326 0
-186 9553 6326 0
-187 9553 6326 0
-188 9553 6326 0
-189 9553 6327 0
-190 9553 6327 0
-191 9553 6327 0
-192 9553 6327 0
-194 9553 6327 0
-195 9553 6327 0
9554 -217 6336 0
-218 9554 6335 0
-219 9554 6335 0
-220 9554 6335 0
-221 9554 6335 0
-222 9554 6335 0
-223 9554 6335 0
9554 -224 6335 0
9554 -225 6336 0
-226 9554 6336 0
-227 9554 6336 0
-228 9554 6336 0
9554 -229 6336 0
-230 9554 6336 0
-231 9554 6336 0
9555 -254 6344 0
9555 -255 6344 0
9555 -256 6344 0
9555 -257 6344 0
9555 -258 6344 0
9555 -259 6344 0
9555 -260 6344 0
-289 9556 6354 0
-297 9556 6354 0
-298 9556 6354 0
-299 9556 6354 0
-300 9556 6354 0
-301 9556 6354 0
-302 9556 6354 0
-303 9556 6354 0
-325 9557 6363 0
9557 -333 6363 0
-334 9557 6363 0
-335 9557 6363 0
-336 9557 6363 0
-337 9557 6363 0
-338 9557 6363 0
9557 -339 6363 0
6370 -339 9557 0
6371 9558 -362 0
6371 9558 -363 0
-364 6371 9558 0
6371 9558 -365 0
-366 6371 9558 0
-367 6371 9558 0
-368 6371 9558 0
-369 6372 9558 0
6372 9558 -370 0
6372 9558 -371 0
6372 9558 -372 0
6372 9558 -373 0
6372 9558 -374 0
6372 9558 -375 0
9559 -9548 0
9560 -9559 0
9561 -9549 -9559 0
9562 -9561 0
9560 -9549 0
9565 -9560 0
9566 -9562 0
9565 -9550 0
9566 -9551 -9565 0
9569 -9566 0
9572 -9569 0
-9553 9570 -9569 0
-9570 9573 0
-9570 -9554 0
9575 -9572 0
9573 -9554 -9572 0
-9573 9576 0
9578 -9575 0
-9555 9576 -9575 0
-9576 9579 0
-9576 -9556 0
9581 -9578 0
-9556 9579 -9578 0
9582 -9579 0
-9579 -9557 0
9582 -9557 -9581 0
-9558 -9582 0
-9583 -2 -6389 -6391 0
-10 9583 6390 0
-11 9583 6390 0
-12 9583 6390 0
-13 9583 6390 0
-14 9583 6390 0
-15 9583 6390 0
9584 -47 6399 0
-75 9585 6407 0
-76 9585 6407 0
-77 9585 6407 0
-9585 -81 -6409 -6408 0
9586 -109 6417 0
-6416 -110 -9586 -6418 0
-111 9586 6416 0
-112 9586 6416 0
-113 9586 6416 0
9586 -114 6416 0
-115 9586 6416 0
-9586 -117 -6417 -6418 0
-118 9586 6417 0
-119 9586 6417 0
-120 9586 6417 0
9586 -121 6417 0
9586 6417 -122 0
-123 9586 6417 0
-9587 -6425 -146 -6427 0
-153 9587 6426 0
-154 9587 6426 0
-155 9587 6426 0
-156 9587 6426 0
-157 9587 6426 0
-158 9587 6426 0
-159 9587 6426 0
-6434 -182 -9588 -6436 0
-194 9588 6435 0
-195 9588 6435 0
9590 6453 -261 0
-262 9590 6453 0
-263 9590 6453 0
-264 9590 6453 0
-265 9590 6453 0
-266 9590 6453 0
-267 9590 6453 0
-6463 -290 -6461 -9591 0
9591 -298 6462 0
-299 9591 6462 0
-300 9591 6462 0
-301 9591 6462 0
-302 9591 6462 0
-303 9591 6462 0
-6472 -6470 -326 -9592 0
9592 -334 6471 0
9592 6471 -335 0
9592 -336 6471 0
9592 -337 6471 0
9592 -338 6471 0
9592 6471 -339 0
9595 -9584 0
9598 -9595 0
9600 -9598 0
9599 -9586 -9598 0
-9599 9601 0
-9587 -9599 0
9602 -9600 0
-9601 9603 0
-9603 9605 0
-9590 -9605 0
9612 -1 6497 0
-22 -9612 -6500 -6501 0
-24 -9612 -6500 -6503 0
-25 -9612 -6500 -6504 0
-26 -9612 -6500 -6505 0
-28 -9612 -6501 -6503 0
-29 -9612 -6501 -6504 0
-30 -9612 -6501 -6505 0
-34 -9612 -6503 -6504 0
-35 -9612 -6503 -6505 0
-36 -9612 -6504 -6505 0
