p cnf 9079 1445
4 1 2 5 6 -397 8 3 7 0
12 1 9 -398 11 13 14 15 10 0
-399 9 21 16 2 20 17 18 19 0
-401 4 22 17 29 28 27 11 30 0
-402 12 27 33 32 23 31 18 5 0
-403 13 28 35 34 24 31 19 6 0
-404 14 29 36 34 25 32 20 7 0
-405 15 26 21 35 30 33 8 36 0
-37 531 0
-531 532 0
-38 -531 0
-532 533 0
-533 534 0
-534 535 0
-535 536 0
-536 537 0
-537 538 0
-538 539 0
540 -539 0
541 -540 0
542 -541 0
543 -542 0
544 -543 0
545 -544 0
546 -545 0
-52 -545 0
547 -546 0
-53 -546 0
548 -547 0
-54 -547 0
549 -548 0
-55 -548 0
550 -549 0
-56 -549 0
-57 -550 0
-406 43 37 38 42 39 40 41 44 0
-407 47 45 46 48 37 51 50 49 0
408 -45 0
-408 38 45 57 56 54 55 53 52 0
566 -73 0
-566 567 0
-74 -566 0
-74 567 0
-567 568 0
-75 568 0
-568 569 0
-76 569 0
-569 570 0
-77 570 0
-570 571 0
-78 571 0
-571 572 0
-79 572 0
-572 573 0
-80 573 0
-573 574 0
-81 -573 0
-574 575 0
-574 -82 0
-575 576 0
-83 -575 0
-576 577 0
-84 -576 0
-577 578 0
-85 -577 0
579 -578 0
-578 -86 0
580 -579 0
-87 -579 0
581 -580 0
-88 -580 0
582 -581 0
-89 -581 0
583 -582 0
-90 -582 0
584 -583 0
-91 -583 0
585 -584 0
-92 -584 0
-93 -585 0
-415 75 74 73 76 77 78 79 80 0
-416 82 73 87 81 85 83 86 84 0
-417 92 81 74 88 90 89 91 93 0
-109 601 0
-601 602 0
-601 -110 0
-110 602 0
-602 603 0
-111 603 0
-603 604 0
-112 604 0
-604 605 0
-113 605 0
-605 606 0
-114 606 0
-606 607 0
-115 607 0
-607 608 0
-116 608 0
-608 609 0
-608 -117 0
-609 610 0
-118 -609 0
-610 611 0
-119 -610 0
-611 612 0
-120 -611 0
-612 613 0
-612 -121 0
614 -613 0
-613 -122 0
615 -614 0
-123 -614 0
616 -615 0
-124 -615 0
617 -616 0
-125 -616 0
618 -617 0
-126 -617 0
619 -618 0
-127 -618 0
620 -619 0
-128 -619 0
-129 -620 0
-424 110 109 114 115 113 111 112 116 0
-117 425 0
121 -425 117 109 122 119 118 120 123 0
-426 129 117 110 128 124 125 126 127 0
-145 636 0
-636 637 0
-636 -146 0
-146 637 0
-637 638 0
-638 639 0
-639 640 0
-640 641 0
-641 642 0
-642 643 0
-643 644 0
-643 -153 0
645 -644 0
-644 -154 0
646 -645 0
-155 -645 0
647 -646 0
-156 -646 0
648 -647 0
-157 -647 0
649 -648 0
-158 -648 0
650 -649 0
-159 -649 0
651 -650 0
-160 -650 0
652 -651 0
-161 -651 0
653 -652 0
-162 -652 0
654 -653 0
-163 -653 0
655 -654 0
-164 -654 0
-165 -655 0
-433 147 145 146 149 148 150 151 152 0
-434 154 145 153 158 156 155 159 157 0
-435 165 153 146 160 161 163 162 164 0
-181 671 0
-671 672 0
-182 -671 0
-182 672 0
-672 673 0
-673 674 0
-674 675 0
-675 676 0
-676 677 0
-677 678 0
-678 679 0
-189 -678 0
-679 680 0
-679 -190 0
-680 681 0
-191 -680 0
-681 682 0
-192 -681 0
-682 683 0
-193 -682 0
684 -683 0
-683 -194 0
685 -684 0
-195 -684 0
686 -685 0
-196 -685 0
687 -686 0
-197 -686 0
688 -687 0
-198 -687 0
689 -688 0
-199 -688 0
690 -689 0
-200 -689 0
-201 -690 0
-442 183 181 187 186 182 185 184 188 0
194 -443 181 189 190 193 191 192 195 0
200 198 189 182 -444 196 201 197 199 0
-217 706 0
-706 707 0
-706 -218 0
707 -218 0
-707 708 0
-708 709 0
-709 710 0
-710 711 0
-711 712 0
-712 713 0
-713 714 0
-714 715 0
-226 -714 0
-715 716 0
-227 -715 0
-716 717 0
-228 -716 0
-717 718 0
-229 -717 0
-718 719 0
-230 -718 0
-719 720 0
-231 -719 0
-720 721 0
-232 -720 0
-721 722 0
-233 -721 0
-722 723 0
-234 -722 0
-723 724 0
-235 -723 0
-724 725 0
-236 -724 0
-725 -237 0
-451 220 218 219 217 221 222 223 224 0
-217 452 0
-225 452 0
230 -452 225 217 227 226 229 228 231 0
237 236 225 218 -453 232 235 234 233 0
741 -253 0
-741 742 0
-254 -741 0
-254 742 0
-742 743 0
-743 744 0
-744 745 0
-745 746 0
-746 747 0
-747 748 0
-748 749 0
-749 750 0
-749 -262 0
751 -750 0
-263 -750 0
752 -751 0
-264 -751 0
753 -752 0
-265 -752 0
754 -753 0
-266 -753 0
755 -754 0
-267 -754 0
756 -755 0
-268 -755 0
757 -756 0
-269 -756 0
758 -757 0
-270 -757 0
759 -758 0
-271 -758 0
760 -759 0
-272 -759 0
-273 -760 0
-460 256 253 254 255 257 258 259 260 0
262 -461 266 253 261 267 263 264 265 0
-462 273 261 254 268 269 270 271 272 0
-289 776 0
-776 777 0
-776 -290 0
-290 777 0
-777 778 0
-778 779 0
-779 780 0
-780 781 0
-781 782 0
-782 783 0
-783 784 0
-784 785 0
-298 -784 0
-785 786 0
-299 -785 0
-786 787 0
-300 -786 0
788 -787 0
-787 -301 0
789 -788 0
-302 -788 0
790 -789 0
-303 -789 0
791 -790 0
-304 -790 0
792 -791 0
-305 -791 0
793 -792 0
-306 -792 0
794 -793 0
-307 -793 0
795 -794 0
-308 -794 0
-309 -795 0
-469 291 289 292 294 290 293 295 296 0
-470 303 289 297 299 298 300 301 302 0
-471 309 297 290 305 304 306 307 308 0
-325 811 0
-811 812 0
-326 -811 0
-812 813 0
-813 814 0
-814 815 0
-815 816 0
-816 817 0
-817 818 0
-818 819 0
-819 820 0
-820 821 0
-821 822 0
-822 823 0
-823 824 0
-824 825 0
-825 826 0
-340 -825 0
-826 827 0
-341 -826 0
-827 828 0
-342 -827 0
-828 829 0
-343 -828 0
830 -829 0
-829 -344 0
-345 -830 0
-478 332 325 327 328 329 330 326 331 0
-479 338 333 325 336 334 335 337 339 0
344 340 333 326 345 -480 342 343 341 0
363 362 -487 361 364 365 366 367 368 0
375 370 -488 361 369 371 372 373 374 0
376 -489 369 362 377 378 379 380 381 0
3583 0
-3682 0
399 3592 -3583 0
3601 408 -3592 0
3610 417 -3601 0
3619 426 -3610 0
3628 -3619 435 0
3637 -3628 444 0
3646 -3637 453 0
3655 -3646 462 0
3664 -3655 471 0
-3664 480 3673 0
-362 -3673 3682 0
4013 0
-4014 0
-4113 0
4015 0
-1 -4022 4014 0
-2 4022 -4013 -4015 0
4032 -37 -4022 0
-4032 4041 416 0
-4041 4050 425 0
-4050 4059 434 0
-4059 4068 443 0
-4068 4077 452 0
-4077 4086 461 0
-4086 4095 470 0
-4095 4104 479 0
488 -4104 4113 0
5418 0
-5517 0
5419 0
5421 0
5422 0
5423 0
5424 0
5425 0
398 5427 -5418 0
5428 399 -5419 0
5430 401 -5421 0
5431 402 -5422 0
5432 403 -5423 0
5433 404 -5424 0
5434 405 -5425 0
5427 -1 -5418 0
-2 5428 -5419 0
-4 5430 -5421 0
5431 -5 -5422 0
5432 -6 -5423 0
5433 -7 -5424 0
5434 -8 -5425 0
-9 5428 -5419 0
-11 5430 -5421 0
-12 5431 -5422 0
-13 5432 -5423 0
-14 5433 -5424 0
-15 5434 -5425 0
-17 5428 -5419 -5421 0
-17 5430 -5421 0
-18 5431 -5422 0
-19 5432 -5423 0
-20 5428 -5419 -5424 0
-20 5433 -5424 0
-21 5428 -5419 -5425 0
-21 5434 -5425 0
-22 5430 -5421 0
5431 -23 -5422 0
-24 5432 -5423 0
-25 5433 -5424 0
-26 5434 -5425 0
-27 5430 -5421 -5422 0
-27 5431 -5422 0
-28 5430 -5421 -5423 0
-28 5432 -5423 0
-29 5430 -5421 -5424 0
-29 5433 -5424 0
-30 5430 -5421 -5425 0
-30 5434 -5425 0
-31 5431 -5422 -5423 0
-31 5432 -5423 0
-32 5431 -5422 -5424 0
-32 5433 -5424 0
-33 5431 -5422 -5425 0
-33 5434 -5425 0
-34 5432 -5423 -5424 0
-34 5433 -5424 0
-35 5432 -5423 -5425 0
-35 5434 -5425 0
-36 5433 -5424 -5425 0
-36 5434 -5425 0
5436 407 -5427 0
5437 408 -5428 0
-45 5436 -5427 -5428 0
-47 5436 -5430 -5427 0
-48 5436 -5431 -5427 0
-49 5436 -5432 -5427 0
-50 5436 -5433 -5427 0
-51 5436 -5434 -5427 0
5445 416 -5436 0
5446 417 -5437 0
5445 -73 -5436 0
5454 425 -5445 0
5455 426 -5446 0
5454 -109 -5445 0
5463 434 -5454 0
5464 435 -5455 0
-145 5463 -5454 0
5464 -146 -5455 0
5463 -153 -5455 -5454 0
5463 443 -5472 0
443 -5463 5472 0
5473 -5464 444 0
5472 -181 -5463 0
-189 5472 -5463 -5464 0
5481 -5472 452 0
5482 -5473 453 0
5481 -217 -5472 0
461 -5481 5490 0
5491 462 -5482 0
-5481 -253 5490 0
-261 5490 -5481 -5482 0
5499 -5490 470 0
5499 -289 -5490 0
5499 -297 -5490 -5491 0
-5499 5508 479 0
-5499 -325 5508 0
488 -5508 5517 0
-361 -5508 5517 0
5633 0
-5732 0
-5634 0
-5733 0
-5635 0
5734 0
5636 0
5637 0
5638 0
5639 0
5640 0
5641 0
397 5642 -5633 0
398 -5643 5634 0
-5644 399 5635 0
5646 401 -5637 0
5647 402 -5638 0
5648 403 -5639 0
5649 404 -5640 0
5650 405 -5641 0
-5642 -1 5634 0
5643 -1 -5633 0
-2 -5642 5635 0
-2 5644 -5633 0
-3 5642 -5633 -5636 0
-4 5642 -5633 -5637 0
-5 5642 -5633 -5638 0
-6 5642 -5633 -5639 0
-7 5642 -5633 -5640 0
-8 5642 -5633 -5641 0
-9 -5643 5634 0
-5644 -9 5634 5635 0
-10 -5643 5634 0
-11 -5643 5634 0
-12 -5643 5634 0
-13 -5643 5634 0
-14 -5643 5634 0
-15 -5643 5634 0
-5644 -16 5635 0
-5644 -17 5635 0
-5644 -18 5635 0
-5644 -19 5635 0
-5644 -20 5635 0
-21 -5644 5635 0
-5651 406 5642 0
-5652 407 5643 0
407 5652 -5643 0
-5653 408 5644 0
408 -5644 5653 0
-5651 -37 5642 0
-5651 -37 5643 0
-37 5652 -5642 0
-37 5652 -5643 0
-5652 -37 5642 5643 0
-38 -5651 5642 0
-38 -5651 5644 0
-38 5653 -5642 0
-38 -5653 5642 5644 0
-39 -5651 5642 0
-40 -5651 5642 0
-41 -5651 5642 0
-42 -5651 5642 0
-43 -5651 5642 0
-44 -5651 5642 0
-45 -5652 5643 0
-45 -5652 5644 0
5653 -45 -5643 0
-5653 -45 5643 5644 0
-46 -5652 5643 0
5652 -46 -5643 -5645 0
-47 -5652 5643 0
-47 5652 -5646 -5643 0
-48 -5652 5643 0
-48 5652 -5647 -5643 0
-49 -5652 5643 0
-49 5652 -5648 -5643 0
-50 -5652 5643 0
-50 5652 -5649 -5643 0
-51 -5652 5643 0
-51 5652 -5650 -5643 0
-52 -5653 5644 0
-53 -5653 5644 0
-54 -5653 5644 0
-55 -5653 5644 0
-56 -5653 5644 0
-57 -5653 5644 0
-5660 415 5651 0
-5661 416 5652 0
-5662 417 5653 0
-5660 -73 5651 0
-5660 -73 5652 0
-73 -5661 5652 5651 0
-74 -5660 5651 0
-5660 -74 5653 0
-74 -5662 5651 5653 0
-75 -5660 5651 0
-76 -5660 5651 0
-77 -5660 5651 0
-78 -5660 5651 0
-79 -5660 5651 0
-80 -5660 5651 0
-81 -5661 5652 0
-81 -5661 5653 0
-81 -5662 5653 5652 0
-82 -5661 5652 0
-83 -5661 5652 0
-84 -5661 5652 0
-85 -5661 5652 0
-86 -5661 5652 0
-87 -5661 5652 0
-88 -5662 5653 0
-89 -5662 5653 0
-90 -5662 5653 0
-91 -5662 5653 0
-92 -5662 5653 0
-93 -5662 5653 0
-5669 5660 424 0
-5670 425 5661 0
425 -5661 5670 0
-5671 426 5662 0
-109 -5669 5660 0
-109 -5669 5661 0
-5660 -109 5670 0
-109 -5661 5670 0
5660 -109 5661 -5670 0
-110 -5669 5660 0
-110 -5669 5662 0
-110 -5671 5660 5662 0
-111 -5669 5660 0
-112 -5669 5660 0
-113 -5669 5660 0
-114 -5669 5660 0
-115 -5669 5660 0
-116 -5669 5660 0
-117 -5670 5661 0
-117 5662 -5670 0
-5661 -5662 -117 5670 0
-117 -5671 5662 5661 0
-118 -5670 5661 0
-119 -5670 5661 0
-120 -5670 5661 0
-121 -5670 5661 0
-122 -5670 5661 0
-123 -5670 5661 0
-124 -5671 5662 0
-125 -5671 5662 0
-126 -5671 5662 0
-127 -5671 5662 0
-128 -5671 5662 0
-129 -5671 5662 0
-5678 433 5669 0
-5679 434 5670 0
-5680 435 5671 0
-5678 -145 5669 0
-5678 -145 5670 0
-145 5678 -5670 -5669 0
-5669 -145 5679 0
5669 -145 5670 -5679 0
-146 -5678 5669 0
-146 -5678 5671 0
-5669 -146 5680 0
5669 -146 -5680 5671 0
-147 -5678 5669 0
-148 -5678 5669 0
-149 -5678 5669 0
-150 -5678 5669 0
-151 -5678 5669 0
-152 -5678 5669 0
-153 5670 -5679 0
-153 5671 -5679 0
-153 -5671 -5670 5679 0
-153 -5670 5680 0
-5680 -153 5671 5670 0
-154 -5679 5670 0
-155 5670 -5679 0
-156 -5679 5670 0
-157 -5679 5670 0
-158 5670 -5679 0
-159 -5679 5670 0
-160 -5680 5671 0
-161 5671 -5680 0
-162 5671 -5680 0
-163 -5680 5671 0
-164 -5680 5671 0
-165 -5680 5671 0
-5687 5678 442 0
443 -5688 5679 0
-5689 444 5680 0
-5687 5678 -181 0
-5687 -181 5679 0
-5678 -181 5688 0
5678 -181 -5688 5679 0
-182 -5687 5678 0
-182 -5687 5680 0
-182 -5678 5689 0
-182 5678 -5689 5680 0
-183 -5687 5678 0
-184 -5687 5678 0
-185 -5687 5678 0
-186 -5687 5678 0
-187 -5687 5678 0
-188 -5687 5678 0
-189 -5688 5679 0
-189 -5688 5680 0
-189 -5689 5679 5680 0
-190 -5688 5679 0
-5679 -5681 -190 5688 0
-191 -5688 5679 0
-192 -5688 5679 0
-193 -5688 5679 0
-194 -5688 5679 0
-195 -5688 5679 0
-196 -5689 5680 0
-197 -5689 5680 0
-198 -5689 5680 0
-199 -5689 5680 0
-200 -5689 5680 0
-201 -5689 5680 0
-5696 451 5687 0
-5697 452 5688 0
452 5697 -5688 0
-5698 453 5689 0
-217 -5696 5687 0
-217 -5696 5688 0
-217 -5687 5697 0
-217 5687 -5697 5688 0
-218 -5696 5687 0
-5696 -218 5689 0
-218 -5698 5687 5689 0
-219 -5696 5687 0
-220 -5696 5687 0
-221 -5696 5687 0
-222 -5696 5687 0
-223 -5696 5687 0
-224 -5696 5687 0
-225 -5697 5688 0
-225 5689 -5697 0
-225 5698 -5688 0
-225 5689 5688 -5698 0
-226 -5697 5688 0
-227 -5697 5688 0
-228 -5697 5688 0
-229 -5697 5688 0
-230 -5697 5688 0
-231 -5697 5688 0
-232 -5698 5689 0
-233 -5698 5689 0
-234 -5698 5689 0
-235 -5698 5689 0
-236 -5698 5689 0
-5698 -237 5689 0
-5705 460 5696 0
-5706 461 5697 0
462 -5707 5698 0
-253 -5705 5696 0
-5705 -253 5697 0
-5696 -253 5706 0
-253 5706 -5697 0
-253 -5706 5696 5697 0
-254 -5705 5696 0
-254 -5705 5698 0
-254 5696 -5707 5698 0
-255 -5705 5696 0
-256 -5705 5696 0
-257 -5705 5696 0
-258 -5705 5696 0
-259 -5705 5696 0
-260 -5705 5696 0
-261 -5706 5697 0
-261 -5706 5698 0
-261 5707 -5697 0
-261 -5707 5697 5698 0
-262 -5706 5697 0
-5699 -262 -5697 5706 0
-263 -5706 5697 0
-264 -5706 5697 0
-265 -5706 5697 0
-266 -5706 5697 0
-267 -5706 5697 0
-268 -5707 5698 0
-269 -5707 5698 0
-270 -5707 5698 0
-271 -5707 5698 0
-272 -5707 5698 0
-273 -5707 5698 0
469 5705 -5714 0
-5715 470 5706 0
471 5707 -5716 0
-289 5705 -5714 0
-289 -5714 5706 0
-289 5715 -5705 0
-289 5705 -5715 5706 0
-290 5705 -5714 0
-290 -5714 5707 0
-290 -5705 5716 0
-290 5705 -5716 5707 0
-291 5705 -5714 0
-292 5705 -5714 0
-293 5705 -5714 0
-294 5705 -5714 0
-295 5705 -5714 0
-296 5705 -5714 0
-297 -5715 5706 0
-297 5707 -5715 0
-297 -5706 5716 0
-297 -5716 5706 5707 0
-298 -5715 5706 0
-299 -5715 5706 0
-300 -5715 5706 0
-5715 -301 5706 0
-302 -5715 5706 0
-303 -5715 5706 0
-304 5707 -5716 0
-305 5707 -5716 0
-306 5707 -5716 0
-307 5707 -5716 0
-308 5707 -5716 0
-309 5707 -5716 0
478 5714 -5723 0
479 5715 -5724 0
480 5716 -5725 0
5714 -325 -5723 0
-325 5715 -5723 0
-5714 -325 5724 0
5714 -325 5715 -5724 0
-326 5714 -5723 0
-326 5714 -5725 5716 0
-327 5714 -5723 0
-328 5714 -5723 0
-329 5714 -5723 0
-330 5714 -5723 0
-331 5714 -5723 0
-332 5714 -5723 0
-333 5715 -5724 0
-333 5716 -5724 0
-333 5715 -5725 5716 0
-334 5715 -5724 0
-335 5715 -5724 0
-336 5715 -5724 0
-337 5715 -5724 0
-338 5715 -5724 0
-339 5715 -5724 0
-340 5716 -5725 0
-341 5716 -5725 0
-342 5716 -5725 0
-343 5716 -5725 0
-344 5716 -5725 0
-345 5716 -5725 0
-5724 488 5733 0
489 5725 -5734 0
-5723 -361 5733 0
-361 -5724 5733 0
-5725 -5723 -362 5732 0
5723 -362 5725 -5734 0
-369 5724 5725 -5734 0
-376 5725 -5734 0
-377 5725 -5734 0
-378 5725 -5734 0
-379 5725 -5734 0
-380 5725 -5734 0
-381 5725 -5734 0
5741 0
-5840 0
5742 0
5841 0
-5743 0
5842 0
5744 0
5745 0
5746 0
5747 0
5748 0
5749 0
5750 397 -5741 0
5751 398 -5742 0
-5752 399 5743 0
5750 -1 -5741 -5742 0
5751 -1 -5742 0
5750 -3 -5741 -5744 0
5750 -4 -5741 -5745 0
5750 -5 -5741 -5746 0
5750 -6 -5741 -5747 0
5750 -7 -5741 -5748 0
5750 -8 -5741 -5749 0
5751 -10 -5742 -5744 0
5751 -11 -5742 -5745 0
5751 -12 -5742 -5746 0
5751 -13 -5742 -5747 0
5751 -14 -5742 -5748 0
5751 -15 -5742 -5749 0
-16 -5752 5743 0
-17 -5752 5743 0
-18 -5752 5743 0
-5752 -19 5743 0
-5752 -20 5743 0
-21 -5752 5743 0
5760 407 -5751 0
-5761 408 5752 0
5759 -37 -5750 -5751 0
-52 -5761 5752 0
-53 -5761 5752 0
-54 -5761 5752 0
-55 -5761 5752 0
-56 -5761 5752 0
-57 -5761 5752 0
5768 -5759 415 0
-5760 5769 416 0
-5770 417 5761 0
-5769 -81 5761 0
5777 -5768 424 0
-5778 5769 425 0
5778 -5769 425 0
-5779 426 5770 0
-5778 -117 5770 0
-5777 5786 433 0
5778 -5787 434 0
-5788 5779 435 0
5779 -5787 -153 0
-5786 5795 442 0
5787 -5796 443 0
-5797 5788 444 0
5788 -189 -5796 0
-5795 5804 451 0
5796 -5805 452 0
-5806 5797 453 0
5797 -225 -5805 0
-5804 5813 460 0
5805 -5814 461 0
-5815 5806 462 0
5806 -261 -5814 0
-5813 5822 469 0
5814 -5823 470 0
5815 -5824 471 0
5815 -297 -5823 0
-5822 5831 478 0
5823 -5832 479 0
480 5824 -5833 0
-333 5823 -5832 0
-333 5824 -5832 0
-334 5823 -5832 0
-335 5823 -5832 0
-336 5823 -5832 0
-337 5823 -5832 0
-338 5823 -5832 0
-339 5823 -5832 0
-340 5824 -5833 0
-341 5824 -5833 0
-342 5824 -5833 0
-343 5824 -5833 0
5824 -5833 -344 0
-345 5824 -5833 0
487 -5831 5840 0
488 5832 -5841 0
5833 489 -5842 0
-369 5832 -5841 0
-369 5833 -5841 0
-370 5832 -5841 0
-371 5832 -5841 0
-372 5832 -5841 0
-373 5832 -5841 0
-374 5832 -5841 0
-375 5832 -5841 0
-376 5833 -5842 0
-377 5833 -5842 0
5833 -378 -5842 0
5833 -379 -5842 0
5833 -380 -5842 0
5833 -381 -5842 0
5957 0
-5958 0
6057 0
5959 0
5960 0
5961 0
5962 0
5963 0
5964 0
5965 0
5966 397 -5957 0
-5967 398 5958 0
5968 399 -5959 0
-5966 -1 5958 0
5966 -3 -5957 -5960 0
5966 -4 -5957 -5961 0
5966 -5 -5957 -5962 0
5966 -6 -5957 -5963 0
5966 -7 -5957 -5964 0
5966 -8 -5957 -5965 0
-5967 -9 5958 0
-5967 -10 5958 0
-5967 -11 5958 0
-5967 -12 5958 0
-5967 -13 5958 0
-5967 -14 5958 0
-5967 -15 5958 0
-5975 406 5966 0
-5976 407 5967 0
5977 408 -5968 0
-5975 -37 5967 0
-38 -5975 5966 0
-38 5975 -5966 -5968 0
-5976 -45 5967 0
-5976 -46 5967 0
-47 -5976 5967 0
-48 -5976 5967 0
-49 -5976 5967 0
-50 -5976 5967 0
-51 -5976 5967 0
-5984 415 5975 0
-5985 416 5976 0
5986 417 -5977 0
-73 -5985 5975 5976 0
-81 5976 -5985 0
-5985 -82 5976 0
-83 5976 -5985 0
-84 5976 -5985 0
-85 5976 -5985 0
-86 5976 -5985 0
-87 5976 -5985 0
5984 -5993 424 0
-5994 5985 425 0
5995 426 -5986 0
-5993 -109 5985 0
5984 -5994 5985 -109 0
-5994 -117 5985 0
-118 -5994 5985 0
-119 -5994 5985 0
-120 -5994 5985 0
-5994 5985 -121 0
-5994 5985 -122 0
-123 -5994 5985 0
-6002 5993 433 0
-6003 5994 434 0
6004 -5995 435 0
-6002 -145 5994 0
-6003 -153 5994 0
-6003 5994 -154 0
-155 -6003 5994 0
-156 -6003 5994 0
-157 -6003 5994 0
-158 -6003 5994 0
-159 -6003 5994 0
-6011 6002 442 0
-6012 6003 443 0
6013 -6004 444 0
-189 -6012 6003 0
-6012 6003 -190 0
-191 -6012 6003 0
-192 -6012 6003 0
-193 -6012 6003 0
-6012 6003 -194 0
-195 -6012 6003 0
-6020 6011 451 0
6012 -6021 452 0
6022 -6013 453 0
-225 6012 -6021 0
-226 -6021 6012 0
-227 -6021 6012 0
-228 -6021 6012 0
-229 -6021 6012 0
-230 -6021 6012 0
-231 -6021 6012 0
-6029 6020 460 0
6021 -6030 461 0
6031 -6022 462 0
-254 -6029 6020 0
-261 6021 -6030 0
6021 -6030 -262 0
-263 6021 -6030 0
-264 6021 -6030 0
-265 6021 -6030 0
6021 -6030 -266 0
-267 6021 -6030 0
6029 -6038 469 0
-6039 470 6030 0
6040 -6031 471 0
-6038 -289 6030 0
6029 -289 -6039 6030 0
6029 -6038 -290 0
-291 6029 -6038 0
6029 -292 -6038 0
-293 6029 -6038 0
-294 6029 -6038 0
-295 6029 -6038 0
-296 6029 -6038 0
-297 -6039 6030 0
-298 -6039 6030 0
-299 -6039 6030 0
-300 -6039 6030 0
-301 -6039 6030 0
-302 -6039 6030 0
-303 -6039 6030 0
-6047 6038 478 0
479 6039 -6048 0
-6047 6038 -325 0
6038 -325 -6048 6039 0
-6047 6038 -326 0
-327 -6047 6038 0
-328 -6047 6038 0
-329 -6047 6038 0
-330 -6047 6038 0
-331 -6047 6038 0
-332 -6047 6038 0
-333 6039 -6048 0
-334 6039 -6048 0
-335 6039 -6048 0
-336 6039 -6048 0
-337 6039 -6048 0
-338 6039 -6048 0
-339 6039 -6048 0
6048 488 -6057 0
-361 6047 6048 -6057 0
-369 6048 -6057 0
-370 6048 -6057 0
-371 6048 -6057 0
6048 -372 -6057 0
6048 -373 -6057 0
6048 -374 -6057 0
6048 -375 -6057 0
8906 -1 5634 0
-2 8906 5635 0
-9 8906 5635 0
-10 8906 5634 0
8906 -11 5634 0
8906 -12 5634 0
8906 -13 5634 0
8906 -14 5634 0
8906 -15 5634 0
-16 8906 5635 0
8906 -17 5635 0
8906 -18 5635 0
8906 -19 5635 0
8906 -20 5635 0
8906 -21 5635 0
-22 -8906 -5636 -5637 0
-23 -8906 -5636 -5638 0
-24 -8906 -5636 -5639 0
-25 -8906 -5636 -5640 0
-26 -8906 -5636 -5641 0
-27 -8906 -5637 -5638 0
-28 -8906 -5637 -5639 0
-29 -8906 -5637 -5640 0
-30 -8906 -5637 -5641 0
-31 -8906 -5638 -5639 0
-32 -8906 -5638 -5640 0
-33 -8906 -5638 -5641 0
-34 -8906 -5639 -5640 0
-35 -8906 -5639 -5641 0
-36 -8906 -5640 -5641 0
-37 8907 5642 0
-37 8907 5643 0
-38 8907 5644 0
-39 8907 5642 0
-40 8907 5642 0
-41 8907 5642 0
-42 8907 5642 0
-43 8907 5642 0
-44 8907 5642 0
-45 8907 5643 0
-45 8907 5644 0
-46 8907 5643 0
5645 -46 8907 0
-47 8907 5643 0
-48 8907 5643 0
-49 8907 5643 0
-50 8907 5643 0
-51 8907 5643 0
-52 8907 5644 0
-53 8907 5644 0
-54 8907 5644 0
-55 8907 5644 0
-56 8907 5644 0
-57 8907 5644 0
8908 -73 5651 0
-73 8908 5652 0
-74 5651 8908 0
-74 5653 8908 0
-75 5651 8908 0
-76 5651 8908 0
-77 5651 8908 0
-78 5651 8908 0
-79 5651 8908 0
-80 5651 8908 0
-81 8908 5652 0
-81 8908 5653 0
-82 5652 8908 0
-83 5652 8908 0
-84 5652 8908 0
-85 5652 8908 0
-86 5652 8908 0
-87 5652 8908 0
-88 5653 8908 0
-89 5653 8908 0
-90 5653 8908 0
-91 5653 8908 0
-92 5653 8908 0
-93 5653 8908 0
-109 5660 8909 0
-109 8909 5661 0
-110 5660 8909 0
-110 5662 8909 0
-111 5660 8909 0
-112 5660 8909 0
-113 5660 8909 0
-114 5660 8909 0
-115 5660 8909 0
-116 5660 8909 0
8909 -117 5661 0
-117 8909 5662 0
-118 8909 5661 0
-119 8909 5661 0
-120 8909 5661 0
8909 -121 5661 0
-122 8909 5661 0
-123 8909 5661 0
-124 5662 8909 0
-125 5662 8909 0
-126 5662 8909 0
-127 5662 8909 0
-128 5662 8909 0
-129 5662 8909 0
-145 5669 8910 0
-145 8910 5670 0
5669 -146 8910 0
-146 5671 8910 0
-147 5669 8910 0
-148 5669 8910 0
-149 5669 8910 0
-150 5669 8910 0
-151 5669 8910 0
-152 5669 8910 0
-153 8910 5670 0
-153 8910 5671 0
-154 5670 8910 0
-155 5670 8910 0
-156 5670 8910 0
-157 5670 8910 0
-158 5670 8910 0
-159 5670 8910 0
-160 5671 8910 0
-161 5671 8910 0
-162 5671 8910 0
-163 5671 8910 0
-164 5671 8910 0
-165 5671 8910 0
5678 -181 8911 0
-181 5679 8911 0
-182 5678 8911 0
-182 5680 8911 0
-183 5678 8911 0
-184 5678 8911 0
-185 5678 8911 0
-186 5678 8911 0
-187 5678 8911 0
-188 5678 8911 0
-189 5679 8911 0
-189 5680 8911 0
-190 5679 8911 0
5681 -190 8911 0
-191 5679 8911 0
-192 5679 8911 0
-193 5679 8911 0
-194 5679 8911 0
-195 5679 8911 0
-196 5680 8911 0
-197 5680 8911 0
-198 5680 8911 0
-199 5680 8911 0
-200 5680 8911 0
-201 5680 8911 0
-217 5687 8912 0
-217 8912 5688 0
-218 5687 8912 0
-218 5689 8912 0
-219 5687 8912 0
-220 5687 8912 0
-221 5687 8912 0
-222 5687 8912 0
-223 5687 8912 0
-224 5687 8912 0
-225 8912 5688 0
-225 8912 5689 0
-226 8912 5688 0
-227 8912 5688 0
-228 8912 5688 0
-229 8912 5688 0
-230 8912 5688 0
-231 8912 5688 0
-232 8912 5689 0
-233 8912 5689 0
-234 8912 5689 0
-235 8912 5689 0
-236 8912 5689 0
-237 8912 5689 0
-253 5696 8913 0
-253 5697 8913 0
-254 5696 8913 0
-254 8913 5698 0
-255 5696 8913 0
-256 5696 8913 0
-257 5696 8913 0
-258 5696 8913 0
-259 5696 8913 0
-260 5696 8913 0
-261 5697 8913 0
-261 8913 5698 0
-262 5697 8913 0
5699 -262 8913 0
-263 5697 8913 0
-264 5697 8913 0
-265 5697 8913 0
-266 5697 8913 0
-267 5697 8913 0
-268 8913 5698 0
-269 8913 5698 0
-270 8913 5698 0
-271 8913 5698 0
-272 8913 5698 0
-273 8913 5698 0
-289 5705 8914 0
-289 8914 5706 0
-290 5705 8914 0
-290 5707 8914 0
-291 5705 8914 0
-292 5705 8914 0
-293 5705 8914 0
-294 5705 8914 0
-295 5705 8914 0
-296 5705 8914 0
-297 8914 5706 0
-297 5707 8914 0
-298 8914 5706 0
-299 8914 5706 0
-300 8914 5706 0
-301 8914 5706 0
-302 8914 5706 0
-303 8914 5706 0
-304 5707 8914 0
-305 5707 8914 0
-306 5707 8914 0
-307 5707 8914 0
-308 5707 8914 0
-309 5707 8914 0
5714 -325 8915 0
-325 5715 8915 0
-326 5714 8915 0
-326 5716 8915 0
-327 5714 8915 0
-328 5714 8915 0
-329 5714 8915 0
-330 5714 8915 0
-331 5714 8915 0
-332 5714 8915 0
-333 5715 8915 0
-333 5716 8915 0
-334 5715 8915 0
-335 5715 8915 0
-336 5715 8915 0
-337 5715 8915 0
-338 5715 8915 0
-339 5715 8915 0
-340 5716 8915 0
-341 5716 8915 0
-342 5716 8915 0
-343 5716 8915 0
-344 5716 8915 0
-345 5716 8915 0
-361 8916 5724 0
5723 8916 -362 0
-362 8916 5725 0
-363 5723 8916 0
-364 5723 8916 0
-365 5723 8916 0
-366 5723 8916 0
-367 5723 8916 0
-368 5723 8916 0
5724 8916 -369 0
8916 -369 5725 0
5724 8916 -370 0
5724 8916 -371 0
5724 8916 -372 0
5724 8916 -373 0
5724 8916 -374 0
5724 8916 -375 0
8916 -381 5725 0
8917 -8906 0
8918 -8917 0
-8907 8919 -8917 0
-8919 8920 0
-8919 -8908 0
-8907 8918 0
8921 -8918 0
-8908 8920 -8918 0
-8920 8922 0
-8920 -8909 0
8921 -8908 0
8923 -8921 0
-8909 8922 -8921 0
-8922 8924 0
-8922 -8910 0
8923 -8909 0
8925 -8923 0
-8910 8924 -8923 0
-8924 8926 0
-8924 -8911 0
8925 -8910 0
8927 -8925 0
8926 -8911 -8925 0
-8926 8928 0
-8912 -8926 0
8927 -8911 0
8929 -8927 0
-8912 8928 -8927 0
-8928 8930 0
-8928 -8913 0
8929 -8912 0
8931 -8929 0
-8913 8930 -8929 0
8932 -8930 0
-8914 -8930 0
8931 -8913 0
8933 -8931 0
-8914 8932 -8931 0
8934 -8932 0
-8915 -8932 0
8933 -8914 0
8934 -8915 -8933 0
-8916 -8934 0
-8935 -1 -5741 -5742 0
-16 8935 5743 0
-17 8935 5743 0
-18 8935 5743 0
-19 8935 5743 0
-20 8935 5743 0
-21 8935 5743 0
9005 -1 5958 0
-2 -9005 -5957 -5959 0
-10 9005 5958 0
9005 -11 5958 0
9005 -12 5958 0
9005 -13 5958 0
9005 -14 5958 0
9005 -15 5958 0
-9006 -38 -5966 -5968 0
9006 -46 5967 0
9009 -145 5994 0
9010 -182 6002 0
-6020 -9012 -254 -6022 0
6021 9012 -262 0
-263 9012 6021 0
-264 9012 6021 0
-265 9012 6021 0
9012 6021 -266 0
-267 9012 6021 0
-9014 -6038 -326 -6040 0
-334 9014 6039 0
-335 9014 6039 0
-336 9014 6039 0
-337 9014 6039 0
-338 9014 6039 0
-339 9014 6039 0
9016 -9005 0
9017 -9016 0
9020 -9017 0
9022 -9020 0
9023 -9009 -9022 0
-9023 -9010 0
