p cnf 10087 752
2 -397 1 4 8 5 3 6 7 0
15 -398 1 14 9 10 11 12 13 0
531 -37 0
532 -531 0
-39 -532 0
-406 37 43 44 38 39 40 41 42 0
-407 46 37 45 51 47 48 49 50 0
-415 80 73 79 74 75 76 77 78 0
-416 83 73 81 82 87 84 85 86 0
-424 115 109 116 110 111 112 113 114 0
-425 117 120 109 121 118 119 122 123 0
-433 152 145 150 146 147 148 149 151 0
-434 157 145 154 155 156 153 158 159 0
-442 184 181 187 182 183 188 185 186 0
192 191 181 190 189 -443 193 194 195 0
-451 223 217 224 218 219 220 221 222 0
-452 226 217 225 227 228 229 230 231 0
-460 260 253 254 259 255 257 258 256 0
-461 265 253 262 266 267 261 264 263 0
291 292 289 -469 290 293 294 295 296 0
-470 298 289 301 297 299 300 302 303 0
-478 331 325 326 330 328 327 329 332 0
-479 325 335 333 334 336 337 338 339 0
365 -487 361 363 364 366 362 367 368 0
-488 371 361 369 370 372 373 374 375 0
-493 366 373 379 384 388 391 394 395 0
5526 0
-5625 0
398 5535 -5526 0
5544 407 -5535 0
5544 -37 -5535 0
5553 416 -5544 0
5553 -73 -5544 0
5562 425 -5553 0
5562 -109 -5553 0
5571 434 -5562 0
5571 -145 -5562 0
5580 443 -5571 0
5580 -181 -5571 0
5589 -5580 452 0
5589 -217 -5580 0
5598 -5589 461 0
5598 -253 -5589 0
5607 -5598 470 0
5607 -289 -5598 0
479 -5607 5616 0
-325 -5607 5616 0
-5616 488 5625 0
-361 -5616 5625 0
6281 0
-6380 0
6282 0
6283 0
6285 0
6286 0
6287 0
6288 0
6289 0
6290 397 -6281 0
6291 398 -6282 0
-1 6290 -6281 -6282 0
-1 6291 -6282 0
-2 6290 -6281 -6283 0
-4 6290 -6281 -6285 0
-5 6290 -6281 -6286 0
-6 6290 -6281 -6287 0
-7 6290 -6281 -6288 0
-8 6290 -6281 -6289 0
6299 406 -6290 0
6300 407 -6291 0
6299 -37 -6290 -6291 0
6308 415 -6299 0
6309 416 -6300 0
6308 -73 -6299 -6300 0
6317 424 -6308 0
6318 425 -6309 0
-6308 -109 6317 -6309 0
6326 433 -6317 0
6327 434 -6318 0
6326 -145 -6318 -6317 0
6335 442 -6326 0
6336 443 -6327 0
-6326 -181 6335 -6327 0
6344 451 -6335 0
6345 -6336 452 0
-6335 -217 -6336 6344 0
-6344 6353 460 0
6354 -6345 461 0
-6344 -253 6353 -6345 0
469 6362 -6353 0
6363 -6354 470 0
6362 -6353 -6354 -289 0
-6362 6371 478 0
-6362 6371 -325 -6363 0
487 -6371 6380 0
-6605 0
-6704 0
-6606 0
-6705 0
-6614 397 6605 0
-6615 398 6606 0
-6614 -1 6605 0
-6614 -2 6605 0
-6614 -3 6605 0
-6614 -4 6605 0
-6614 -5 6605 0
-6614 -6 6605 0
-6614 -7 6605 0
-6614 -8 6605 0
-6623 406 6614 0
-6624 407 6615 0
-6623 -37 6614 0
-6624 -37 6614 6615 0
-38 -6623 6614 0
-6623 -39 6614 0
-40 -6623 6614 0
-41 -6623 6614 0
-42 -6623 6614 0
-43 -6623 6614 0
-6623 -44 6614 0
-6632 415 6623 0
-6633 416 6624 0
-6632 -73 6623 0
-6633 6623 -73 6624 0
-74 -6632 6623 0
-75 -6632 6623 0
-76 -6632 6623 0
-77 -6632 6623 0
-78 -6632 6623 0
-79 -6632 6623 0
-80 -6632 6623 0
-6641 424 6632 0
-6642 425 6633 0
-6641 -109 6632 0
-6642 -109 6632 6633 0
-110 -6641 6632 0
-111 -6641 6632 0
-112 -6641 6632 0
-113 -6641 6632 0
-114 -6641 6632 0
-115 -6641 6632 0
-116 -6641 6632 0
-6650 433 6641 0
-6651 434 6642 0
-6650 -145 6641 0
-6651 -145 6641 6642 0
-146 -6650 6641 0
-147 -6650 6641 0
-148 -6650 6641 0
-149 -6650 6641 0
-150 -6650 6641 0
-151 -6650 6641 0
-152 -6650 6641 0
-6659 442 6650 0
-6660 443 6651 0
-6660 -181 6650 6651 0
-182 -6659 6650 0
-183 -6659 6650 0
-184 -6659 6650 0
-185 -6659 6650 0
-186 -6659 6650 0
-187 -6659 6650 0
-188 -6659 6650 0
-6668 451 6659 0
-6669 6660 452 0
-6669 -217 6659 6660 0
-218 -6668 6659 0
-219 -6668 6659 0
-220 -6668 6659 0
-221 -6668 6659 0
-222 -6668 6659 0
-223 -6668 6659 0
-224 -6668 6659 0
-6677 6668 460 0
-6678 6669 461 0
-6678 -253 6668 6669 0
-254 -6677 6668 0
-255 -6677 6668 0
-256 -6677 6668 0
-257 -6677 6668 0
-258 -6677 6668 0
-259 -6677 6668 0
-260 -6677 6668 0
-261 -6678 6669 0
-262 -6678 6669 0
-263 -6678 6669 0
-6678 -264 6669 0
-6678 -265 6669 0
-266 -6678 6669 0
-267 -6678 6669 0
-6686 469 6677 0
-6687 6678 470 0
-6687 6677 -289 6678 0
-290 -6686 6677 0
-6686 -291 6677 0
-292 -6686 6677 0
-293 -6686 6677 0
-294 -6686 6677 0
-295 -6686 6677 0
-296 -6686 6677 0
-6686 478 6695 0
-6696 6687 479 0
-6696 6686 -325 6687 0
487 -6695 6704 0
-361 -6695 6705 0
6713 0
-6812 0
-6714 0
6813 0
6715 0
6716 0
6717 0
6718 0
6719 0
6818 0
6720 0
6721 0
6722 397 -6713 0
-6723 398 6714 0
-6722 -1 6714 0
-2 6722 -6713 -6715 0
-3 6722 -6713 -6716 0
-4 6722 -6713 -6717 0
-5 6722 -6713 -6718 0
6722 -6 -6713 -6719 0
-7 6722 -6713 -6720 0
-8 6722 -6713 -6721 0
-6723 -9 6714 0
-6723 -10 6714 0
-6723 -11 6714 0
-6723 -12 6714 0
-6723 -13 6714 0
-6723 -14 6714 0
-15 -6723 6714 0
-6731 406 6722 0
-6732 407 6723 0
-37 -6731 6722 0
-6731 -37 6723 0
-38 -6731 6722 0
-39 -6731 6722 0
-40 -6731 6722 0
-41 -6731 6722 0
-45 -6732 6723 0
-46 -6732 6723 0
-47 -6732 6723 0
-48 -6732 6723 0
-49 -6732 6723 0
-50 -6732 6723 0
-51 -6732 6723 0
-6740 6731 415 0
-6741 416 6732 0
-6740 -73 6732 0
-81 -6741 6732 0
-82 -6741 6732 0
-83 -6741 6732 0
-84 -6741 6732 0
-85 -6741 6732 0
-86 -6741 6732 0
-87 -6741 6732 0
-6749 6740 424 0
-6750 425 6741 0
-6749 -109 6741 0
-117 -6750 6741 0
-118 -6750 6741 0
-119 -6750 6741 0
-120 -6750 6741 0
-121 -6750 6741 0
-122 -6750 6741 0
-123 -6750 6741 0
6749 -6758 433 0
-6759 434 6750 0
-6758 -145 6750 0
-153 -6759 6750 0
-154 -6759 6750 0
-155 -6759 6750 0
-156 -6759 6750 0
-157 -6759 6750 0
-158 -6759 6750 0
-159 -6759 6750 0
6758 -6767 442 0
443 -6768 6759 0
-6767 -181 6759 0
-184 -6767 6758 0
-189 -6768 6759 0
-190 -6768 6759 0
-191 -6768 6759 0
-192 -6768 6759 0
-193 -6768 6759 0
-194 -6768 6759 0
-195 -6768 6759 0
6767 -6776 451 0
-6777 452 6768 0
-6776 -217 6768 0
-225 -6777 6768 0
-226 -6777 6768 0
-227 -6777 6768 0
-228 -6777 6768 0
-229 -6777 6768 0
-230 -6777 6768 0
-231 -6777 6768 0
6776 -6785 460 0
-6786 461 6777 0
-6785 -253 6777 0
-261 -6786 6777 0
-262 -6786 6777 0
-263 -6786 6777 0
-264 -6786 6777 0
-265 -6786 6777 0
-266 -6786 6777 0
-267 -6786 6777 0
469 6785 -6794 0
-6795 470 6786 0
-6794 -289 6786 0
-297 -6795 6786 0
-298 -6795 6786 0
-299 -6795 6786 0
-300 -6795 6786 0
-301 -6795 6786 0
-302 -6795 6786 0
-303 -6795 6786 0
-6803 478 6794 0
478 -6794 6803 0
479 -6804 6795 0
-325 6795 -6803 0
-6794 -6795 -325 6803 0
-6796 -326 -6794 6803 0
-6797 -327 -6794 6803 0
-6798 -328 -6794 6803 0
-6799 -329 -6794 6803 0
-6800 -330 -6794 6803 0
-6801 -331 -6794 6803 0
-6802 -332 -6794 6803 0
-333 -6804 6795 0
-334 -6804 6795 0
-335 -6804 6795 0
-336 -6804 6795 0
-337 -6804 6795 0
-338 -6804 6795 0
-339 -6804 6795 0
-6803 487 6812 0
6804 488 -6813 0
6809 493 -6818 0
-6804 -6803 -361 6812 0
-6805 -362 -6803 6812 0
-6806 -363 -6803 6812 0
-6807 -364 -6803 6812 0
-6808 -365 -6803 6812 0
-6809 -366 -6803 6812 0
-6810 -367 -6803 6812 0
-6811 -368 -6803 6812 0
6804 -369 -6813 0
6804 -370 -6813 0
6804 -371 -6813 0
6804 -372 -6813 0
6804 -373 -6813 0
6804 -374 -6813 0
6804 -375 -6813 0
9992 -1 6605 0
9992 -2 6605 0
9992 -3 6605 0
9992 -4 6605 0
9992 -5 6605 0
9992 -6 6605 0
9992 -7 6605 0
9992 -8 6605 0
-37 9993 6614 0
-38 9993 6614 0
-39 9993 6614 0
-40 9993 6614 0
-41 9993 6614 0
-42 9993 6614 0
-43 9993 6614 0
-44 9993 6614 0
6623 -73 9994 0
9994 -73 6624 0
-74 6623 9994 0
-75 6623 9994 0
-76 6623 9994 0
-77 6623 9994 0
-78 6623 9994 0
-79 6623 9994 0
-80 6623 9994 0
-81 9994 6624 0
-82 9994 6624 0
9994 -83 6624 0
-84 9994 6624 0
-85 9994 6624 0
-86 9994 6624 0
-87 9994 6624 0
6632 -109 9995 0
9995 -109 6633 0
-110 6632 9995 0
-111 6632 9995 0
-112 6632 9995 0
-113 6632 9995 0
-114 6632 9995 0
-115 6632 9995 0
-116 6632 9995 0
-117 6633 9995 0
-118 6633 9995 0
-119 6633 9995 0
-120 6633 9995 0
-121 6633 9995 0
-122 6633 9995 0
-123 6633 9995 0
-145 6641 9996 0
-145 9996 6642 0
-146 6641 9996 0
-147 6641 9996 0
-148 6641 9996 0
-149 6641 9996 0
-150 6641 9996 0
-151 6641 9996 0
-152 6641 9996 0
-153 9996 6642 0
-154 9996 6642 0
-155 9996 6642 0
-156 9996 6642 0
-157 9996 6642 0
-158 9996 6642 0
-159 9996 6642 0
9997 -181 6650 0
-182 6650 9997 0
-183 6650 9997 0
-184 6650 9997 0
-185 6650 9997 0
-186 6650 9997 0
-187 6650 9997 0
-188 6650 9997 0
-189 9997 6651 0
-190 9997 6651 0
-191 9997 6651 0
9997 6651 -192 0
-193 9997 6651 0
-194 9997 6651 0
-195 9997 6651 0
9998 -217 6659 0
9998 -217 6660 0
-218 6659 9998 0
-219 6659 9998 0
-220 6659 9998 0
-221 6659 9998 0
-222 6659 9998 0
-223 6659 9998 0
-224 6659 9998 0
-225 6660 9998 0
9998 -226 6660 0
-227 9998 6660 0
-228 9998 6660 0
-229 9998 6660 0
-230 9998 6660 0
-231 9998 6660 0
6669 -253 9999 0
-254 6668 9999 0
-255 6668 9999 0
-256 6668 9999 0
-257 6668 9999 0
-258 6668 9999 0
-259 6668 9999 0
-260 6668 9999 0
-261 6669 9999 0
-262 6669 9999 0
-263 6669 9999 0
9999 -264 6669 0
9999 -265 6669 0
-266 6669 9999 0
-267 6669 9999 0
10000 -289 6678 0
-290 10000 6677 0
-291 10000 6677 0
-292 10000 6677 0
-293 10000 6677 0
-294 10000 6677 0
-295 10000 6677 0
-296 10000 6677 0
-297 10000 6678 0
10000 -298 6678 0
-299 10000 6678 0
-300 10000 6678 0
-301 10000 6678 0
-302 10000 6678 0
-303 10000 6678 0
10001 -325 6687 0
-333 6687 10001 0
-334 6687 10001 0
-335 6687 10001 0
-336 6687 10001 0
-337 6687 10001 0
-338 6687 10001 0
-339 6687 10001 0
10002 -361 6695 0
10002 6696 -369 0
10002 6696 -370 0
10002 6696 -371 0
10002 6696 -372 0
10002 6696 -373 0
10002 6696 -374 0
10002 6696 -375 0
10003 -9992 0
10004 -10003 0
-9993 10005 -10003 0
-10005 10006 0
-10005 -9994 0
-9993 10004 0
10007 -10004 0
-9994 10006 -10004 0
-10006 10008 0
-9995 -10006 0
-9994 10007 0
10009 -10007 0
-9995 10008 -10007 0
-10008 10010 0
-9996 -10008 0
-9995 10009 0
10011 -10009 0
-9996 10010 -10009 0
-10010 10012 0
-10010 -9997 0
-9996 10011 0
10013 -10011 0
10012 -9997 -10011 0
-10012 10014 0
-10012 -9998 0
10013 -9997 0
10015 -10013 0
-9998 10014 -10013 0
-10014 10016 0
-10014 -9999 0
-9998 10015 0
10017 -10015 0
-9999 10016 -10015 0
-10016 10018 0
-10016 -10000 0
10017 -9999 0
10019 -10017 0
-10000 10018 -10017 0
-10018 10020 0
-10018 -10001 0
10019 -10000 0
-10001 10020 -10019 0
-10020 -10002 0
10021 -1 6714 0
-6 -10021 -6713 -6719 0
-9 10021 6714 0
-10 10021 6714 0
-11 10021 6714 0
-12 10021 6714 0
-13 10021 6714 0
-14 10021 6714 0
-15 10021 6714 0
-37 10022 6723 0
-38 10022 6722 0
-39 10022 6722 0
-40 10022 6722 0
-41 10022 6722 0
-42 10022 6722 0
-43 10022 6722 0
-44 10022 6722 0
-45 10022 6723 0
-46 10022 6723 0
-47 10022 6723 0
-48 10022 6723 0
-49 10022 6723 0
-50 10022 6723 0
-51 10022 6723 0
6731 -73 10023 0
-73 6732 10023 0
-74 6731 10023 0
-75 6731 10023 0
-76 6731 10023 0
-77 6731 10023 0
-78 6731 10023 0
-79 6731 10023 0
-80 6731 10023 0
-81 6732 10023 0
-82 6732 10023 0
-83 6732 10023 0
-84 6732 10023 0
-85 6732 10023 0
-86 6732 10023 0
-87 6732 10023 0
-109 6740 10024 0
-109 6741 10024 0
-110 6740 10024 0
-111 6740 10024 0
-112 6740 10024 0
-113 6740 10024 0
-114 6740 10024 0
-115 6740 10024 0
-116 6740 10024 0
-117 6741 10024 0
-118 6741 10024 0
-119 6741 10024 0
-120 6741 10024 0
-121 6741 10024 0
-122 6741 10024 0
-123 6741 10024 0
-145 6749 10025 0
-145 6750 10025 0
-146 6749 10025 0
-147 6749 10025 0
-148 6749 10025 0
-149 6749 10025 0
-150 6749 10025 0
-151 6749 10025 0
-152 6749 10025 0
-153 6750 10025 0
-154 6750 10025 0
-155 6750 10025 0
-156 6750 10025 0
-157 6750 10025 0
-158 6750 10025 0
-159 6750 10025 0
-181 6758 10026 0
-181 6759 10026 0
-182 6758 10026 0
-183 6758 10026 0
-184 6758 10026 0
-185 6758 10026 0
-186 6758 10026 0
-187 6758 10026 0
-188 6758 10026 0
-189 6759 10026 0
-190 6759 10026 0
-191 6759 10026 0
-192 6759 10026 0
-193 6759 10026 0
-194 6759 10026 0
-195 6759 10026 0
-217 6767 10027 0
-217 6768 10027 0
-218 6767 10027 0
-219 6767 10027 0
-220 6767 10027 0
-221 6767 10027 0
-222 6767 10027 0
-223 6767 10027 0
-224 6767 10027 0
-225 6768 10027 0
-226 6768 10027 0
-227 6768 10027 0
-228 6768 10027 0
-229 6768 10027 0
-230 6768 10027 0
-231 6768 10027 0
-253 6776 10028 0
-253 6777 10028 0
-254 6776 10028 0
-255 6776 10028 0
-256 6776 10028 0
-257 6776 10028 0
-258 6776 10028 0
-259 6776 10028 0
-260 6776 10028 0
-261 6777 10028 0
-262 6777 10028 0
-263 6777 10028 0
-264 6777 10028 0
-265 6777 10028 0
-266 6777 10028 0
-267 6777 10028 0
6785 -289 10029 0
-289 6786 10029 0
6785 -290 10029 0
6785 -291 10029 0
-292 6785 10029 0
-293 6785 10029 0
-294 6785 10029 0
-295 6785 10029 0
-296 6785 10029 0
-297 6786 10029 0
-298 6786 10029 0
-299 6786 10029 0
-300 6786 10029 0
-301 6786 10029 0
-302 6786 10029 0
-303 6786 10029 0
6794 -325 10030 0
-325 6795 10030 0
-326 6794 10030 0
6796 -326 10030 0
-327 6794 10030 0
6797 -327 10030 0
-328 6794 10030 0
6798 -328 10030 0
-329 6794 10030 0
6799 -329 10030 0
-330 6794 10030 0
6800 -330 10030 0
-331 6794 10030 0
6801 -331 10030 0
-332 6794 10030 0
6802 -332 10030 0
-333 6795 10030 0
-334 6795 10030 0
-335 6795 10030 0
-336 6795 10030 0
-337 6795 10030 0
-338 6795 10030 0
-339 6795 10030 0
-361 6803 10031 0
-361 6804 10031 0
-362 6803 10031 0
6805 -362 10031 0
-363 6803 10031 0
6806 -363 10031 0
-364 6803 10031 0
6807 -364 10031 0
-365 6803 10031 0
6808 -365 10031 0
-366 6803 10031 0
-366 6809 10031 0
-367 6803 10031 0
6810 -367 10031 0
-368 6803 10031 0
6811 -368 10031 0
6809 -373 10031 0
-379 6809 10031 0
-384 6809 10031 0
-388 6809 10031 0
-391 6809 10031 0
-394 6809 10031 0
-395 6809 10031 0
10032 -10021 0
10033 -10032 0
-10022 -10032 0
-10022 10033 0
10034 -10033 0
-10023 -10033 0
-10023 10034 0
10035 -10034 0
-10024 -10034 0
-10024 10035 0
10036 -10035 0
-10025 -10035 0
-10025 10036 0
10037 -10036 0
-10026 -10036 0
10037 -10026 0
10038 -10037 0
-10027 -10037 0
-10027 10038 0
10039 -10038 0
-10028 -10038 0
-10028 10039 0
10040 -10039 0
-10029 -10039 0
-10029 10040 0
10041 -10040 0
-10030 -10040 0
-10030 10041 0
-10031 -10041 0
