p cnf 10108 1297
503 -8 0
-503 -9 0
-397 1 2 7 8 3 4 5 6 0
10 13 9 1 -398 14 12 11 15 0
-399 21 9 2 16 17 18 19 20 0
-400 22 16 3 10 23 24 25 26 0
-401 11 17 4 22 27 28 29 30 0
-402 18 12 5 23 27 31 32 33 0
-403 13 19 6 24 28 31 34 35 0
-404 14 20 7 25 29 32 34 36 0
-405 15 21 8 26 30 33 35 36 0
-37 531 0
-531 532 0
-531 -38 0
-38 532 0
-532 533 0
-39 533 0
-533 534 0
-40 534 0
-534 535 0
-41 535 0
-535 536 0
-42 536 0
-536 537 0
-43 537 0
-537 538 0
-44 538 0
-538 539 0
-538 -45 0
540 -539 0
-46 -539 0
541 -540 0
-540 -47 0
542 -541 0
-48 -541 0
543 -542 0
-49 -542 0
544 -543 0
-50 -543 0
-51 -544 0
-406 37 38 44 43 39 40 41 42 0
-407 45 48 37 47 46 51 50 49 0
57 53 38 -408 45 52 55 54 56 0
566 -73 0
567 -566 0
-74 -566 0
567 -74 0
568 -567 0
-75 568 0
569 -568 0
-76 569 0
570 -569 0
-77 570 0
571 -570 0
-78 571 0
572 -571 0
-79 572 0
573 -572 0
-80 573 0
-81 -573 0
-415 75 80 74 73 76 79 77 78 0
-73 416 0
86 87 73 82 -416 83 81 84 85 0
91 -417 74 81 88 90 89 92 93 0
-109 601 0
-601 602 0
-110 -601 0
-602 603 0
-111 603 0
-603 604 0
-112 604 0
-604 605 0
-113 605 0
-605 606 0
-114 606 0
-606 607 0
-115 607 0
-607 608 0
-116 608 0
-608 609 0
-608 -117 0
-609 610 0
-610 611 0
-611 612 0
-612 613 0
-613 614 0
-614 615 0
-615 616 0
-616 617 0
-617 618 0
-618 -127 0
-424 110 109 115 111 116 112 113 114 0
-109 425 0
117 121 122 109 123 118 -425 120 119 0
-426 129 110 117 127 124 126 128 125 0
-147 638 0
-638 639 0
-148 639 0
-639 640 0
-149 640 0
-640 641 0
-150 641 0
-641 642 0
-151 642 0
-642 643 0
-152 643 0
-643 -153 0
433 -145 0
433 -146 0
-433 151 145 146 152 147 148 149 150 0
154 155 -434 145 153 156 157 158 159 0
-435 161 146 153 164 162 163 160 165 0
-183 673 0
-673 674 0
-184 674 0
-674 675 0
-185 675 0
-675 676 0
-186 676 0
-676 677 0
-187 677 0
-677 678 0
-188 678 0
-678 -189 0
-442 184 181 182 183 185 186 187 188 0
-181 443 0
192 190 -443 181 195 191 193 194 189 0
-444 201 189 182 200 196 197 198 199 0
706 -217 0
-218 -706 0
-218 707 0
-707 708 0
-219 708 0
-708 709 0
-220 709 0
-709 710 0
-221 710 0
-710 711 0
-222 711 0
-711 712 0
-223 712 0
-712 713 0
-224 713 0
714 -713 0
-713 -225 0
715 -714 0
-226 -714 0
716 -715 0
-227 -715 0
717 -716 0
-228 -716 0
718 -717 0
-229 -717 0
719 -718 0
-230 -718 0
-231 -719 0
451 -218 0
-451 219 223 218 217 222 220 221 224 0
-217 452 0
230 217 225 -452 226 227 228 229 231 0
-453 235 218 225 237 233 232 234 236 0
-255 743 0
-743 744 0
-256 744 0
-744 745 0
-257 745 0
-745 746 0
-258 746 0
-746 747 0
-259 747 0
-747 748 0
-260 748 0
-748 -261 0
-460 259 253 255 254 260 256 257 258 0
-461 265 253 264 261 263 262 266 267 0
-462 261 254 273 268 269 270 271 272 0
-291 778 0
-778 779 0
-292 779 0
-779 780 0
-293 780 0
-780 781 0
-294 781 0
-781 782 0
-295 782 0
-782 783 0
-296 783 0
-783 -297 0
-469 292 290 295 289 296 293 291 294 0
303 301 297 289 300 298 299 302 -470 0
307 306 297 290 -471 305 304 308 309 0
-327 813 0
-813 814 0
-328 814 0
-814 815 0
-329 815 0
-815 816 0
-330 816 0
-816 817 0
-331 817 0
-817 818 0
-332 818 0
-818 -333 0
478 -325 0
332 325 -478 326 331 327 328 329 330 0
336 337 325 339 333 334 -479 335 338 0
-480 333 326 340 341 342 343 344 345 0
-363 848 0
-848 849 0
-364 849 0
-849 850 0
-365 850 0
-850 851 0
-366 851 0
-851 852 0
-367 852 0
-852 853 0
-368 853 0
-853 -369 0
487 -361 0
487 -362 0
-487 361 364 365 362 363 366 367 368 0
-488 375 370 361 371 372 373 374 369 0
378 -489 362 369 377 376 379 380 381 0
2503 0
-2602 0
399 2512 -2503 0
-2 2512 -2503 0
2521 408 -2512 0
2530 417 -2521 0
2539 426 -2530 0
2539 -110 -2530 0
2548 -2539 435 0
2548 -2539 -146 0
2557 -2548 444 0
2557 -182 -2548 0
2566 -2557 453 0
2575 -2566 462 0
2584 -2575 471 0
-2575 2584 -290 0
-2584 480 2593 0
-369 -2593 2602 0
2826 0
-2925 0
2827 0
-2830 0
-2832 0
-9 2835 -2826 -2827 0
-2835 -12 2830 0
-2835 -14 2832 0
2844 407 -2835 0
2853 -2844 416 0
2862 -2853 425 0
2871 -2862 434 0
2880 -2871 443 0
2889 -2880 452 0
2898 -2889 461 0
2907 -2898 470 0
-2907 479 2916 0
488 -2916 2925 0
-361 -2916 2925 0
4661 0
-4761 0
-4663 0
397 4670 -4661 0
399 -4672 4663 0
4679 406 -4670 0
-4681 408 4672 0
4688 415 -4679 0
4689 -73 -4679 0
-4689 -81 4681 0
4697 424 -4688 0
-4689 4698 425 0
4698 -109 -4688 0
4706 433 -4697 0
-4698 4707 434 0
4707 -145 -4697 0
4715 442 -4706 0
-4707 4716 443 0
4716 -181 -4706 0
4724 -4715 451 0
-4716 4725 452 0
4725 -217 -4715 0
4733 460 -4724 0
-4725 4734 461 0
4734 -253 -4724 0
-4733 4742 469 0
-4734 470 4743 0
-4733 -289 4743 0
4751 478 -4742 0
-4743 479 4752 0
-325 -4742 4752 0
488 -4752 4761 0
-361 -4751 4761 0
5633 0
-5732 0
5634 0
5733 0
5635 0
397 5642 -5633 0
399 5644 -5635 0
-9 5643 -5634 -5635 0
-9 5644 -5635 0
5651 406 -5642 0
5653 408 -5644 0
5651 -37 -5642 -5643 0
5651 -38 -5644 -5642 0
5660 415 -5651 0
5662 417 -5653 0
5660 -74 -5651 -5653 0
5662 -74 -5653 0
5669 424 -5660 0
5671 426 -5662 0
-110 5669 -5662 -5660 0
5678 433 -5669 0
5680 -5671 435 0
-146 5678 -5669 -5671 0
5687 442 -5678 0
5689 -5680 444 0
-182 5687 -5678 -5680 0
5696 -5687 451 0
5698 -5689 453 0
5705 460 -5696 0
5714 -5705 469 0
-5714 478 5723 0
487 -5723 5732 0
5724 -369 -5733 0
5725 -369 -5733 0
-6389 0
-6488 0
6390 0
-6489 0
-6391 0
6490 0
6392 0
6393 0
6394 0
6395 0
6396 0
6397 0
-6398 397 6389 0
6399 398 -6390 0
-6400 399 6391 0
400 6401 -6392 0
401 6402 -6393 0
402 6403 -6394 0
403 6404 -6395 0
404 6405 -6396 0
405 6406 -6397 0
-1 -6398 6389 0
6399 -1 -6390 0
-2 -6398 6389 0
-6400 -2 6389 6391 0
-3 -6398 6389 0
-4 -6398 6389 0
-5 -6398 6389 0
-6 -6398 6389 0
-7 -6398 6389 0
-8 -6398 6389 0
-9 -6399 6391 0
-9 6400 -6390 0
-10 6399 -6390 -6392 0
-11 6399 -6390 -6393 0
-12 6399 -6390 -6394 0
-13 6399 -6390 -6395 0
-14 6399 -6390 -6396 0
-15 6399 -6390 -6397 0
-6400 -16 6391 0
-6400 -17 6391 0
-6400 -18 6391 0
-6400 -19 6391 0
-6400 -20 6391 0
-6400 -21 6391 0
-6407 406 6398 0
407 -6408 6399 0
407 6408 -6399 0
408 -6409 6400 0
408 6409 -6400 0
-6407 -37 6398 0
-37 -6408 6399 6398 0
-38 -6407 6398 0
-38 6409 -6400 0
-38 -6409 6398 6400 0
-39 -6407 6398 0
-40 -6407 6398 0
-41 -6407 6398 0
-42 -6407 6398 0
-43 -6407 6398 0
-44 -6407 6398 0
-6408 -45 6400 0
6409 -45 -6399 0
6409 -45 -6400 0
-46 -6408 6399 0
-47 -6408 6399 0
-48 -6408 6399 0
-49 -6408 6399 0
-50 -6408 6399 0
-51 -6408 6399 0
-52 -6409 6400 0
-52 6409 -6400 -6401 0
-53 -6409 6400 0
-53 6409 -6400 -6402 0
-54 -6409 6400 0
-54 6409 -6400 -6403 0
-55 -6409 6400 0
-55 6409 -6400 -6404 0
-56 -6409 6400 0
-56 6409 -6400 -6405 0
-57 -6409 6400 0
-57 6409 -6400 -6406 0
-6416 415 6407 0
416 -6417 6408 0
416 -6408 6417 0
417 -6418 6409 0
-6416 -73 6407 0
-73 -6408 6417 0
-73 -6417 6407 6408 0
-6416 -74 6407 0
-74 6418 -6409 0
-74 -6418 6407 6409 0
-75 -6416 6407 0
-76 -6416 6407 0
-77 -6416 6407 0
-78 -6416 6407 0
-79 -6416 6407 0
-80 -6416 6407 0
-81 -6417 6408 0
-81 -6417 6409 0
-81 6418 -6409 0
-81 6409 6408 -6418 0
-82 -6417 6408 0
-83 -6417 6408 0
-84 -6417 6408 0
-85 -6417 6408 0
-86 -6417 6408 0
-87 -6417 6408 0
-88 6409 -6418 0
-89 6409 -6418 0
-90 6409 -6418 0
-91 6409 -6418 0
-92 6409 -6418 0
-93 6409 -6418 0
-6425 424 6416 0
425 -6426 6417 0
426 -6427 6418 0
-6425 -109 6416 0
-109 6426 -6417 0
6416 -109 -6426 6417 0
-110 -6425 6416 0
-110 -6427 6416 6418 0
-111 -6425 6416 0
-112 -6425 6416 0
-113 -6425 6416 0
-114 -6425 6416 0
-115 -6425 6416 0
-116 -6425 6416 0
-117 -6426 6417 0
-117 -6426 6418 0
-117 6417 6418 -6427 0
-118 -6426 6417 0
-119 -6426 6417 0
-120 -6426 6417 0
-121 -6426 6417 0
-122 -6426 6417 0
-123 -6426 6417 0
-124 -6427 6418 0
-125 -6427 6418 0
-126 -6427 6418 0
-6427 6418 -127 0
-128 -6427 6418 0
-129 -6427 6418 0
-6434 433 6425 0
434 -6435 6426 0
-6436 435 6427 0
-6434 -145 6425 0
-145 6435 -6426 0
-6435 -145 6425 6426 0
-146 -6434 6425 0
-146 6427 -6436 6425 0
-147 -6434 6425 0
-148 -6434 6425 0
-149 -6434 6425 0
-150 -6434 6425 0
-151 -6434 6425 0
-152 -6434 6425 0
-153 -6435 6426 0
-153 -6435 6427 0
-153 6426 6427 -6436 0
-6435 6426 -154 0
-155 -6435 6426 0
-156 -6435 6426 0
-157 -6435 6426 0
-158 -6435 6426 0
-159 -6435 6426 0
-160 -6436 6427 0
-161 -6436 6427 0
-162 -6436 6427 0
-163 -6436 6427 0
-164 -6436 6427 0
-165 -6436 6427 0
-6443 442 6434 0
443 6435 -6444 0
443 -6435 6444 0
-6445 444 6436 0
444 -6436 6445 0
-6443 -181 6434 0
-181 -6435 6444 0
-181 6435 -6444 6434 0
-182 -6443 6434 0
-182 6436 -6445 6434 0
-183 -6443 6434 0
-184 -6443 6434 0
-185 -6443 6434 0
-186 -6443 6434 0
-187 -6443 6434 0
-188 -6443 6434 0
-189 6435 -6444 0
-189 6436 -6444 0
-189 -6435 6445 0
-189 6436 6435 -6445 0
-190 6435 -6444 0
-191 6435 -6444 0
-192 6435 -6444 0
-193 6435 -6444 0
-194 6435 -6444 0
-195 6435 -6444 0
-196 -6445 6436 0
-197 -6445 6436 0
-198 -6445 6436 0
-199 -6445 6436 0
-200 -6445 6436 0
-201 -6445 6436 0
-6452 6443 451 0
452 -6453 6444 0
452 -6444 6453 0
-6454 453 6445 0
-6452 -217 6443 0
-217 -6444 6453 0
6443 -217 -6453 6444 0
-218 6443 -6452 0
-218 -6454 6443 6445 0
-219 6443 -6452 0
-220 6443 -6452 0
-221 6443 -6452 0
-222 6443 -6452 0
-223 6443 -6452 0
-224 6443 -6452 0
-6453 -225 6444 0
-6453 -225 6445 0
-6444 -225 6454 0
-225 6444 6445 -6454 0
-226 -6453 6444 0
-227 -6453 6444 0
-228 -6453 6444 0
-229 -6453 6444 0
-230 -6453 6444 0
-231 -6453 6444 0
-232 -6454 6445 0
-233 -6454 6445 0
-234 -6454 6445 0
-235 -6454 6445 0
-236 -6454 6445 0
-237 -6454 6445 0
-6461 460 6452 0
461 -6462 6453 0
-6463 462 6454 0
-6461 -253 6452 0
-253 6462 -6453 0
-253 6452 -6462 6453 0
-254 -6461 6452 0
-254 6452 -6463 6454 0
-255 -6461 6452 0
-256 -6461 6452 0
-257 -6461 6452 0
-258 -6461 6452 0
-259 -6461 6452 0
-260 -6461 6452 0
-261 -6462 6453 0
-6462 -261 6454 0
-261 6463 -6453 0
-261 -6463 6453 6454 0
-262 -6462 6453 0
-263 -6462 6453 0
-264 -6462 6453 0
-265 -6462 6453 0
-266 -6462 6453 0
-267 -6462 6453 0
-268 -6463 6454 0
-269 6454 -6463 0
-270 6454 -6463 0
-271 -6463 6454 0
-272 -6463 6454 0
-273 -6463 6454 0
-6470 469 6461 0
470 -6471 6462 0
471 6463 -6472 0
-289 -6470 6461 0
-6470 -289 6462 0
-289 -6462 6471 0
-289 -6471 6462 6461 0
-290 -6470 6461 0
-290 6461 6463 -6472 0
-291 6461 -6470 0
-292 6461 -6470 0
-293 -6470 6461 0
-294 6461 -6470 0
-295 -6470 6461 0
-296 -6470 6461 0
-297 -6471 6462 0
-297 -6471 6463 0
-297 -6463 -6462 6471 0
-297 6462 6463 -6472 0
-298 -6471 6462 0
-299 -6471 6462 0
-300 -6471 6462 0
-301 -6471 6462 0
-302 -6471 6462 0
-303 -6471 6462 0
-304 6463 -6472 0
-305 6463 -6472 0
-306 6463 -6472 0
-307 6463 -6472 0
-308 6463 -6472 0
-309 6463 -6472 0
478 6470 -6479 0
479 6471 -6480 0
480 6472 -6481 0
-325 6470 -6479 0
6480 -6471 -325 0
-325 6470 -6480 6471 0
-6479 -326 6470 0
-326 6472 6470 -6481 0
-327 -6479 6470 0
-328 -6479 6470 0
-329 -6479 6470 0
-330 -6479 6470 0
-331 -6479 6470 0
-332 -6479 6470 0
-333 6471 -6480 0
6472 -333 -6480 0
-6471 -333 6481 0
-333 6472 -6481 6471 0
-334 6471 -6480 0
-335 6471 -6480 0
-336 6471 -6480 0
-337 6471 -6480 0
-338 6471 -6480 0
-339 6471 -6480 0
-340 6472 -6481 0
-341 6472 -6481 0
-342 6472 -6481 0
-343 6472 -6481 0
-344 6472 -6481 0
-345 6472 -6481 0
6481 489 -6490 0
-361 -6479 6489 0
-6480 -361 6489 0
-6481 -6479 -362 6488 0
6479 -362 6481 -6490 0
6480 6481 -369 -6490 0
-6480 -6483 -371 6489 0
-6485 -6480 -373 6489 0
-6480 -6486 -374 6489 0
-376 6481 -6490 0
-377 6481 -6490 0
-378 6481 -6490 0
-379 6481 -6490 0
-380 6481 -6490 0
-381 6481 -6490 0
6497 0
-6596 0
6498 0
6597 0
-6499 0
6500 0
6501 0
6502 0
6503 0
6504 0
6505 0
6506 397 -6497 0
6507 398 -6498 0
-6508 399 6499 0
-1 6507 -6498 0
-6507 -9 6499 0
6507 -10 -6498 -6500 0
6507 -11 -6498 -6501 0
6507 -13 -6498 -6503 0
6507 -15 -6498 -6505 0
-6508 -16 6499 0
-6508 -17 6499 0
-6508 -18 6499 0
-6508 -19 6499 0
-6508 -20 6499 0
-6508 -21 6499 0
6515 406 -6506 0
-6516 407 6507 0
-6517 408 6508 0
-38 -6515 6508 0
-6516 -45 6508 0
-46 -6516 6507 0
-48 -6516 6507 0
-49 -6516 6507 0
-50 -6516 6507 0
-51 -6516 6507 0
-6517 -52 6508 0
-53 -6517 6508 0
-54 -6517 6508 0
-55 -6517 6508 0
-56 -6517 6508 0
-6517 -57 6508 0
-6524 6515 415 0
6524 415 -6515 0
6516 416 -6525 0
-6526 417 6517 0
6517 -74 -6524 0
6526 -74 -6515 0
-81 -6525 6516 0
6517 -81 -6525 0
-6525 -82 6516 0
-83 -6525 6516 0
-84 -6525 6516 0
-85 -6525 6516 0
-6525 6516 -86 0
-87 -6525 6516 0
-88 6517 -6526 0
-89 6517 -6526 0
-90 6517 -6526 0
-91 6517 -6526 0
-92 6517 -6526 0
-93 6517 -6526 0
-6533 6524 424 0
6533 424 -6524 0
6525 -6534 425 0
-6535 6526 426 0
6535 -6526 426 0
-6534 6525 -117 0
-6534 -117 6526 0
-118 -6534 6525 0
-119 -6534 6525 0
-120 -6534 6525 0
-121 -6534 6525 0
-122 -6534 6525 0
-123 -6534 6525 0
-124 -6535 6526 0
-125 -6535 6526 0
-126 -6535 6526 0
-6535 6526 -127 0
-128 -6535 6526 0
-129 -6535 6526 0
-6542 6533 433 0
6542 433 -6533 0
6534 -6543 434 0
-6544 6535 435 0
6544 -6535 435 0
-153 6534 -6543 0
6535 -153 -6543 0
6534 -6543 -154 0
-155 6534 -6543 0
-156 6534 -6543 0
-157 6534 -6543 0
-158 6534 -6543 0
-159 6534 -6543 0
-160 6535 -6544 0
6535 -6544 -161 0
-162 6535 -6544 0
-163 6535 -6544 0
-164 6535 -6544 0
-165 6535 -6544 0
-6551 6542 442 0
6551 442 -6542 0
6543 443 -6552 0
-6553 6544 444 0
-189 6543 -6552 0
6544 -189 -6552 0
-190 6543 -6552 0
-191 6543 -6552 0
6543 -6552 -192 0
-193 6543 -6552 0
-194 6543 -6552 0
-195 6543 -6552 0
-196 6544 -6553 0
-197 6544 -6553 0
-198 6544 -6553 0
-199 6544 -6553 0
-200 6544 -6553 0
-201 6544 -6553 0
-6560 6551 451 0
-6561 6552 452 0
6553 -6562 453 0
6562 -218 -6551 0
-6561 6552 -225 0
6553 -6561 -225 0
-226 -6561 6552 0
-227 -6561 6552 0
-228 -6561 6552 0
-229 -6561 6552 0
-230 -6561 6552 0
-231 -6561 6552 0
-232 6553 -6562 0
-233 6553 -6562 0
-234 6553 -6562 0
-235 6553 -6562 0
-236 6553 -6562 0
-237 6553 -6562 0
-6569 6560 460 0
6561 461 -6570 0
-6561 6570 461 0
6562 -6571 462 0
-6562 6571 462 0
6561 -6570 -261 0
6562 -6570 -261 0
-262 6561 -6570 0
-263 6561 -6570 0
-264 6561 -6570 0
-265 6561 -6570 0
-266 6561 -6570 0
-267 6561 -6570 0
-268 6562 -6571 0
-269 6562 -6571 0
-270 6562 -6571 0
-271 6562 -6571 0
-272 6562 -6571 0
-273 6562 -6571 0
-6578 6569 469 0
6570 470 -6579 0
470 6579 -6570 0
-6580 471 6571 0
6570 -6579 -297 0
-6579 -297 6571 0
-298 6570 -6579 0
-299 6570 -6579 0
-300 6570 -6579 0
-301 6570 -6579 0
-302 6570 -6579 0
6570 -6579 -303 0
-304 -6580 6571 0
-305 -6580 6571 0
-306 -6580 6571 0
-307 -6580 6571 0
-308 -6580 6571 0
-309 -6580 6571 0
6578 478 -6587 0
6579 479 -6588 0
-6579 479 6588 0
6580 480 -6589 0
6579 -333 -6588 0
-333 6580 -6588 0
-334 6579 -6588 0
-335 6579 -6588 0
6579 -336 -6588 0
-337 6579 -6588 0
-338 6579 -6588 0
-339 6579 -6588 0
-340 6580 -6589 0
6580 -341 -6589 0
-342 6580 -6589 0
-343 6580 -6589 0
-344 6580 -6589 0
-345 6580 -6589 0
488 6588 -6597 0
-6587 -361 -6588 6596 0
6588 -369 -6597 0
6589 -369 -6597 0
-370 6588 -6597 0
-371 6588 -6597 0
-372 6588 -6597 0
-373 6588 -6597 0
-374 6588 -6597 0
6588 -375 -6597 0
6713 0
-6812 0
-6714 0
6813 0
6715 0
6722 397 -6713 0
6724 399 -6715 0
6722 -2 -6713 -6715 0
-6723 -9 6714 0
6731 406 -6722 0
-6732 407 6723 0
6733 408 -6724 0
6731 -38 -6722 -6724 0
6740 415 -6731 0
-6741 6732 416 0
6742 417 -6733 0
6740 -74 -6731 -6733 0
6749 424 -6740 0
-6750 6741 425 0
6751 426 -6742 0
-6750 6741 -117 0
-118 -6750 6741 0
-119 -6750 6741 0
-120 -6750 6741 0
-121 -6750 6741 0
-122 -6750 6741 0
-123 -6750 6741 0
6758 433 -6749 0
6760 -6751 435 0
-153 6750 -6759 0
-154 6750 -6759 0
-155 6750 -6759 0
-156 6750 -6759 0
-157 6750 -6759 0
-158 6750 -6759 0
-159 6750 -6759 0
6767 442 -6758 0
6759 -6768 443 0
6769 -6760 444 0
6776 -6767 451 0
6768 -6777 452 0
6778 -6769 453 0
-6769 -218 -6767 6776 0
6785 460 -6776 0
6777 -6786 461 0
6787 -6778 462 0
-6778 -254 6785 -6776 0
6794 -6785 469 0
6786 470 -6795 0
-6787 6796 471 0
-6787 -290 6794 -6785 0
478 -6794 6803 0
6795 479 -6804 0
-6794 -6795 -325 6803 0
-6796 -326 -6794 6803 0
6795 -333 -6804 0
6796 -333 -6804 0
-334 6795 -6804 0
-335 6795 -6804 0
6795 -336 -6804 0
-337 6795 -6804 0
-338 6795 -6804 0
-339 6795 -6804 0
487 -6803 6812 0
6804 488 -6813 0
6804 -369 -6813 0
6804 -370 -6813 0
6804 -371 -6813 0
6804 -372 -6813 0
6804 -373 -6813 0
6804 -374 -6813 0
6804 -375 -6813 0
-6821 0
6822 0
6823 0
-6830 397 6821 0
-6839 406 6830 0
-6848 415 6839 0
-6857 424 6848 0
-6866 433 6857 0
-6875 442 6866 0
-363 5723 9521 0
-364 5723 9521 0
5723 -365 9521 0
-366 5723 9521 0
-9521 -5725 -5724 -369 0
9941 -1 6389 0
9941 -2 6391 0
9941 -3 6389 0
9941 -4 6389 0
9941 -5 6389 0
9941 -6 6389 0
9941 -7 6389 0
9941 -8 6389 0
9941 -9 6391 0
-16 9941 6391 0
-17 9941 6391 0
-18 9941 6391 0
-19 9941 6391 0
-20 9941 6391 0
-21 9941 6391 0
-37 9942 6398 0
-38 9942 6398 0
-39 9942 6398 0
-40 9942 6398 0
-41 9942 6398 0
-42 9942 6398 0
-43 9942 6398 0
-44 9942 6398 0
9942 -45 6399 0
9942 -45 6400 0
-46 9942 6399 0
-47 9942 6399 0
-48 9942 6399 0
-49 9942 6399 0
-50 9942 6399 0
-51 9942 6399 0
-52 9942 6400 0
-53 9942 6400 0
-54 9942 6400 0
-55 9942 6400 0
-56 9942 6400 0
-57 9942 6400 0
-73 9943 6407 0
-74 9943 6407 0
-74 6409 9943 0
-75 9943 6407 0
-76 9943 6407 0
-77 9943 6407 0
-78 9943 6407 0
-79 9943 6407 0
-80 9943 6407 0
-81 6408 9943 0
-81 6409 9943 0
-82 6408 9943 0
-83 6408 9943 0
-84 6408 9943 0
-85 6408 9943 0
-86 6408 9943 0
-87 6408 9943 0
-88 9943 6409 0
-89 6409 9943 0
-90 9943 6409 0
-91 6409 9943 0
-92 6409 9943 0
-93 6409 9943 0
-109 6416 9944 0
-109 9944 6417 0
-110 9944 6416 0
-110 9944 6418 0
-111 6416 9944 0
-112 6416 9944 0
-113 6416 9944 0
-114 6416 9944 0
-115 6416 9944 0
-116 6416 9944 0
9944 -117 6417 0
-117 9944 6418 0
-118 9944 6417 0
-119 9944 6417 0
-120 9944 6417 0
-121 9944 6417 0
-122 9944 6417 0
-123 9944 6417 0
-124 9944 6418 0
-125 9944 6418 0
-126 9944 6418 0
9944 6418 -127 0
-128 9944 6418 0
-129 9944 6418 0
-145 6425 9945 0
-145 6426 9945 0
-146 6425 9945 0
-147 6425 9945 0
-148 6425 9945 0
-149 6425 9945 0
-150 6425 9945 0
-151 6425 9945 0
-152 6425 9945 0
-153 6426 9945 0
-153 9945 6427 0
6426 9945 -154 0
-155 6426 9945 0
-156 6426 9945 0
-157 6426 9945 0
-158 6426 9945 0
-159 6426 9945 0
-160 9945 6427 0
-161 9945 6427 0
-162 9945 6427 0
-163 9945 6427 0
-164 9945 6427 0
-165 9945 6427 0
-181 6434 9946 0
-181 6435 9946 0
-182 6434 9946 0
-183 6434 9946 0
-184 6434 9946 0
-185 6434 9946 0
-186 6434 9946 0
-187 6434 9946 0
-188 6434 9946 0
-189 6435 9946 0
-189 6436 9946 0
-190 6435 9946 0
-191 6435 9946 0
-192 6435 9946 0
-193 6435 9946 0
-194 6435 9946 0
-195 6435 9946 0
-196 6436 9946 0
-197 6436 9946 0
-198 6436 9946 0
-199 6436 9946 0
-200 6436 9946 0
-201 6436 9946 0
-217 6443 9947 0
-217 6444 9947 0
-218 6443 9947 0
-219 6443 9947 0
-220 6443 9947 0
-221 6443 9947 0
-222 6443 9947 0
-223 6443 9947 0
-224 6443 9947 0
-225 6444 9947 0
-225 6445 9947 0
-226 6444 9947 0
-227 6444 9947 0
-228 6444 9947 0
-229 6444 9947 0
-230 6444 9947 0
-231 6444 9947 0
-232 6445 9947 0
-233 6445 9947 0
-234 6445 9947 0
-235 6445 9947 0
-236 6445 9947 0
-237 6445 9947 0
6452 -253 9948 0
-253 6453 9948 0
-254 6452 9948 0
-254 6454 9948 0
-255 6452 9948 0
-256 6452 9948 0
-257 6452 9948 0
-258 6452 9948 0
-259 6452 9948 0
-260 6452 9948 0
-261 6453 9948 0
-261 6454 9948 0
-262 6453 9948 0
-263 6453 9948 0
-264 6453 9948 0
-265 6453 9948 0
-266 6453 9948 0
-267 6453 9948 0
-268 6454 9948 0
-269 6454 9948 0
-270 6454 9948 0
-271 6454 9948 0
-272 6454 9948 0
-273 6454 9948 0
6461 -289 9949 0
-289 6462 9949 0
-290 6461 9949 0
-290 9949 6463 0
-291 6461 9949 0
-292 6461 9949 0
-293 6461 9949 0
-294 6461 9949 0
-295 6461 9949 0
-296 6461 9949 0
-297 6462 9949 0
-297 6463 9949 0
-298 6462 9949 0
-299 6462 9949 0
-300 6462 9949 0
-301 6462 9949 0
-302 6462 9949 0
-303 6462 9949 0
-304 6463 9949 0
-305 6463 9949 0
-306 6463 9949 0
-307 6463 9949 0
-308 6463 9949 0
-309 6463 9949 0
-325 9950 6470 0
-325 6471 9950 0
-326 9950 6470 0
-326 6472 9950 0
-327 6470 9950 0
-328 6470 9950 0
-329 6470 9950 0
-330 6470 9950 0
-331 6470 9950 0
-332 6470 9950 0
-333 6471 9950 0
-333 6472 9950 0
-334 6471 9950 0
-335 6471 9950 0
-336 6471 9950 0
-337 6471 9950 0
-338 6471 9950 0
-339 6471 9950 0
-340 6472 9950 0
-341 6472 9950 0
-342 6472 9950 0
-343 6472 9950 0
-344 6472 9950 0
-345 6472 9950 0
-361 6479 9951 0
-362 6479 9951 0
-362 9951 6481 0
-363 6479 9951 0
-364 6479 9951 0
-365 6479 9951 0
-366 6479 9951 0
-367 6479 9951 0
-368 6479 9951 0
6480 9951 -369 0
9951 6481 -369 0
6480 9951 -370 0
6480 9951 -371 0
6483 9951 -371 0
6480 9951 -372 0
9951 -373 6480 0
6485 9951 -373 0
-374 9951 6480 0
6486 9951 -374 0
6480 9951 -375 0
9952 -9941 0
9953 -9952 0
-9942 9954 -9952 0
-9954 9955 0
-9954 -9943 0
9953 -9942 0
9956 -9953 0
-9943 9955 -9953 0
-9955 9957 0
-9955 -9944 0
-9943 9956 0
9958 -9956 0
-9944 9957 -9956 0
-9957 9959 0
-9957 -9945 0
9958 -9944 0
9960 -9958 0
-9945 9959 -9958 0
-9959 9961 0
-9959 -9946 0
9960 -9945 0
9962 -9960 0
-9946 9961 -9960 0
-9961 9963 0
-9961 -9947 0
9962 -9946 0
9964 -9962 0
-9947 9963 -9962 0
-9963 9965 0
-9963 -9948 0
9964 -9947 0
9966 -9964 0
-9948 9965 -9964 0
-9965 9967 0
-9965 -9949 0
9966 -9948 0
9968 -9966 0
-9949 9967 -9966 0
-9967 9969 0
-9967 -9950 0
9968 -9949 0
9969 -9950 -9968 0
-9951 -9969 0
9970 -9 6499 0
-22 -9970 -6500 -6501 0
-23 -9970 -6500 -6502 0
-24 -9970 -6500 -6503 0
-25 -9970 -6500 -6504 0
-26 -9970 -6500 -6505 0
-27 -9970 -6501 -6502 0
-28 -9970 -6501 -6503 0
-29 -9970 -6501 -6504 0
-30 -9970 -6501 -6505 0
-31 -9970 -6502 -6503 0
-32 -9970 -6502 -6504 0
-33 -9970 -6502 -6505 0
-34 -9970 -6503 -6504 0
-35 -9970 -6503 -6505 0
-36 -9970 -6504 -6505 0
-183 6542 9975 0
-184 6542 9975 0
-9975 -189 -6544 -6543 0
-219 6551 9976 0
-220 6551 9976 0
-221 6551 9976 0
-222 6551 9976 0
-223 9976 6551 0
-6553 -9976 -6552 -225 0
-255 9977 6560 0
-256 9977 6560 0
-257 9977 6560 0
-6561 -9977 -261 -6562 0
-291 9978 6569 0
-292 9978 6569 0
-9978 -6570 -297 -6571 0
6587 -361 9980 0
-363 6587 9980 0
-364 6587 9980 0
6587 -365 9980 0
-366 6587 9980 0
-9980 -6588 -369 -6589 0
9981 -9970 0
-9986 9988 0
-9988 9990 0
-9990 9992 0
-9992 9994 0
-9994 9996 0
-9996 9998 0
-9998 -9980 0
10069 -1 6821 0
10069 -3 6821 0
10069 -4 6821 0
10069 -5 6821 0
10069 -6 6821 0
-7 10069 6821 0
-10069 -9 -6822 -6823 0
