p cnf 40894 777
-18 1047 0
18 48 -1055 55 26 9 33 39 44 51 53 0
-55 1056 0
-1056 55 19 27 34 40 45 49 52 54 10 0
-1066 110 64 81 88 94 99 103 106 108 73 0
-110 1067 0
-1067 110 74 82 89 95 100 104 107 109 65 0
-136 1077 0
-1077 154 136 165 128 158 143 149 161 163 119 0
-165 1078 0
165 -1078 129 137 144 150 155 159 162 164 120 0
191 220 174 -1088 198 204 209 213 216 218 183 0
-1089 220 184 192 199 205 210 214 217 219 175 0
275 238 229 246 253 259 264 268 271 273 -1099 0
-1100 275 239 247 254 260 265 269 272 274 230 0
-1110 308 293 301 330 314 319 323 326 328 284 0
-330 1111 0
330 -1111 294 302 309 315 320 324 327 329 285 0
-1121 374 378 348 339 356 363 369 381 383 385 0
-385 1122 0
385 -1122 349 357 364 370 375 379 382 384 340 0
-440 1132 0
411 403 440 -1132 418 424 429 433 436 438 394 0
-1133 440 404 412 419 425 430 434 437 439 395 0
-1143 466 495 458 473 479 484 488 491 493 449 0
-1144 495 459 467 474 480 485 489 492 494 450 0
-1154 521 504 513 528 534 539 543 546 548 550 0
-550 1155 0
-1155 550 514 522 529 535 540 544 547 549 505 0
-1165 568 605 576 583 589 594 598 601 603 559 0
-605 1166 0
-1166 605 569 577 584 590 595 599 602 604 560 0
-1176 623 660 631 638 644 649 653 656 658 614 0
-660 1177 0
-1177 660 624 632 639 645 650 654 657 659 615 0
-1187 678 669 686 693 699 704 708 711 713 715 0
-715 1188 0
-1188 715 679 687 694 700 705 709 712 714 670 0
-1198 733 724 741 748 754 759 763 766 768 770 0
-770 1199 0
-1199 770 734 742 749 755 760 764 767 769 725 0
-1209 788 825 796 803 809 814 818 821 823 779 0
-825 1210 0
-1210 825 789 797 804 810 815 819 822 824 780 0
-1220 843 834 851 858 864 869 873 876 878 880 0
-880 1221 0
-1221 880 844 852 859 865 870 874 877 879 835 0
-1231 898 889 906 913 919 924 928 931 933 935 0
-935 1232 0
-1232 935 899 907 914 920 925 929 932 934 890 0
-1242 953 990 961 968 974 979 983 986 988 944 0
-990 1243 0
-1243 990 954 962 969 975 980 984 987 989 945 0
-1253 1023 1008 999 1016 1029 1034 1038 1041 1043 1045 0
-1045 1254 0
-1254 1045 1009 1017 1024 1030 1035 1039 1042 1044 1000 0
-2304 0
-2305 0
2400 0
1055 -2309 2304 0
1056 -2310 2305 0
-2309 -26 2304 0
-2314 1066 2309 0
-2315 1067 2310 0
-110 -2314 2310 0
-2315 -110 2309 2310 0
-2319 1077 2314 0
-2314 2319 1077 0
-2320 1078 2315 0
-119 -2314 2319 0
-119 -2319 2314 0
-128 -2314 2319 0
-2319 -128 2314 0
-136 -2314 2319 0
-2319 -136 2314 0
-143 -2314 2319 0
-149 -2314 2319 0
-2314 2319 -154 0
-158 -2314 2319 0
-161 -2314 2319 0
-163 -2314 2319 0
-2319 -165 2315 0
-165 -2320 2314 2315 0
1088 -2324 2319 0
2320 -2325 1089 0
-2325 2320 2319 -220 0
2325 -2330 1100 0
2324 -275 -2330 2325 0
2330 -2335 1111 0
2335 -2340 1122 0
2340 -2345 1133 0
2345 -2350 1144 0
2350 -2355 1155 0
2355 -2360 1166 0
2360 -2365 1177 0
2365 -2370 1188 0
2370 -2375 1199 0
2375 -2380 1210 0
2380 -2385 1221 0
2385 -2390 1232 0
2390 1243 -2395 0
1254 2395 -2400 0
-2469 0
-2470 0
-2471 0
-2473 0
-2474 0
-2475 0
2646 0
-2476 0
2647 0
-2484 1055 2475 0
-2485 1056 2476 0
-2484 -9 2475 0
-33 -2484 2469 2475 0
-39 -2484 2470 2475 0
-44 -2484 2471 2475 0
-51 -2484 2473 2475 0
-53 -2484 2474 2475 0
-55 -2485 2475 2476 0
-2493 1066 2484 0
-2494 1067 2485 0
-2493 -110 2485 0
-2494 -110 2484 2485 0
-2502 2493 1077 0
1078 -2503 2494 0
-2502 -165 2494 0
-2511 1088 2502 0
2503 -2512 1089 0
-220 -2511 2503 0
1099 -2520 2511 0
2512 -2521 1100 0
-2520 -275 2512 0
-275 2511 -2521 2512 0
2520 -2529 1110 0
2521 -2530 1111 0
-284 2529 -2520 0
-293 2529 -2520 0
-301 2529 -2520 0
2521 -330 -2529 0
2520 -330 -2530 2521 0
2529 1121 -2538 0
2530 -2539 1122 0
-339 2529 -2538 0
2529 -348 -2538 0
2530 -385 -2538 0
2530 -2539 -385 2529 0
2538 -2547 1132 0
2539 -2548 1133 0
-440 -2547 2539 0
-440 2538 2539 -2548 0
2547 -2556 1143 0
2548 -2557 1144 0
-2556 -495 2548 0
-495 2548 2547 -2557 0
2556 -2565 1154 0
2557 -2566 1155 0
-2565 -550 2557 0
2556 -550 -2566 2557 0
2565 -2574 1165 0
2566 -2575 1166 0
-2574 2566 -605 0
2565 -605 2566 -2575 0
2574 -2583 1176 0
2575 -2584 1177 0
-2583 -660 2575 0
2574 -660 -2584 2575 0
2583 -2592 1187 0
2584 -2593 1188 0
-2592 -715 2584 0
2583 -715 -2593 2584 0
2592 -2601 1198 0
2593 -2602 1199 0
-2601 -770 2593 0
-770 2592 -2602 2593 0
2601 -2610 1209 0
2602 -2611 1210 0
-2610 -825 2602 0
2601 -825 -2611 2602 0
2610 -2619 1220 0
2611 -2620 1221 0
-2619 -880 2611 0
2610 -880 -2620 2611 0
2619 -2628 1231 0
2620 -2629 1232 0
-2628 2620 -935 0
2619 -935 -2629 2620 0
2628 1242 -2637 0
2629 1243 -2638 0
2629 -990 -2637 0
2628 -990 -2638 2629 0
1253 2637 -2646 0
2638 1254 -2647 0
2638 -1045 -2646 0
2970 0
-2857 0
-2863 1056 2857 0
-2869 1067 2863 0
-2875 1078 2869 0
-2881 2875 1089 0
-2887 2881 1100 0
2887 -330 -2892 0
2892 -2898 1121 0
-356 -2898 2892 0
-363 -2898 2892 0
-369 -2898 2892 0
2898 -2904 1132 0
2904 -2910 1143 0
2910 -2916 1154 0
2916 -2922 1165 0
2922 -2928 1176 0
2928 -2934 1187 0
2934 -2940 1198 0
2940 -2946 1209 0
2946 -2952 1220 0
2952 -2958 1231 0
2958 -2964 1242 0
1253 2964 -2970 0
-119 -3077 0
-128 -3077 0
-136 -3077 0
3077 -165 0
10081 -9 0
-26 10081 0
10081 -33 0
10081 -39 0
10081 -44 0
-48 10081 0
10081 -51 0
10081 -53 0
-55 10081 0
-64 10082 0
-73 10082 0
-81 10082 0
-88 10082 0
-94 10082 0
-99 10082 0
-103 10082 0
-106 10082 0
-108 10082 0
-110 10082 0
-119 10083 0
-128 10083 0
-136 10083 0
-143 10083 0
-149 10083 0
-154 10083 0
-158 10083 0
-161 10083 0
-163 10083 0
10083 -165 0
-174 10084 0
-183 10084 0
-191 10084 0
-198 10084 0
-204 10084 0
-209 10084 0
-213 10084 0
-216 10084 0
-218 10084 0
-220 10084 0
-229 10085 0
-238 10085 0
-246 10085 0
-253 10085 0
-259 10085 0
-264 10085 0
-268 10085 0
-271 10085 0
-273 10085 0
-275 10085 0
-284 10086 0
-293 10086 0
-301 10086 0
-308 10086 0
-314 10086 0
-319 10086 0
-323 10086 0
-326 10086 0
-328 10086 0
10086 -330 0
-339 10087 0
10087 -348 0
-356 10087 0
-363 10087 0
-369 10087 0
-374 10087 0
-378 10087 0
-381 10087 0
-383 10087 0
10087 -385 0
-394 10088 0
-403 10088 0
-411 10088 0
-418 10088 0
-424 10088 0
-429 10088 0
-433 10088 0
-436 10088 0
-438 10088 0
-440 10088 0
-449 10089 0
-458 10089 0
-466 10089 0
-473 10089 0
-479 10089 0
-484 10089 0
-488 10089 0
-491 10089 0
-493 10089 0
-495 10089 0
-504 10090 0
-513 10090 0
-521 10090 0
-528 10090 0
-534 10090 0
-539 10090 0
-543 10090 0
-546 10090 0
-548 10090 0
-550 10090 0
-559 10091 0
-568 10091 0
-576 10091 0
-583 10091 0
-589 10091 0
-594 10091 0
-598 10091 0
-601 10091 0
-603 10091 0
-605 10091 0
-614 10092 0
-623 10092 0
-631 10092 0
-638 10092 0
-644 10092 0
-649 10092 0
-653 10092 0
-656 10092 0
-658 10092 0
-660 10092 0
-669 10093 0
-678 10093 0
-686 10093 0
-693 10093 0
-699 10093 0
-704 10093 0
-708 10093 0
-711 10093 0
-713 10093 0
10093 -715 0
-724 10094 0
-733 10094 0
-741 10094 0
-748 10094 0
-754 10094 0
-759 10094 0
-763 10094 0
-766 10094 0
-768 10094 0
10094 -770 0
-779 10095 0
-788 10095 0
-796 10095 0
-803 10095 0
-809 10095 0
-814 10095 0
-818 10095 0
-821 10095 0
-823 10095 0
10095 -825 0
-834 10096 0
-843 10096 0
-851 10096 0
-858 10096 0
-864 10096 0
-869 10096 0
-873 10096 0
-876 10096 0
-878 10096 0
10096 -880 0
-889 10097 0
-898 10097 0
-906 10097 0
-913 10097 0
-919 10097 0
-924 10097 0
-928 10097 0
-931 10097 0
-933 10097 0
-935 10097 0
-944 10098 0
-953 10098 0
-961 10098 0
-968 10098 0
-974 10098 0
-979 10098 0
-983 10098 0
-986 10098 0
-988 10098 0
10098 -990 0
-999 10099 0
-1008 10099 0
-1016 10099 0
-1023 10099 0
-1029 10099 0
-1034 10099 0
-1038 10099 0
-1041 10099 0
-1043 10099 0
-1045 10099 0
10100 -10081 0
10101 -10100 0
-10082 10102 -10100 0
-10102 10103 0
-10102 -10083 0
-10082 10101 0
10104 -10101 0
10103 -10083 -10101 0
-10103 10105 0
-10103 -10084 0
10104 -10083 0
10106 -10104 0
-10084 10105 -10104 0
-10105 10107 0
-10105 -10085 0
-10084 10106 0
10108 -10106 0
10107 -10085 -10106 0
10109 -10107 0
-10086 -10107 0
10108 -10085 0
10110 -10108 0
-10086 10109 -10108 0
10111 -10109 0
-10087 -10109 0
10110 -10086 0
10112 -10110 0
10111 -10087 -10110 0
10113 -10111 0
-10088 -10111 0
10112 -10087 0
10114 -10112 0
-10088 10113 -10112 0
10115 -10113 0
-10089 -10113 0
-10088 10114 0
10116 -10114 0
-10089 10115 -10114 0
10117 -10115 0
-10090 -10115 0
-10089 10116 0
10118 -10116 0
-10090 10117 -10116 0
10119 -10117 0
-10091 -10117 0
-10090 10118 0
10120 -10118 0
10119 -10091 -10118 0
10121 -10119 0
-10092 -10119 0
10120 -10091 0
10122 -10120 0
-10092 10121 -10120 0
10123 -10121 0
-10093 -10121 0
-10092 10122 0
10124 -10122 0
-10093 10123 -10122 0
10125 -10123 0
-10094 -10123 0
-10093 10124 0
10126 -10124 0
-10094 10125 -10124 0
10127 -10125 0
-10095 -10125 0
-10094 10126 0
10128 -10126 0
-10095 10127 -10126 0
10129 -10127 0
-10096 -10127 0
-10095 10128 0
10130 -10128 0
-10096 10129 -10128 0
10131 -10129 0
-10097 -10129 0
-10096 10130 0
10132 -10130 0
10131 -10097 -10130 0
10133 -10131 0
-10098 -10131 0
10132 -10097 0
10133 -10098 -10132 0
-10099 -10133 0
38050 0
-38164 0
38051 0
-1 38056 -38050 -38051 0
38062 -38056 1057 0
38068 -38062 1068 0
38074 -38068 1079 0
38080 -38074 1090 0
38086 -38080 1101 0
38092 -38086 1112 0
38098 -38092 1123 0
-38098 38104 1134 0
-38104 38110 1145 0
-38110 38116 1156 0
-38116 38122 1167 0
-38122 38128 1178 0
-38128 38134 1189 0
-38134 38140 1200 0
-38140 1211 38146 0
-38146 1222 38152 0
-38152 1233 38158 0
1244 -38158 38164 0
-1056 40769 0
-40769 40770 0
-40769 -1067 0
-1067 40770 0
-40770 40771 0
-40770 -1078 0
40771 -1078 0
40772 -40771 0
-40771 -1089 0
-1089 40772 0
40773 -40772 0
-40772 -1100 0
40773 -1100 0
40774 -40773 0
-1111 -40773 0
40774 -1111 0
40775 -40774 0
-1122 -40774 0
40775 -1122 0
40776 -40775 0
-1133 -40775 0
-1133 40776 0
40777 -40776 0
-1144 -40776 0
40777 -1144 0
40778 -40777 0
-1155 -40777 0
40778 -1155 0
40779 -40778 0
-1166 -40778 0
40779 -1166 0
40780 -40779 0
-1177 -40779 0
40780 -1177 0
40781 -40780 0
-1188 -40780 0
40781 -1188 0
40782 -40781 0
-1199 -40781 0
40782 -1199 0
40783 -40782 0
-1210 -40782 0
40783 -1210 0
40784 -40783 0
-1221 -40783 0
40784 -1221 0
40785 -40784 0
-1232 -40784 0
40785 -1232 0
40786 -40785 0
-1243 -40785 0
40786 -1243 0
-1254 -40786 0
-10 0
-19 0
-27 0
-34 0
-40 0
-45 0
-49 0
-52 0
-54 0
-65 0
-74 0
-82 0
-89 0
-95 0
-100 0
-104 0
-107 0
-109 0
-120 0
-129 0
-137 0
-144 0
-150 0
-155 0
-159 0
-162 0
-164 0
-175 0
-184 0
-192 0
-199 0
-205 0
-210 0
-214 0
-217 0
-219 0
-230 0
-239 0
-247 0
-254 0
-260 0
-265 0
-269 0
-272 0
-274 0
-285 0
-294 0
-302 0
-309 0
-315 0
-320 0
-324 0
-327 0
-329 0
-340 0
-349 0
-357 0
-364 0
-370 0
-375 0
-379 0
-382 0
-384 0
-395 0
-404 0
-412 0
-419 0
-425 0
-430 0
-434 0
-437 0
-439 0
-450 0
-459 0
-467 0
-474 0
-480 0
-485 0
-489 0
-492 0
-494 0
-505 0
-514 0
-522 0
-529 0
-535 0
-540 0
-544 0
-547 0
-549 0
-560 0
-569 0
-577 0
-584 0
-590 0
-595 0
-599 0
-602 0
-604 0
-615 0
-624 0
-632 0
-639 0
-645 0
-650 0
-654 0
-657 0
-659 0
-670 0
-679 0
-687 0
-694 0
-700 0
-705 0
-709 0
-712 0
-714 0
-725 0
-734 0
-742 0
-749 0
-755 0
-760 0
-764 0
-767 0
-769 0
-780 0
-789 0
-797 0
-804 0
-810 0
-815 0
-819 0
-822 0
-824 0
-835 0
-844 0
-852 0
-859 0
-865 0
-870 0
-874 0
-877 0
-879 0
-890 0
-899 0
-907 0
-914 0
-920 0
-925 0
-929 0
-932 0
-934 0
-945 0
-954 0
-962 0
-969 0
-975 0
-980 0
-984 0
-987 0
-989 0
-1000 0
-1009 0
-1017 0
-1024 0
-1030 0
-1035 0
-1039 0
-1042 0
-1044 0
166 1 111 56 221 276 331 386 441 496 551 606 661 716 771 826 881 936 991 0
-1057 -1 0
-1068 -1 0
-1079 -1 0
-1090 -1 0
-1101 -1 0
-1112 -1 0
-1123 -1 0
-1134 -1 0
-1145 -1 0
-1156 -1 0
-1167 -1 0
-1178 -1 0
-1189 -1 0
-1200 -1 0
-1211 -1 0
-1222 -1 0
-1233 -1 0
-1244 -1 0
-56 -1047 0
-111 -1047 0
-166 -1047 0
-221 -1047 0
-276 -1047 0
-331 -1047 0
-386 -1047 0
-441 -1047 0
-496 -1047 0
-551 -1047 0
-606 -1047 0
-661 -1047 0
-716 -1047 0
-771 -1047 0
-826 -1047 0
-881 -1047 0
-936 -1047 0
-991 -1047 0
