p cnf 9671 1349
-8 503 0
-503 -9 0
8 7 2 1 -397 3 4 5 6 0
10 -398 9 1 12 13 14 11 15 0
19 -399 2 20 9 21 16 17 18 0
531 -37 0
-38 -531 0
532 -38 0
-532 533 0
-39 533 0
-533 534 0
-40 534 0
-534 535 0
-41 535 0
-535 536 0
-42 536 0
-536 537 0
-43 537 0
-537 538 0
-44 538 0
539 -538 0
-538 -45 0
540 -539 0
-46 -539 0
541 -540 0
-47 -540 0
542 -541 0
-48 -541 0
543 -542 0
-49 -542 0
544 -543 0
-50 -543 0
-51 -544 0
-406 39 38 37 43 44 40 41 42 0
51 -407 37 45 50 46 47 48 49 0
45 -408 38 56 55 52 53 54 57 0
567 -74 0
-567 568 0
-75 568 0
-568 569 0
-76 569 0
-569 570 0
-77 570 0
-570 571 0
-78 571 0
-571 572 0
-79 572 0
-572 573 0
-80 573 0
-573 -81 0
-415 75 80 73 74 79 76 77 78 0
86 -416 73 81 83 82 85 84 87 0
-417 90 74 81 88 89 91 92 93 0
-111 603 0
-603 604 0
-112 604 0
-604 605 0
-113 605 0
-605 606 0
-114 606 0
-606 607 0
-115 607 0
-607 608 0
-116 608 0
-608 -117 0
-424 111 109 116 110 115 112 113 114 0
-425 121 118 117 109 120 119 122 123 0
129 -426 110 117 124 125 127 128 126 0
-145 636 0
-636 637 0
-636 -146 0
-637 638 0
-147 638 0
-638 639 0
-148 639 0
-639 640 0
-149 640 0
-640 641 0
-150 641 0
-641 642 0
-151 642 0
-642 643 0
-152 643 0
-643 644 0
-643 -153 0
-644 645 0
-645 646 0
-646 647 0
-647 648 0
-648 649 0
-649 650 0
-650 651 0
-650 -160 0
-651 652 0
-161 -651 0
-652 653 0
-652 -162 0
-653 654 0
-163 -653 0
655 -654 0
-654 -164 0
-165 -655 0
-433 145 152 146 147 151 148 149 150 0
-434 159 145 157 156 153 154 155 158 0
-146 435 0
160 163 146 162 -435 164 153 165 161 0
-181 671 0
-671 672 0
-672 673 0
-183 673 0
-673 674 0
-184 674 0
-674 675 0
-185 675 0
-675 676 0
-186 676 0
-676 677 0
-187 677 0
-677 678 0
-188 678 0
-678 679 0
-678 -189 0
-679 680 0
-680 681 0
-681 682 0
-682 683 0
-683 684 0
-684 685 0
-685 686 0
-685 -196 0
-686 687 0
-197 -686 0
-687 688 0
-198 -687 0
-688 689 0
-199 -688 0
690 -689 0
-689 -200 0
-201 -690 0
-442 181 184 182 188 183 187 185 186 0
-443 194 181 195 189 190 191 192 193 0
-182 444 0
196 199 182 189 -444 201 200 198 197 0
-217 706 0
-706 707 0
-706 -218 0
-707 708 0
-219 708 0
-708 709 0
-220 709 0
-709 710 0
-221 710 0
-710 711 0
-222 711 0
-711 712 0
-223 712 0
-712 713 0
-224 713 0
714 -713 0
-713 -225 0
715 -714 0
716 -715 0
717 -716 0
718 -717 0
719 -718 0
720 -719 0
721 -720 0
-232 -720 0
722 -721 0
-233 -721 0
723 -722 0
-234 -722 0
724 -723 0
-235 -723 0
725 -724 0
-236 -724 0
-237 -725 0
-451 219 218 217 223 224 220 221 222 0
231 -452 217 225 230 226 227 228 229 0
-218 453 0
-225 453 0
236 235 218 -453 225 237 232 233 234 0
-255 743 0
-743 744 0
-256 744 0
-744 745 0
-257 745 0
-745 746 0
-258 746 0
-746 747 0
-259 747 0
-747 748 0
-260 748 0
-748 -261 0
-460 254 255 260 256 257 258 259 253 0
265 267 261 253 -461 263 262 264 266 0
271 254 -462 261 269 268 270 272 273 0
-289 776 0
-776 777 0
-290 -776 0
-290 777 0
-777 778 0
-291 778 0
-778 779 0
-292 779 0
-779 780 0
-293 780 0
-780 781 0
-294 781 0
-781 782 0
-295 782 0
-782 783 0
-296 783 0
-783 784 0
-783 -297 0
-784 785 0
786 -785 0
787 -786 0
788 -787 0
789 -788 0
790 -789 0
791 -790 0
-304 -790 0
792 -791 0
-305 -791 0
793 -792 0
-306 -792 0
794 -793 0
-307 -793 0
795 -794 0
-308 -794 0
-309 -795 0
-469 289 291 290 296 295 292 293 294 0
299 298 289 303 297 -470 300 301 302 0
-471 297 309 290 304 305 306 307 308 0
-327 813 0
-813 814 0
-328 814 0
-814 815 0
-329 815 0
-815 816 0
-330 816 0
-816 817 0
-331 817 0
-817 818 0
-332 818 0
-818 -333 0
-325 478 0
-326 478 0
328 -478 325 327 331 330 326 329 332 0
338 333 -479 334 335 337 336 325 339 0
333 341 326 -480 340 343 342 344 345 0
847 -362 0
-847 848 0
-848 849 0
-849 850 0
-850 851 0
-851 852 0
-852 853 0
-853 854 0
-854 855 0
-854 -370 0
-855 856 0
-855 -371 0
857 -856 0
-856 -372 0
858 -857 0
-857 -373 0
859 -858 0
-858 -374 0
-859 -375 0
368 367 -487 361 362 363 364 365 366 0
-488 372 369 361 375 370 371 373 374 0
376 369 362 -489 377 378 379 380 381 0
-2501 0
2503 0
-2602 0
397 -2510 2501 0
399 2512 -2503 0
-2 2512 -2503 0
2521 408 -2512 0
2521 -38 -2512 0
2530 -2521 417 0
-74 2530 -2521 0
2530 -2521 -81 0
2539 -2530 426 0
-110 -2530 2539 0
2548 -2539 435 0
2548 -146 -2539 0
2557 -2548 444 0
-182 -2548 2557 0
2566 -2557 453 0
2566 -218 -2557 0
2575 -2566 462 0
2575 -2566 -254 0
2584 -2575 471 0
-290 2584 -2575 0
480 -2584 2593 0
-326 -2584 2593 0
-369 -2593 2602 0
4445 0
-4544 0
-4545 0
-4447 0
397 4454 -4445 0
399 -4456 4447 0
4463 406 -4454 0
-4465 408 4456 0
4464 -37 -4454 0
4472 415 -4463 0
-4464 4473 416 0
-4474 4465 417 0
4473 -73 -4463 0
4481 -4472 424 0
-4473 4482 425 0
-4483 4474 426 0
-109 4482 -4472 0
4490 -4481 433 0
-4482 4491 434 0
4491 -145 -4481 0
-4491 4483 -153 0
4499 -4490 442 0
-4500 4491 443 0
-4491 4500 443 0
-181 4500 -4490 0
-4491 -181 4500 0
4508 -4499 451 0
-4500 4509 452 0
-217 4509 -4499 0
-4500 -217 4509 0
4517 -4508 460 0
-4509 4518 461 0
4518 -253 -4508 0
-4509 -253 4518 0
4526 -4517 469 0
-4518 4527 470 0
4535 478 -4526 0
-4527 4536 479 0
-325 4536 -4526 0
487 -4535 4544 0
488 -4536 4545 0
-361 -4535 4545 0
5849 0
-5948 0
-5949 0
5851 0
397 5858 -5849 0
399 5860 -5851 0
-2 5858 -5849 -5851 0
5867 406 -5858 0
5869 408 -5860 0
5867 -38 -5860 -5858 0
5869 -38 -5858 0
5876 415 -5867 0
5878 -5869 417 0
5876 -74 -5869 -5867 0
5885 -5876 424 0
5887 -5878 426 0
5885 -110 -5876 -5878 0
5894 -5885 433 0
-5886 5895 434 0
5896 -5887 435 0
5894 -146 -5885 -5887 0
5903 -5894 442 0
-5895 5904 443 0
5905 -5896 444 0
5903 -182 -5894 -5896 0
5912 -5903 451 0
-5904 5913 452 0
5914 -5905 453 0
5913 -217 -5903 0
5912 -218 -5905 -5903 0
5921 -5912 460 0
-5913 5922 461 0
5923 -5914 462 0
5922 -253 -5912 0
5921 -254 -5914 -5912 0
-5913 -5914 -261 5922 0
5930 -5921 469 0
-5922 5931 470 0
5931 -289 -5921 0
-5922 5931 -289 0
-290 5930 -5921 -5923 0
5939 -5930 478 0
-5931 5940 479 0
-5939 487 5948 0
488 -5940 5949 0
-361 -5939 5949 0
-6065 0
6066 0
-6165 0
-6067 0
6166 0
6068 0
6069 0
6070 0
6071 0
6072 0
6073 0
-6074 397 6065 0
6075 398 -6066 0
-6076 399 6067 0
-1 -6074 6065 0
6075 -1 -6066 0
-2 -6074 6065 0
-6076 -2 6065 6067 0
-3 -6074 6065 0
-4 -6074 6065 0
-5 -6074 6065 0
-6 -6074 6065 0
-7 -6074 6065 0
-8 -6074 6065 0
-9 -6075 6067 0
-9 6076 -6066 0
-10 6075 -6066 -6068 0
-11 6075 -6066 -6069 0
-12 6075 -6066 -6070 0
-13 6075 -6066 -6071 0
-14 6075 -6066 -6072 0
-15 6075 -6066 -6073 0
-6076 -16 6067 0
-6076 -17 6067 0
-6076 -18 6067 0
-19 -6076 6067 0
-6076 -20 6067 0
-21 -6076 6067 0
-6083 406 6074 0
407 -6084 6075 0
408 -6085 6076 0
-6083 -37 6074 0
-37 6084 -6075 0
-37 -6084 6074 6075 0
-38 -6083 6074 0
-6085 -38 6074 6076 0
-39 -6083 6074 0
-40 -6083 6074 0
-41 -6083 6074 0
-42 -6083 6074 0
-43 -6083 6074 0
-44 -6083 6074 0
-45 -6084 6075 0
-45 -6084 6076 0
-45 -6085 6076 6075 0
-46 -6084 6075 0
-47 -6084 6075 0
-48 -6084 6075 0
-49 -6084 6075 0
-50 -6084 6075 0
-51 -6084 6075 0
-52 -6085 6076 0
-53 -6085 6076 0
-54 -6085 6076 0
-55 -6085 6076 0
-56 -6085 6076 0
-57 -6085 6076 0
-6092 415 6083 0
416 6084 -6093 0
417 6085 -6094 0
-6092 -73 6083 0
-73 6093 -6084 0
6083 -73 6084 -6093 0
-6092 -74 6083 0
-74 6085 6083 -6094 0
-75 -6092 6083 0
-76 -6092 6083 0
-77 -6092 6083 0
-78 -6092 6083 0
-79 -6092 6083 0
-80 -6092 6083 0
-81 6084 -6093 0
-81 -6093 6085 0
-81 6094 -6084 0
-81 6084 -6094 6085 0
-82 6084 -6093 0
-83 6084 -6093 0
-84 6084 -6093 0
-85 6084 -6093 0
-86 6084 -6093 0
-87 6084 -6093 0
-88 6085 -6094 0
-89 6085 -6094 0
-90 6085 -6094 0
-91 6085 -6094 0
-92 6085 -6094 0
-93 6085 -6094 0
-6101 6092 424 0
425 6093 -6102 0
426 6094 -6103 0
-109 -6101 6092 0
-109 6102 -6093 0
-109 6092 6093 -6102 0
-6101 -110 6092 0
-6103 -110 6094 6092 0
-111 -6101 6092 0
-112 -6101 6092 0
-113 -6101 6092 0
-114 -6101 6092 0
-115 -6101 6092 0
-116 -6101 6092 0
6093 -117 -6102 0
6094 -117 -6102 0
-117 -6093 6103 0
6093 -117 6094 -6103 0
-118 6093 -6102 0
-119 6093 -6102 0
-120 6093 -6102 0
-121 6093 -6102 0
-122 6093 -6102 0
-123 6093 -6102 0
-124 6094 -6103 0
-125 6094 -6103 0
-126 6094 -6103 0
-127 6094 -6103 0
-128 6094 -6103 0
-129 6094 -6103 0
-6110 6101 433 0
434 6102 -6111 0
435 6103 -6112 0
435 -6103 6112 0
-6110 -145 6101 0
-145 -6102 6111 0
-145 -6111 6102 6101 0
-6110 -146 6101 0
-146 6103 6101 -6112 0
-147 -6110 6101 0
-148 -6110 6101 0
-149 -6110 6101 0
-150 -6110 6101 0
-151 -6110 6101 0
-152 -6110 6101 0
-153 6102 -6111 0
-153 -6111 6103 0
-153 -6102 6112 0
-153 6102 6103 -6112 0
-154 6102 -6111 0
-155 6102 -6111 0
-156 6102 -6111 0
-157 6102 -6111 0
-158 6102 -6111 0
-159 6102 -6111 0
-6112 -160 6103 0
-161 -6112 6103 0
-162 -6112 6103 0
-163 -6112 6103 0
-164 -6112 6103 0
-165 -6112 6103 0
-6119 6110 442 0
443 -6120 6111 0
444 -6121 6112 0
-181 -6119 6110 0
-181 -6111 6120 0
-181 6110 6111 -6120 0
-182 -6119 6110 0
-182 -6121 6110 6112 0
-183 -6119 6110 0
-184 -6119 6110 0
-185 -6119 6110 0
-186 -6119 6110 0
-187 -6119 6110 0
-188 -6119 6110 0
-189 -6120 6111 0
-189 -6120 6112 0
-189 6121 -6111 0
-189 6111 -6121 6112 0
-190 -6120 6111 0
-191 -6120 6111 0
-192 -6120 6111 0
-193 -6120 6111 0
-194 -6120 6111 0
-195 -6120 6111 0
-196 6112 -6121 0
-197 6112 -6121 0
-198 6112 -6121 0
-199 6112 -6121 0
-200 6112 -6121 0
-201 6112 -6121 0
-6128 6119 451 0
452 6120 -6129 0
453 6121 -6130 0
-217 -6128 6119 0
-217 -6128 6120 0
-217 6129 -6120 0
-217 6119 -6129 6120 0
-218 -6128 6119 0
-218 -6128 6121 0
-218 6119 -6130 6121 0
-219 -6128 6119 0
-220 -6128 6119 0
-221 -6128 6119 0
-222 -6128 6119 0
-223 -6128 6119 0
-224 -6128 6119 0
-225 6120 -6129 0
-225 6121 -6129 0
-225 6120 6121 -6130 0
-226 6120 -6129 0
-227 6120 -6129 0
-228 6120 -6129 0
-229 6120 -6129 0
-230 6120 -6129 0
-231 6120 -6129 0
-232 6121 -6130 0
-233 6121 -6130 0
-234 6121 -6130 0
-235 6121 -6130 0
-236 6121 -6130 0
-237 6121 -6130 0
-6137 6128 460 0
461 6129 -6138 0
462 6130 -6139 0
-253 -6137 6128 0
-253 6138 -6129 0
-253 6128 6129 -6138 0
-254 -6137 6128 0
-6137 -254 6130 0
-6128 -254 6139 0
-254 6128 -6139 6130 0
-255 -6137 6128 0
-256 -6137 6128 0
-257 -6137 6128 0
-258 -6137 6128 0
-259 -6137 6128 0
-260 -6137 6128 0
6129 -6138 -261 0
6130 -6138 -261 0
-6130 -261 -6129 6138 0
6139 -6129 -261 0
6130 6129 -261 -6139 0
-262 6129 -6138 0
-263 6129 -6138 0
-264 6129 -6138 0
-265 6129 -6138 0
-266 6129 -6138 0
-267 6129 -6138 0
-268 6130 -6139 0
-269 6130 -6139 0
-270 6130 -6139 0
-271 6130 -6139 0
-272 6130 -6139 0
-273 6130 -6139 0
-6146 6137 469 0
470 -6147 6138 0
470 6147 -6138 0
6139 -6148 471 0
-6146 -289 6137 0
-289 -6147 6138 6137 0
-290 -6146 6137 0
-290 -6148 6137 6139 0
-291 -6146 6137 0
-292 -6146 6137 0
-293 -6146 6137 0
-294 -6146 6137 0
-295 -6146 6137 0
-296 -6146 6137 0
-297 -6147 6138 0
6139 -6147 -297 0
-297 -6138 -6139 6147 0
-297 6139 -6148 6138 0
-298 -6147 6138 0
-6140 -298 -6138 6147 0
-299 -6147 6138 0
-6141 -299 -6138 6147 0
-300 -6147 6138 0
-6142 -300 -6138 6147 0
-301 -6147 6138 0
-6143 -301 -6138 6147 0
-302 -6147 6138 0
-6144 -302 -6138 6147 0
-303 -6147 6138 0
-6145 -303 -6138 6147 0
-304 6139 -6148 0
-305 6139 -6148 0
-306 6139 -6148 0
-307 6139 -6148 0
-308 6139 -6148 0
-309 6139 -6148 0
-6155 6146 478 0
-6156 479 6147 0
480 6148 -6157 0
-325 -6155 6146 0
-325 6156 -6147 0
-325 -6156 6146 6147 0
-6155 -326 6146 0
-326 6148 6146 -6157 0
-6155 -327 6146 0
-328 -6155 6146 0
-329 -6155 6146 0
-330 -6155 6146 0
-6155 -331 6146 0
-332 -6155 6146 0
-6156 -333 6147 0
-6156 -333 6148 0
-333 -6147 6157 0
-333 6148 6147 -6157 0
-334 -6156 6147 0
-335 -6156 6147 0
-336 -6156 6147 0
-337 -6156 6147 0
-338 -6156 6147 0
-339 -6156 6147 0
-340 6148 -6157 0
-341 6148 -6157 0
-342 6148 -6157 0
-343 6148 -6157 0
-344 6148 -6157 0
-345 6148 -6157 0
6157 489 -6166 0
-6156 -361 6165 0
6155 -362 6157 -6166 0
6156 -369 6157 -6166 0
-376 6157 -6166 0
-377 6157 -6166 0
-378 6157 -6166 0
-379 6157 -6166 0
-380 6157 -6166 0
-381 6157 -6166 0
6173 0
6174 0
6273 0
-6175 0
6182 397 -6173 0
-6184 399 6175 0
-6182 -2 6175 0
-2 6184 -6173 0
-6183 -9 6175 0
-9 6184 -6174 0
-16 -6184 6175 0
-17 -6184 6175 0
-18 -6184 6175 0
-19 -6184 6175 0
-20 -6184 6175 0
-21 -6184 6175 0
-6191 406 6182 0
6191 406 -6182 0
-6192 407 6183 0
408 -6193 6184 0
-6191 -38 6184 0
-38 6193 -6182 0
-6192 -45 6183 0
-6192 -45 6184 0
-46 -6192 6183 0
-47 -6192 6183 0
-48 -6192 6183 0
-49 -6192 6183 0
-50 -6192 6183 0
-51 -6192 6183 0
-52 -6193 6184 0
-53 -6193 6184 0
-54 -6193 6184 0
-55 -6193 6184 0
-56 -6193 6184 0
-57 -6193 6184 0
-6200 6191 415 0
6200 415 -6191 0
6192 416 -6201 0
6193 417 -6202 0
6202 417 -6193 0
-6200 -74 6193 0
6192 -81 -6201 0
6193 -81 -6201 0
-82 6192 -6201 0
-83 6192 -6201 0
-84 6192 -6201 0
-85 6192 -6201 0
-86 6192 -6201 0
-87 6192 -6201 0
-88 6193 -6202 0
-89 6193 -6202 0
-90 6193 -6202 0
-91 6193 -6202 0
-92 6193 -6202 0
-93 6193 -6202 0
-6209 6200 424 0
6209 -6200 424 0
6201 425 -6210 0
-6211 6202 426 0
426 6211 -6202 0
-109 6210 -6200 0
-6209 -110 6202 0
6201 -6210 -117 0
6202 -6210 -117 0
-118 6201 -6210 0
-119 6201 -6210 0
-120 6201 -6210 0
-121 6201 -6210 0
-122 6201 -6210 0
-123 6201 -6210 0
-124 6202 -6211 0
-125 6202 -6211 0
-126 6202 -6211 0
-127 6202 -6211 0
-128 6202 -6211 0
-129 6202 -6211 0
-6218 6209 433 0
6218 -6209 433 0
6210 -6219 434 0
-6220 435 6211 0
6220 -6211 435 0
6219 -145 -6209 0
-6218 -146 6211 0
-146 6220 -6209 0
6210 -153 -6219 0
6211 -153 -6219 0
-154 6210 -6219 0
-155 6210 -6219 0
-156 6210 -6219 0
-157 6210 -6219 0
-158 6210 -6219 0
-159 6210 -6219 0
-6220 6211 -160 0
-161 -6220 6211 0
-6220 6211 -162 0
-163 -6220 6211 0
-164 -6220 6211 0
-165 -6220 6211 0
-6227 6218 442 0
6227 -6218 442 0
6219 -6228 443 0
6220 444 -6229 0
6229 -6220 444 0
-6227 -182 6220 0
-182 6229 -6218 0
-6228 6219 -189 0
6220 -189 -6228 0
-190 -6228 6219 0
-191 -6228 6219 0
-192 -6228 6219 0
-193 -6228 6219 0
-194 -6228 6219 0
-195 -6228 6219 0
6220 -6229 -196 0
-197 6220 -6229 0
-198 6220 -6229 0
-199 6220 -6229 0
-200 6220 -6229 0
-201 6220 -6229 0
-6236 6227 451 0
6236 -6227 451 0
6228 452 -6237 0
6229 -6238 453 0
6238 453 -6229 0
-6236 -218 6229 0
-218 6238 -6227 0
6228 -225 -6237 0
6229 -225 -6237 0
-226 6228 -6237 0
-227 6228 -6237 0
-228 6228 -6237 0
-229 6228 -6237 0
-230 6228 -6237 0
-231 6228 -6237 0
-232 6229 -6238 0
-233 6229 -6238 0
-234 6229 -6238 0
-235 6229 -6238 0
-236 6229 -6238 0
-237 6229 -6238 0
-6245 6236 460 0
6245 -6236 460 0
461 6237 -6246 0
6238 462 -6247 0
6247 462 -6238 0
6237 -6246 -261 0
6238 -6246 -261 0
-262 6237 -6246 0
-263 6237 -6246 0
-264 6237 -6246 0
-265 6237 -6246 0
-266 6237 -6246 0
-267 6237 -6246 0
-268 6238 -6247 0
-269 6238 -6247 0
-270 6238 -6247 0
-271 6238 -6247 0
-272 6238 -6247 0
-273 6238 -6247 0
6254 -6245 469 0
470 6246 -6255 0
-6256 6247 471 0
-289 -6245 6255 0
6246 -297 -6255 0
6247 -297 -6255 0
6246 -6255 -298 0
6246 -6255 -299 0
-300 6246 -6255 0
-301 6246 -6255 0
-302 6246 -6255 0
-303 6246 -6255 0
-304 6247 -6256 0
-305 6247 -6256 0
-306 6247 -6256 0
-307 6247 -6256 0
-308 6247 -6256 0
-309 6247 -6256 0
-6264 6255 479 0
480 6256 -6265 0
-6264 6255 -333 0
6256 -6264 -333 0
-334 -6264 6255 0
-335 -6264 6255 0
-336 -6264 6255 0
-337 -6264 6255 0
-338 -6264 6255 0
-339 -6264 6255 0
-340 6256 -6265 0
-341 6256 -6265 0
-342 6256 -6265 0
-343 6256 -6265 0
-344 6256 -6265 0
-345 6256 -6265 0
6264 488 -6273 0
6264 -369 -6273 0
6265 -369 -6273 0
6264 -370 -6273 0
6264 -371 -6273 0
-372 6264 -6273 0
6264 -373 -6273 0
-374 6264 -6273 0
-375 6264 -6273 0
-6497 0
-6596 0
6498 0
6597 0
6499 0
-6506 397 6497 0
-6515 406 6506 0
-6524 415 6515 0
-6533 6524 424 0
-6542 6533 433 0
-6551 6542 442 0
-6560 6551 451 0
-6569 6560 460 0
-6578 6569 469 0
478 6578 -6587 0
-6589 -6587 -362 6596 0
6588 -369 -6597 0
6589 -369 -6597 0
9498 -1 6065 0
9498 -2 6067 0
9498 -3 6065 0
9498 -4 6065 0
9498 -5 6065 0
9498 -6 6065 0
9498 -7 6065 0
9498 -8 6065 0
9498 -9 6067 0
-16 9498 6067 0
-17 9498 6067 0
-18 9498 6067 0
-19 9498 6067 0
-20 9498 6067 0
-21 9498 6067 0
-37 9499 6074 0
-38 9499 6074 0
-39 9499 6074 0
-40 9499 6074 0
-41 9499 6074 0
-42 9499 6074 0
-43 9499 6074 0
-44 9499 6074 0
-45 9499 6075 0
-45 9499 6076 0
-46 9499 6075 0
-47 9499 6075 0
-48 9499 6075 0
-49 9499 6075 0
-50 9499 6075 0
-51 9499 6075 0
-52 9499 6076 0
-53 9499 6076 0
-54 9499 6076 0
-55 9499 6076 0
-56 9499 6076 0
-57 9499 6076 0
-73 6083 9500 0
6084 -73 9500 0
-74 6083 9500 0
-74 6085 9500 0
-75 6083 9500 0
-76 6083 9500 0
-77 6083 9500 0
-78 6083 9500 0
-79 6083 9500 0
-80 6083 9500 0
-81 6084 9500 0
-81 6085 9500 0
-82 6084 9500 0
-83 6084 9500 0
-84 6084 9500 0
-85 6084 9500 0
-86 6084 9500 0
-87 6084 9500 0
-88 9500 6085 0
-89 9500 6085 0
-90 9500 6085 0
-91 9500 6085 0
-92 9500 6085 0
-93 9500 6085 0
-109 6092 9501 0
-109 6093 9501 0
-110 6092 9501 0
-110 6094 9501 0
-111 6092 9501 0
-112 6092 9501 0
-113 6092 9501 0
-114 6092 9501 0
-115 6092 9501 0
-116 6092 9501 0
9501 -117 6093 0
6094 9501 -117 0
-118 9501 6093 0
-119 9501 6093 0
-120 9501 6093 0
-121 9501 6093 0
-122 9501 6093 0
-123 9501 6093 0
-124 6094 9501 0
-125 6094 9501 0
-126 6094 9501 0
-127 6094 9501 0
-128 6094 9501 0
-129 6094 9501 0
-145 6101 9502 0
-145 6102 9502 0
-146 6101 9502 0
-146 6103 9502 0
-147 6101 9502 0
-148 6101 9502 0
-149 6101 9502 0
-150 6101 9502 0
-151 6101 9502 0
-152 6101 9502 0
-153 6102 9502 0
-153 6103 9502 0
-154 6102 9502 0
-155 6102 9502 0
-156 6102 9502 0
-157 6102 9502 0
-158 6102 9502 0
-159 6102 9502 0
-160 6103 9502 0
-161 6103 9502 0
-162 6103 9502 0
-163 6103 9502 0
-164 6103 9502 0
-165 6103 9502 0
-181 6110 9503 0
-181 6111 9503 0
-182 6110 9503 0
-182 9503 6112 0
-183 6110 9503 0
-184 6110 9503 0
-185 6110 9503 0
-186 6110 9503 0
-187 6110 9503 0
-188 6110 9503 0
-189 6111 9503 0
-189 9503 6112 0
-190 6111 9503 0
-191 6111 9503 0
-192 6111 9503 0
-193 6111 9503 0
-194 6111 9503 0
-195 6111 9503 0
9503 -196 6112 0
-197 9503 6112 0
-198 9503 6112 0
-199 9503 6112 0
-200 9503 6112 0
-201 9503 6112 0
-217 6119 9504 0
-217 6120 9504 0
-218 6119 9504 0
-218 6121 9504 0
-219 6119 9504 0
-220 6119 9504 0
-221 6119 9504 0
-222 6119 9504 0
-223 6119 9504 0
-224 6119 9504 0
-225 6120 9504 0
-225 6121 9504 0
-226 6120 9504 0
-227 9504 6120 0
-228 9504 6120 0
-229 9504 6120 0
-230 9504 6120 0
-231 9504 6120 0
-232 6121 9504 0
-233 6121 9504 0
-234 6121 9504 0
-235 6121 9504 0
-236 6121 9504 0
-237 6121 9504 0
-253 6128 9505 0
-253 6129 9505 0
-254 6128 9505 0
-254 6130 9505 0
-255 6128 9505 0
-256 6128 9505 0
-257 6128 9505 0
-258 6128 9505 0
-259 6128 9505 0
-260 6128 9505 0
6129 9505 -261 0
6130 -261 9505 0
-262 6129 9505 0
-263 6129 9505 0
-264 6129 9505 0
-265 6129 9505 0
-266 6129 9505 0
-267 6129 9505 0
-268 6130 9505 0
-269 6130 9505 0
-270 6130 9505 0
-271 6130 9505 0
-272 6130 9505 0
-273 6130 9505 0
-289 6137 9506 0
-289 9506 6138 0
-290 6137 9506 0
-290 6139 9506 0
-291 6137 9506 0
-292 6137 9506 0
-293 6137 9506 0
-294 6137 9506 0
-295 6137 9506 0
-296 6137 9506 0
-297 9506 6138 0
6139 -297 9506 0
-298 9506 6138 0
6140 -298 9506 0
-299 9506 6138 0
6141 -299 9506 0
-300 9506 6138 0
6142 -300 9506 0
-301 9506 6138 0
6143 -301 9506 0
-302 9506 6138 0
6144 -302 9506 0
-303 9506 6138 0
6145 -303 9506 0
-304 6139 9506 0
-305 6139 9506 0
-306 6139 9506 0
-307 6139 9506 0
-308 6139 9506 0
-309 6139 9506 0
-325 9507 6146 0
-325 9507 6147 0
-326 9507 6146 0
-326 9507 6148 0
-327 9507 6146 0
-328 9507 6146 0
-329 9507 6146 0
-330 9507 6146 0
-331 9507 6146 0
-332 9507 6146 0
-333 9507 6147 0
9507 -333 6148 0
-334 9507 6147 0
-335 9507 6147 0
-336 9507 6147 0
-337 9507 6147 0
-338 9507 6147 0
-339 9507 6147 0
-340 9507 6148 0
-341 9507 6148 0
-342 9507 6148 0
-343 9507 6148 0
-344 9507 6148 0
-345 9507 6148 0
-361 9508 6155 0
-361 9508 6156 0
-362 9508 6155 0
9508 -362 6157 0
-363 9508 6155 0
-364 9508 6155 0
-365 9508 6155 0
-366 9508 6155 0
-367 9508 6155 0
9508 6155 -368 0
-369 9508 6156 0
9508 -369 6157 0
9508 6156 -370 0
9508 6156 -371 0
-372 9508 6156 0
9508 6156 -373 0
9508 6156 -374 0
9508 6156 -375 0
9509 -9498 0
9510 -9509 0
-9499 9511 -9509 0
-9511 9512 0
-9511 -9500 0
-9499 9510 0
9513 -9510 0
-9500 9512 -9510 0
-9512 9514 0
-9512 -9501 0
9513 -9500 0
9515 -9513 0
-9501 9514 -9513 0
-9514 9516 0
-9514 -9502 0
-9501 9515 0
9517 -9515 0
-9502 9516 -9515 0
-9516 9518 0
-9516 -9503 0
9517 -9502 0
9519 -9517 0
9518 -9503 -9517 0
-9518 9520 0
-9518 -9504 0
9519 -9503 0
9521 -9519 0
-9504 9520 -9519 0
-9520 9522 0
-9520 -9505 0
-9504 9521 0
9523 -9521 0
-9505 9522 -9521 0
-9522 9524 0
-9522 -9506 0
-9505 9523 0
9525 -9523 0
-9506 9524 -9523 0
-9524 9526 0
-9524 -9507 0
-9506 9525 0
9526 -9507 -9525 0
-9508 -9526 0
-183 9532 6218 0
-184 9532 6218 0
-185 9532 6218 0
-186 9532 6218 0
-9532 -6220 -6219 -189 0
-219 6227 9533 0
-220 6227 9533 0
-221 6227 9533 0
-222 6227 9533 0
-223 6227 9533 0
-9533 -225 -6228 -6229 0
-255 6236 9534 0
-256 6236 9534 0
-9534 -6237 -261 -6238 0
-1 9632 6497 0
9632 -2 6497 0
9632 -3 6497 0
9632 -4 6497 0
9632 -5 6497 0
9632 -6 6497 0
9632 -7 6497 0
-8 9632 6497 0
-9 -9632 -6498 -6499 0
-37 9633 6506 0
-38 9633 6506 0
-39 9633 6506 0
-40 9633 6506 0
-41 9633 6506 0
-42 9633 6506 0
-43 9633 6506 0
-44 9633 6506 0
-73 6515 9634 0
-74 6515 9634 0
-75 6515 9634 0
-76 6515 9634 0
-77 6515 9634 0
-78 6515 9634 0
-79 6515 9634 0
-80 6515 9634 0
-109 6524 9635 0
-110 6524 9635 0
-111 6524 9635 0
-112 6524 9635 0
-113 6524 9635 0
-114 6524 9635 0
-115 6524 9635 0
-116 6524 9635 0
-145 6533 9636 0
-146 6533 9636 0
-147 9636 6533 0
-148 9636 6533 0
-149 9636 6533 0
-150 9636 6533 0
-151 9636 6533 0
-152 9636 6533 0
-181 6542 9637 0
-182 6542 9637 0
-183 6542 9637 0
-184 6542 9637 0
-185 6542 9637 0
-186 6542 9637 0
-187 6542 9637 0
-188 6542 9637 0
-217 6551 9638 0
-218 6551 9638 0
-219 6551 9638 0
-220 6551 9638 0
-221 6551 9638 0
-222 6551 9638 0
-223 6551 9638 0
-224 6551 9638 0
-253 6560 9639 0
-254 6560 9639 0
-255 6560 9639 0
-256 6560 9639 0
-257 6560 9639 0
-258 6560 9639 0
-259 6560 9639 0
-260 6560 9639 0
-289 6569 9640 0
-290 6569 9640 0
-291 6569 9640 0
-292 6569 9640 0
-293 6569 9640 0
-294 6569 9640 0
-295 6569 9640 0
-296 6569 9640 0
-325 9641 6578 0
6587 9642 -362 0
9642 6589 -362 0
-363 6587 9642 0
-364 6587 9642 0
-365 6587 9642 0
-366 6587 9642 0
-367 6587 9642 0
-368 6587 9642 0
-6589 -9642 -6588 -369 0
9643 -9632 0
9644 -9643 0
-9633 9644 0
9647 -9644 0
-9634 9647 0
9649 -9647 0
-9635 9649 0
9651 -9649 0
-9636 9651 0
9653 -9651 0
-9637 9653 0
9655 -9653 0
-9638 9655 0
9657 -9655 0
-9639 9657 0
9659 -9657 0
-9640 9659 0
-9641 9660 -9659 0
-9660 -9642 0
