p cnf 9218 1413
-8 503 0
-503 -9 0
1 3 -397 8 2 7 4 5 6 0
-398 1 10 13 14 11 12 9 15 0
-2 399 0
-9 399 0
21 -399 2 9 17 20 18 16 19 0
-39 533 0
-533 534 0
-40 534 0
-534 535 0
-41 535 0
-535 536 0
-42 536 0
-536 537 0
-43 537 0
-537 538 0
-44 538 0
-538 -45 0
-406 39 37 38 44 43 40 41 42 0
49 -407 45 37 47 48 46 50 51 0
-408 53 38 45 52 57 54 55 56 0
-75 568 0
-568 569 0
-76 569 0
-569 570 0
-77 570 0
-570 571 0
-78 571 0
-571 572 0
-79 572 0
-572 573 0
-80 573 0
-573 -81 0
-415 76 80 73 77 79 74 75 78 0
84 83 -416 73 87 82 81 85 86 0
-417 90 81 74 91 88 89 92 93 0
-111 603 0
-603 604 0
-112 604 0
-604 605 0
-113 605 0
-605 606 0
-114 606 0
-606 607 0
-115 607 0
-607 608 0
-116 608 0
-608 -117 0
-424 109 110 116 111 115 112 113 114 0
121 -425 117 109 119 120 118 122 123 0
-426 127 117 110 124 125 126 128 129 0
636 -145 0
-636 637 0
-146 -636 0
-146 637 0
-637 638 0
-147 638 0
-638 639 0
-148 639 0
-639 640 0
-149 640 0
-640 641 0
-150 641 0
-641 642 0
-151 642 0
-642 643 0
-152 643 0
644 -643 0
-643 -153 0
645 -644 0
-154 -644 0
646 -645 0
-155 -645 0
647 -646 0
-156 -646 0
648 -647 0
-157 -647 0
649 -648 0
-158 -648 0
650 -649 0
-159 -649 0
651 -650 0
-160 -650 0
652 -651 0
-161 -651 0
653 -652 0
-162 -652 0
654 -653 0
-163 -653 0
655 -654 0
-164 -654 0
-165 -655 0
433 -145 0
433 -146 0
-433 147 148 146 145 152 149 151 150 0
159 -434 153 145 155 157 154 156 158 0
-146 435 0
-153 435 0
-435 164 153 146 161 165 160 162 163 0
-183 673 0
-673 674 0
-184 674 0
-674 675 0
-185 675 0
-675 676 0
-186 676 0
-676 677 0
-187 677 0
-677 678 0
-188 678 0
-678 -189 0
-442 183 181 182 187 186 184 185 188 0
190 194 181 -443 189 191 193 192 195 0
-444 198 189 182 201 200 196 199 197 0
-219 708 0
-708 709 0
-220 709 0
-709 710 0
-221 710 0
-710 711 0
-222 711 0
-711 712 0
-223 712 0
-712 713 0
-224 713 0
-713 -225 0
-451 219 218 217 224 223 220 221 222 0
231 -452 217 225 226 227 228 229 230 0
453 -218 0
453 -225 0
236 235 218 225 -453 232 233 234 237 0
-253 741 0
-741 -254 0
-254 742 0
-742 743 0
-255 743 0
-743 744 0
-256 744 0
-744 745 0
-257 745 0
-745 746 0
-258 746 0
-746 747 0
-259 747 0
-747 748 0
-260 748 0
749 -748 0
-748 -261 0
750 -749 0
-262 -749 0
-263 -750 0
-253 460 0
460 -254 0
-460 254 253 256 255 260 259 257 258 0
267 261 253 -461 263 262 266 264 265 0
273 261 254 -462 268 269 270 271 272 0
776 -289 0
-290 -776 0
-291 778 0
-778 779 0
-292 779 0
-779 780 0
-293 780 0
-780 781 0
-294 781 0
-781 782 0
-295 782 0
-782 783 0
-296 783 0
-783 -297 0
469 -289 0
469 -290 0
-469 290 289 294 291 296 295 292 293 0
303 297 -470 289 302 298 299 300 301 0
306 290 -471 297 307 304 305 308 309 0
-325 811 0
-811 812 0
-326 812 0
-812 813 0
-327 813 0
-813 814 0
-328 814 0
-814 815 0
-329 815 0
-815 816 0
-330 816 0
-816 817 0
817 -331 0
818 -817 0
818 -332 0
-333 -818 0
-326 478 0
332 -478 331 330 329 327 325 328 326 0
336 337 325 333 -479 335 334 338 339 0
-480 343 333 342 326 341 340 344 345 0
846 -361 0
847 -846 0
847 -362 0
848 -847 0
-363 848 0
849 -848 0
-364 849 0
850 -849 0
-365 850 0
851 -850 0
-366 851 0
852 -851 0
-367 852 0
853 -852 0
-368 853 0
-369 -853 0
368 362 361 -487 363 364 365 366 367 0
375 371 -488 369 370 373 372 361 374 0
-489 362 369 376 377 378 379 380 381 0
1746 0
-1747 0
-1 1755 -1746 0
-9 -1755 1747 0
2287 0
-2386 0
399 2296 -2287 0
2305 408 -2296 0
2314 417 -2305 0
2323 426 -2314 0
2332 435 -2323 0
-146 2332 -2323 0
2341 444 -2332 0
2341 -182 -2332 0
2350 453 -2341 0
2350 -218 -2341 0
2359 462 -2350 0
2359 -254 -2350 0
2368 -2359 471 0
2368 -290 -2359 0
480 -2368 2377 0
-326 -2368 2377 0
-369 -2377 2386 0
4013 0
-4112 0
-4113 0
-4015 0
397 4022 -4013 0
399 -4024 4015 0
4031 406 -4022 0
-4033 408 4024 0
4040 415 -4031 0
-4042 417 4033 0
-73 4041 -4031 0
4049 424 -4040 0
-4041 4050 425 0
-4051 426 4042 0
4050 -109 -4040 0
4058 433 -4049 0
-4050 4059 434 0
-4060 435 4051 0
4059 -145 -4049 0
4067 442 -4058 0
-4059 4068 443 0
-4069 444 4060 0
4068 -181 -4058 0
4076 451 -4067 0
-4068 4077 452 0
4069 453 -4078 0
4077 -217 -4067 0
4085 -4076 460 0
-4077 4086 461 0
-4087 462 4078 0
4094 469 -4085 0
-4086 4095 470 0
-289 -4085 4095 0
-4095 4087 -297 0
-4094 478 4103 0
-4095 479 4104 0
-325 4104 -4094 0
-4103 487 4112 0
-4104 488 4113 0
-361 -4103 4113 0
-361 -4104 4113 0
4878 0
-4977 0
4879 0
-9 4887 -4878 -4879 0
4896 407 -4887 0
4896 -37 -4887 0
4905 416 -4896 0
4914 -4905 425 0
4923 -4914 434 0
4923 -145 -4914 0
4932 -4923 443 0
4932 -181 -4923 0
4941 -4932 452 0
4950 -4941 461 0
-253 4950 -4941 0
-4950 4959 470 0
-4959 479 4968 0
488 -4968 4977 0
-4968 -361 4977 0
5525 0
-5624 0
-5625 0
5527 0
5529 0
5530 0
5531 0
5532 0
5533 0
5534 397 -5525 0
399 5536 -5527 0
5534 -2 -5525 -5527 0
-4 5534 -5525 -5529 0
-5 5534 -5525 -5530 0
-6 5534 -5525 -5531 0
-7 5534 -5525 -5532 0
-8 5534 -5525 -5533 0
5543 406 -5534 0
5545 408 -5536 0
5543 -38 -5534 -5536 0
5545 -38 -5536 0
5552 415 -5543 0
5554 417 -5545 0
5552 -74 -5543 -5545 0
5561 424 -5552 0
5563 426 -5554 0
5561 -110 -5552 -5554 0
5570 433 -5561 0
5572 435 -5563 0
-146 5570 -5563 -5561 0
5579 442 -5570 0
5581 444 -5572 0
5579 -182 -5570 -5572 0
-5588 5579 451 0
5588 451 -5579 0
5590 453 -5581 0
-218 -5581 -5579 5588 0
5597 -5588 460 0
-5589 5598 461 0
5599 462 -5590 0
5598 -253 -5588 0
5597 -254 -5590 -5588 0
5606 469 -5597 0
-5598 5607 470 0
5607 -289 -5597 0
5606 -290 -5599 -5597 0
-5606 478 5615 0
-5607 479 5616 0
-325 -5606 5616 0
487 -5615 5624 0
488 -5616 5625 0
-5615 -361 5625 0
-5616 -361 5625 0
-5741 0
-5840 0
5742 0
-5841 0
-5743 0
5842 0
5744 0
5745 0
5746 0
5747 0
5748 0
5749 0
-5750 397 5741 0
398 5751 -5742 0
-5752 399 5743 0
-1 -5750 5741 0
-1 5751 -5742 0
-5750 -2 5741 0
-5752 -2 5741 5743 0
-3 -5750 5741 0
-5750 -4 5741 0
-5750 -5 5741 0
-5750 -6 5741 0
-5750 -7 5741 0
-8 -5750 5741 0
-9 -5751 5743 0
-9 5752 -5742 0
-10 5751 -5742 -5744 0
-11 5751 -5742 -5745 0
-12 5751 -5742 -5746 0
-13 5751 -5742 -5747 0
-14 5751 -5742 -5748 0
-15 5751 -5742 -5749 0
-5752 -16 5743 0
-5752 -17 5743 0
-5752 -18 5743 0
-5752 -19 5743 0
-20 -5752 5743 0
-21 -5752 5743 0
-5759 406 5750 0
-5760 407 5751 0
-5761 408 5752 0
-37 -5759 5750 0
-37 5760 -5751 0
-37 -5760 5751 5750 0
-38 -5759 5750 0
-5761 -38 5750 5752 0
-39 -5759 5750 0
-40 -5759 5750 0
-41 -5759 5750 0
-42 -5759 5750 0
-43 -5759 5750 0
-44 -5759 5750 0
-5760 -45 5751 0
-5760 -45 5752 0
-45 5761 -5751 0
-45 -5761 5751 5752 0
-46 -5760 5751 0
-47 -5760 5751 0
-48 -5760 5751 0
-49 -5760 5751 0
-50 -5760 5751 0
-51 -5760 5751 0
-52 -5761 5752 0
-53 -5761 5752 0
-54 -5761 5752 0
-55 -5761 5752 0
-56 -5761 5752 0
-57 -5761 5752 0
-5768 415 5759 0
416 5760 -5769 0
-5770 417 5761 0
-73 -5768 5759 0
-73 -5760 5769 0
-73 5760 -5769 5759 0
-74 -5768 5759 0
-74 -5770 5759 5761 0
-75 -5768 5759 0
-76 -5768 5759 0
-77 -5768 5759 0
-78 -5768 5759 0
-79 -5768 5759 0
-80 -5768 5759 0
-81 5760 -5769 0
-81 5761 -5769 0
-81 5760 5761 -5770 0
-82 5760 -5769 0
-83 5760 -5769 0
-84 5760 -5769 0
-85 5760 -5769 0
-86 5760 -5769 0
-87 5760 -5769 0
-88 5761 -5770 0
-89 -5770 5761 0
-90 -5770 5761 0
-91 5761 -5770 0
-92 5761 -5770 0
-93 -5770 5761 0
-5777 424 5768 0
425 5769 -5778 0
-5779 426 5770 0
-109 -5777 5768 0
-109 5778 -5769 0
-109 5769 -5778 5768 0
-110 -5777 5768 0
-110 -5779 5768 5770 0
-111 -5777 5768 0
-112 -5777 5768 0
-113 -5777 5768 0
-114 -5777 5768 0
-115 -5777 5768 0
-116 -5777 5768 0
-117 5769 -5778 0
-117 -5778 5770 0
-117 -5769 5779 0
5769 -117 5770 -5779 0
-118 5769 -5778 0
-119 5769 -5778 0
-120 5769 -5778 0
-121 5769 -5778 0
-122 5769 -5778 0
-123 5769 -5778 0
-124 -5779 5770 0
-125 5770 -5779 0
-126 5770 -5779 0
-127 5770 -5779 0
-128 -5779 5770 0
-129 -5779 5770 0
-5786 433 5777 0
434 5778 -5787 0
434 5787 -5778 0
-5788 435 5779 0
435 -5779 5788 0
-145 -5786 5777 0
-145 5787 -5778 0
-145 5778 -5787 5777 0
-146 -5786 5777 0
-146 -5788 5777 5779 0
-147 -5786 5777 0
-148 -5786 5777 0
-149 -5786 5777 0
-150 -5786 5777 0
-151 -5786 5777 0
-152 -5786 5777 0
-153 5778 -5787 0
-153 -5787 5779 0
5778 -153 5779 -5788 0
-154 5778 -5787 0
-155 5778 -5787 0
-156 5778 -5787 0
-157 5778 -5787 0
-158 5778 -5787 0
-159 5778 -5787 0
-160 -5788 5779 0
-161 -5788 5779 0
-162 5779 -5788 0
-163 5779 -5788 0
-164 5779 -5788 0
-165 -5788 5779 0
-5795 442 5786 0
443 5787 -5796 0
443 5796 -5787 0
-5797 444 5788 0
-181 -5795 5786 0
-181 5796 -5787 0
-181 5786 -5796 5787 0
-182 -5795 5786 0
-182 -5797 5786 5788 0
-183 -5795 5786 0
-184 -5795 5786 0
-185 -5795 5786 0
-186 -5795 5786 0
-187 -5795 5786 0
-188 -5795 5786 0
-189 5787 -5796 0
-189 5788 -5796 0
-189 -5787 5797 0
-189 5787 5788 -5797 0
-190 5787 -5796 0
-191 5787 -5796 0
-192 5787 -5796 0
-193 5787 -5796 0
-194 5787 -5796 0
-195 5787 -5796 0
-196 -5797 5788 0
-197 -5797 5788 0
-198 5788 -5797 0
-199 -5797 5788 0
-200 -5797 5788 0
-201 5788 -5797 0
-5804 451 5795 0
452 5796 -5805 0
453 5797 -5806 0
453 5806 -5797 0
-217 -5804 5795 0
-217 5805 -5796 0
-217 5795 -5805 5796 0
-218 -5804 5795 0
-218 5795 -5806 5797 0
-219 -5804 5795 0
-220 -5804 5795 0
-221 -5804 5795 0
-222 -5804 5795 0
-223 -5804 5795 0
-224 -5804 5795 0
-225 5796 -5805 0
-225 5797 -5805 0
-225 5806 -5796 0
-225 5796 -5806 5797 0
-226 5796 -5805 0
-227 5796 -5805 0
-228 5796 -5805 0
-229 5796 -5805 0
-230 5796 -5805 0
-231 5796 -5805 0
-232 5797 -5806 0
-233 5797 -5806 0
-234 5797 -5806 0
-235 5797 -5806 0
-236 5797 -5806 0
-237 5797 -5806 0
-5813 5804 460 0
461 5805 -5814 0
462 5806 -5815 0
-253 -5813 5804 0
-253 -5805 5814 0
-253 5805 -5814 5804 0
-254 -5813 5804 0
-254 5806 -5815 5804 0
-255 -5813 5804 0
-256 -5813 5804 0
-257 -5813 5804 0
-258 -5813 5804 0
-259 -5813 5804 0
-260 -5813 5804 0
5805 -5814 -261 0
5806 -5814 -261 0
-5806 -5805 -261 5814 0
5805 -5815 -261 5806 0
-262 5805 -5814 0
-263 5805 -5814 0
-264 5805 -5814 0
-265 5805 -5814 0
-266 5805 -5814 0
-267 5805 -5814 0
-268 5806 -5815 0
-269 5806 -5815 0
-270 5806 -5815 0
-271 5806 -5815 0
-272 5806 -5815 0
-273 5806 -5815 0
-5822 5813 469 0
-5823 470 5814 0
471 5815 -5824 0
-289 -5822 5813 0
-5813 -289 -5814 5822 0
-289 -5814 5823 0
-5823 -289 5813 5814 0
-290 -5822 5813 0
-290 5815 -5824 5813 0
-291 -5822 5813 0
-292 -5822 5813 0
-293 -5822 5813 0
-294 -5822 5813 0
-295 -5822 5813 0
-296 -5822 5813 0
-5823 -297 5814 0
-5823 -297 5815 0
-5814 -297 -5815 5823 0
5824 -5814 -297 0
5815 -5824 5814 -297 0
-298 -5823 5814 0
-299 -5823 5814 0
-300 -5823 5814 0
-301 -5823 5814 0
-302 -5823 5814 0
-303 -5823 5814 0
-304 5815 -5824 0
-305 5815 -5824 0
-306 5815 -5824 0
-307 5815 -5824 0
-308 5815 -5824 0
-309 5815 -5824 0
5822 478 -5831 0
479 -5832 5823 0
-5823 479 5832 0
480 5824 -5833 0
-325 5822 -5831 0
-5823 -325 5832 0
-326 5822 -5831 0
-326 -5833 5822 5824 0
-5831 5822 -327 0
-5831 5822 -328 0
-5831 5822 -329 0
-330 -5831 5822 0
-5831 5822 -331 0
-5831 5822 -332 0
-333 5824 -5832 0
-5823 -333 -5824 5832 0
-333 5824 5823 -5833 0
-5825 -334 -5823 5832 0
-5826 -335 -5823 5832 0
-5827 -5823 -336 5832 0
-5828 -337 -5823 5832 0
-5829 -338 -5823 5832 0
-5830 -339 -5823 5832 0
-340 5824 -5833 0
-341 5824 -5833 0
-342 5824 -5833 0
-343 5824 -5833 0
-344 5824 -5833 0
-345 5824 -5833 0
-5832 488 5841 0
5833 489 -5842 0
-5832 -361 5841 0
-5833 -5831 -362 5840 0
5831 -362 5833 -5842 0
-5833 -5832 -369 5841 0
-369 5833 5832 -5842 0
-5832 -5834 -370 5841 0
-5832 -5835 -371 5841 0
-5832 -5836 -372 5841 0
-5832 -5837 -373 5841 0
-5832 -5838 -374 5841 0
-5832 -5839 -375 5841 0
-376 5833 -5842 0
-377 5833 -5842 0
-378 5833 -5842 0
-379 5833 -5842 0
-380 5833 -5842 0
-381 5833 -5842 0
5849 0
-5948 0
5949 0
-5851 0
5858 397 -5849 0
-5860 399 5851 0
-5859 -9 5851 0
-5860 -16 5851 0
-5860 -17 5851 0
-5860 -18 5851 0
-5860 -19 5851 0
-5860 -20 5851 0
-21 -5860 5851 0
5867 406 -5858 0
-5868 407 5859 0
-5869 408 5860 0
-5867 -38 5860 0
-38 5869 -5858 0
-5868 -45 5859 0
-5868 -45 5860 0
-46 -5868 5859 0
-47 -5868 5859 0
-48 -5868 5859 0
-49 -5868 5859 0
-50 -5868 5859 0
-51 -5868 5859 0
-5869 -52 5860 0
-53 -5869 5860 0
-54 -5869 5860 0
-55 -5869 5860 0
-56 -5869 5860 0
-57 -5869 5860 0
5867 -5876 415 0
5876 415 -5867 0
-5877 416 5868 0
-5878 417 5869 0
-5869 5878 417 0
-73 5877 -5867 0
-5876 -74 5869 0
-74 5878 -5867 0
-5877 -81 5868 0
-5877 -81 5869 0
-82 -5877 5868 0
-83 -5877 5868 0
-5877 -84 5868 0
-85 -5877 5868 0
-86 -5877 5868 0
-87 -5877 5868 0
-88 5869 -5878 0
-89 5869 -5878 0
-90 5869 -5878 0
-91 5869 -5878 0
-92 5869 -5878 0
-93 5869 -5878 0
-5885 5876 424 0
5885 424 -5876 0
5877 425 -5886 0
-5877 5886 425 0
-5887 426 5878 0
-5878 5887 426 0
5886 -109 -5876 0
5877 -5886 -117 0
-5886 -117 5878 0
-118 5877 -5886 0
-119 5877 -5886 0
-120 5877 -5886 0
5877 -5886 -121 0
-122 5877 -5886 0
-123 5877 -5886 0
-124 -5887 5878 0
-125 -5887 5878 0
-126 -5887 5878 0
-127 -5887 5878 0
-128 -5887 5878 0
-129 -5887 5878 0
-5894 5885 433 0
5894 433 -5885 0
5886 434 -5895 0
-5896 435 5887 0
5896 -5887 435 0
5886 -153 -5895 0
5887 -153 -5895 0
-154 5886 -5895 0
-155 5886 -5895 0
-156 5886 -5895 0
-157 5886 -5895 0
-158 5886 -5895 0
-159 5886 -5895 0
-160 5887 -5896 0
-161 5887 -5896 0
-162 5887 -5896 0
-163 5887 -5896 0
-164 5887 -5896 0
-165 5887 -5896 0
5894 -5903 442 0
5903 442 -5894 0
5895 443 -5904 0
-5905 444 5896 0
5905 -5896 444 0
5894 -181 -5904 5895 0
5895 -189 -5904 0
5896 -189 -5904 0
-190 5895 -5904 0
-191 5895 -5904 0
-192 5895 -5904 0
-193 5895 -5904 0
-194 5895 -5904 0
-195 5895 -5904 0
-196 5896 -5905 0
-197 5896 -5905 0
-198 5896 -5905 0
-199 5896 -5905 0
-200 5896 -5905 0
-201 5896 -5905 0
5912 451 -5903 0
5904 452 -5913 0
453 5905 -5914 0
-218 5914 -5903 0
5904 -225 -5913 0
-225 5905 -5913 0
-226 5904 -5913 0
-227 5904 -5913 0
-228 5904 -5913 0
-229 5904 -5913 0
-230 5904 -5913 0
-231 5904 -5913 0
-232 5905 -5914 0
-233 5905 -5914 0
-234 5905 -5914 0
-235 5905 -5914 0
5905 -236 -5914 0
-237 5905 -5914 0
5921 -5912 460 0
5913 -5922 461 0
462 -5923 5914 0
-254 -5921 5914 0
5913 -5922 -261 0
5914 -5922 -261 0
-262 5913 -5922 0
-263 5913 -5922 0
-264 5913 -5922 0
-265 5913 -5922 0
-266 5913 -5922 0
-267 5913 -5922 0
-268 -5923 5914 0
-269 -5923 5914 0
-270 -5923 5914 0
-271 -5923 5914 0
-272 -5923 5914 0
-273 -5923 5914 0
5921 469 -5930 0
5930 469 -5921 0
5922 470 -5931 0
-5932 5923 471 0
5922 -5931 -297 0
5923 -5931 -297 0
-298 5922 -5931 0
-299 5922 -5931 0
-300 5922 -5931 0
-301 5922 -5931 0
-302 5922 -5931 0
-303 5922 -5931 0
-304 5923 -5932 0
-305 5923 -5932 0
-306 5923 -5932 0
-307 5923 -5932 0
-308 5923 -5932 0
-309 5923 -5932 0
479 5931 -5940 0
480 5932 -5941 0
-333 5931 -5940 0
5932 -333 -5940 0
-334 5931 -5940 0
-335 5931 -5940 0
-336 5931 -5940 0
-337 5931 -5940 0
-338 5931 -5940 0
-339 5931 -5940 0
-340 5932 -5941 0
-341 5932 -5941 0
-342 5932 -5941 0
-343 5932 -5941 0
-344 5932 -5941 0
-345 5932 -5941 0
487 -5939 5948 0
488 5940 -5949 0
5940 -369 -5949 0
-369 5941 -5949 0
5940 -370 -5949 0
-371 5940 -5949 0
5940 -372 -5949 0
-373 5940 -5949 0
-374 5940 -5949 0
-375 5940 -5949 0
6065 0
-6164 0
6165 0
6067 0
6166 0
6074 397 -6065 0
6076 399 -6067 0
6074 -2 -6065 -6067 0
6083 406 -6074 0
6085 408 -6076 0
6092 415 -6083 0
6094 417 -6085 0
6092 -74 -6083 -6085 0
6101 424 -6092 0
6101 -110 -6092 -6094 0
6110 433 -6101 0
6119 442 -6110 0
6128 451 -6119 0
6137 -6128 460 0
6146 469 -6137 0
6155 -6146 478 0
-6147 -325 -6146 6155 0
-6148 -326 -6146 6155 0
-6149 -327 -6146 6155 0
-6150 -328 -6146 6155 0
-6151 -329 -6146 6155 0
-6152 -330 -6146 6155 0
-6153 -331 -6146 6155 0
-6154 -332 -6146 6155 0
487 -6155 6164 0
6156 488 -6165 0
6157 489 -6166 0
-369 6156 -6165 0
6157 -369 -6165 0
6156 -370 -6165 0
6156 -371 -6165 0
6156 -372 -6165 0
6156 -373 -6165 0
6156 -374 -6165 0
6156 -375 -6165 0
6157 -376 -6166 0
6157 -377 -6166 0
6157 -378 -6166 0
6157 -379 -6166 0
6157 -380 -6166 0
6157 -381 -6166 0
-6173 0
6174 0
6273 0
6175 0
-6182 397 6173 0
-6182 -2 6173 0
-6191 406 6182 0
-6191 -38 6182 0
-6200 415 6191 0
-73 -6200 6191 0
-74 -6200 6191 0
-75 -6200 6191 0
-76 -6200 6191 0
-77 -6200 6191 0
-78 -6200 6191 0
-79 -6200 6191 0
-6200 -80 6191 0
-6209 424 6200 0
-6209 -109 6200 0
-6209 -110 6200 0
-111 -6209 6200 0
-112 -6209 6200 0
-113 -6209 6200 0
-114 -6209 6200 0
-115 -6209 6200 0
-6209 -116 6200 0
-6218 433 6209 0
-6218 -145 6209 0
-146 -6218 6209 0
-147 -6218 6209 0
-148 -6218 6209 0
-149 -6218 6209 0
-150 -6218 6209 0
-151 -6218 6209 0
-6218 -152 6209 0
-6227 442 6218 0
-6236 451 6227 0
-6245 6236 460 0
-6254 469 6245 0
-6263 478 6254 0
-6263 -325 6254 0
-326 -6263 6254 0
-6263 -327 6254 0
-6263 -328 6254 0
-6263 -329 6254 0
-330 -6263 6254 0
-6263 -331 6254 0
-6263 -332 6254 0
488 6264 -6273 0
-369 6264 -6273 0
-369 6265 -6273 0
9045 -1 5741 0
9045 -2 5743 0
9045 -3 5741 0
9045 -4 5741 0
9045 -5 5741 0
9045 -6 5741 0
9045 -7 5741 0
-8 9045 5741 0
9045 -9 5743 0
-10 -9045 -5742 -5744 0
-11 -9045 -5742 -5745 0
-12 -9045 -5742 -5746 0
-13 -9045 -5742 -5747 0
-14 -9045 -5742 -5748 0
-15 -9045 -5742 -5749 0
-16 9045 5743 0
-17 9045 5743 0
-18 9045 5743 0
-19 9045 5743 0
-20 9045 5743 0
-21 9045 5743 0
-22 -9045 -5744 -5745 0
-23 -9045 -5744 -5746 0
-24 -9045 -5744 -5747 0
-25 -9045 -5744 -5748 0
-26 -9045 -5744 -5749 0
-27 -9045 -5745 -5746 0
-28 -9045 -5745 -5747 0
-29 -9045 -5745 -5748 0
-30 -9045 -5745 -5749 0
-31 -9045 -5746 -5747 0
-32 -9045 -5746 -5748 0
-33 -9045 -5746 -5749 0
-34 -9045 -5747 -5748 0
-35 -9045 -5747 -5749 0
-36 -9045 -5748 -5749 0
-37 9046 5750 0
-38 9046 5750 0
-38 9046 5752 0
-39 9046 5750 0
-40 9046 5750 0
-41 9046 5750 0
-42 9046 5750 0
-43 9046 5750 0
-44 9046 5750 0
-45 9046 5751 0
-45 9046 5752 0
-46 9046 5751 0
-47 9046 5751 0
-48 9046 5751 0
-49 9046 5751 0
-50 9046 5751 0
-51 9046 5751 0
-52 9046 5752 0
-53 9046 5752 0
-54 9046 5752 0
-55 9046 5752 0
-56 9046 5752 0
-57 9046 5752 0
-73 5759 9047 0
-74 5759 9047 0
-74 5761 9047 0
-75 5759 9047 0
-76 5759 9047 0
-77 5759 9047 0
-78 5759 9047 0
-79 5759 9047 0
-80 5759 9047 0
-81 5760 9047 0
-81 5761 9047 0
-82 5760 9047 0
-83 5760 9047 0
-84 5760 9047 0
-85 5760 9047 0
-86 5760 9047 0
-87 5760 9047 0
-88 5761 9047 0
-89 5761 9047 0
-90 5761 9047 0
-91 5761 9047 0
-92 5761 9047 0
-93 5761 9047 0
-109 5768 9048 0
-109 5769 9048 0
-110 5768 9048 0
-110 5770 9048 0
-111 5768 9048 0
-112 5768 9048 0
-113 5768 9048 0
-114 5768 9048 0
-115 5768 9048 0
-116 5768 9048 0
5769 -117 9048 0
-117 5770 9048 0
-118 5769 9048 0
-119 5769 9048 0
-120 5769 9048 0
-121 5769 9048 0
-122 5769 9048 0
-123 5769 9048 0
-124 5770 9048 0
-125 5770 9048 0
-126 5770 9048 0
-127 5770 9048 0
-128 5770 9048 0
-129 5770 9048 0
-145 5777 9049 0
-146 5777 9049 0
-147 5777 9049 0
-148 5777 9049 0
-149 5777 9049 0
-150 5777 9049 0
-151 5777 9049 0
-152 5777 9049 0
-153 5778 9049 0
-153 5779 9049 0
-154 5778 9049 0
-155 5778 9049 0
-156 5778 9049 0
-157 5778 9049 0
-158 5778 9049 0
-159 5778 9049 0
-160 5779 9049 0
-161 5779 9049 0
-162 5779 9049 0
-163 5779 9049 0
-164 5779 9049 0
-165 5779 9049 0
-181 5786 9050 0
-182 5786 9050 0
-183 5786 9050 0
-184 5786 9050 0
-185 5786 9050 0
-186 5786 9050 0
-187 5786 9050 0
-188 5786 9050 0
-189 5787 9050 0
-189 5788 9050 0
-190 5787 9050 0
-191 5787 9050 0
-192 5787 9050 0
-193 5787 9050 0
-194 5787 9050 0
-195 5787 9050 0
-196 5788 9050 0
-197 5788 9050 0
-198 5788 9050 0
-199 5788 9050 0
-200 5788 9050 0
-201 5788 9050 0
-217 5795 9051 0
-218 5795 9051 0
-219 5795 9051 0
-220 5795 9051 0
-221 5795 9051 0
-222 5795 9051 0
-223 5795 9051 0
-224 5795 9051 0
-225 5796 9051 0
-225 5797 9051 0
-226 5796 9051 0
-227 5796 9051 0
-228 5796 9051 0
-229 5796 9051 0
-230 5796 9051 0
-231 5796 9051 0
-232 5797 9051 0
-233 5797 9051 0
-234 5797 9051 0
-235 5797 9051 0
-236 5797 9051 0
-237 5797 9051 0
-253 5804 9052 0
-254 5804 9052 0
-255 5804 9052 0
-256 5804 9052 0
-257 5804 9052 0
-258 5804 9052 0
-259 5804 9052 0
-260 5804 9052 0
5805 9052 -261 0
5806 9052 -261 0
-262 5805 9052 0
-263 5805 9052 0
-264 5805 9052 0
-265 5805 9052 0
-266 5805 9052 0
-267 5805 9052 0
-268 5806 9052 0
-269 5806 9052 0
-270 5806 9052 0
-271 5806 9052 0
-272 5806 9052 0
-273 5806 9052 0
-289 5813 9053 0
-289 9053 5814 0
-290 5813 9053 0
-290 5815 9053 0
-291 5813 9053 0
-292 5813 9053 0
-293 5813 9053 0
-294 5813 9053 0
-295 5813 9053 0
-296 5813 9053 0
-297 9053 5814 0
5815 -297 9053 0
-298 9053 5814 0
-299 9053 5814 0
-300 9053 5814 0
-301 9053 5814 0
-302 9053 5814 0
-303 9053 5814 0
-304 5815 9053 0
-305 5815 9053 0
-306 5815 9053 0
-307 5815 9053 0
-308 5815 9053 0
-309 5815 9053 0
-325 5822 9054 0
-326 9054 5822 0
-326 5824 9054 0
9054 5822 -327 0
9054 5822 -328 0
9054 5822 -329 0
-330 9054 5822 0
9054 5822 -331 0
9054 5822 -332 0
-333 5823 9054 0
-333 5824 9054 0
-334 5823 9054 0
5825 -334 9054 0
-335 5823 9054 0
5826 -335 9054 0
-336 5823 9054 0
5827 -336 9054 0
-337 5823 9054 0
5828 -337 9054 0
-338 5823 9054 0
5829 -338 9054 0
-339 5823 9054 0
5830 -339 9054 0
-340 5824 9054 0
-341 5824 9054 0
-342 5824 9054 0
-343 5824 9054 0
-344 5824 9054 0
-345 5824 9054 0
9055 5831 -361 0
9055 5832 -361 0
-362 9055 5831 0
9055 -362 5833 0
-363 9055 5831 0
-364 9055 5831 0
-365 9055 5831 0
-366 9055 5831 0
-367 9055 5831 0
-368 9055 5831 0
-369 9055 5832 0
-369 9055 5833 0
-370 9055 5832 0
5834 9055 -370 0
9055 -371 5832 0
5835 9055 -371 0
9055 -372 5832 0
5836 9055 -372 0
9055 -373 5832 0
5837 9055 -373 0
9055 -374 5832 0
5838 9055 -374 0
9055 -375 5832 0
5839 9055 -375 0
9056 -9045 0
9057 -9056 0
-9046 -9056 9058 0
-9058 9059 0
-9058 -9047 0
-9046 9057 0
9060 -9057 0
-9047 -9057 9059 0
-9059 9061 0
-9059 -9048 0
-9047 9060 0
9062 -9060 0
-9048 -9060 9061 0
-9061 9063 0
-9049 -9061 0
-9048 9062 0
9064 -9062 0
-9049 -9062 9063 0
-9063 9065 0
-9050 -9063 0
-9049 9064 0
9066 -9064 0
-9050 -9064 9065 0
-9065 9067 0
-9051 -9065 0
-9050 9066 0
9068 -9066 0
-9051 -9066 9067 0
-9067 9069 0
-9052 -9067 0
-9051 9068 0
9070 -9068 0
-9052 -9068 9069 0
-9069 9071 0
-9053 -9069 0
9070 -9052 0
9072 -9070 0
-9053 -9070 9071 0
-9071 9073 0
-9054 -9071 0
9072 -9053 0
-9054 -9072 9073 0
-9073 -9055 0
-183 5894 9079 0
-184 5894 9079 0
-185 5894 9079 0
-186 5894 9079 0
-187 5894 9079 0
-9079 -5895 -189 -5896 0
5930 9083 -327 0
5930 9083 -331 0
-9083 -333 -5931 -5932 0
6147 -325 9153 0
6148 -326 9153 0
6149 -327 9153 0
6150 -328 9153 0
6151 -329 9153 0
6152 -330 9153 0
6153 -331 9153 0
6154 -332 9153 0
9179 -1 6173 0
9179 -2 6173 0
9179 -3 6173 0
9179 -4 6173 0
9179 -5 6173 0
9179 -6 6173 0
9179 -7 6173 0
9179 -8 6173 0
-9 -9179 -6174 -6175 0
-37 9180 6182 0
-38 9180 6182 0
-39 9180 6182 0
-40 9180 6182 0
-41 9180 6182 0
-42 9180 6182 0
-43 9180 6182 0
-44 9180 6182 0
-73 6191 9181 0
-74 6191 9181 0
-75 9181 6191 0
-76 9181 6191 0
-77 9181 6191 0
-78 9181 6191 0
-79 9181 6191 0
-80 9181 6191 0
-109 6200 9182 0
-110 6200 9182 0
-111 6200 9182 0
-112 6200 9182 0
-113 6200 9182 0
-114 6200 9182 0
-115 6200 9182 0
-116 6200 9182 0
-145 6209 9183 0
-146 6209 9183 0
-147 6209 9183 0
-148 6209 9183 0
-149 6209 9183 0
-150 6209 9183 0
-151 6209 9183 0
-152 6209 9183 0
-181 6218 9184 0
-182 6218 9184 0
-183 6218 9184 0
-184 6218 9184 0
-185 6218 9184 0
-186 6218 9184 0
-187 6218 9184 0
-188 6218 9184 0
-217 6227 9185 0
-218 6227 9185 0
-219 6227 9185 0
-220 6227 9185 0
-221 6227 9185 0
-222 6227 9185 0
-223 6227 9185 0
-224 6227 9185 0
-253 9186 6236 0
-254 9186 6236 0
-255 9186 6236 0
-256 9186 6236 0
-257 9186 6236 0
-258 9186 6236 0
-259 9186 6236 0
-260 9186 6236 0
-289 6245 9187 0
-290 6245 9187 0
-291 6245 9187 0
-292 6245 9187 0
-293 6245 9187 0
-294 6245 9187 0
-295 6245 9187 0
-296 6245 9187 0
9188 -325 6254 0
9188 -326 6254 0
9188 -327 6254 0
9188 -328 6254 0
9188 -329 6254 0
9188 -330 6254 0
9188 -331 6254 0
9188 -332 6254 0
6263 9189 -361 0
-362 6263 9189 0
-363 6263 9189 0
-364 6263 9189 0
-365 6263 9189 0
-366 6263 9189 0
-367 6263 9189 0
-368 6263 9189 0
-9189 -369 -6264 -6265 0
9190 -9179 0
9191 -9190 0
-9180 9191 0
9194 -9191 0
-9181 9194 0
9196 -9194 0
-9182 9196 0
9198 -9196 0
-9183 9198 0
9200 -9198 0
-9184 9200 0
9202 -9200 0
-9185 9202 0
9204 -9202 0
-9186 9204 0
9206 -9204 0
-9187 9206 0
9207 -9188 -9206 0
-9207 -9189 0
