p cnf 9176 615
27 26 3 4 5 6 7 8 1 2 9 10 11 12 13 14 15 16 17 18 19 20 21 22 23 24 25 28 29 30 31 32 33 34 35 36 0
-1 397 0
397 -2 0
397 -3 0
397 -4 0
397 -5 0
397 -6 0
397 -7 0
397 -8 0
52 53 47 48 39 40 41 44 42 38 37 43 49 50 51 45 46 54 55 56 57 58 59 60 61 62 63 64 65 66 67 68 69 70 71 72 0
-37 406 0
-38 406 0
-39 406 0
-40 406 0
-41 406 0
-42 406 0
-43 406 0
-44 406 0
-45 407 0
-46 407 0
-47 407 0
-48 407 0
-49 407 0
-50 407 0
-51 407 0
46 45 37 -407 47 48 49 50 51 0
88 89 75 76 77 78 79 80 73 74 83 84 85 86 87 81 82 90 91 92 93 94 95 96 97 98 99 100 101 102 103 104 105 106 107 108 0
-73 415 0
-74 415 0
-75 415 0
-76 415 0
-77 415 0
-78 415 0
-79 415 0
-80 415 0
-81 416 0
-82 416 0
-83 416 0
-84 416 0
-85 416 0
-86 416 0
-87 416 0
81 82 73 -416 83 84 85 86 87 0
-109 424 0
117 118 -425 109 119 120 121 122 123 0
161 160 154 153 149 150 151 152 148 145 155 156 157 158 159 146 147 162 163 164 165 166 167 168 169 170 171 172 173 174 175 176 177 178 179 180 0
-145 433 0
-146 433 0
-147 433 0
-148 433 0
-149 433 0
-150 433 0
-151 433 0
-152 433 0
-145 434 0
-153 434 0
-154 434 0
-155 434 0
-156 434 0
-157 434 0
-158 434 0
-159 434 0
153 -434 145 154 155 156 157 158 159 0
197 196 183 184 185 186 187 188 181 182 191 192 193 194 195 189 190 198 199 200 201 202 203 204 205 206 207 208 209 210 211 212 213 214 215 216 0
-181 442 0
-182 442 0
-183 442 0
-184 442 0
-185 442 0
-186 442 0
-187 442 0
-188 442 0
-181 443 0
-189 443 0
-190 443 0
-191 443 0
-192 443 0
-193 443 0
-194 443 0
-195 443 0
190 -443 181 189 191 192 193 194 195 0
232 233 225 226 221 222 223 224 217 220 227 228 229 230 231 218 219 234 235 236 237 238 239 240 241 242 243 244 245 246 247 248 249 250 251 252 0
-217 451 0
-218 451 0
-219 451 0
-220 451 0
-221 451 0
-222 451 0
-223 451 0
-224 451 0
452 -217 0
-225 452 0
-226 452 0
-227 452 0
-228 452 0
-229 452 0
-230 452 0
-231 452 0
226 -452 225 217 227 228 229 230 231 0
-253 460 0
261 262 253 -461 263 264 265 266 267 0
-289 469 0
298 297 289 -470 299 300 301 302 303 0
-325 478 0
333 334 325 -479 335 336 337 338 339 0
-361 487 0
361 370 -488 369 371 372 373 374 375 0
-2428 0
-2527 0
2429 0
-2528 0
397 -2437 2428 0
398 2438 -2429 0
-2446 2437 406 0
2447 -2438 407 0
-2455 2446 415 0
2456 -2447 416 0
-2464 2455 424 0
2465 -2456 425 0
-2473 2464 433 0
2474 -2465 434 0
-2541 -181 2473 0
-2474 2483 2541 0
-2542 -2483 -217 0
2542 -2483 2492 0
-2491 2500 460 0
-2492 2501 461 0
-2500 2509 469 0
-2501 2510 470 0
-2509 2518 478 0
-2510 2519 479 0
487 -2518 2527 0
488 -2519 2528 0
5046 0
-5145 0
-5047 0
-5146 0
-10 -5154 5047 0
397 5055 -5046 0
5154 -5056 5047 0
5155 -37 5056 -5055 0
5064 -5055 406 0
-5155 5065 -407 5056 0
-5065 -5156 -73 0
5073 -5064 415 0
5156 5073 -5064 0
-5065 5074 416 0
-5156 5074 -416 5065 0
-5074 -5157 -109 0
5082 -5073 424 0
5157 5082 -5073 0
-5074 5083 425 0
5074 5083 -425 -5157 0
-5083 -5158 -145 0
5091 -5082 433 0
5158 5091 -5082 0
-5083 5092 434 0
5092 5083 -434 -5158 0
-5159 -181 -5092 0
5100 -5091 442 0
5159 5100 -5091 0
-5092 5101 443 0
5092 -5159 -443 5101 0
-5101 -5160 -217 0
5109 -5100 451 0
5160 5109 -5100 0
-5101 5110 452 0
-5160 5110 -452 5101 0
-5161 -5110 -253 0
5118 -5109 460 0
5161 5118 -5109 0
-5110 5119 461 0
-5161 5110 -461 5119 0
-5119 -5162 -289 0
5127 -5118 469 0
5162 5127 -5118 0
-5119 5128 470 0
-5162 5128 -470 5119 0
-5128 -5163 -325 0
5136 -5127 478 0
5163 5136 -5127 0
-5128 479 5137 0
5128 -479 5137 -5163 0
-361 -5164 -5137 0
-5136 487 5145 0
-5136 5164 5145 0
488 -5137 5146 0
-488 -5164 5137 5146 0
5879 0
-5978 0
5880 0
5881 0
5883 0
5884 0
5885 0
5886 0
5887 0
-1 -5987 -5880 0
-5987 -9 -5881 0
-5987 -11 -5883 0
-5987 -12 -5884 0
-5987 -13 -5885 0
-5987 -14 -5886 0
-5987 -15 -5887 0
397 5888 -5879 0
5987 5888 -5879 0
398 5889 -5880 0
5987 5889 -5880 0
-5988 -37 -5889 0
5897 -5888 406 0
5897 5988 -5888 0
-5889 5898 407 0
5906 -5897 415 0
-5898 5907 416 0
5915 -5906 424 0
-5907 5916 425 0
-5916 -5991 -145 0
5924 -5915 433 0
5991 5924 -5915 0
5925 -5916 434 0
5933 -5924 442 0
5934 -5925 443 0
5942 -5933 451 0
5943 -5934 452 0
5951 -5942 460 0
-5943 5952 461 0
-5995 -289 -5952 0
5960 -5951 469 0
5995 5960 -5951 0
-5952 5961 470 0
-5996 -325 -5961 0
5969 -5960 478 0
5996 5969 -5960 0
487 -5969 5978 0
6117 0
-6216 0
-6118 0
6217 0
6119 0
6120 0
6121 0
6122 0
6123 0
6124 0
6125 0
-6225 -2 -6119 0
-6225 -3 -6120 0
-6225 -4 -6121 0
-6225 -5 -6122 0
-6225 -6 -6123 0
-6225 -7 -6124 0
-6225 -8 -6125 0
-6225 -9 -6119 0
-6225 -10 -6120 0
-6225 -11 -6121 0
-6225 -12 -6122 0
-6225 -13 -6123 0
-6225 -14 -6124 0
-6225 -15 -6125 0
-6225 -16 -6120 0
-6225 -17 -6121 0
-6225 -18 -6122 0
-6225 -19 -6123 0
-6225 -20 -6124 0
-6225 -21 -6125 0
-6225 -22 -6121 0
-6225 -23 -6122 0
-6225 -24 -6123 0
-6225 -25 -6124 0
-6225 -26 -6125 0
-6225 -27 -6122 0
-6225 -28 -6123 0
-6225 -29 -6124 0
-6225 -30 -6125 0
-6225 -31 -6123 0
-6225 -32 -6124 0
-6225 -33 -6125 0
-6225 -34 -6124 0
-6225 -35 -6125 0
-6225 -36 -6125 0
397 6126 -6117 0
-6127 6225 6118 0
-45 -6226 6127 0
-46 -6226 6127 0
-47 -6226 6127 0
-48 -6226 6127 0
-49 -6226 6127 0
-50 -6226 6127 0
-51 -6226 6127 0
6135 -6126 406 0
407 6136 -6127 0
-6136 407 6127 0
6226 -6136 6127 0
-81 -6227 6136 0
-82 -6227 6136 0
-83 -6227 6136 0
-84 -6227 6136 0
-85 -6227 6136 0
-86 -6227 6136 0
-87 -6227 6136 0
6144 -6135 415 0
6136 416 -6145 0
6227 6136 -6145 0
-117 -6228 6145 0
-118 -6228 6145 0
-119 -6228 6145 0
-120 -6228 6145 0
-121 -6228 6145 0
-122 -6228 6145 0
-123 -6228 6145 0
6153 -6144 424 0
6145 425 -6154 0
6228 6145 -6154 0
-153 -6229 6154 0
-154 -6229 6154 0
-155 -6229 6154 0
-156 -6229 6154 0
-157 -6229 6154 0
-158 -6229 6154 0
-159 -6229 6154 0
6162 -6153 433 0
6229 6162 -6153 0
6154 -6163 434 0
6229 6154 -6163 0
-6229 -434 -6154 -6163 0
-189 -6230 6163 0
-190 -6230 6163 0
-191 -6230 6163 0
-192 -6230 6163 0
-193 -6230 6163 0
-194 -6230 6163 0
-195 -6230 6163 0
6171 -6162 442 0
6163 -6172 443 0
6230 6163 -6172 0
-225 -6231 6172 0
-226 -6231 6172 0
-227 -6231 6172 0
-228 -6231 6172 0
-229 -6231 6172 0
-230 -6231 6172 0
-231 -6231 6172 0
6180 -6171 451 0
6172 452 -6181 0
6231 6172 -6181 0
-261 -6232 6181 0
-262 -6232 6181 0
-263 -6232 6181 0
-264 -6232 6181 0
-265 -6232 6181 0
-266 -6232 6181 0
-267 -6232 6181 0
6189 -6180 460 0
461 -6190 6181 0
6232 6181 -6190 0
-297 -6233 6190 0
-298 -6233 6190 0
-299 -6233 6190 0
-300 -6233 6190 0
-301 -6233 6190 0
-302 -6233 6190 0
-303 -6233 6190 0
6198 -6189 469 0
470 -6199 6190 0
6233 6190 -6199 0
-333 -6234 6199 0
-334 -6234 6199 0
-335 -6234 6199 0
-336 -6234 6199 0
-337 -6234 6199 0
-338 -6234 6199 0
-339 -6234 6199 0
-6198 478 6207 0
479 -6208 6199 0
6234 6199 -6208 0
-369 -6235 6208 0
-370 -6235 6208 0
-371 -6235 6208 0
-372 -6235 6208 0
-373 -6235 6208 0
-374 -6235 6208 0
-375 -6235 6208 0
487 -6207 6216 0
6208 488 -6217 0
6208 6235 -6217 0
-397 9081 0
9081 -398 0
-406 9082 0
-407 9082 0
-415 9083 0
-416 9083 0
-424 9084 0
-425 9084 0
-433 9085 0
-434 9085 0
-442 9086 0
-443 9086 0
-451 9087 0
-452 9087 0
-460 9088 0
9088 -461 0
-469 9089 0
9089 -470 0
-478 9090 0
9090 -479 0
9091 -488 0
9092 -9081 0
9093 -9092 0
-9082 -9092 9094 0
-9094 9095 0
-9094 -9083 0
-9082 9093 0
9096 -9093 0
-9083 -9093 9095 0
-9095 9097 0
-9095 -9084 0
-9083 9096 0
9098 -9096 0
-9084 -9096 9097 0
-9097 9099 0
-9097 -9085 0
-9084 9098 0
9100 -9098 0
-9085 -9098 9099 0
-9099 9101 0
-9099 -9086 0
-9085 9100 0
9102 -9100 0
-9086 -9100 9101 0
-9101 9103 0
-9101 -9087 0
-9086 9102 0
9104 -9102 0
-9087 -9102 9103 0
-9103 9105 0
-9103 -9088 0
-9087 9104 0
9106 -9104 0
-9088 -9104 9105 0
-9105 9107 0
-9105 -9089 0
9106 -9088 0
9108 -9106 0
-9106 -9089 9107 0
-9107 9109 0
-9107 -9090 0
9108 -9089 0
-9108 -9090 9109 0
-9109 -9091 0
-397 9145 0
-406 9146 0
-415 9147 0
-424 9148 0
-433 9149 0
-442 9150 0
-451 9151 0
-460 9152 0
-469 9153 0
-478 9154 0
9155 -487 0
-9145 9156 0
-9156 9157 0
-9146 -9156 0
-9146 9157 0
-9157 9158 0
-9147 -9157 0
-9147 9158 0
-9158 9159 0
-9148 -9158 0
-9148 9159 0
-9159 9160 0
-9159 -9149 0
-9149 9160 0
-9160 9161 0
-9150 -9160 0
-9150 9161 0
-9161 9162 0
-9151 -9161 0
-9151 9162 0
-9162 9163 0
-9152 -9162 0
-9152 9163 0
-9163 9164 0
-9153 -9163 0
-9153 9164 0
-9164 9165 0
-9154 -9164 0
-9154 9165 0
-9165 -9155 0
-16 -37 0
-17 -37 0
-18 -37 0
-19 -37 0
-20 -37 0
-21 -37 0
-22 -37 0
-23 -37 0
-24 -37 0
-25 -37 0
-26 -37 0
-37 -27 0
-28 -37 0
-29 -37 0
-30 -37 0
-31 -37 0
-32 -37 0
-33 -37 0
-34 -37 0
-35 -37 0
-36 -37 0
-52 -73 0
-53 -73 0
-54 -73 0
-55 -73 0
-56 -73 0
-57 -73 0
-58 -73 0
-59 -73 0
-60 -73 0
-61 -73 0
-62 -73 0
-63 -73 0
-64 -73 0
-65 -73 0
-66 -73 0
-67 -73 0
-68 -73 0
-69 -73 0
-70 -73 0
-71 -73 0
-72 -73 0
-88 -109 0
-89 -109 0
-90 -109 0
-91 -109 0
-92 -109 0
-93 -109 0
-94 -109 0
-95 -109 0
-96 -109 0
-97 -109 0
-98 -109 0
-99 -109 0
-100 -109 0
-101 -109 0
-102 -109 0
-103 -109 0
-104 -109 0
-105 -109 0
-106 -109 0
-107 -109 0
-108 -109 0
-160 -181 0
-161 -181 0
-162 -181 0
-163 -181 0
-164 -181 0
-165 -181 0
-166 -181 0
-167 -181 0
-168 -181 0
-169 -181 0
-170 -181 0
-171 -181 0
-172 -181 0
-173 -181 0
-174 -181 0
-175 -181 0
-176 -181 0
-177 -181 0
-178 -181 0
-179 -181 0
-180 -181 0
-196 -217 0
-197 -217 0
-198 -217 0
-199 -217 0
-200 -217 0
-201 -217 0
-202 -217 0
-203 -217 0
-204 -217 0
-205 -217 0
-206 -217 0
-207 -217 0
-208 -217 0
-209 -217 0
-210 -217 0
-211 -217 0
-212 -217 0
-213 -217 0
-214 -217 0
-215 -217 0
-216 -217 0
-232 -253 0
-233 -253 0
-234 -253 0
-235 -253 0
-236 -253 0
-237 -253 0
-238 -253 0
-239 -253 0
-240 -253 0
-241 -253 0
-242 -253 0
-243 -253 0
-244 -253 0
-245 -253 0
-246 -253 0
-247 -253 0
-248 -253 0
-249 -253 0
-250 -253 0
-251 -253 0
-252 -253 0
