p cnf 9868 609
-1 397 0
10 9 1 -398 11 12 13 14 15 0
52 53 39 40 41 42 43 44 37 38 47 48 49 50 51 45 46 54 55 56 57 58 59 60 61 62 63 64 65 66 67 68 69 70 71 72 0
-37 406 0
-38 406 0
-39 406 0
-40 406 0
-41 406 0
-42 406 0
-43 406 0
-44 406 0
-45 407 0
-46 407 0
-47 407 0
-48 407 0
-49 407 0
-50 407 0
-51 407 0
46 45 37 -407 47 48 49 50 51 0
88 89 75 76 77 78 79 80 73 74 83 84 85 86 87 81 82 90 91 92 93 94 95 96 97 98 99 100 101 102 103 104 105 106 107 108 0
-73 415 0
-74 415 0
-75 415 0
-76 415 0
-77 415 0
-78 415 0
-79 415 0
-80 415 0
-81 416 0
-82 416 0
-83 416 0
-84 416 0
-85 416 0
-86 416 0
-87 416 0
81 82 73 -416 83 84 85 86 87 0
-109 424 0
117 118 -425 109 119 120 121 122 123 0
161 160 154 153 149 150 151 152 145 148 155 156 157 158 159 146 147 162 163 164 165 166 167 168 169 170 171 172 173 174 175 176 177 178 179 180 0
-145 433 0
-146 433 0
-147 433 0
-148 433 0
-149 433 0
-150 433 0
-151 433 0
-152 433 0
-145 434 0
-153 434 0
-154 434 0
-155 434 0
-156 434 0
-157 434 0
-158 434 0
-159 434 0
153 154 145 -434 155 156 157 158 159 0
197 196 181 184 185 186 187 188 182 183 191 192 193 194 195 189 190 198 199 200 201 202 203 204 205 206 207 208 209 210 211 212 213 214 215 216 0
-181 442 0
-182 442 0
-183 442 0
-184 442 0
-185 442 0
-186 442 0
-187 442 0
-188 442 0
-181 443 0
-189 443 0
-190 443 0
-191 443 0
-192 443 0
-193 443 0
-194 443 0
-195 443 0
189 -443 181 190 191 192 193 194 195 0
233 232 222 223 219 220 221 224 217 218 227 228 229 230 231 225 226 234 235 236 237 238 239 240 241 242 243 244 245 246 247 248 249 250 251 252 0
-217 451 0
-218 451 0
-219 451 0
-220 451 0
-221 451 0
-222 451 0
-223 451 0
-224 451 0
452 -217 0
-225 452 0
-226 452 0
-227 452 0
-228 452 0
-229 452 0
-230 452 0
-231 452 0
225 -452 217 226 227 228 229 230 231 0
269 268 263 264 255 256 257 258 253 254 259 260 265 266 267 261 262 270 271 272 273 274 275 276 277 278 279 280 281 282 283 284 285 286 287 288 0
-253 460 0
-254 460 0
-255 460 0
-256 460 0
-257 460 0
-258 460 0
-259 460 0
-260 460 0
-253 461 0
-261 461 0
-262 461 0
-263 461 0
-264 461 0
-265 461 0
-266 461 0
-267 461 0
261 262 253 -461 263 264 265 266 267 0
304 305 299 300 293 294 295 296 289 290 291 292 301 302 303 297 298 306 307 308 309 310 311 312 313 314 315 316 317 318 319 320 321 322 323 324 0
-289 469 0
-290 469 0
-291 469 0
-292 469 0
-293 469 0
-294 469 0
-295 469 0
-296 469 0
470 -289 0
-297 470 0
-298 470 0
-299 470 0
-300 470 0
-301 470 0
-302 470 0
-303 470 0
297 -470 289 298 299 300 301 302 303 0
-325 478 0
334 333 325 -479 335 336 337 338 339 0
-361 487 0
361 370 -488 369 371 372 373 374 375 0
5641 0
-5740 0
-5642 0
-5741 0
397 5650 -5641 0
398 -5651 5642 0
-5651 -5750 -37 0
5659 -5650 406 0
5750 5659 -5650 0
-5660 5651 407 0
-5750 5660 -407 5651 0
-5660 -5751 -73 0
5668 -5659 415 0
5751 5668 -5659 0
-5660 5669 416 0
-5669 5660 416 0
5669 5660 -416 -5751 0
-5752 -109 -5669 0
5752 -109 5669 -5668 0
-5752 5669 -117 0
-118 -5752 5669 0
-119 -5752 5669 0
-120 -5752 5669 0
-121 -5752 5669 0
-122 -5752 5669 0
-123 -5752 5669 0
5677 -5668 424 0
5752 5677 -5668 0
-5669 425 5678 0
-5678 5669 425 0
5752 -5678 5669 0
-5752 5678 -425 5669 0
-5678 -5753 -145 0
-153 -5753 5678 0
-154 -5753 5678 0
-155 -5753 5678 0
-156 -5753 5678 0
-157 -5753 5678 0
-158 -5753 5678 0
-159 -5753 5678 0
5686 -5677 433 0
5753 5686 -5677 0
-5678 434 5687 0
434 5678 -5687 0
5753 5678 -5687 0
5687 5678 -434 -5753 0
5754 -181 5687 -5686 0
5695 -5686 442 0
5696 443 -5687 0
-5696 5687 443 0
-5754 5687 5696 -443 0
-5696 -5755 -217 0
5704 -5695 451 0
5755 5704 -5695 0
-5696 5705 452 0
-5705 5696 452 0
-5755 5696 -452 5705 0
-5705 -5756 -253 0
5713 -5704 460 0
5756 5713 -5704 0
-5705 5714 461 0
-5714 5705 461 0
5705 5714 -461 -5756 0
-5757 -5714 -289 0
5722 -5713 469 0
5757 5722 -5713 0
-5714 5723 470 0
5757 -5714 5723 0
-5757 5723 -470 5714 0
-5723 -5758 -325 0
5731 -5722 478 0
5758 5731 -5722 0
-5723 479 5732 0
-5758 -479 5732 5723 0
-5732 -361 -5759 0
-5731 487 5740 0
-5731 5759 5740 0
488 -5732 5741 0
-488 -5759 5732 5741 0
6355 0
-6454 0
6356 0
-1 -6463 -6356 0
397 6364 -6355 0
6463 6364 -6355 0
398 6365 -6356 0
-6464 -37 -6365 0
6373 -6364 406 0
6373 6464 -6364 0
6374 407 -6365 0
6382 -6373 415 0
-6374 6383 416 0
6391 -6382 424 0
-6383 6392 425 0
-6392 -6467 -145 0
6400 -6391 433 0
6467 6400 -6391 0
6409 -6400 442 0
6418 -6409 451 0
6427 -6418 460 0
6436 -6427 469 0
6445 -6436 478 0
487 -6445 6454 0
6593 0
-6692 0
-6594 0
6693 0
6595 0
6596 0
6597 0
6598 0
6599 0
6600 0
6601 0
-6701 -9 -6595 0
-6701 -10 -6596 0
-6701 -11 -6597 0
-6701 -12 -6598 0
-6701 -13 -6599 0
-6701 -14 -6600 0
-6701 -15 -6601 0
397 6602 -6593 0
-6603 398 6594 0
-6603 6701 6594 0
-45 -6702 6603 0
-46 -6702 6603 0
-47 -6702 6603 0
-48 -6702 6603 0
-49 -6702 6603 0
-50 -6702 6603 0
-51 -6702 6603 0
6611 -6602 406 0
407 6603 -6612 0
6702 -6612 6603 0
-81 -6703 6612 0
-82 -6703 6612 0
-83 -6703 6612 0
-84 -6703 6612 0
-85 -6703 6612 0
-86 -6703 6612 0
-87 -6703 6612 0
6620 -6611 415 0
416 6612 -6621 0
6703 -6621 6612 0
-117 -6704 6621 0
-118 -6704 6621 0
-119 -6704 6621 0
-120 -6704 6621 0
-121 -6704 6621 0
-122 -6704 6621 0
-123 -6704 6621 0
6629 -6620 424 0
425 6621 -6630 0
6704 -6630 6621 0
6705 -145 6630 -6629 0
-153 -6705 6630 0
-154 -6705 6630 0
-155 -6705 6630 0
-156 -6705 6630 0
-157 -6705 6630 0
-158 -6705 6630 0
-159 -6705 6630 0
6705 6638 -6629 0
434 -6639 6630 0
6705 -6639 6630 0
-6705 -434 6639 6630 0
-6705 -434 -6630 -6639 0
-189 -6706 6639 0
-190 -6706 6639 0
-191 -6706 6639 0
-192 -6706 6639 0
-193 -6706 6639 0
-194 -6706 6639 0
-195 -6706 6639 0
6647 -6638 442 0
443 -6648 6639 0
6706 -6648 6639 0
-225 -6707 6648 0
-226 -6707 6648 0
-227 -6707 6648 0
-228 -6707 6648 0
-229 -6707 6648 0
-230 -6707 6648 0
-231 -6707 6648 0
6656 -6647 451 0
452 6648 -6657 0
6707 6648 -6657 0
-261 -6708 6657 0
-262 -6708 6657 0
-263 -6708 6657 0
-264 -6708 6657 0
-265 -6708 6657 0
-266 -6708 6657 0
-267 -6708 6657 0
6665 -6656 460 0
461 6657 -6666 0
6708 6657 -6666 0
-297 -6709 6666 0
-298 -6709 6666 0
-299 -6709 6666 0
-300 -6709 6666 0
-301 -6709 6666 0
-302 -6709 6666 0
-303 -6709 6666 0
6674 -6665 469 0
470 -6675 6666 0
6709 6666 -6675 0
-333 -6710 6675 0
-334 -6710 6675 0
-335 -6710 6675 0
-336 -6710 6675 0
-337 -6710 6675 0
-338 -6710 6675 0
-339 -6710 6675 0
-6674 478 6683 0
479 -6684 6675 0
6710 6675 -6684 0
-369 -6711 6684 0
-370 -6711 6684 0
-371 -6711 6684 0
-372 -6711 6684 0
-373 -6711 6684 0
-374 -6711 6684 0
-375 -6711 6684 0
487 -6683 6692 0
6684 488 -6693 0
6684 6711 -6693 0
-397 9773 0
9773 -398 0
-406 9774 0
9774 -407 0
-415 9775 0
9775 -416 0
-424 9776 0
9776 -425 0
9777 -433 0
9777 -434 0
-442 9778 0
9778 -443 0
-451 9779 0
9779 -452 0
-460 9780 0
9780 -461 0
-469 9781 0
9781 -470 0
-478 9782 0
9782 -479 0
9783 -488 0
9784 -9773 0
9785 -9784 0
-9774 -9784 9786 0
-9786 9787 0
-9786 -9775 0
9785 -9774 0
9788 -9785 0
-9775 -9785 9787 0
-9787 9789 0
-9787 -9776 0
9788 -9775 0
9790 -9788 0
-9776 -9788 9789 0
-9789 9791 0
-9789 -9777 0
9790 -9776 0
9792 -9790 0
-9777 -9790 9791 0
-9791 9793 0
-9791 -9778 0
9792 -9777 0
9794 -9792 0
-9778 -9792 9793 0
-9793 9795 0
-9793 -9779 0
9794 -9778 0
9796 -9794 0
-9779 -9794 9795 0
-9795 9797 0
-9795 -9780 0
9796 -9779 0
9798 -9796 0
-9780 -9796 9797 0
-9797 9799 0
-9797 -9781 0
9798 -9780 0
-9798 -9781 9799 0
-9799 9801 0
-9799 -9782 0
9800 -9781 0
-9800 -9782 9801 0
-9801 -9783 0
-397 9837 0
-406 9838 0
-415 9839 0
-424 9840 0
-433 9841 0
-442 9842 0
-451 9843 0
-460 9844 0
-469 9845 0
-478 9846 0
9847 -487 0
-9837 9848 0
-9848 9849 0
-9838 -9848 0
-9838 9849 0
-9849 9850 0
-9839 -9849 0
-9839 9850 0
-9850 9851 0
-9840 -9850 0
-9840 9851 0
-9851 9852 0
-9851 -9841 0
-9841 9852 0
-9852 9853 0
-9842 -9852 0
-9842 9853 0
-9853 9854 0
-9843 -9853 0
-9843 9854 0
-9854 9855 0
-9844 -9854 0
-9844 9855 0
-9855 9856 0
-9845 -9855 0
-9845 9856 0
-9856 9857 0
-9846 -9856 0
-9846 9857 0
-9857 -9847 0
-52 -73 0
-53 -73 0
-54 -73 0
-55 -73 0
-56 -73 0
-57 -73 0
-58 -73 0
-59 -73 0
-60 -73 0
-61 -73 0
-62 -73 0
-63 -73 0
-64 -73 0
-65 -73 0
-66 -73 0
-67 -73 0
-68 -73 0
-69 -73 0
-70 -73 0
-71 -73 0
-72 -73 0
-88 -109 0
-89 -109 0
-90 -109 0
-91 -109 0
-92 -109 0
-93 -109 0
-94 -109 0
-95 -109 0
-96 -109 0
-97 -109 0
-98 -109 0
-99 -109 0
-100 -109 0
-101 -109 0
-102 -109 0
-103 -109 0
-104 -109 0
-105 -109 0
-106 -109 0
-107 -109 0
-108 -109 0
-160 -181 0
-161 -181 0
-162 -181 0
-163 -181 0
-164 -181 0
-165 -181 0
-166 -181 0
-167 -181 0
-168 -181 0
-169 -181 0
-170 -181 0
-171 -181 0
-172 -181 0
-173 -181 0
-174 -181 0
-175 -181 0
-176 -181 0
-177 -181 0
-178 -181 0
-179 -181 0
-180 -181 0
-196 -217 0
-197 -217 0
-198 -217 0
-199 -217 0
-200 -217 0
-201 -217 0
-202 -217 0
-203 -217 0
-204 -217 0
-205 -217 0
-206 -217 0
-207 -217 0
-208 -217 0
-209 -217 0
-210 -217 0
-211 -217 0
-212 -217 0
-213 -217 0
-214 -217 0
-215 -217 0
-216 -217 0
-232 -253 0
-233 -253 0
-234 -253 0
-235 -253 0
-236 -253 0
-237 -253 0
-238 -253 0
-239 -253 0
-240 -253 0
-241 -253 0
-242 -253 0
-243 -253 0
-244 -253 0
-245 -253 0
-246 -253 0
-247 -253 0
-248 -253 0
-249 -253 0
-250 -253 0
-251 -253 0
-252 -253 0
-268 -289 0
-269 -289 0
-270 -289 0
-271 -289 0
-272 -289 0
-273 -289 0
-274 -289 0
-275 -289 0
-276 -289 0
-277 -289 0
-278 -289 0
-279 -289 0
-280 -289 0
-281 -289 0
-282 -289 0
-283 -289 0
-284 -289 0
-285 -289 0
-286 -289 0
-287 -289 0
-288 -289 0
-304 -325 0
-305 -325 0
-306 -325 0
-307 -325 0
-308 -325 0
-309 -325 0
-310 -325 0
-311 -325 0
-312 -325 0
-313 -325 0
-314 -325 0
-315 -325 0
-316 -325 0
-317 -325 0
-318 -325 0
-319 -325 0
-320 -325 0
-321 -325 0
-322 -325 0
-323 -325 0
-324 -325 0
