p cnf 22 1148
-2 -1 -3 -4 0
3 1 4 2 0
-2 -1 -3 -5 0
5 3 1 2 0
-5 -1 -2 -4 0
5 1 4 2 0
-22 -1 -2 -21 0
22 21 2 1 0
-5 -1 -3 -4 0
3 5 4 1 0
-19 -1 -5 -20 0
19 5 1 20 0
-5 -4 -2 -3 0
3 5 4 2 0
-20 -18 -2 -4 0
18 20 2 4 0
-22 -4 -19 -3 0
19 3 4 22 0
-21 -18 -3 -5 0
21 3 18 5 0
-17 -18 -19 -1 -2 0
19 18 2 1 17 0
-17 -18 -1 -5 -22 0
22 18 1 17 5 0
-17 -18 -1 -6 -7 0
6 18 7 17 1 0
-17 -18 -16 -1 -6 0
6 16 18 17 1 0
-17 -18 -1 -8 -7 0
7 8 18 1 17 0
-17 -18 -1 -8 -9 0
9 8 18 1 17 0
-17 -18 -9 -1 -10 0
10 9 1 18 17 0
-17 -18 -1 -10 -11 0
11 10 1 18 17 0
-17 -18 -1 -12 -11 0
12 11 1 18 17 0
-17 -18 -13 -12 -1 0
13 12 1 17 18 0
-17 -18 -14 -13 -1 0
14 13 17 1 18 0
-17 -18 -14 -15 -1 0
14 18 1 17 15 0
-17 -18 -16 -15 -1 0
15 16 18 17 1 0
-19 -17 -21 -2 -4 0
19 21 4 2 17 0
-19 -17 -6 -2 -8 0
8 6 2 19 17 0
-19 -17 -6 -15 -2 0
15 19 2 17 6 0
-17 -7 -9 -2 -19 0
9 19 17 7 2 0
-7 -17 -16 -19 -2 0
17 16 7 19 2 0
-19 -17 -8 -2 -10 0
10 8 2 17 19 0
-19 -17 -11 -9 -2 0
9 11 19 17 2 0
-19 -17 -10 -12 -2 0
12 19 17 2 10 0
-19 -17 -13 -11 -2 0
13 11 17 2 19 0
-19 -17 -14 -2 -12 0
14 12 19 17 2 0
-19 -17 -13 -15 -2 0
13 15 2 19 17 0
-19 -17 -14 -16 -2 0
14 16 19 17 2 0
-17 -4 -3 -21 -20 0
17 3 4 21 20 0
19 3 18 4 22 0
-17 -22 -3 -20 -5 0
20 5 17 3 22 0
-6 -17 -3 -20 -9 0
6 9 3 17 20 0
-6 -17 -14 -3 -20 0
14 6 17 3 20 0
-7 -17 -10 -3 -20 0
7 10 3 20 17 0
-7 -17 -15 -20 -3 0
15 3 7 20 17 0
-17 -11 -8 -3 -20 0
11 3 17 20 8 0
-20 -17 -8 -16 -3 0
8 16 20 3 17 0
-17 -20 -9 -12 -3 0
12 9 3 17 20 0
-17 -20 -13 -10 -3 0
20 13 3 17 10 0
-17 -20 -11 -3 -14 0
14 11 17 20 3 0
-17 -20 -12 -3 -15 0
15 12 17 20 3 0
-20 -17 -13 -16 -3 0
20 13 17 16 3 0
-21 -17 -10 -6 -4 0
6 10 4 21 17 0
-21 -17 -13 -6 -4 0
13 4 6 21 17 0
-7 -21 -17 -11 -4 0
11 21 17 7 4 0
-7 -21 -17 -14 -4 0
14 21 4 7 17 0
-21 -17 -8 -12 -4 0
12 8 4 17 21 0
-21 -17 -8 -15 -4 0
15 8 4 21 17 0
-21 -17 -13 -9 -4 0
13 4 17 9 21 0
-21 -17 -16 -4 -9 0
9 16 4 21 17 0
-17 -21 -14 -10 -4 0
14 10 4 17 21 0
-17 -21 -11 -4 -15 0
15 11 17 21 4 0
-17 -21 -16 -12 -4 0
12 16 21 4 17 0
-22 -17 -11 -6 -5 0
11 6 17 5 22 0
-6 -22 -12 -5 -17 0
12 6 17 22 5 0
-7 -17 -12 -5 -22 0
12 22 17 7 5 0
-7 -22 -13 -5 -17 0
13 7 17 5 22 0
-22 -17 -13 -8 -5 0
13 8 22 17 5 0
-17 -22 -14 -8 -5 0
14 5 17 22 8 0
-22 -17 -14 -9 -5 0
14 5 17 9 22 0
-22 -17 -9 -15 -5 0
15 9 22 17 5 0
-22 -17 -15 -10 -5 0
15 10 17 22 5 0
-22 -17 -10 -16 -5 0
16 10 17 22 5 0
-22 -17 -11 -16 -5 0
11 5 16 22 17 0
22 19 2 1 20 3 0
-2 -1 -8 -9 -6 -7 0
7 8 16 2 1 6 0
-17 -2 -1 -6 -8 -7 0
7 8 6 2 1 17 0
-2 -1 -16 -7 -15 -6 0
-6 -7 -16 -17 -2 -1 0
6 16 1 17 2 7 0
-2 -1 -16 -14 -15 -6 0
14 6 1 15 2 16 0
-17 -2 -1 -6 -15 -16 0
15 16 17 6 1 2 0
10 8 2 9 1 7 0
-7 -17 -9 -1 -8 -2 0
9 8 17 1 7 2 0
-2 -1 -10 -8 -11 -9 0
-2 -1 -8 -9 -17 -10 0
10 8 1 2 17 9 0
-17 -2 -11 -10 -9 -1 0
9 11 17 2 10 1 0
-2 -1 -11 -12 -10 -17 0
12 11 10 2 1 17 0
-2 -1 -14 -13 -12 -11 0
-17 -2 -13 -1 -12 -11 0
13 11 1 17 12 2 0
-1 -2 -15 -14 -12 -13 0
14 13 15 1 12 2 0
-2 -1 -14 -13 -12 -17 0
14 13 17 2 1 12 0
-2 -1 -15 -14 -13 -16 0
14 16 1 15 13 2 0
-17 -2 -15 -14 -13 -1 0
14 13 15 2 1 17 0
-2 -1 -14 -16 -15 -17 0
14 15 17 16 1 2 0
-19 -20 -18 -1 -21 -2 0
21 18 20 2 19 1 0
-21 -4 -3 -1 -20 -17 0
-19 -20 -18 -1 -4 -3 0
19 18 20 4 3 1 0
-22 -4 -18 -5 -1 -19 0
-21 -4 -1 -5 -18 -20 0
21 18 20 4 5 1 0
-6 -12 -5 -11 -1 -7 0
12 11 1 7 5 6 0
-6 -12 -13 -5 -1 -7 0
13 1 5 7 12 6 0
-7 -6 -12 -17 -5 -1 0
12 11 16 5 1 6 0
-17 -5 -12 -11 -1 -6 0
12 6 17 11 1 5 0
-6 -17 -16 -1 -11 -5 0
11 5 16 6 17 1 0
-5 -1 -13 -12 -8 -7 0
-5 -1 -13 -8 -7 -14 0
14 8 5 7 1 13 0
-5 -1 -13 -8 -17 -7 0
13 1 5 7 8 17 0
-17 -5 -13 -1 -12 -7 0
13 1 5 7 17 12 0
-5 -1 -13 -9 -8 -14 0
14 8 5 9 13 1 0
-5 -1 -15 -14 -9 -8 0
8 15 5 1 14 9 0
14 9 17 8 5 1 0
-5 -1 -14 -13 -8 -17 0
14 13 17 1 5 8 0
-5 -1 -10 -15 -14 -9 0
15 10 5 1 9 14 0
15 9 5 16 10 1 0
-17 -5 -10 -15 -9 -1 0
15 9 5 17 1 10 0
-17 -5 -14 -15 -9 -1 0
14 5 15 1 17 9 0
-5 -1 -11 -15 -10 -16 0
15 16 5 11 10 1 0
-1 -5 -10 -16 -17 -11 0
-5 -1 -10 -15 -16 -17 0
15 16 17 1 5 10 0
-6 -22 -12 -11 -1 -7 0
-6 -22 -12 -13 -1 -7 0
7 13 12 1 6 22 0
-7 -6 -12 -17 -1 -22 0
12 22 17 1 6 7 0
-22 -1 -12 -11 -16 -6 0
-22 -1 -17 -12 -6 -11 0
13 8 22 12 7 1 0
-22 -1 -13 -14 -8 -7 0
14 13 1 7 8 22 0
-22 -1 -14 -13 -9 -8 0
14 8 22 1 9 13 0
-22 -1 -15 -9 -14 -8 0
14 9 1 15 22 8 0
14 9 17 8 1 22 0
-22 -1 -13 -8 -14 -17 0
14 13 17 1 22 8 0
-22 -1 -14 -15 -10 -9 0
15 9 22 10 14 1 0
15 9 22 16 10 1 0
-22 -17 -9 -14 -15 -1 0
14 15 1 17 22 9 0
-22 -1 -11 -15 -10 -16 0
15 16 1 22 11 10 0
-22 -1 -10 -15 -16 -17 0
15 16 17 22 10 1 0
-22 -20 -5 -2 -3 -18 0
-22 -21 -19 -2 -3 -5 0
-22 -4 -2 -21 -5 -18 0
19 5 4 20 2 21 0
12 6 2 4 8 10 0
-4 -2 -15 -10 -8 -6 0
15 10 4 8 2 6 0
-6 -4 -2 -17 -8 -10 0
6 10 4 2 8 17 0
-6 -4 -13 -15 -2 -8 0
-6 -4 -2 -17 -15 -8 0
-6 -4 -15 -11 -13 -2 0
-6 -4 -15 -13 -2 -17 0
15 13 2 6 17 4 0
11 9 4 2 7 13 0
-7 -4 -11 -2 -17 -9 0
11 9 4 2 17 7 0
-2 -4 -14 -9 -16 -7 0
-7 -4 -16 -2 -17 -9 0
9 16 4 2 17 7 0
-2 -4 -14 -12 -16 -7 0
-7 -17 -16 -14 -4 -2 0
14 16 2 17 4 7 0
-4 -2 -14 -12 -10 -8 0
14 12 4 10 8 2 0
-4 -2 -10 -12 -8 -17 0
12 10 8 4 17 2 0
-2 -4 -15 -11 -13 -9 0
-17 -4 -13 -11 -2 -9 0
13 11 4 2 9 17 0
14 16 4 2 12 10 0
-17 -4 -14 -10 -12 -2 0
14 12 4 17 2 10 0
-17 -4 -13 -15 -2 -11 0
15 13 2 17 11 4 0
-2 -4 -14 -16 -12 -17 0
14 12 2 17 4 16 0
22 19 4 20 2 21 0
-6 -2 -18 -9 -8 -7 0
6 8 16 2 18 7 0
-6 -17 -18 -2 -8 -7 0
-6 -2 -18 -7 -15 -16 0
6 15 2 7 18 16 0
-6 -17 -16 -18 -2 -7 0
-6 -2 -18 -14 -16 -15 0
14 16 18 2 15 6 0
15 18 2 17 16 6 0
10 9 8 2 18 7 0
-7 -18 -9 -8 -2 -17 0
-2 -18 -10 -9 -8 -11 0
9 11 18 8 10 2 0
-17 -18 -10 -8 -9 -2 0
-2 -18 -12 -9 -10 -11 0
12 11 2 18 10 9 0
-17 -18 -10 -9 -11 -2 0
9 11 18 17 10 2 0
-17 -19 -13 -11 -9 -2 0
-2 -18 -13 -12 -11 -10 0
13 11 2 18 12 10 0
-17 -18 -10 -12 -2 -11 0
-2 -18 -14 -13 -12 -11 0
14 12 18 11 13 2 0
-17 -18 -13 -12 -2 -11 0
13 11 17 2 12 18 0
-2 -18 -15 -14 -13 -12 0
14 12 2 15 18 13 0
-2 -18 -16 -14 -13 -15 0
14 16 15 2 13 18 0
-17 -18 -14 -15 -13 -2 0
-17 -18 -14 -2 -16 -15 0
-6 -4 -13 -10 -9 -3 0
-6 -4 -13 -9 -16 -3 0
13 4 3 9 6 16 0
-6 -4 -9 -3 -17 -13 0
13 4 17 9 3 6 0
-6 -4 -14 -10 -13 -3 0
14 13 4 10 6 3 0
-6 -4 -13 -10 -3 -17 0
13 4 6 17 10 3 0
-6 -4 -14 -10 -3 -17 0
14 10 3 4 17 6 0
-7 -4 -11 -8 -15 -3 0
15 3 7 4 11 8 0
-7 -4 -14 -11 -10 -3 0
14 3 7 11 4 10 0
-7 -17 -14 -10 -3 -4 0
14 10 7 17 4 3 0
-7 -4 -11 -15 -3 -14 0
15 14 7 4 11 3 0
14 3 17 7 11 4 0
-7 -17 -11 -3 -4 -15 0
15 3 7 4 11 17 0
12 8 4 3 9 16 0
-3 -4 -12 -11 -8 -15 0
15 12 4 11 8 3 0
-17 -8 -3 -4 -11 -15 0
11 3 4 15 8 17 0
-3 -4 -15 -12 -8 -16 0
12 3 4 15 16 8 0
-17 -8 -3 -12 -4 -15 0
12 3 4 8 15 17 0
-17 -8 -3 -12 -4 -16 0
12 8 3 17 4 16 0
-3 -4 -13 -12 -16 -9 0
12 9 3 4 17 16 0
-17 -4 -13 -9 -16 -3 0
13 16 17 9 4 3 0
17 3 4 21 20 18 0
-6 -14 -8 -11 -3 -5 0
14 8 5 11 6 3 0
-6 -14 -5 -12 -9 -3 0
14 6 5 12 3 9 0
12 9 5 6 3 17 0
-6 -17 -14 -3 -9 -5 0
14 5 17 3 9 6 0
-6 -17 -14 -11 -3 -5 0
14 5 3 11 6 17 0
-7 -5 -15 -12 -3 -9 0
15 5 7 3 9 12 0
-7 -5 -12 -10 -3 -15 0
15 3 7 10 5 12 0
-7 -5 -10 -3 -15 -13 0
13 7 3 10 15 5 0
13 7 3 10 5 16 0
-7 -17 -13 -10 -3 -5 0
13 10 5 3 17 7 0
-7 -17 -10 -3 -15 -5 0
15 3 7 17 10 5 0
-7 -5 -12 -15 -3 -17 0
7 3 17 15 5 12 0
13 10 5 3 8 16 0
-14 -11 -3 -5 -8 -16 0
14 16 8 5 11 3 0
-17 -14 -8 -11 -3 -5 0
14 5 17 11 3 8 0
-17 -11 -8 -3 -16 -5 0
11 16 3 17 5 8 0
-17 -8 -13 -3 -16 -5 0
16 13 17 8 3 5 0
-17 -5 -9 -15 -12 -3 0
12 15 17 5 3 9 0
-17 -3 -13 -10 -16 -5 0
16 13 17 5 3 10 0
-7 -6 -14 -10 -3 -21 0
14 10 3 21 7 6 0
-6 -21 -13 -10 -3 -9 0
-21 -6 -13 -16 -9 -3 0
-21 -17 -13 -6 -9 -3 0
13 21 3 9 17 6 0
-6 -21 -14 -13 -10 -3 0
14 13 6 21 10 3 0
-21 -17 -10 -6 -3 -13 0
-21 -17 -10 -6 -14 -3 0
14 6 17 10 3 21 0
-7 -11 -8 -15 -3 -21 0
15 3 7 11 8 21 0
-7 -21 -14 -11 -10 -3 0
14 3 7 11 10 21 0
-7 -17 -14 -10 -3 -21 0
14 3 17 21 10 7 0
-7 -21 -11 -14 -3 -15 0
-7 -21 -17 -11 -3 -14 0
14 3 17 21 11 7 0
-7 -17 -11 -15 -3 -21 0
15 11 17 21 7 3 0
-21 -12 -8 -11 -15 -3 0
-21 -17 -15 -11 -8 -3 0
15 8 3 21 17 11 0
-21 -12 -8 -15 -16 -3 0
-17 -15 -3 -8 -12 -21 0
15 8 21 17 3 12 0
-21 -17 -8 -16 -3 -12 0
12 8 3 21 17 16 0
-21 -12 -3 -13 -16 -9 0
13 21 3 9 12 16 0
-17 -21 -13 -16 -9 -3 0
-6 -4 -12 -8 -19 -10 0
12 10 19 6 8 4 0
-19 -4 -15 -10 -8 -6 0
15 10 4 8 6 19 0
-19 -4 -15 -13 -6 -8 0
8 15 4 6 19 13 0
-19 -17 -6 -4 -15 -8 0
15 19 17 6 8 4 0
-19 -4 -13 -15 -11 -6 0
11 6 19 15 4 13 0
-19 -17 -6 -15 -4 -13 0
15 6 17 4 19 13 0
-19 -4 -13 -11 -9 -7 0
13 7 9 4 19 11 0
11 19 4 16 7 9 0
-19 -4 -11 -17 -9 -7 0
-19 -4 -16 -14 -7 -9 0
14 19 4 9 7 16 0
-7 -4 -16 -12 -14 -19 0
14 12 4 7 16 19 0
14 19 4 17 7 16 0
-19 -4 -12 -14 -10 -8 0
14 12 19 4 8 10 0
-19 -4 -10 -12 -8 -17 0
-19 -4 -13 -15 -11 -9 0
15 9 19 4 11 13 0
-19 -4 -14 -12 -10 -16 0
14 12 4 10 16 19 0
-19 -17 -14 -10 -12 -4 0
-19 -4 -13 -15 -11 -17 0
15 13 11 4 17 19 0
14 12 4 17 16 19 0
12 22 17 7 5 6 0
-6 -14 -5 -11 -20 -8 0
14 5 20 11 8 6 0
14 6 5 20 11 9 0
-6 -14 -5 -12 -9 -20 0
14 6 5 20 9 12 0
-6 -15 -5 -12 -9 -20 0
15 5 20 6 12 9 0
14 5 17 20 6 9 0
-7 -5 -12 -15 -9 -20 0
15 5 20 7 9 12 0
-7 -5 -12 -15 -10 -20 0
15 5 20 7 10 12 0
-7 -5 -13 -15 -10 -20 0
15 5 20 7 13 10 0
-7 -5 -13 -16 -20 -10 0
20 13 5 10 7 16 0
-7 -5 -13 -10 -20 -17 0
-7 -5 -10 -20 -15 -17 0
-7 -5 -12 -20 -15 -17 0
15 5 17 20 7 12 0
-20 -5 -13 -8 -16 -10 0
-20 -11 -13 -16 -8 -5 0
20 13 8 5 11 16 0
-20 -5 -14 -8 -16 -11 0
14 16 20 5 8 11 0
-20 -17 -14 -11 -8 -5 0
-20 -17 -10 -16 -5 -13 0
15 16 17 22 10 5 0
6 3 1 7 17 9 2 0
-7 -2 -1 -15 -17 -3 -6 0
6 3 1 7 15 2 17 0
-17 -2 -1 -3 -8 -6 -9 0
-17 -2 -15 -14 -1 -6 -3 0
14 3 17 15 2 6 1 0
14 16 2 3 1 17 6 0
-7 -17 -10 -8 -3 -2 -1 0
7 10 1 8 3 17 2 0
-7 -17 -16 -1 -8 -3 -2 0
-17 -2 -10 -1 -9 -3 -7 0
17 3 2 1 7 9 10 0
-7 -2 -1 -17 -15 -3 -16 0
15 16 1 3 7 17 2 0
-17 -11 -8 -9 -3 -2 -1 0
9 11 17 3 1 2 8 0
11 8 3 17 1 10 2 0
-3 -2 -12 -11 -10 -9 -1 0
12 11 2 1 3 9 10 0
12 9 3 1 17 2 10 0
-17 -2 -1 -9 -12 -3 -11 0
12 11 3 17 2 1 9 0
13 1 10 17 2 11 3 0
13 1 2 3 17 10 12 0
14 12 17 2 11 3 1 0
14 13 17 11 3 2 1 0
-2 -1 -15 -13 -12 -17 -3 0
15 13 12 17 1 3 2 0
-17 -2 -15 -14 -1 -12 -3 0
-17 -2 -14 -13 -1 -3 -16 0
-17 -2 -13 -15 -1 -3 -16 0
15 16 1 13 17 3 2 0
-17 -2 -1 -20 -3 -19 -22 0
9 11 18 10 8 1 2 0
-7 -6 -14 -10 -3 -1 -4 0
-6 -7 -4 -17 -3 -1 -10 0
6 3 4 7 10 1 17 0
-17 -4 -14 -3 -1 -6 -7 0
-3 -4 -9 -1 -6 -17 -16 0
-6 -17 -13 -1 -3 -4 -14 0
14 6 4 1 17 13 3 0
-6 -4 -13 -16 -3 -17 -1 0
13 4 6 16 3 1 17 0
-3 -4 -8 -1 -17 -7 -11 0
-7 -15 -8 -3 -4 -1 -17 0
15 3 1 17 7 8 4 0
-7 -17 -10 -3 -1 -11 -4 0
-7 -17 -15 -1 -14 -3 -4 0
14 15 17 1 7 3 4 0
-3 -4 -12 -8 -16 -1 -9 0
-17 -8 -11 -12 -3 -4 -1 0
12 8 4 17 11 1 3 0
-3 -4 -15 -8 -16 -17 -1 0
-17 -3 -13 -10 -9 -4 -1 0
13 1 4 17 9 10 3 0
-3 -4 -13 -12 -9 -16 -1 0
13 4 9 1 16 3 12 0
-3 -4 -13 -1 -12 -17 -9 0
13 1 4 17 9 3 12 0
-17 -3 -14 -11 -10 -4 -1 0
14 11 4 1 3 17 10 0
-17 -3 -14 -13 -10 -4 -1 0
14 10 1 4 17 13 3 0
-17 -4 -12 -11 -3 -15 -1 0
12 15 1 17 11 3 4 0
-17 -4 -15 -14 -11 -3 -1 0
14 15 4 11 17 3 1 0
-3 -4 -13 -12 -16 -1 -17 0
13 12 17 16 4 3 1 0
-3 -4 -16 -1 -12 -17 -15 0
15 16 1 17 3 12 4 0
-19 -20 -18 -17 -4 -3 -1 0
6 5 1 7 17 11 4 0
-6 -4 -13 -1 -17 -7 -5 0
13 4 6 5 17 1 7 0
6 11 4 17 5 10 1 0
-6 -17 -10 -16 -5 -4 -1 0
6 10 1 17 16 5 4 0
-1 -4 -12 -5 -17 -8 -7 0
7 8 5 4 17 1 12 0
-1 -5 -14 -4 -17 -7 -8 0
7 8 4 5 17 1 14 0
-17 -4 -12 -11 -5 -1 -7 0
11 5 4 1 7 17 12 0
-17 -5 -13 -1 -14 -7 -4 0
14 5 4 1 7 17 13 0
-1 -5 -13 -9 -8 -4 -17 0
13 4 17 9 8 1 5 0
-17 -1 -8 -9 -15 -5 -4 0
8 15 5 17 1 4 9 0
-1 -4 -12 -5 -17 -8 -13 0
13 1 5 8 12 4 17 0
-17 -4 -14 -15 -5 -1 -8 0
8 15 5 17 1 4 14 0
-5 -1 -10 -15 -14 -9 -4 0
15 14 5 4 10 1 9 0
14 10 4 5 1 9 17 0
-1 -5 -10 -9 -16 -4 -17 0
14 13 4 1 5 17 9 0
15 16 5 17 1 4 9 0
15 5 1 4 11 16 10 0
-17 -4 -10 -15 -5 -1 -11 0
15 11 1 17 4 10 5 0
-17 -4 -10 -15 -5 -1 -14 0
15 5 1 4 17 10 14 0
-17 -4 -11 -15 -5 -1 -16 0
15 16 5 17 11 4 1 0
-6 -19 -18 -8 -7 -16 -1 0
-6 -22 -12 -1 -7 -13 -21 0
15 6 1 17 20 19 7 0
-22 -1 -12 -16 -6 -21 -11 0
14 6 1 15 18 19 16 0
11 8 1 18 10 9 19 0
9 8 1 17 21 12 20 0
-19 -12 -18 -11 -10 -9 -1 0
-22 -1 -9 -16 -21 -15 -10 0
-21 -20 -13 -12 -9 -17 -1 0
-22 -21 -13 -14 -9 -1 -17 0
-19 -12 -13 -18 -11 -10 -1 0
14 13 18 1 19 12 11 0
-19 -15 -18 -14 -13 -12 -1 0
14 13 1 15 18 12 19 0
13 16 19 1 18 15 14 0
11 8 3 17 5 2 6 0
-6 -2 -3 -8 -5 -17 -14 0
14 8 5 2 6 3 17 0
14 6 5 12 2 3 17 0
12 15 17 3 6 5 2 0
-7 -5 -9 -12 -2 -3 -17 0
12 3 7 2 9 5 17 0
-7 -17 -9 -15 -5 -3 -2 0
-7 -5 -15 -12 -10 -3 -2 0
-7 -17 -12 -10 -3 -5 -2 0
12 10 2 3 5 7 17 0
-17 -3 -10 -16 -5 -2 -7 0
-7 -5 -15 -13 -3 -17 -2 0
15 5 2 17 7 3 13 0
-7 -17 -13 -16 -2 -5 -3 0
16 13 17 2 3 5 7 0
-17 -3 -13 -10 -8 -2 -5 0
13 10 2 5 3 17 8 0
-17 -3 -10 -8 -16 -5 -2 0
-17 -11 -13 -8 -3 -5 -2 0
13 11 17 3 2 5 8 0
-17 -14 -8 -3 -16 -5 -2 0
14 5 17 2 8 3 16 0
14 5 17 2 11 3 9 0
-17 -3 -12 -15 -10 -2 -5 0
15 5 3 17 10 12 2 0
-17 -3 -15 -13 -10 -2 -5 0
13 15 17 2 10 3 5 0
-11 -2 -13 -3 -16 -5 -17 0
16 13 17 2 3 5 11 0
-17 -5 -14 -11 -16 -2 -3 0
-6 -4 -2 -12 -8 -17 -5 0
12 8 17 5 4 2 6 0
-17 -4 -15 -10 -2 -6 -5 0
15 5 17 6 2 10 4 0
13 11 2 5 17 4 6 0
11 15 2 17 6 4 5 0
7 13 2 5 4 9 11 0
-7 -4 -11 -2 -5 -16 -9 0
9 5 7 2 4 16 11 0
-7 -4 -13 -9 -2 -5 -17 0
-7 -4 -14 -9 -2 -17 -5 0
14 9 4 5 2 7 17 0
7 13 2 5 17 4 11 0
11 5 4 2 7 17 16 0
-17 -4 -14 -2 -12 -7 -5 0
14 12 4 5 17 2 7 0
-2 -4 -16 -12 -17 -5 -7 0
12 16 2 17 4 5 7 0
-4 -2 -14 -12 -8 -5 -10 0
14 10 4 5 17 2 8 0
-4 -2 -15 -10 -8 -17 -5 0
-4 -2 -14 -8 -12 -17 -5 0
14 12 4 17 2 5 8 0
-4 -2 -15 -13 -8 -5 -17 0
15 9 11 17 5 4 2 0
-17 -4 -14 -9 -16 -2 -5 0
14 16 2 9 5 4 17 0
14 10 4 5 16 12 2 0
12 10 5 2 17 16 4 0
-2 -4 -14 -10 -16 -17 -5 0
14 10 4 5 17 2 16 0
21 18 17 4 22 2 5 0
15 6 2 4 8 19 10 0
15 13 4 2 11 8 6 0
15 13 4 11 2 9 6 0
-19 -17 -13 -15 -6 -2 -4 0
15 13 4 11 2 7 9 0
15 10 2 19 21 8 6 0
-19 -21 -13 -8 -15 -2 -6 0
6 13 21 15 19 2 8 0
14 6 18 17 2 20 15 0
-6 -14 -18 -20 -17 -16 -2 0
-20 -18 -2 -8 -7 -10 -9 0
-7 -21 -16 -2 -19 -11 -9 0
-7 -21 -14 -12 -16 -2 -19 0
14 12 7 19 16 2 21 0
-19 -21 -14 -12 -2 -8 -10 0
14 12 19 10 21 8 2 0
15 10 17 8 21 2 22 0
14 8 17 2 21 22 12 0
-21 -19 -15 -13 -9 -11 -2 0
-2 -18 -14 -13 -12 -11 -10 0
13 11 18 17 20 2 10 0
-19 -21 -14 -2 -10 -16 -12 0
14 16 10 19 12 2 21 0
14 15 20 18 13 12 2 0
-7 -4 -10 -13 -14 -3 -6 0
14 13 4 3 10 7 6 0
-6 -4 -14 -13 -10 -9 -3 0
15 12 3 4 9 8 16 0
-7 -8 -13 -3 -16 -5 -10 0
13 10 5 3 11 16 8 0
-6 -14 -8 -11 -20 -3 -22 0
14 11 3 20 8 22 6 0
-17 -19 -16 -8 -18 -6 -3 0
-6 -22 -14 -9 -20 -3 -11 0
-6 -22 -12 -14 -9 -20 -3 0
15 12 22 3 6 20 9 0
15 18 17 6 3 19 14 0
8 15 21 17 18 7 3 0
12 3 7 15 22 20 9 0
-7 -21 -11 -10 -3 -14 -18 0
15 22 20 3 7 10 12 0
15 22 20 3 13 7 10 0
14 18 17 15 21 7 3 0
15 19 7 17 18 16 3 0
8 11 9 19 17 18 3 0
15 16 8 3 12 21 9 0
11 12 21 3 18 15 8 0
14 8 22 11 20 3 16 0
15 16 3 12 18 21 8 0
-17 -19 -10 -9 -12 -18 -3 0
14 12 17 11 3 18 19 0
14 3 17 15 12 18 19 0
12 15 17 3 18 21 16 0
-7 -6 -14 -10 -20 -4 -21 0
14 10 4 20 21 7 6 0
-6 -4 -10 -13 -20 -21 -9 0
16 13 4 9 21 20 6 0
14 10 4 20 13 6 21 0
15 22 19 17 6 10 4 0
-22 -4 -13 -19 -6 -11 -15 0
15 22 19 17 6 4 11 0
15 11 4 20 8 21 7 0
-7 -20 -8 -4 -17 -18 -11 0
-17 -22 -12 -8 -18 -4 -7 0
-7 -21 -11 -10 -20 -4 -14 0
14 10 7 21 20 11 4 0
-7 -21 -11 -20 -15 -4 -14 0
15 11 20 4 7 14 21 0
12 22 17 7 4 19 16 0
15 10 22 4 17 19 8 0
-21 -12 -8 -15 -11 -20 -4 0
-17 -20 -12 -11 -8 -18 -4 0
15 12 20 8 4 21 16 0
-12 -9 -13 -18 -17 -20 -4 0
-20 -17 -10 -13 -14 -18 -4 0
15 16 22 17 18 4 11 0
-6 -7 -12 -18 -11 -5 -22 0
7 13 18 12 22 6 5 0
-19 -17 -9 -15 -7 -20 -5 0
15 19 17 7 9 20 5 0
15 5 20 7 10 12 19 0
-19 -20 -10 -13 -16 -5 -7 0
-7 -17 -11 -16 -21 -19 -5 0
20 13 5 17 7 19 15 0
15 9 5 18 22 8 14 0
8 15 21 17 18 5 9 0
-21 -19 -8 -15 -17 -10 -5 0
-21 -19 -13 -8 -15 -17 -5 0
15 5 18 10 22 14 9 0
14 18 17 21 10 9 5 0
15 9 5 18 10 22 16 0
10 9 17 18 21 5 16 0
15 19 17 11 9 5 21 0
15 13 19 17 5 21 9 0
-22 -11 -18 -15 -10 -16 -5 0
10 22 11 18 15 5 16 0
-7 -2 -15 -10 -9 -1 -3 -6 0
-2 -1 -3 -15 -14 -9 -6 -7 0
-2 -1 -15 -3 -9 -7 -16 -6 0
14 12 7 3 2 15 6 1 0
-2 -1 -16 -3 -6 -8 -9 -11 0
-2 -1 -12 -8 -9 -3 -7 -10 0
13 1 3 8 2 11 7 10 0
15 3 1 7 8 13 16 2 0
13 7 1 9 2 12 3 10 0
14 9 3 8 1 2 12 11 0
15 13 12 3 10 1 9 2 0
-2 -1 -14 -15 -12 -11 -9 -3 0
12 13 3 11 10 2 1 15 0
-6 -7 -10 -9 -8 -2 -19 -1 0
7 13 3 1 4 6 10 9 0
-3 -4 -10 -9 -1 -6 -7 -16 0
-6 -4 -13 -3 -14 -1 -16 -7 0
11 10 3 4 1 13 6 14 0
14 15 4 1 16 3 7 8 0
-3 -4 -13 -12 -10 -8 -1 -9 0
-3 -4 -15 -12 -8 -16 -1 -11 0
13 1 4 3 10 9 11 14 0
-3 -4 -14 -13 -12 -10 -9 -1 0
-3 -4 -14 -11 -12 -15 -10 -1 0
-3 -4 -14 -15 -13 -11 -10 -1 0
7 8 1 3 16 18 6 19 0
-6 -15 -18 -14 -19 -1 -3 -16 0
7 10 1 18 3 9 8 19 0
-19 -12 -18 -11 -10 -1 -3 -13 0
-6 -14 -5 -15 -1 -10 -4 -11 0
-5 -1 -15 -12 -16 -4 -9 -11 0
-6 -4 -13 -9 -16 -1 -20 -21 0
-21 -4 -10 -13 -20 -14 -1 -6 0
-21 -12 -8 -11 -15 -20 -4 -1 0
-6 -1 -8 -19 -9 -20 -15 -7 0
14 15 1 7 20 8 21 6 0
-19 -20 -8 -16 -6 -1 -15 -7 0
15 6 20 19 7 1 16 8 0
-7 -6 -10 -19 -20 -21 -9 -1 0
-22 -1 -11 -10 -20 -6 -21 -7 0
-7 -6 -13 -1 -14 -20 -21 -16 0
-22 -1 -6 -7 -13 -21 -20 -14 0
15 19 20 16 6 1 13 7 0
6 8 20 1 21 15 16 9 0
9 16 20 1 19 6 21 8 0
14 16 21 1 10 22 9 6 0
-22 -21 -15 -14 -10 -11 -6 -1 0
-6 -17 -13 -12 -16 -18 -21 -1 0
-19 -21 -14 -13 -6 -1 -20 -16 0
9 19 18 1 20 8 7 10 0
7 13 1 11 8 19 10 20 0
15 8 7 10 19 1 20 16 0
15 16 1 8 13 20 7 19 0
15 8 7 19 20 21 16 1 0
15 10 1 7 20 11 21 14 0
15 22 7 1 12 11 16 21 0
15 13 12 19 16 7 20 1 0
15 19 20 7 16 13 1 14 0
-19 -11 -8 -10 -13 -1 -20 -9 0
-19 -12 -8 -11 -20 -9 -1 -21 0
-21 -20 -13 -16 -9 -8 -12 -1 0
15 10 21 8 14 11 22 1 0
14 19 1 20 10 12 9 11 0
9 11 18 19 12 20 1 10 0
-19 -20 -13 -14 -12 -11 -10 -1 0
15 11 20 1 12 19 13 10 0
-21 -20 -15 -14 -13 -11 -10 -1 0
14 13 1 11 10 15 20 21 0
14 13 1 21 19 11 20 10 0
-19 -20 -15 -14 -10 -12 -13 -1 0
-19 -20 -15 -14 -13 -12 -11 -1 0
14 11 20 15 1 13 12 19 0
-19 -20 -15 -14 -13 -16 -12 -1 0
15 12 20 16 19 21 13 1 0
15 13 7 3 6 2 5 9 0
-6 -14 -8 -12 -11 -3 -2 -5 0
-6 -14 -8 -11 -3 -16 -5 -2 0
-12 -14 -3 -5 -8 -16 -2 -6 0
-7 -5 -14 -2 -3 -16 -8 -10 0
-7 -11 -3 -16 -5 -8 -2 -13 0
16 13 2 11 3 10 5 7 0
-15 -11 -3 -5 -10 -8 -13 -2 0
15 13 3 5 11 2 8 10 0
-11 -2 -13 -16 -10 -8 -3 -5 0
14 8 2 22 3 11 20 6 0
12 3 20 15 7 22 2 9 0
15 10 22 3 2 7 20 12 0
-22 -7 -13 -10 -2 -15 -3 -20 0
13 7 3 10 15 2 22 20 0
-7 -2 -13 -16 -10 -20 -3 -22 0
-22 -2 -3 -16 -8 -13 -10 -20 0
-4 -2 -12 -8 -5 -10 -16 -6 0
15 9 5 2 6 4 10 11 0
15 11 6 5 12 4 2 10 0
15 13 5 4 2 9 7 8 0
14 16 2 5 4 7 10 9 0
14 9 4 2 12 5 16 7 0
-5 -4 -15 -13 -14 -9 -2 -7 0
-2 -4 -12 -11 -16 -10 -7 -5 0
15 13 5 4 2 9 8 10 0
-4 -2 -14 -15 -13 -10 -8 -5 0
15 16 2 4 9 13 11 5 0
-5 -4 -15 -11 -9 -14 -2 -16 0
-19 -21 -15 -10 -8 -6 -5 -2 0
14 16 19 2 10 5 12 21 0
-7 -6 -15 -13 -20 -2 -9 -22 0
9 18 2 7 15 20 14 6 0
8 11 22 15 2 20 6 9 0
-6 -22 -13 -9 -8 -15 -2 -21 0
11 22 21 2 15 10 8 6 0
-22 -21 -15 -10 -8 -6 -2 -13 0
13 15 2 21 10 22 8 6 0
-22 -21 -15 -13 -11 -2 -8 -6 0
15 13 12 2 6 22 21 8 0
14 6 15 20 2 22 12 8 0
-6 -14 -8 -12 -20 -2 -22 -16 0
-6 -22 -11 -13 -9 -15 -2 -21 0
15 12 22 14 20 2 9 6 0
-21 -22 -13 -2 -10 -6 -11 -15 0
15 12 22 20 2 10 13 6 0
15 12 22 6 10 20 2 21 0
11 18 20 15 14 2 6 12 0
13 10 2 18 8 11 7 20 0
-7 -22 -8 -2 -14 -10 -21 -12 0
15 13 2 10 20 22 8 7 0
15 13 7 10 2 20 9 22 0
15 22 2 21 13 9 7 11 0
-21 -7 -9 -16 -2 -14 -11 -22 0
14 22 21 11 9 7 16 2 0
14 13 2 22 7 12 9 21 0
-7 -21 -14 -12 -9 -16 -22 -2 0
14 16 2 7 12 9 22 21 0
-7 -21 -12 -14 -9 -20 -22 -2 0
15 16 22 13 7 2 20 9 0
13 12 22 2 10 7 20 16 0
15 12 20 7 2 10 22 16 0
-7 -22 -13 -15 -11 -16 -2 -20 0
15 13 2 20 18 16 7 14 0
-21 -22 -11 -13 -15 -9 -8 -2 0
-20 -18 -14 -13 -10 -11 -2 -8 0
14 11 18 8 20 10 13 2 0
-18 -2 -13 -11 -8 -10 -22 -20 0
-22 -20 -15 -13 -10 -12 -8 -2 0
14 16 21 10 8 20 2 22 0
-22 -20 -11 -13 -9 -16 -14 -2 0
-22 -21 -19 -13 -15 -9 -2 -11 0
14 16 21 11 20 2 9 22 0
15 9 3 6 7 18 19 8 0
-6 -7 -14 -8 -15 -18 -21 -3 0
-7 -18 -9 -19 -6 -15 -10 -3 0
-6 -21 -10 -3 -9 -18 -19 -7 0
-6 -14 -18 -19 -9 -7 -15 -3 0
-6 -19 -10 -3 -15 -7 -12 -22 0
-7 -21 -13 -15 -3 -18 -14 -6 0
-7 -21 -16 -13 -3 -6 -14 -18 0
12 11 18 8 3 6 9 19 0
13 11 3 9 6 8 19 22 0
14 11 3 9 22 19 8 6 0
-6 -22 -12 -14 -11 -8 -19 -3 0
-6 -22 -11 -13 -8 -16 -3 -19 0
-22 -6 -14 -12 -11 -19 -9 -3 0
14 13 6 21 10 3 11 18 0
-19 -9 -10 -3 -8 -18 -7 -11 0
7 13 8 11 18 10 19 3 0
15 13 22 3 7 8 10 19 0
-22 -14 -8 -3 -16 -19 -7 -10 0
15 10 18 3 8 16 7 19 0
14 16 21 18 3 8 7 15 0
13 7 3 10 9 12 18 19 0
9 12 18 3 19 22 7 10 0
-22 -9 -3 -13 -10 -19 -15 -7 0
9 3 7 15 22 19 12 14 0
-22 -7 -12 -19 -3 -9 -15 -20 0
15 13 19 22 3 7 9 16 0
15 13 12 3 7 22 10 19 0
13 7 10 3 20 22 19 16 0
15 13 18 22 3 19 16 7 0
-19 -11 -13 -10 -3 -8 -9 -18 0
15 12 3 18 21 9 8 11 0
-22 -14 -8 -16 -3 -9 -11 -19 0
14 16 8 11 3 19 22 9 0
-22 -11 -13 -18 -10 -8 -19 -3 0
-22 -14 -10 -11 -3 -8 -19 -16 0
14 16 8 11 13 3 22 19 0
-21 -12 -13 -3 -10 -9 -18 -14 0
14 13 3 21 9 10 18 12 0
15 12 18 19 9 3 11 14 0
14 9 19 3 11 18 12 22 0
-19 -14 -18 -15 -13 -12 -3 -11 0
15 16 18 11 3 12 21 14 0
12 15 18 3 21 11 14 19 0
12 22 18 4 5 7 11 6 0
-6 -7 -13 -12 -4 -18 -5 -22 0
-6 -12 -18 -16 -5 -22 -4 -11 0
14 8 4 5 7 22 18 13 0
-22 -14 -18 -13 -9 -8 -4 -5 0
15 5 18 10 22 11 4 16 0
-6 -11 -18 -9 -20 -10 -7 -4 0
-6 -20 -13 -10 -18 -7 -4 -9 0
-6 -20 -10 -18 -7 -4 -14 -9 0
14 10 7 6 9 18 4 20 0
-22 -7 -11 -6 -10 -12 -18 -4 0
-6 -11 -18 -10 -20 -7 -14 -4 0
-7 -22 -11 -10 -6 -20 -18 -4 0
14 15 4 7 20 18 6 10 0
-6 -7 -13 -12 -11 -4 -18 -22 0
14 18 4 15 11 20 7 6 0
-6 -7 -13 -12 -4 -14 -18 -22 0
-7 -22 -13 -12 -16 -18 -4 -6 0
-6 -20 -13 -18 -8 -9 -16 -4 0
15 16 4 8 6 20 18 9 0
-6 -4 -14 -10 -9 -13 -20 -18 0
-6 -20 -13 -16 -10 -18 -4 -9 0
13 10 18 9 6 4 16 20 0
14 22 15 4 11 18 10 6 0
13 4 6 16 18 12 22 10 0
14 10 4 20 16 18 13 6 0
16 13 4 11 22 12 6 18 0
14 6 18 4 12 13 16 20 0
15 18 4 7 11 10 8 20 0
-22 -7 -12 -8 -11 -13 -18 -4 0
15 11 20 7 14 18 8 4 0
15 18 4 8 11 7 16 20 0
14 15 4 7 12 18 8 22 0
-7 -4 -15 -14 -13 -19 -9 -22 0
-7 -18 -14 -13 -10 -11 -20 -4 0
14 15 4 20 18 12 11 7 0
13 4 9 18 10 22 8 14 0
-20 -18 -12 -9 -15 -11 -8 -4 0
-22 -14 -18 -13 -12 -9 -8 -4 0
-22 -15 -16 -13 -18 -8 -9 -4 0
-22 -15 -18 -14 -9 -8 -16 -4 0
-19 -4 -14 -12 -16 -21 -8 -10 0
15 10 4 22 19 13 8 14 0
-20 -18 -15 -14 -12 -8 -11 -4 0
-22 -12 -18 -15 -16 -11 -10 -4 0
-20 -18 -15 -14 -13 -10 -11 -4 0
-20 -22 -15 -10 -14 -11 -18 -4 0
-20 -18 -13 -15 -12 -11 -16 -4 0
15 11 7 6 5 19 9 20 0
-7 -6 -12 -10 -11 -18 -5 -21 0
11 6 15 5 18 10 21 7 0
-6 -21 -18 -12 -13 -11 -5 -7 0
-19 -21 -13 -6 -11 -7 -15 -5 0
15 5 21 6 7 19 13 11 0
13 21 18 5 7 12 6 16 0
15 5 19 21 6 8 13 9 0
8 15 5 6 10 19 21 14 0
-19 -21 -15 -13 -11 -6 -8 -5 0
14 5 20 11 8 19 6 16 0
6 16 21 15 18 5 9 10 0
12 5 21 11 15 10 6 19 0
12 5 18 10 6 21 16 11 0
15 16 5 11 18 10 6 21 0
15 12 5 6 10 19 20 21 0
15 8 7 5 10 18 14 21 0
14 12 5 8 21 18 7 13 0
-22 -21 -13 -5 -7 -14 -18 -8 0
14 22 21 8 13 5 7 18 0
-7 -21 -13 -11 -19 -9 -15 -5 0
11 5 7 21 15 9 19 13 0
19 5 7 15 21 9 14 13 0
19 5 7 15 20 21 13 9 0
-7 -21 -14 -10 -16 -19 -12 -5 0
-19 -21 -11 -16 -18 -7 -12 -5 0
14 5 7 11 16 19 13 20 0
9 8 21 5 10 18 14 13 0
15 9 5 18 8 21 16 11 0
-21 -14 -18 -13 -12 -9 -8 -5 0
-21 -14 -18 -9 -13 -15 -8 -5 0
15 9 19 18 5 21 13 8 0
-21 -19 -15 -13 -10 -8 -5 -20 0
15 16 8 5 14 21 19 10 0
-21 -15 -18 -14 -10 -11 -9 -5 0
-19 -21 -11 -10 -14 -9 -5 -16 0
-21 -14 -18 -9 -16 -15 -5 -10 0
-19 -21 -15 -13 -16 -9 -11 -5 0
-2 -1 -3 -20 -10 -8 -22 -11 -16 0
14 11 2 1 3 13 9 12 19 0
-6 -2 -13 -1 -8 -16 -22 -11 -7 0
-2 -1 -16 -14 -6 -9 -15 -22 -11 0
12 13 1 2 11 8 10 9 20 0
-19 -4 -16 -18 -7 -6 -14 -3 -1 0
14 6 1 7 8 18 3 21 15 0
12 22 10 3 7 9 6 15 1 0
-6 -19 -10 -9 -20 -12 -7 -3 -1 0
12 6 3 15 7 14 1 9 22 0
-6 -11 -8 -3 -19 -20 -22 -16 -1 0
11 16 3 1 20 8 6 19 22 0
12 22 1 20 3 6 11 19 9 0
-22 -19 -11 -20 -3 -6 -16 -14 -1 0
-7 -22 -13 -11 -10 -3 -1 -16 -8 0
-19 -20 -10 -16 -3 -15 -7 -22 -1 0
20 13 3 8 19 11 14 1 10 0
-22 -1 -11 -14 -3 -20 -8 -15 -21 0
15 22 20 3 11 16 8 1 21 0
14 3 20 15 12 19 9 1 22 0
-22 -20 -13 -10 -3 -19 -16 -11 -1 0
15 10 20 3 13 16 1 19 22 0
-21 -4 -1 -5 -6 -7 -10 -20 -13 0
-6 -15 -18 -14 -20 -1 -4 -8 -7 0
14 6 1 15 4 18 20 7 8 0
-6 -20 -18 -1 -13 -15 -14 -7 -4 0
11 22 18 4 12 6 1 19 10 0
-7 -18 -13 -19 -12 -1 -4 -14 -22 0
9 8 4 1 21 16 12 13 20 0
-19 -4 -15 -14 -13 -12 -11 -10 -1 0
15 10 1 16 4 18 14 19 22 0
14 15 4 20 18 1 19 11 13 0
-6 -11 -8 -9 -20 -5 -12 -16 -1 0
-20 -5 -14 -10 -1 -6 -16 -13 -11 0
-19 -12 -13 -18 -11 -1 -5 -7 -21 0
-21 -12 -3 -14 -10 -8 -15 -2 -6 0
14 16 8 3 10 22 19 2 6 0
14 10 3 6 19 21 8 22 2 0
-6 -22 -12 -15 -14 -8 -19 -3 -2 0
-6 -14 -8 -13 -16 -20 -18 -3 -2 0
14 11 3 20 2 12 9 6 22 0
-22 -21 -13 -19 -9 -15 -6 -3 -2 0
15 10 2 18 3 7 16 8 20 0
14 12 2 3 7 11 9 16 21 0
14 10 3 21 7 12 2 19 22 0
15 13 11 3 7 2 19 21 22 0
-18 -2 -8 -10 -3 -19 -12 -9 -21 0
-12 -11 -3 -18 -10 -9 -13 -14 -2 0
-22 -19 -13 -14 -11 -16 -9 -3 -2 0
15 16 2 4 18 22 6 5 11 0
-14 -12 -13 -5 -18 -2 -22 -4 -8 0
-22 -4 -11 -15 -2 -5 -9 -10 -18 0
15 13 4 2 11 12 10 8 20 0
-2 -18 -12 -14 -11 -4 -15 -10 -16 0
-7 -22 -12 -8 -5 -2 -18 -21 -6 0
6 8 5 22 2 21 18 7 12 0
14 5 2 22 6 13 12 8 21 0
-6 -11 -18 -10 -15 -9 -16 -5 -2 0
-22 -21 -11 -10 -15 -2 -6 -5 -12 0
15 12 11 22 2 5 21 6 10 0
15 10 20 2 5 6 19 14 12 0
-6 -22 -12 -15 -16 -10 -21 -5 -2 0
-7 -22 -14 -12 -9 -21 -8 -5 -2 0
14 5 2 19 16 9 7 11 21 0
-22 -21 -9 -15 -8 -18 -10 -5 -2 0
14 5 22 8 10 2 11 20 16 0
-19 -14 -5 -13 -11 -16 -9 -20 -2 0
14 10 20 19 15 2 6 22 12 0
14 13 15 12 2 18 19 6 20 0
14 9 7 15 2 13 18 8 22 0
15 18 4 7 11 10 3 20 22 0
-20 -18 -13 -15 -12 -16 -9 -4 -3 0
8 13 3 9 6 5 12 15 21 0
-6 -11 -3 -8 -18 -22 -19 -16 -5 0
12 5 19 15 3 18 9 14 22 0
-22 -15 -13 -10 -12 -20 -19 -7 -3 0
-7 -5 -15 -10 -20 -14 -6 -11 -4 0
15 12 20 19 5 6 4 21 8 0
-21 -7 -12 -8 -16 -18 -11 -5 -4 0
15 11 20 4 7 19 5 9 21 0
15 5 21 4 7 19 20 13 11 0
-20 -21 -13 -12 -16 -18 -8 -5 -4 0
-19 -21 -14 -12 -16 -20 -9 -5 -4 0
-19 -4 -14 -15 -13 -12 -10 -11 -18 0
-6 -12 -13 -8 -9 -20 -5 -16 -21 0
-22 -1 -15 -13 -10 -3 -9 -16 -2 -7 0
-6 -4 -12 -9 -8 -19 -10 -7 -3 -1 0
-6 -11 -18 -8 -19 -21 -22 -7 -3 -1 0
8 1 22 18 3 7 19 11 6 21 0
15 9 1 18 3 19 16 21 6 22 0
-22 -15 -18 -19 -1 -21 -8 -7 -3 -9 0
-19 -21 -15 -16 -18 -22 -14 -11 -3 -1 0
-22 -21 -13 -19 -9 -7 -20 -6 -4 -1 0
-6 -22 -13 -12 -10 -20 -19 -21 -4 -1 0
15 3 7 8 20 21 2 22 18 10 0
15 22 20 18 3 12 2 7 16 21 0
-21 -9 -18 -2 -8 -16 -3 -22 -11 -20 0
14 8 3 21 11 20 18 10 2 22 0
15 13 2 18 22 9 7 16 20 10 0
-7 -18 -13 -12 -16 -10 -19 -8 -5 -3 0
14 12 3 15 10 18 19 6 9 22 0
15 16 3 12 10 14 21 19 22 8 0
-12 -22 -13 -18 -9 -20 -19 -7 -5 -4 0
15 19 4 20 16 5 18 10 8 22 0
6 15 4 21 10 20 11 13 7 22 0
15 16 7 10 11 18 6 19 22 4 0
