27 177
0 1
0 2
0 3
0 4
0 6
0 9
0 10
0 12
0 13
0 15
0 18
0 19
0 21
0 22
0 24
0 25
0 26
1 2
1 4
1 5
1 7
1 10
1 11
1 13
1 14
1 16
1 19
1 20
1 22
1 23
1 24
1 25
1 26
2 3
2 5
2 8
2 9
2 11
2 12
2 14
2 17
2 18
2 20
2 21
2 23
2 24
2 25
2 26
3 4
3 5
3 6
3 7
3 9
3 10
3 13
3 16
3 17
3 19
3 23
3 25
3 26
4 5
4 7
4 8
4 10
4 11
4 14
4 15
4 17
4 20
4 21
4 24
4 26
5 6
5 8
5 9
5 11
5 12
5 15
5 16
5 18
5 22
5 24
5 25
6 7
6 8
6 10
6 11
6 13
6 16
6 18
6 20
6 21
6 22
6 24
7 8
7 9
7 11
7 14
7 17
7 18
7 19
7 22
7 23
7 25
8 9
8 10
8 12
8 15
8 19
8 20
8 21
8 23
8 26
9 10
9 11
9 14
9 15
9 16
9 19
9 21
9 22
9 24
10 11
10 12
10 16
10 17
10 20
10 22
10 23
10 25
11 13
11 15
11 17
11 18
11 21
11 23
11 26
12 17
12 18
12 20
12 21
12 23
12 25
13 15
13 18
13 19
13 21
13 22
13 26
14 16
14 19
14 20
14 22
14 23
14 24
15 18
15 23
15 24
15 26
16 19
16 21
16 24
16 25
17 20
17 22
17 25
17 26
18 23
18 24
19 21
19 25
20 22
20 26
21 26
22 24
23 25
