p cnf 23197 9593
32 34 3 4 5 6 7 8 2 10 1 12 25 20 15 29 16 18 24 14 21 13 23 11 22 26 27 9 19 30 31 28 33 17 35 36 0
888 -24 0
-888 -25 0
892 -28 0
-892 -29 0
-577 1 2 3 4 5 6 7 8 0
-721 0
-578 9 14 11 12 10 13 15 0
578 -9 0
578 -10 0
578 -11 0
578 -13 0
578 -14 0
-722 1 0
-579 16 20 18 17 19 21 0
-723 9 2 0
723 -9 0
-580 22 23 25 24 26 0
580 -22 0
580 -24 0
-724 10 3 16 0
724 -10 0
724 -16 0
-581 28 27 29 30 0
581 -29 0
-725 11 4 22 17 0
725 -17 0
-582 32 31 33 0
-726 12 5 18 23 27 0
-583 34 35 0
583 -34 0
-727 13 6 19 24 28 31 0
727 -13 0
727 -19 0
727 -24 0
-584 36 0
32 34 7 -728 14 25 29 20 0
728 -20 0
728 -25 0
728 -29 0
728 -34 0
-585 0
-729 15 8 21 26 30 33 35 36 0
67 63 39 40 41 42 43 44 38 45 50 37 68 48 51 70 61 60 56 55 58 57 64 49 52 62 47 59 65 66 54 46 69 53 71 72 0
-37 900 0
-900 901 0
-901 902 0
-902 903 0
-903 904 0
-904 905 0
-905 906 0
-906 907 0
-45 908 0
-907 908 0
-46 909 0
-908 909 0
-908 -46 0
-47 910 0
-909 910 0
-909 -47 0
-48 911 0
-910 911 0
-49 912 0
-911 912 0
-911 -49 0
-50 913 0
-912 913 0
-912 -50 0
-913 914 0
-52 915 0
-914 915 0
-52 -914 0
-53 916 0
-915 916 0
-53 -915 0
-916 917 0
-55 918 0
-917 918 0
-55 -917 0
-56 919 0
-918 919 0
-56 -918 0
-919 920 0
-58 921 0
-920 921 0
-58 -920 0
-921 922 0
-60 923 0
-922 923 0
-922 -60 0
924 -61 0
924 -923 0
-923 -61 0
925 -924 0
926 -925 0
927 -64 0
927 -926 0
-64 -926 0
928 -927 0
-65 -927 0
929 -928 0
930 -929 0
931 -930 0
932 -931 0
-70 -932 0
-586 37 38 39 40 41 42 43 44 0
-730 0
-587 51 45 50 49 47 46 48 0
-45 587 0
-46 587 0
-47 587 0
-49 587 0
587 -50 0
-731 37 0
-588 54 52 56 57 55 53 0
-52 588 0
-55 588 0
-732 45 38 0
732 -45 0
60 58 61 62 59 -589 0
-58 589 0
-60 589 0
589 -61 0
-733 46 39 52 0
-590 63 64 66 65 0
590 -64 0
-734 47 40 58 53 0
734 -47 0
-53 734 0
-58 734 0
-591 67 68 69 0
-735 63 41 48 54 59 0
-592 70 71 0
67 60 42 -736 64 49 55 0
-49 736 0
-55 736 0
736 -60 0
-64 736 0
-593 72 0
68 56 43 -737 65 61 70 50 0
-50 737 0
-56 737 0
737 -61 0
-65 737 0
-70 737 0
-594 0
-738 57 44 62 51 66 69 71 72 0
-51 738 0
-57 738 0
-62 738 0
-66 738 0
-69 738 0
-71 738 0
-72 738 0
101 108 75 76 77 78 79 80 74 73 104 92 97 106 87 84 90 81 91 85 93 94 95 96 89 98 99 83 88 102 103 100 105 86 107 82 0
-81 943 0
-82 944 0
-943 944 0
-82 -943 0
-83 945 0
-944 945 0
-83 -944 0
-945 946 0
-85 947 0
-946 947 0
-85 -946 0
-86 948 0
-947 948 0
-86 -947 0
-948 949 0
-88 950 0
-949 950 0
-88 -949 0
-89 951 0
-950 951 0
-951 952 0
-91 953 0
-952 953 0
-91 -952 0
954 -92 0
-953 954 0
-953 -92 0
-954 955 0
-94 956 0
-955 956 0
-94 -955 0
-956 957 0
-96 958 0
-957 958 0
-96 -957 0
959 -97 0
-958 959 0
-97 -958 0
-959 960 0
-960 961 0
-100 962 0
-961 962 0
-100 -961 0
963 -101 0
-962 963 0
-962 -101 0
-963 964 0
-964 965 0
966 -104 0
966 -965 0
-965 -104 0
967 -966 0
-106 -967 0
-595 73 74 75 76 77 78 79 80 0
-739 0
-596 87 81 84 82 86 83 85 0
-81 596 0
-82 596 0
-83 596 0
-85 596 0
-86 596 0
-740 73 0
-597 88 92 90 91 89 93 0
-88 597 0
-89 597 0
-91 597 0
597 -92 0
-741 81 74 0
-598 96 97 95 94 98 0
-742 82 75 88 0
-599 100 99 101 102 0
-743 83 76 94 89 0
-83 743 0
-600 104 103 105 0
600 -104 0
-744 84 77 90 95 99 0
-601 106 107 0
601 -106 0
-745 85 78 100 103 91 96 0
-85 745 0
-100 745 0
-602 108 0
92 -746 79 104 101 86 97 106 0
-86 746 0
746 -92 0
-97 746 0
-101 746 0
746 -104 0
-106 746 0
-603 0
102 -747 80 108 93 87 105 107 98 0
142 144 111 112 113 114 115 116 110 109 118 123 140 126 137 117 139 122 132 133 129 121 128 131 120 134 135 136 127 138 119 125 141 130 143 124 0
-109 970 0
-970 971 0
-971 972 0
-972 973 0
-973 974 0
-974 975 0
-975 976 0
-976 977 0
-117 978 0
-977 978 0
-118 979 0
-978 979 0
-118 -978 0
-119 980 0
-979 980 0
-119 -979 0
-120 981 0
-980 981 0
-120 -980 0
-121 982 0
-981 982 0
-121 -981 0
-122 983 0
-982 983 0
-122 -982 0
-983 984 0
-124 985 0
-984 985 0
-124 -984 0
-125 986 0
-985 986 0
-125 -985 0
-986 987 0
-126 -986 0
-127 988 0
-987 988 0
-127 -987 0
-128 989 0
-988 989 0
-128 -988 0
-989 990 0
-129 -989 0
-130 991 0
-990 991 0
-130 -990 0
-991 992 0
-131 -991 0
-132 993 0
-992 993 0
-132 -992 0
-133 994 0
-993 994 0
-133 -993 0
-994 995 0
-134 -994 0
-995 996 0
-135 -995 0
-136 997 0
-996 997 0
-136 -996 0
-137 998 0
-997 998 0
-137 -997 0
-138 999 0
-998 999 0
-138 -998 0
-999 1000 0
-139 -999 0
-140 1001 0
-1000 1001 0
-1000 -140 0
-141 1002 0
-1001 1002 0
-141 -1001 0
-142 1003 0
-1002 1003 0
-1002 -142 0
-1003 1004 0
-143 -1003 0
-1004 -144 0
-604 109 110 111 112 113 114 115 116 0
-748 0
-605 118 123 120 119 122 121 117 0
-117 605 0
-118 605 0
-119 605 0
605 -120 0
-121 605 0
-122 605 0
-123 605 0
-749 109 0
749 -109 0
-606 126 127 129 124 125 128 0
-124 606 0
-125 606 0
-126 606 0
-127 606 0
-750 117 110 0
-607 131 132 134 133 130 0
-130 607 0
-132 607 0
-751 118 111 124 0
751 -118 0
-124 751 0
-608 135 138 136 137 0
-136 608 0
-752 119 112 130 125 0
752 -119 0
-125 752 0
-609 139 141 140 0
-139 609 0
-140 609 0
120 -753 113 126 135 131 0
753 -120 0
-126 753 0
-131 753 0
-135 753 0
-610 142 143 0
-754 121 114 139 136 127 132 0
-611 144 0
611 -144 0
122 142 115 -755 140 128 137 133 0
-122 755 0
-133 755 0
-137 755 0
755 -140 0
755 -142 0
-612 0
134 -756 116 144 129 143 123 138 141 0
-123 756 0
-141 756 0
-143 756 0
-144 756 0
176 162 147 148 149 150 151 152 146 145 173 175 157 158 159 155 161 154 163 164 165 166 167 168 169 170 171 172 153 174 160 180 177 178 179 156 0
-153 1013 0
-154 1014 0
-1013 1014 0
-154 -1013 0
-155 1015 0
-1014 1015 0
-1014 -155 0
-156 1016 0
-1015 1016 0
-157 1017 0
-1016 1017 0
-1016 -157 0
-1017 1018 0
-1018 1019 0
-160 1020 0
-1019 1020 0
-160 -1019 0
-161 1021 0
-1020 1021 0
-161 -1020 0
-1021 1022 0
-163 1023 0
-1022 1023 0
-163 -1022 0
-1023 1024 0
-165 1025 0
-1024 1025 0
-166 1026 0
-1025 1026 0
-166 -1025 0
-167 1027 0
-1026 1027 0
-167 -1026 0
-168 1028 0
-1027 1028 0
-168 -1027 0
1029 -169 0
-1028 1029 0
-1029 1030 0
-171 1031 0
-1030 1031 0
-171 -1030 0
-172 1032 0
-1031 1032 0
-172 -1031 0
1033 -173 0
1033 -1032 0
-174 1034 0
1034 -1033 0
-175 1035 0
-175 -1034 0
1036 -176 0
-1035 1036 0
-1035 -176 0
1037 -1036 0
1038 -1037 0
1039 -1038 0
-1039 -180 0
-613 145 146 147 148 149 150 151 152 0
-757 0
-614 154 159 157 155 156 158 153 0
-153 614 0
-154 614 0
-155 614 0
-157 614 0
-758 145 0
-615 163 162 164 160 161 165 0
-160 615 0
-161 615 0
-163 615 0
-759 153 146 0
-616 166 169 170 168 167 0
-760 154 147 160 0
-617 172 173 174 171 0
-761 166 148 155 161 0
-618 176 175 177 0
618 -176 0
-762 171 149 162 167 156 0
762 -162 0
-619 178 179 0
619 -178 0
-763 157 150 163 175 172 168 0
-620 180 0
620 -180 0
-764 173 151 169 178 158 176 164 0
764 -176 0
-621 0
177 -765 152 180 170 174 159 179 165 0
-165 765 0
-174 765 0
-179 765 0
-180 765 0
191 190 183 184 185 186 187 188 182 216 203 202 181 194 195 196 205 197 198 200 201 199 193 204 192 206 207 208 209 210 211 212 213 214 215 189 0
-622 181 182 183 184 185 186 187 188 0
-766 0
-623 190 189 191 192 193 194 195 0
-189 623 0
623 -190 0
-191 623 0
-192 623 0
-193 623 0
-194 623 0
-767 181 0
-624 196 201 200 199 198 197 0
-768 189 182 0
-625 202 203 204 205 206 0
-769 190 183 196 0
-626 208 207 209 210 0
-770 191 184 202 197 0
-627 211 213 212 0
-771 192 185 203 198 207 0
-628 214 215 0
-772 193 186 208 199 204 211 0
772 -193 0
-199 772 0
-204 772 0
-208 772 0
-211 772 0
-629 216 0
629 -216 0
-773 212 187 200 209 214 205 194 0
-205 773 0
-209 773 0
-212 773 0
-630 0
-774 210 188 216 195 201 213 215 206 0
-216 774 0
248 229 219 220 221 222 223 224 218 232 225 217 247 230 231 228 233 234 235 236 237 238 239 240 241 242 243 244 245 246 226 250 249 227 251 252 0
1075 -217 0
1076 -1075 0
1077 -1076 0
1078 -1077 0
1079 -1078 0
-1079 1080 0
-1080 1081 0
-1081 1082 0
-225 1083 0
-1082 1083 0
-226 1084 0
-1083 1084 0
-227 1085 0
-1084 1085 0
-228 1086 0
-1085 1086 0
-229 1087 0
-1086 1087 0
-1087 1088 0
1089 -1088 0
-232 1090 0
1090 -1089 0
-233 1091 0
1091 -1090 0
-234 1092 0
1092 -1091 0
1093 -1092 0
1094 -1093 0
1095 -1094 0
1096 -1095 0
1097 -1096 0
1098 -1097 0
1099 -1098 0
1100 -1099 0
1101 -1100 0
1102 -1101 0
1103 -1102 0
1104 -1103 0
1105 -1104 0
-247 -1104 0
-248 1106 0
1106 -1105 0
-248 -1105 0
1107 -1106 0
-250 -1107 0
-631 217 218 219 220 221 222 223 224 0
-775 0
-632 229 230 231 228 227 225 226 0
-225 632 0
-776 217 0
-633 232 235 234 233 236 237 0
-777 225 218 0
-778 226 219 232 0
-636 247 249 248 0
636 -248 0
-780 228 221 234 243 239 0
-637 251 250 0
637 -250 0
-781 229 222 244 247 240 235 0
-235 781 0
-247 781 0
-638 252 0
-782 250 223 236 241 245 230 248 0
-639 0
-783 242 224 231 237 246 249 251 252 0
261 284 255 256 257 258 259 260 254 253 283 265 286 266 267 264 269 270 271 272 273 274 275 276 277 278 279 280 281 282 263 268 285 262 287 288 0
1110 -253 0
1111 -1110 0
1112 -1111 0
1113 -1112 0
1114 -1113 0
1115 -1114 0
1116 -1115 0
1117 -1116 0
-261 1118 0
1118 -1117 0
-262 1119 0
1119 -1118 0
-262 -1118 0
-263 1120 0
1120 -1119 0
-263 -1119 0
-264 1121 0
1121 -1120 0
-264 -1120 0
-265 1122 0
1122 -1121 0
1123 -1122 0
1124 -1123 0
1125 -1124 0
-268 -1124 0
1126 -1125 0
-269 -1125 0
-270 1127 0
1127 -1126 0
-270 -1126 0
1128 -1127 0
-271 -1127 0
1129 -1128 0
1130 -1129 0
1131 -1130 0
-274 -1130 0
-275 1132 0
1132 -1131 0
-275 -1131 0
1133 -1132 0
-276 -1132 0
1134 -1133 0
1135 -1134 0
-279 1136 0
1136 -1135 0
-279 -1135 0
1137 -1136 0
-280 -1136 0
1138 -1137 0
1139 -1138 0
-283 1140 0
1140 -1139 0
-283 -1139 0
1141 -284 0
1141 -1140 0
-284 -1140 0
1142 -1141 0
-286 -1142 0
-640 253 254 255 256 257 258 259 260 0
640 -253 0
-784 0
-641 261 266 265 264 263 262 267 0
-261 641 0
-265 641 0
-785 253 0
785 -253 0
-642 268 272 269 270 271 273 0
-786 261 254 0
-643 274 277 275 276 278 0
-787 262 255 268 0
-788 263 256 274 269 0
-645 283 285 284 0
-789 264 257 279 275 270 0
-646 287 286 0
-286 646 0
-790 276 258 283 265 280 271 0
-271 790 0
-276 790 0
790 -283 0
-647 288 0
-791 277 259 284 286 281 266 272 0
-284 791 0
-286 791 0
-648 0
-792 267 260 273 278 282 285 287 288 0
303 302 291 292 293 294 295 296 290 322 308 319 320 317 297 298 299 306 300 289 307 310 311 312 313 309 315 316 314 318 304 305 321 301 323 324 0
-289 1145 0
-1145 1146 0
-1146 1147 0
-1147 1148 0
-1148 1149 0
-1149 1150 0
-1150 1151 0
-1151 1152 0
-297 1153 0
-1152 1153 0
-297 -1152 0
-298 1154 0
-1153 1154 0
-299 1155 0
-1154 1155 0
-300 1156 0
-1155 1156 0
-301 1157 0
-1156 1157 0
-301 -1156 0
-1157 1158 0
1159 -1158 0
-304 1160 0
1160 -1159 0
-305 1161 0
1161 -1160 0
-306 1162 0
1162 -1161 0
-306 -1161 0
-307 1163 0
1163 -1162 0
-307 -1162 0
1164 -1163 0
1165 -1164 0
1166 -1165 0
1167 -1166 0
-311 -1166 0
-312 1168 0
1168 -1167 0
-312 -1167 0
1169 -1168 0
1170 -1169 0
-315 1171 0
1171 -1170 0
-315 -1170 0
-316 1172 0
1172 -1171 0
-316 -1171 0
1173 -1172 0
1174 -1173 0
-319 1175 0
1175 -1174 0
-319 -1174 0
-320 1176 0
1176 -1175 0
-320 -1175 0
1177 -1176 0
-322 -1177 0
-649 289 290 291 292 293 294 295 296 0
-289 649 0
-793 0
-650 302 297 301 300 299 303 298 0
-297 650 0
-299 650 0
-300 650 0
-794 289 0
-651 309 304 308 306 307 305 0
-795 297 290 0
-652 310 314 312 313 311 0
-796 304 291 298 0
-653 317 318 315 316 0
-797 305 292 310 299 0
-654 319 321 320 0
-320 654 0
-798 300 293 311 315 306 0
-655 323 322 0
-799 301 294 312 319 307 316 0
-301 799 0
-319 799 0
-656 324 0
-800 302 295 322 320 308 313 317 0
-320 800 0
-322 800 0
-657 0
-801 303 296 318 309 314 321 323 324 0
334 358 327 328 329 330 331 332 326 355 350 360 333 325 339 340 341 342 343 344 354 346 347 348 349 338 351 352 337 357 356 336 359 335 353 345 0
-325 1180 0
-1180 1181 0
-1181 1182 0
-1182 1183 0
-1183 1184 0
-1184 1185 0
-1185 1186 0
-1186 1187 0
-333 1188 0
-1187 1188 0
-334 1189 0
-1188 1189 0
-335 1190 0
-1189 1190 0
-336 1191 0
-1190 1191 0
-336 -1190 0
-337 1192 0
-1191 1192 0
-337 -1191 0
-338 1193 0
-1192 1193 0
-339 1194 0
-1193 1194 0
-340 1195 0
-1194 1195 0
-340 -1194 0
-341 1196 0
-1195 1196 0
-341 -1195 0
-342 1197 0
-1196 1197 0
-342 -1196 0
-343 1198 0
-1197 1198 0
-343 -1197 0
-1198 1199 0
-1199 1200 0
-346 1201 0
-1200 1201 0
-346 -1200 0
-347 1202 0
-1201 1202 0
-347 -1201 0
-1202 1203 0
-348 -1202 0
-1203 1204 0
1205 -1204 0
-351 1206 0
1206 -1205 0
-351 -1205 0
-352 1207 0
1207 -1206 0
-352 -1206 0
1208 -1207 0
1209 -1208 0
1210 -355 0
1210 -1209 0
-355 -1209 0
-356 1211 0
1211 -1210 0
-356 -1210 0
1212 -1211 0
-358 -1212 0
-658 325 326 327 328 329 330 331 332 0
-325 658 0
-802 0
337 338 -659 333 336 334 335 339 0
-336 659 0
-803 325 0
-325 803 0
-660 340 345 342 341 343 344 0
-804 333 326 0
-661 346 350 347 349 348 0
-805 340 327 334 0
352 354 -662 351 353 0
-806 346 328 335 341 0
-663 355 357 356 0
663 -355 0
-356 663 0
-807 336 329 351 342 347 0
-664 358 359 0
-358 664 0
337 -808 330 355 348 352 343 0
808 -355 0
-665 360 0
338 358 331 356 349 353 344 -809 0
-356 809 0
-358 809 0
-666 0
-810 360 332 339 350 357 359 345 354 0
369 389 363 364 365 366 367 368 362 361 392 391 394 376 374 373 377 378 379 375 381 382 383 384 385 386 387 388 380 390 372 371 393 370 395 396 0
1215 -361 0
1216 -1215 0
1217 -1216 0
1218 -1217 0
1219 -1218 0
1220 -1219 0
1221 -1220 0
1222 -1221 0
-369 1223 0
1223 -1222 0
-370 1224 0
1224 -1223 0
-371 1225 0
1225 -1224 0
-372 1226 0
1226 -1225 0
-1225 -372 0
-373 1227 0
1227 -1226 0
-373 -1226 0
1228 -1227 0
1229 -1228 0
-376 1230 0
1230 -1229 0
-376 -1229 0
-377 1231 0
1231 -1230 0
-377 -1230 0
-378 1232 0
1232 -1231 0
-378 -1231 0
-379 1233 0
1233 -1232 0
-379 -1232 0
1234 -1233 0
1235 -1234 0
-382 1236 0
1236 -1235 0
-383 1237 0
1237 -1236 0
-383 -1236 0
1238 -1237 0
-384 -1237 0
1239 -1238 0
1240 -1239 0
-387 1241 0
1241 -1240 0
-387 -1240 0
1242 -1241 0
-388 -1241 0
1243 -1242 0
1244 -1243 0
1245 -391 0
1245 -1244 0
-391 -1244 0
-392 1246 0
1246 -1245 0
-392 -1245 0
1247 -1246 0
-394 -1247 0
-667 361 362 363 364 365 366 367 368 0
667 -361 0
-811 0
-668 369 374 372 373 371 370 375 0
-371 668 0
-812 361 0
812 -361 0
-669 376 379 380 378 377 381 0
669 -379 0
-813 369 362 0
-670 382 384 383 385 386 0
-814 370 363 376 0
-671 389 387 390 388 0
-815 371 364 382 377 0
-672 391 393 392 0
672 -391 0
-392 672 0
-816 372 365 387 378 383 0
-673 394 395 0
673 -394 0
-817 373 366 388 391 379 384 0
-391 817 0
-674 396 0
-818 374 367 389 394 380 385 392 0
-392 818 0
-394 818 0
-675 0
-819 375 368 396 386 390 393 395 381 0
432 413 399 400 401 402 403 404 398 397 428 430 427 410 411 405 409 414 415 416 417 418 419 420 421 422 423 424 425 426 406 407 429 408 431 412 0
-397 1250 0
-1250 1251 0
-1251 1252 0
-1252 1253 0
-1253 1254 0
-1254 1255 0
-1255 1256 0
-1256 1257 0
-405 1258 0
-1257 1258 0
-406 1259 0
-1258 1259 0
-407 1260 0
-1259 1260 0
-408 1261 0
-1260 1261 0
-409 1262 0
-1261 1262 0
-409 -1261 0
-410 1263 0
-1262 1263 0
-411 1264 0
-1263 1264 0
-1264 1265 0
-1265 1266 0
-414 1267 0
-1266 1267 0
-415 1268 0
-1267 1268 0
-415 -1267 0
-1268 1269 0
-1269 1270 0
-1270 1271 0
-419 1272 0
-1271 1272 0
-420 1273 0
-1272 1273 0
-420 -1272 0
-1273 1274 0
1275 -1274 0
-423 1276 0
1276 -1275 0
-424 1277 0
1277 -1276 0
-424 -1276 0
1278 -1277 0
1279 -1278 0
-427 1280 0
1280 -1279 0
-427 -1279 0
1281 -428 0
1281 -1280 0
-428 -1280 0
1282 -1281 0
-430 -1282 0
-676 397 398 399 400 401 402 403 404 0
-397 676 0
-820 0
-677 405 408 407 406 409 410 411 0
-408 677 0
-409 677 0
-821 397 0
-678 412 415 414 413 416 417 0
-822 405 398 0
-679 420 418 419 421 422 0
-823 412 399 406 0
-680 426 423 425 424 0
-824 418 400 407 413 0
-681 427 429 428 0
681 -428 0
-825 408 401 423 419 414 0
-682 430 431 0
-430 682 0
-826 409 402 427 420 424 415 0
-427 826 0
-683 432 0
421 -827 403 428 416 425 410 430 0
-428 827 0
-430 827 0
-684 0
-828 432 404 411 422 426 429 431 417 0
441 442 435 436 437 438 439 440 434 433 468 466 464 449 448 447 446 450 451 452 453 454 455 456 457 458 459 460 461 462 445 463 465 444 467 443 0
1285 -433 0
1286 -1285 0
1287 -1286 0
1288 -1287 0
1289 -1288 0
1290 -1289 0
1291 -1290 0
1292 -1291 0
1293 -441 0
1293 -1292 0
-1292 -441 0
-442 1294 0
1294 -1293 0
-443 1295 0
1295 -1294 0
-444 1296 0
1296 -1295 0
-445 1297 0
1297 -1296 0
1298 -1297 0
1299 -1298 0
1300 -1299 0
-448 -1299 0
1301 -1300 0
-449 -1300 0
1302 -1301 0
-450 -1301 0
1303 -1302 0
-451 -1302 0
1304 -1303 0
1305 -1304 0
1306 -1305 0
-454 -1305 0
1307 -1306 0
-455 -1306 0
1308 -1307 0
-456 -1307 0
1309 -1308 0
1310 -1309 0
1311 -1310 0
-459 -1310 0
1312 -1311 0
-460 -1311 0
1313 -1312 0
1314 -1313 0
1315 -463 0
1315 -1314 0
-463 -1314 0
-464 1316 0
1316 -1315 0
-464 -1315 0
1317 -1316 0
-466 -1317 0
-685 433 434 435 436 437 438 439 440 0
-829 0
-686 441 443 442 444 445 446 447 0
-445 686 0
-830 433 0
-687 451 448 450 449 452 453 0
-451 687 0
-831 441 434 0
-688 457 454 455 456 458 0
-832 448 435 442 0
-689 461 459 460 462 0
-833 454 436 443 449 0
-690 463 465 464 0
690 -463 0
-464 690 0
-834 444 437 459 455 450 0
-691 466 467 0
-466 691 0
-835 445 438 456 451 460 463 0
835 -463 0
-692 468 0
-836 446 439 466 457 461 452 464 0
-464 836 0
-466 836 0
-693 0
-837 447 440 468 458 462 465 467 453 0
477 478 471 472 473 474 475 476 470 469 499 502 486 482 483 481 480 479 487 488 489 490 491 492 493 494 495 496 497 498 500 484 501 485 503 504 0
1320 -469 0
1321 -1320 0
1322 -1321 0
1323 -1322 0
1324 -1323 0
-1324 1325 0
-1325 1326 0
-1326 1327 0
1328 -477 0
-1327 1328 0
-478 1329 0
1329 -1328 0
-479 1330 0
1330 -1329 0
-480 1331 0
1331 -1330 0
-481 1332 0
1332 -1331 0
1333 -1332 0
1334 -1333 0
-484 1335 0
1335 -1334 0
-485 1336 0
1336 -1335 0
-486 1337 0
1337 -1336 0
-487 1338 0
1338 -1337 0
-487 -1337 0
1339 -1338 0
1340 -1339 0
1341 -1340 0
1342 -1341 0
1343 -1342 0
-1342 -492 0
1344 -1343 0
1345 -1344 0
1346 -1345 0
1347 -1346 0
-496 -1346 0
1348 -1347 0
1349 -1348 0
1350 -1349 0
-499 -1349 0
-500 1351 0
1351 -1350 0
-500 -1350 0
1352 -1351 0
-502 -1352 0
-694 469 470 471 472 473 474 475 476 0
-838 0
-695 477 481 478 480 479 482 483 0
695 -477 0
-481 695 0
-839 469 0
-696 487 484 486 485 488 489 0
-840 477 470 0
-697 490 492 491 493 494 0
-841 484 471 478 0
-698 496 495 497 498 0
490 485 472 479 -842 0
-485 842 0
-699 500 499 501 0
-499 699 0
-843 480 473 495 486 491 0
-480 843 0
-700 502 503 0
700 -502 0
-844 481 474 492 487 499 496 0
-481 844 0
-499 844 0
-701 504 0
-845 482 475 493 500 497 488 502 0
845 -502 0
-702 0
-846 501 476 504 494 498 483 503 489 0
513 540 507 508 509 510 511 512 506 505 536 523 532 521 519 518 535 522 538 524 525 526 527 528 529 530 531 517 533 534 520 516 537 515 539 514 0
-513 1363 0
-514 1364 0
-1363 1364 0
-515 1365 0
-1364 1365 0
-516 1366 0
-1365 1366 0
-517 1367 0
-1366 1367 0
-1366 -517 0
-1367 1368 0
-1368 1369 0
-1369 1370 0
-520 -1369 0
-1370 1371 0
-521 -1370 0
-1371 1372 0
-522 -1371 0
-1372 1373 0
-523 -1372 0
-1373 1374 0
-1374 1375 0
-1375 1376 0
-1376 1377 0
-1377 1378 0
-528 -1377 0
-1378 1379 0
-1379 1380 0
-1380 1381 0
-1381 1382 0
-532 -1381 0
-1382 1383 0
-1383 1384 0
-1384 -535 0
1386 -536 0
1387 -1386 0
-538 -1387 0
-703 505 506 507 508 509 510 511 512 0
-847 0
-704 517 518 516 515 514 513 519 0
704 -513 0
-515 704 0
-516 704 0
-517 704 0
-848 505 0
-705 520 523 521 522 524 525 0
-522 705 0
-523 705 0
-849 513 506 0
849 -513 0
-706 526 527 528 529 530 0
-528 706 0
-850 520 507 514 0
-514 850 0
-707 532 531 533 534 0
707 -531 0
707 -532 0
-851 526 508 515 521 0
536 -708 535 537 0
-852 516 509 531 522 527 0
-516 852 0
-522 852 0
-531 852 0
-709 538 539 0
709 -538 0
-853 528 510 517 523 535 532 0
853 -517 0
853 -523 0
853 -528 0
853 -532 0
-710 540 0
-854 538 511 518 536 533 529 524 0
854 -538 0
-711 0
-855 537 512 540 530 534 519 539 525 0
541 549 543 544 545 546 547 548 542 554 573 559 553 556 555 552 558 560 564 562 561 563 565 567 568 566 569 551 572 570 571 574 557 550 575 576 0
1398 -549 0
1399 -1398 0
1400 -1399 0
1401 -552 0
1401 -1400 0
1402 -553 0
1402 -1401 0
1403 -554 0
1403 -1402 0
-555 1404 0
1404 -1403 0
1405 -1404 0
-1404 -556 0
1406 -1405 0
-1405 -557 0
1407 -1406 0
-1406 -558 0
1408 -559 0
-1407 -559 0
1409 -1408 0
1410 -1409 0
1411 -1410 0
-1410 -562 0
1412 -1411 0
1413 -1412 0
-1412 -564 0
1414 -1413 0
1415 -1414 0
1416 -1415 0
-1416 -568 0
-712 541 542 543 544 545 546 547 548 0
-856 0
-713 549 554 551 552 553 550 555 0
-857 541 0
-714 556 557 560 558 559 561 0
-858 549 542 0
858 -549 0
-715 562 563 565 564 566 0
-859 550 543 556 0
859 -550 0
-716 568 569 567 570 0
716 -567 0
-860 551 544 562 557 0
860 -551 0
-717 572 573 571 0
-861 552 545 567 558 563 0
861 -552 0
861 -558 0
861 -563 0
861 -567 0
-718 574 575 0
-862 553 546 564 571 559 568 0
862 -559 0
862 -571 0
-719 576 0
-863 554 547 560 569 572 565 574 0
-720 0
-864 576 548 573 566 570 555 575 561 0
-1426 578 722 0
-1427 723 579 0
-1428 724 580 0
-1429 725 581 0
-1430 582 726 0
-1431 583 727 0
-1432 728 584 0
-1433 729 585 0
-1428 -10 0
-1428 -22 0
-1429 -22 0
-1428 -25 0
-1429 -29 0
-1432 -29 0
-1435 731 1426 587 0
-1436 732 1427 588 0
-1437 589 1428 733 0
-1438 590 1429 734 0
-1439 591 1430 735 0
-1440 736 1431 592 0
-1432 1441 -737 0
738 -1442 594 1433 0
-1437 -61 1432 0
-1441 -61 1428 1432 0
-1438 -65 1432 0
-1441 -65 1432 1429 0
-1444 1435 740 596 0
-1445 741 1436 597 0
-1446 1437 742 598 0
-1447 1438 599 743 0
-1448 1439 -600 0
-1449 1440 745 601 0
-1441 1450 602 746 0
-1441 1450 -746 0
747 -1451 1442 603 0
-1450 1441 -104 1439 0
-1453 1444 605 749 0
-1454 606 1445 750 0
-1455 1446 751 607 0
-1457 1448 609 753 0
-1458 1449 754 610 0
-1450 1459 611 755 0
-1450 1459 -755 0
-1460 756 1451 612 0
-1458 -139 1449 1448 0
-1458 1450 -142 0
-1459 -144 1451 0
-1450 1460 -144 0
-1467 1458 763 619 0
-1459 1468 620 764 0
-1459 1468 -764 0
765 -1460 1469 621 0
-1466 1459 -176 0
-1459 1469 -180 0
-1475 1466 771 627 0
-1476 1467 628 772 0
774 -1469 1478 630 0
-1469 1478 -774 0
-1477 1469 -216 0
-1468 1478 -216 0
-1486 1477 638 782 0
783 -1478 1487 639 0
-1485 -247 1476 1475 0
-1476 -250 1486 0
-1486 1495 647 791 0
-1495 1486 647 791 0
792 -1487 1496 648 0
-1487 -792 1496 0
-1495 1504 656 800 0
801 -1496 1505 657 0
-1504 1513 665 809 0
-1504 1513 -809 0
810 -1505 1514 666 0
-1503 -358 1513 0
-1513 1522 674 818 0
819 -1514 1523 675 0
-1530 1521 -682 0
-1522 1531 683 827 0
828 -1523 1532 684 0
-1521 -430 1531 0
-1531 1540 692 836 0
837 -1532 1541 693 0
-1540 1549 701 845 0
846 -1541 1550 702 0
-1549 710 1558 854 0
855 -1550 1559 711 0
-1557 -862 0
-1558 863 719 0
-1558 -863 0
864 -1559 720 0
-1553 -559 0
577 -1560 721 0
-1561 578 722 0
-1561 -578 0
-1562 723 579 0
-579 -1562 0
1563 724 580 0
-724 1563 0
-1564 725 581 0
-581 -1564 0
-1565 582 726 0
-1566 727 583 0
-1566 -583 0
-1567 728 584 0
-1568 729 585 0
-1562 -9 0
-1564 -11 0
-1566 -13 0
-1567 -14 0
-1564 -17 0
-1566 -19 0
-1567 -20 0
-1563 -22 0
1564 -22 0
-1563 -24 0
1566 -24 0
-1563 -25 0
1567 -25 0
-1566 -28 0
-1564 -29 0
-1567 -29 0
-1567 -32 0
-1567 -34 0
586 -1569 1560 730 0
-1570 731 1561 587 0
-1570 -587 1561 0
-1571 732 1562 588 0
-588 -1571 1562 0
-1572 1563 733 589 0
-1572 1563 -589 0
1573 -1564 590 734 0
-1573 590 1564 734 0
-1573 -590 1564 0
-734 1573 -1564 0
-1574 591 1565 735 0
-1566 1575 592 736 0
-1575 736 1566 592 0
-592 -1575 1566 0
-736 -1566 1575 0
-1567 1576 593 737 0
-1576 593 1567 737 0
-593 -1576 1567 0
-1567 1576 -737 0
738 -1577 594 1568 0
-37 1561 -1569 0
-1571 -45 1561 1562 0
-1572 -46 1561 1563 0
-1573 -47 1561 1564 0
-49 -1575 1561 1566 0
-50 -1576 1561 1567 0
-1572 -52 1562 1563 0
-1573 -53 1562 1564 0
-55 -1575 1562 1566 0
-56 -1576 1567 1562 0
-1572 -58 1564 0
-58 1573 -1563 0
-58 -1573 1563 1564 0
-1572 -60 1566 0
1575 -60 -1563 0
-1575 1563 -60 1566 0
-1572 -61 1567 0
1576 -61 -1563 0
-61 1563 -1576 1567 0
-1573 -64 1566 0
-64 -1564 1575 0
-64 -1575 1566 1564 0
-1573 -65 1567 0
-65 -1564 1576 0
-65 -1576 1567 1564 0
-68 -1576 1567 1565 0
-70 -1575 1567 0
-70 -1566 1576 0
-70 -1576 1567 1566 0
-72 -1576 1568 0
-1577 -72 1567 1568 0
595 -1578 1569 739 0
-1579 1570 596 740 0
-596 -1579 1570 0
-1580 597 1571 741 0
-1580 -597 1571 0
-1581 742 1572 598 0
-1581 -598 1572 0
-1582 1573 743 599 0
-599 -1582 1573 0
-1583 1574 600 744 0
-1583 1574 -600 0
-1584 1575 745 601 0
1584 -745 -1575 0
-1576 746 602 1585 0
-1585 1576 746 602 0
1585 -1576 -746 0
747 -1586 1577 603 0
-1579 -73 1570 1569 0
-1580 -81 1570 1571 0
-1581 -82 1570 1572 0
-83 -1582 1570 1573 0
-1584 -85 1570 1575 0
-86 1570 1576 -1585 0
-1581 -88 1571 1572 0
-89 -1582 1571 1573 0
-91 -1584 1571 1575 0
-92 1576 1571 -1585 0
-94 -1581 1573 0
-94 -1572 1582 0
-94 -1582 1572 1573 0
-96 -1581 1575 0
-96 -1584 1572 1575 0
-97 1576 1572 -1585 0
-100 -1582 1575 0
-100 -1573 1584 0
-1584 -100 1575 1573 0
-1582 -101 1576 0
-101 -1573 1585 0
-101 -1585 1576 1573 0
-1585 1576 -104 1574 0
-1584 -106 1576 0
-106 1575 -1585 1576 0
-1586 1576 -108 1577 0
604 -1587 1578 748 0
-1588 1579 605 749 0
-1588 1579 -605 0
-1589 606 1580 750 0
-1591 1582 752 608 0
-1592 1583 609 753 0
-1592 1583 -609 0
1593 -1584 610 754 0
-1585 1594 611 755 0
-1594 1585 755 611 0
1594 -1585 -755 0
756 -1595 1586 612 0
-122 1585 1579 -1594 0
-128 1585 1580 -1594 0
1581 -1594 1585 -133 0
-137 1582 -1594 1585 0
-1594 1585 -140 1583 0
1584 -1594 -142 1585 0
-1594 1586 -144 0
1585 -1595 1586 -144 0
613 -1596 1587 757 0
-613 -1596 1587 0
-1597 1588 614 758 0
-1597 -614 1588 0
-1601 1592 618 762 0
-1601 1592 -618 0
-1593 1602 619 763 0
-1594 1603 620 764 0
-1603 1594 764 620 0
765 -1604 1595 621 0
-1603 1592 1594 -176 0
-1603 -180 1595 0
1594 -180 1595 -1604 0
622 -1605 1596 766 0
-1606 1597 623 767 0
-1606 -623 1597 0
-1610 1601 771 627 0
-1612 1603 629 773 0
774 -1613 1604 630 0
-1602 -214 1612 0
-1612 -216 1604 0
-1613 1603 -216 1604 0
631 -1614 1605 775 0
-1615 1606 776 632 0
-1615 1606 -632 0
-1619 1610 780 636 0
-1620 1611 -637 0
-1612 1621 638 782 0
-1621 1612 638 782 0
783 -1622 1613 639 0
-1611 -250 1621 0
-1624 1615 785 641 0
-1624 1615 -641 0
-1619 1628 789 645 0
-1628 1619 645 789 0
-1621 1630 647 791 0
-1630 1621 647 791 0
-1621 1630 -791 0
792 -1631 1622 648 0
-1629 -283 1620 1619 0
-1620 -286 1630 0
-1633 1624 650 794 0
-1628 1637 654 798 0
-1637 1628 -654 0
-1638 1629 799 655 0
-1630 1639 656 800 0
-1639 1630 656 800 0
-1630 1639 -800 0
801 -1640 1631 657 0
-1638 1628 -319 1629 0
-1628 -320 1639 0
-1638 1630 -322 0
-1642 1633 659 803 0
-1642 1633 -659 0
1646 -1637 663 807 0
-1646 1637 663 807 0
-1646 1637 -663 0
-1647 1638 808 664 0
-1639 1648 665 809 0
-1648 1639 665 809 0
-1639 1648 -809 0
810 -1649 1640 666 0
-1637 1647 -355 0
-1647 -358 1639 0
-1655 1646 816 672 0
-1656 1647 817 673 0
-1656 1647 -673 0
-1648 1657 674 818 0
-1657 1648 674 818 0
819 -1658 1649 675 0
-1646 1656 -391 0
-1647 -394 1657 0
-1664 1655 825 681 0
-1665 1656 682 826 0
-1665 1656 -682 0
-1657 1666 683 827 0
-1666 1657 683 827 0
828 -1667 1658 684 0
-1656 -430 1666 0
-1666 1675 692 836 0
-1666 -836 1675 0
837 -1676 1667 693 0
-1664 -464 1675 0
-1674 -844 1683 0
-1675 1684 701 845 0
-1675 -845 1684 0
846 -1685 1676 702 0
-1673 -499 1683 0
-1674 -502 1684 0
-1683 853 1692 709 0
-1683 -853 1692 0
-1684 710 1693 854 0
-1694 855 1685 711 0
-1682 -535 1692 0
-1692 862 718 0
-1693 863 719 0
-1693 -863 0
864 1694 720 0
-1696 578 722 0
-1696 -578 0
-1697 723 579 0
-579 -1697 0
-1698 724 580 0
-580 -1698 0
1699 725 581 0
1699 -725 0
-1700 582 726 0
-1701 727 583 0
-1702 728 584 0
-1703 729 585 0
-1697 -9 0
-10 -1698 0
-1701 -13 0
-1702 -14 0
-16 -1698 0
-1701 -19 0
-1702 -20 0
-1701 -24 0
-1702 -25 0
-1699 -28 0
1701 -28 0
-1699 -29 0
1702 -29 0
-1702 -32 0
-1701 -34 0
-1702 -34 0
-1705 731 1696 587 0
-1705 -587 1696 0
-1706 732 1697 588 0
-588 -1706 1697 0
-1707 733 1698 589 0
-1707 -589 1698 0
1708 590 -1699 734 0
1699 -1708 734 590 0
-590 1699 -1708 0
1708 -734 -1699 0
-1709 591 1700 735 0
1710 -1701 592 736 0
-1710 736 1701 592 0
-1710 -592 1701 0
-1701 1710 -736 0
1711 -1702 737 593 0
-1711 593 1702 737 0
1711 -1702 -737 0
738 -1712 594 1703 0
-1706 -45 1696 1697 0
-1707 -46 1696 1698 0
1699 -1708 1696 -47 0
-1710 -49 1696 1701 0
-1705 -50 1702 0
-50 -1711 1696 1702 0
-52 -1707 1697 1698 0
-53 1699 1697 -1708 0
-1710 -55 1697 1701 0
-56 -1711 1702 1697 0
-58 1699 1698 -1708 0
-1710 -60 1698 1701 0
-1711 -61 1702 1698 0
-64 -1708 1701 0
-64 1710 -1699 0
-1710 -64 1699 1701 0
-65 -1708 1702 0
-65 1711 -1699 0
-65 1699 1702 -1711 0
-68 -1711 1702 1700 0
-1710 -70 1702 0
-1701 -70 1711 0
-70 -1711 1701 1702 0
-1714 1705 596 740 0
-596 -1714 1705 0
-1715 741 1706 597 0
-1715 -597 1706 0
-1716 742 1707 598 0
-1716 -598 1707 0
1717 -1708 743 599 0
-1717 1708 599 743 0
-1717 -599 1708 0
-743 1717 -1708 0
-1718 1709 600 744 0
-1718 1709 -600 0
-1719 1710 745 601 0
-601 -1719 1710 0
-1711 746 602 1720 0
746 -1720 602 1711 0
1720 -1711 -746 0
747 -1721 1712 603 0
-81 -1715 1705 1706 0
-1716 -82 1705 1707 0
-1717 -83 1705 1708 0
-1719 -85 1710 1705 0
-86 1705 1711 -1720 0
-1716 -88 1706 1707 0
-89 -1717 1706 1708 0
-91 -1719 1706 1710 0
-92 1706 1711 -1720 0
-94 -1717 1707 1708 0
-96 -1719 1707 1710 0
-97 -1720 1707 1711 0
-1717 -100 1710 0
-100 -1719 1708 1710 0
-1717 -101 1711 0
-101 -1708 1720 0
1708 -101 -1720 1711 0
1711 -104 -1720 1709 0
-1719 -106 1711 0
-106 -1720 1711 1710 0
-108 1712 -1720 0
-108 1711 -1721 1712 0
-1727 1718 609 753 0
1728 -1719 754 610 0
-1728 1719 754 610 0
1729 -1720 611 755 0
-1729 1720 755 611 0
1729 -755 -1720 0
756 -1730 1721 612 0
-122 1714 -1729 1720 0
-128 1720 1715 -1729 0
-133 1716 1720 -1729 0
-137 1717 1720 -1729 0
-1727 1720 -140 0
1718 -1729 -140 1720 0
1719 -1729 -142 1720 0
-1729 1721 -144 0
1720 -144 -1730 1721 0
-1728 1737 619 763 0
-1738 1729 620 764 0
765 -1739 1730 621 0
-1738 1727 1729 -176 0
1729 -180 -1739 1730 0
774 -1748 1739 630 0
-1737 -214 1747 0
-1747 -216 1739 0
1738 -216 -1748 1739 0
-1747 1756 638 782 0
-1756 1747 638 782 0
783 -1757 1748 639 0
-1756 1765 647 791 0
-1765 1756 647 791 0
792 -1766 1757 648 0
-1765 1774 656 800 0
801 -1775 1766 657 0
-1774 1783 665 809 0
810 -1784 1775 666 0
-1783 1792 674 818 0
819 -1793 1784 675 0
-1792 1801 683 827 0
828 -1802 1793 684 0
-1801 1810 692 836 0
837 -1811 1802 693 0
-1810 1819 701 845 0
846 -1820 1811 702 0
-1819 710 1828 854 0
1820 -1829 855 711 0
-1828 863 719 0
1829 864 720 0
-1831 578 722 0
-1832 723 579 0
-1833 724 580 0
-1834 725 581 0
1835 582 726 0
-1836 583 727 0
-1838 729 585 0
-1833 -25 0
-1837 -25 0
-1834 -29 0
-1837 -29 0
-1840 731 1831 587 0
-1841 732 1832 588 0
-1842 589 1833 733 0
-1843 590 1834 734 0
1844 591 -1835 735 0
-1845 736 1836 592 0
738 -1847 594 1838 0
-1842 -61 1837 0
-1846 -61 1833 1837 0
1853 -1844 600 744 0
747 -1856 1847 603 0
1855 -1844 -104 0
753 -1853 609 1862 0
-753 1862 -1853 0
-1855 1864 611 755 0
756 -1865 1856 612 0
1864 -140 -1853 0
1871 -1862 762 618 0
-1864 1873 620 764 0
765 -1874 1865 621 0
1873 -1862 -176 0
-1873 -180 1865 0
1864 -180 -1874 1865 0
-1871 1880 771 627 0
-1882 1873 773 629 0
774 -1883 1874 630 0
-1882 -216 1874 0
-1873 -216 1883 0
-1883 1873 1874 -216 0
1889 636 -1880 780 0
-1891 1882 638 782 0
783 1892 -1883 639 0
-1892 783 1883 639 0
1898 645 -1889 789 0
1891 647 -1900 791 0
792 -1892 1901 648 0
-1901 792 1892 648 0
1907 654 -1898 798 0
800 1909 656 -1900 0
-800 1909 -1900 0
801 -1901 1910 657 0
-1910 801 1901 657 0
-1908 1900 -322 0
1916 663 -1907 807 0
-1917 1908 664 808 0
810 -1910 1919 666 0
-1919 810 1910 666 0
1925 672 -1916 816 0
-1926 1917 673 817 0
819 -1919 1928 675 0
819 -1928 1919 675 0
1934 681 -1925 825 0
-1935 1926 682 826 0
828 -1937 1928 684 0
1943 690 -1934 834 0
837 -1946 1937 693 0
843 1952 -1943 699 0
-843 1952 -1943 0
846 -1955 1946 702 0
852 -1952 708 1961 0
-852 -1952 1961 0
1955 -1964 855 711 0
-1961 717 861 0
-1961 -861 0
1964 864 720 0
-1961 -571 0
-1961 -572 0
-1966 578 722 0
-1966 -578 0
-1967 723 579 0
-1967 -579 0
1968 724 580 0
1968 -724 0
-1969 725 581 0
-1971 727 583 0
-1972 728 584 0
-1973 729 585 0
-1967 -9 0
-1971 -13 0
-1971 -19 0
-1968 -22 0
-1968 -24 0
-1968 -25 0
-1971 -28 0
-1969 -29 0
-1972 -29 0
-1971 -34 0
-1975 731 1966 587 0
-1976 732 1967 588 0
-1976 -588 1967 0
1977 589 -1968 733 0
-1977 1968 733 589 0
-1977 1968 -589 0
-1978 -590 1969 0
-1980 736 1971 592 0
-1980 -592 1971 0
738 -1982 594 1973 0
-1976 -45 1966 1967 0
-1980 -49 1966 1971 0
-1977 -52 1967 1968 0
-1980 -55 1967 1971 0
-1980 1968 -60 1971 0
-1977 -61 1972 0
-1980 -64 1971 1969 0
-1978 -65 1972 0
-1984 1975 740 596 0
-1985 741 1976 597 0
-1986 1977 742 598 0
-1989 1980 745 601 0
-1989 -601 1980 0
747 -1991 1982 603 0
-1989 -85 1975 1980 0
-1989 -91 1980 1976 0
-1989 -96 1977 1980 0
-1989 -100 1978 1980 0
-1998 1989 754 610 0
756 -2000 1991 612 0
-1998 -121 1984 1989 0
-1997 1990 -140 0
-1999 1991 -144 0
1997 -2006 762 618 0
-2007 1998 763 619 0
-2008 1999 764 620 0
765 -2009 2000 621 0
-178 -2008 1998 1999 0
-2008 -180 2000 0
-2017 2008 773 629 0
2006 -212 2008 -2017 0
-2017 -214 2008 2007 0
-2017 2009 -216 0
-2026 2017 638 782 0
-2035 2026 647 791 0
-2044 2035 656 800 0
2034 2035 -322 -2044 0
-2053 2044 665 809 0
2062 -2053 674 818 0
2053 -2062 674 818 0
2062 -2071 683 827 0
2071 -2080 692 836 0
2080 -2089 701 845 0
2089 710 -2098 854 0
2098 863 719 0
-2101 578 722 0
-2102 723 579 0
-2103 724 580 0
2104 725 581 0
2104 -725 0
2105 582 726 0
-2106 583 727 0
-2108 729 585 0
-2106 -24 0
-2107 -25 0
2106 -28 0
-2104 -29 0
2107 -29 0
-2110 731 2101 587 0
-2111 732 2102 588 0
-2112 -589 2103 0
2113 590 -2104 734 0
-2113 2104 734 590 0
2113 -734 -2104 0
2114 591 -2105 735 0
2115 -2106 592 736 0
-2115 736 2106 592 0
2115 -2106 -736 0
2116 -2107 593 737 0
-2116 593 2107 737 0
-2107 2116 -737 0
738 -2117 594 2108 0
-2115 -60 2106 2103 0
2115 -64 -2104 0
2116 -65 -2104 0
-2119 2110 740 596 0
-2120 741 2111 597 0
-2121 2112 598 742 0
2122 -2113 599 743 0
-2122 2113 599 743 0
2122 -743 -2113 0
2123 -2114 600 744 0
2124 -2115 601 745 0
-2124 2115 745 601 0
-2124 -601 2115 0
2125 -2116 602 746 0
2125 -2116 -746 0
747 -2126 2117 603 0
-100 2124 -2113 0
2125 -101 -2113 0
2123 -2116 -104 -2114 0
2125 -2114 -104 0
-2124 -106 2116 0
-2115 -106 2125 0
-2128 2119 605 749 0
-2129 606 2120 750 0
-2130 2121 751 607 0
-2131 2122 752 608 0
2132 -2123 609 753 0
2132 -2123 -753 0
2133 -2124 754 610 0
-2133 2124 754 610 0
-2125 2134 611 755 0
-2125 2134 -755 0
756 -2135 2126 612 0
-2133 -121 2119 2124 0
-2133 -127 2120 2124 0
2134 -137 -2122 0
-2132 -139 2124 0
-139 2133 -2123 0
2132 -2125 -140 -2123 0
-141 -2132 2126 0
-2124 2134 -142 0
-2134 2126 -144 0
-2137 2128 614 758 0
-2139 2130 760 616 0
-2140 2131 761 617 0
2141 -2132 618 762 0
-2141 2132 762 618 0
2141 -2132 -762 0
2142 -2133 763 619 0
-2142 2133 763 619 0
2142 -2133 -763 0
-2143 2134 764 620 0
-2144 2135 765 621 0
2132 -2141 -156 2128 0
-2142 2128 -157 2133 0
2132 -2141 -162 2129 0
-2142 -163 2129 2133 0
-167 -2141 2132 2130 0
-2142 -168 2130 2133 0
-2141 2132 -171 2131 0
-2142 -172 2131 2133 0
-2141 -175 2133 0
-2133 2141 -175 -2132 0
2142 -175 -2132 0
2141 -2134 -176 -2132 0
-2143 -180 2135 0
2150 -2141 771 627 0
-2150 2141 771 627 0
-2150 2141 -627 0
-771 2150 -2141 0
-2142 2151 772 628 0
-2142 2151 -772 0
-2152 2143 773 629 0
-2152 2143 -629 0
-192 -2150 2141 2137 0
-203 -2150 2139 2141 0
-207 -2150 2140 2141 0
-211 -2150 2142 0
-2142 2150 -211 -2141 0
-211 2151 -2141 0
-2152 -214 2143 2142 0
-2152 2144 -216 0
2159 -2150 780 636 0
-780 2159 -2150 0
-2151 2160 637 781 0
-2160 2151 781 637 0
-2160 -637 2151 0
-2151 -781 2160 0
-2152 2161 638 782 0
-2161 2152 638 782 0
-247 -2159 2151 0
-247 2159 -2151 -2150 0
-247 2160 -2150 0
-2159 -248 2152 0
2150 -248 -2161 2152 0
-2160 -250 2152 0
-2151 -250 2161 0
2168 -2159 789 645 0
-2168 2159 789 645 0
-789 2168 -2159 0
-2160 2169 790 646 0
-2169 2160 -646 0
-2160 2169 -790 0
-2161 2170 647 791 0
-2170 2161 647 791 0
-2168 -283 2160 0
-2159 -2160 -283 2168 0
-2159 2169 -283 0
-2169 -283 2160 2159 0
-2159 2170 -284 0
2169 -286 -2161 -2160 0
-286 2160 2161 -2170 0
2177 -2168 798 654 0
2177 -2168 -798 0
-2169 2178 799 655 0
2169 -2178 -655 0
-2169 2178 -799 0
-2170 2179 656 800 0
-2179 2170 656 800 0
-2177 -319 2169 0
-319 -2168 -2169 2177 0
-319 -2168 2178 0
-2170 -320 2177 -2168 0
-320 2168 -2179 2170 0
-2178 2170 -322 0
-2170 -2169 -322 2178 0
-2169 2179 -322 0
2186 -2177 807 663 0
2186 -2177 -807 0
-2178 2187 808 664 0
-2178 2187 -808 0
-2179 2188 665 809 0
-2188 2179 665 809 0
-2186 2178 -355 0
2186 -2178 -355 -2177 0
-2177 2187 -355 0
-356 -2188 2177 2179 0
-358 -2187 2179 0
-358 -2179 -2178 2187 0
-358 2188 -2178 0
2178 -358 2179 -2188 0
-2186 2195 672 816 0
2186 -2195 -672 0
-816 -2186 2195 0
-2187 2196 817 673 0
-2187 2196 -817 0
-2188 2197 674 818 0
2188 -2197 674 818 0
2187 -2195 -391 0
2195 -2187 -391 -2186 0
-2186 2196 -391 0
-2188 -392 -2186 2195 0
-392 2188 2186 -2197 0
2188 -394 -2196 0
-2187 -394 -2188 2196 0
2197 -2187 -394 0
2188 2187 -394 -2197 0
2204 -2195 681 825 0
2204 -2195 -825 0
2205 -2196 826 682 0
-2205 2196 826 682 0
-2205 2196 -682 0
2205 -2196 -826 0
-2197 2206 683 827 0
2197 -2206 683 827 0
-2204 2196 -427 0
-2196 -2195 -427 2204 0
2205 -2195 -427 0
2195 2197 -428 -2206 0
-2196 -430 -2197 2205 0
2197 2196 -430 -2206 0
-2204 2213 834 690 0
-2204 2213 -834 0
-2205 2214 835 691 0
2205 -2214 835 691 0
-2205 2214 -835 0
-2206 2215 692 836 0
2206 -2215 692 836 0
-2205 -2204 -463 2213 0
2214 -2204 -463 0
2206 2204 -464 -2215 0
-2205 -466 -2206 2214 0
2215 -2205 -466 0
2206 -466 2205 -2215 0
-2213 2222 699 843 0
-2213 2222 -843 0
-2214 2223 844 700 0
2214 -2223 844 700 0
2223 -2214 -844 0
2224 -2215 701 845 0
2215 -2224 701 845 0
-499 2222 -2214 -2213 0
-2213 -499 2223 0
-2215 -2214 -502 2223 0
-2222 708 2231 852 0
-2222 -852 2231 0
-2223 709 2232 853 0
-2223 -853 2232 0
2224 710 -2233 854 0
-2222 -535 2232 0
-2223 -2224 -538 2232 0
-2231 717 861 0
-2231 -861 0
-2232 862 718 0
-2232 -862 0
2233 863 719 0
-2231 -571 0
2240 582 726 0
-2243 729 585 0
2242 -25 0
2249 591 -2240 735 0
-2242 2251 -737 0
738 -2252 594 2243 0
2258 -2249 600 744 0
2260 -2251 602 746 0
747 -2261 2252 603 0
756 -2270 2261 612 0
2267 -2260 -140 -2258 0
-2269 2261 -144 0
2276 -2267 618 762 0
-2278 2269 764 620 0
-2279 2270 765 621 0
-2278 -180 2270 0
2285 -2276 771 627 0
2278 -2287 629 773 0
-773 -2278 2287 0
2279 -2287 -216 0
2278 2279 -216 -2288 0
2294 -2285 636 780 0
2287 -2296 638 782 0
783 -2297 2288 639 0
-2295 -250 2287 0
-2304 2295 790 646 0
2296 -2305 647 791 0
792 -2306 2297 648 0
-2294 2304 -283 0
-2304 -286 2296 0
-2304 2313 655 799 0
-2313 2304 799 655 0
2305 -2314 656 800 0
801 -2315 2306 657 0
-2312 -320 2305 0
-2313 2305 -322 0
2322 -2313 664 808 0
2313 -2322 808 664 0
2314 809 -2323 665 0
810 -2324 2315 666 0
2312 2313 -355 -2322 0
-358 -2322 2314 0
-2322 2331 673 817 0
2322 -2331 673 817 0
2323 -2332 674 818 0
819 -2333 2324 675 0
-2331 -394 2323 0
-2331 2340 682 826 0
-2340 2331 826 682 0
2332 -2341 827 683 0
828 -2342 2333 684 0
-2340 2332 -430 0
-2349 2340 835 691 0
2341 -2350 692 836 0
837 -2351 2342 693 0
-2349 -466 2341 0
2349 -2358 844 700 0
2350 -2359 701 845 0
846 -2360 2351 702 0
2350 -502 -2358 0
2358 853 -2367 709 0
2367 -2358 -853 0
2359 710 -2368 854 0
2360 -2369 855 711 0
2359 -538 -2367 0
2358 2359 -538 -2368 0
-2362 857 713 0
-2362 -857 0
2367 862 718 0
2368 863 719 0
2369 864 720 0
-2362 -549 0
-2362 -550 0
-2362 -551 0
-2362 -552 0
2368 -574 0
-2371 578 722 0
-2372 723 579 0
-2373 724 580 0
-2374 725 581 0
-2375 582 726 0
-2376 727 583 0
-2376 -583 0
2377 728 584 0
2377 -728 0
-2378 729 585 0
-2372 -9 0
-2373 -10 0
-2374 -11 0
-2376 -24 0
-2384 591 2375 735 0
-2385 736 2376 592 0
2386 593 -2377 737 0
2386 -737 -2377 0
738 -2387 594 2378 0
-2393 2384 600 744 0
-2394 2385 745 601 0
-2386 746 602 2395 0
2395 -2386 -746 0
747 -2396 2387 603 0
-2402 2393 609 753 0
2404 -2395 -755 0
756 -2405 2396 612 0
-2404 2395 -140 2393 0
2394 -2404 2395 -142 0
-2413 2404 764 620 0
-2414 2405 765 621 0
-2413 2402 -176 2404 0
2404 -180 -2414 2405 0
774 -2423 2414 630 0
2413 -216 -2423 2414 0
783 -2432 2423 639 0
792 -2441 2432 648 0
801 -2450 2441 657 0
810 -2459 2450 666 0
819 -2468 2459 675 0
828 -2477 2468 684 0
837 -2486 2477 693 0
846 -2495 2486 702 0
2495 -2504 855 711 0
2504 864 720 0
577 -2505 721 0
-2506 578 722 0
-2507 723 579 0
-2508 724 580 0
-2508 -580 0
-2510 582 726 0
-2511 583 727 0
2513 729 585 0
-2509 -22 0
-2512 -29 0
-2514 2505 586 730 0
-2515 731 2506 587 0
-2516 732 2507 588 0
-2517 589 2508 733 0
-2518 -590 2509 0
-2519 591 2510 735 0
-2520 736 2511 592 0
738 2522 594 -2513 0
2522 -738 -2513 0
-2517 -61 2512 0
-2521 -61 2508 2512 0
595 -2523 2514 739 0
-2524 2515 740 596 0
-2525 741 2516 597 0
-2526 2517 742 598 0
-2527 2518 599 743 0
-2528 2519 600 744 0
-2528 2519 -600 0
-2529 2520 745 601 0
-2521 2530 -746 0
747 -2522 2531 603 0
-2522 -747 2531 0
604 -2532 2523 748 0
-2537 2528 609 753 0
-2537 2528 -609 0
-2538 2529 754 610 0
756 -2531 2540 612 0
-756 -2531 2540 0
-2524 -121 2538 0
-2539 2528 -140 2530 0
-2538 2530 -142 0
-2539 2529 -142 2530 0
613 -2541 2532 757 0
-2546 2537 762 618 0
-2546 2537 -618 0
-2547 2538 763 619 0
-2538 2547 -763 0
-2548 2539 620 764 0
-2548 -620 2539 0
-2540 2549 765 621 0
-765 -2540 2549 0
-2546 2539 -176 0
-2548 2537 -176 2539 0
622 -2550 2541 766 0
-2555 2546 771 627 0
-2547 2556 772 628 0
-2556 2547 628 772 0
-2557 2548 629 773 0
-2557 2548 -629 0
-2549 774 2558 630 0
-2558 774 2549 630 0
-774 -2549 2558 0
631 -2559 2550 775 0
-2564 2555 780 636 0
-2566 2557 638 782 0
783 -2558 2567 639 0
-2567 2558 783 639 0
-2565 -247 2555 2556 0
-2565 -250 2557 0
-2566 -250 2556 2557 0
640 -2568 2559 784 0
2565 -2574 790 646 0
-2575 2566 647 791 0
792 -2567 2576 648 0
-2576 2567 792 648 0
-283 2564 -2574 2565 0
-286 2566 -2574 0
649 -2577 2568 793 0
-2571 2580 652 796 0
-796 -2571 2580 0
-2573 2582 654 798 0
-798 2582 -2573 0
-2574 2583 655 799 0
-2583 2574 799 655 0
-2575 2584 656 800 0
-2584 2575 656 800 0
801 -2576 2585 657 0
-2585 2576 801 657 0
2569 -303 -2585 2576 0
2570 -309 2576 -2585 0
-310 -2571 2581 0
-311 -2571 2582 0
2571 -314 -2585 2576 0
-2572 -316 2583 0
-319 2573 -2583 2574 0
2573 -321 -2585 2576 0
-2583 2575 -322 0
-2584 2575 -322 2574 0
2574 -323 2576 -2585 0
2575 -324 2576 -2585 0
658 -2586 2577 802 0
-2579 2588 804 660 0
-2580 2589 661 805 0
-805 -2580 2589 0
-2581 2590 806 662 0
-806 -2581 2590 0
-2582 2591 663 807 0
-807 -2582 2591 0
-2583 808 2592 664 0
-2592 808 2583 664 0
-2584 2593 665 809 0
-2593 809 2584 665 0
810 -2585 2594 666 0
-2594 2585 810 666 0
-342 -2579 2591 0
-346 -2580 2590 0
-347 -2580 2591 0
-358 -2592 2584 0
-360 2584 2585 -2594 0
667 -2595 2586 811 0
-2588 2597 669 813 0
-813 -2588 2597 0
-2589 2598 670 814 0
-814 -2589 2598 0
-2590 2599 671 815 0
-815 -2590 2599 0
-2591 2600 672 816 0
2601 -2592 673 817 0
-2601 2592 817 673 0
-673 -2601 2592 0
2593 -2602 674 818 0
819 -2594 2603 675 0
819 -2603 2594 675 0
-382 -2589 2599 0
-383 -2589 2600 0
-391 2591 -2601 2592 0
2593 -396 2594 -2603 0
676 -2604 2595 820 0
-2597 678 2606 822 0
-822 -2597 2606 0
-2598 2607 679 823 0
-823 -2598 2607 0
-2599 2608 680 824 0
-824 -2599 2608 0
-2600 2609 681 825 0
-2601 2610 682 826 0
-2610 2601 826 682 0
-2611 2602 683 827 0
828 2612 -2603 684 0
828 -2612 2603 684 0
-418 -2598 2608 0
-419 -2598 2609 0
-2610 -427 2600 2601 0
-2610 -430 2602 0
2602 -432 2603 -2612 0
-2606 2615 687 831 0
-831 -2606 2615 0
-2607 2616 688 832 0
-832 -2607 2616 0
-2608 2617 689 833 0
-833 -2608 2617 0
-2609 2618 690 834 0
-834 -2609 2618 0
-2610 2619 835 691 0
-2619 2610 835 691 0
837 -2621 2612 693 0
-454 -2607 2617 0
-455 -2607 2618 0
-2619 -466 2611 0
-468 2611 2612 -2621 0
-2614 2623 695 839 0
-839 -2614 2623 0
-2615 2624 696 840 0
-840 -2615 2624 0
-2616 2625 697 841 0
-2616 -841 2625 0
-2617 2626 698 842 0
-2617 2626 -842 0
-2618 2627 699 843 0
-843 -2618 2627 0
-2619 2628 844 700 0
846 -2630 2621 702 0
-2614 2624 -477 0
-479 -2614 2626 0
-480 -2614 2627 0
-2616 2626 -490 0
-491 -2616 2627 0
2620 -504 2621 -2630 0
-2623 704 2632 848 0
-2623 -848 2632 0
-2624 705 2633 849 0
-849 -2624 2633 0
-2625 706 2634 850 0
-2625 -850 2634 0
-2626 707 2635 851 0
-851 -2626 2635 0
-2627 852 2636 708 0
-2627 -852 2636 0
-2628 709 2637 853 0
-2628 -853 2637 0
2630 -2639 855 711 0
-2623 -513 2633 0
-2623 -515 2635 0
-2623 -516 2636 0
-2623 -517 2637 0
-2625 -526 2635 0
-2625 -527 2636 0
-2625 -528 2637 0
2629 -540 2630 -2639 0
-2632 857 713 0
-2633 714 858 0
-2633 -858 0
-2634 859 715 0
-2634 -859 0
-2635 860 716 0
-2635 -860 0
-2636 717 861 0
-2636 -861 0
-2637 862 718 0
-2637 -862 0
2639 864 720 0
-2632 -549 0
-2632 -550 0
-2632 -551 0
-2632 -552 0
-2632 -553 0
-2633 -556 0
-2633 -557 0
-2633 -558 0
-2633 -559 0
-2634 -562 0
-2634 -563 0
-2634 -564 0
-2635 -567 0
-2635 -568 0
-2636 -571 0
-2636 -572 0
-2637 -574 0
2638 -576 2639 0
2641 578 722 0
-2642 723 579 0
-2643 724 580 0
-2643 -580 0
-2644 725 581 0
-581 -2644 0
-2645 582 726 0
-2646 583 727 0
-2647 728 584 0
2643 -10 0
2644 -11 0
2647 -14 0
-17 -2644 0
-2644 -22 0
-2643 -24 0
-2646 -24 0
-2647 -25 0
-2646 -28 0
-2647 -29 0
-2647 -34 0
2650 731 -2641 587 0
-2651 732 2642 588 0
-2652 589 2643 733 0
-2653 590 2644 734 0
-2653 -590 2644 0
-2654 591 2645 735 0
-2655 736 2646 592 0
-2656 593 2647 737 0
2656 -2647 -737 0
-2652 -52 2642 2643 0
-2653 -53 2642 2644 0
-2652 -58 2644 0
-2653 -58 2644 2643 0
-2655 -60 2643 2646 0
-2652 -61 2647 0
-2656 -61 2643 2647 0
-2655 -64 2644 2646 0
-2653 -65 2647 0
-65 -2656 2647 2644 0
-70 -2656 2647 2646 0
2659 -2650 596 740 0
-2660 741 2651 597 0
-2661 2652 742 598 0
-2662 2653 599 743 0
-2663 2654 600 744 0
-2664 2655 745 601 0
-2665 2656 602 746 0
-2650 -86 2665 0
-2665 -92 2651 2656 0
-2662 -94 2653 2652 0
-2664 -96 2655 2652 0
-2665 -97 2656 2652 0
-2664 -100 2655 2653 0
-2665 -101 2656 2653 0
-2663 2656 -104 0
-2665 2656 -104 2654 0
-2665 -106 2655 2656 0
2668 -2659 749 605 0
-2669 606 2660 750 0
-2670 2661 751 607 0
-2671 2662 752 608 0
-2672 2663 609 753 0
-2672 2663 -609 0
-2673 2664 754 610 0
-2674 2665 755 611 0
-2674 2665 -611 0
-2672 -126 2660 2663 0
-2673 -127 2660 2664 0
-131 -2672 2661 2663 0
-132 -2673 2661 2664 0
-135 -2672 2662 2663 0
-136 -2673 2662 2664 0
-2674 -137 2665 2662 0
-2673 -139 2664 2663 0
-2674 2665 -140 2663 0
-2674 2665 -142 2664 0
-2678 615 2669 759 0
-2679 2670 760 616 0
-2680 2671 761 617 0
-2681 2672 618 762 0
-2681 2672 -618 0
-2682 2673 763 619 0
-2683 2674 620 764 0
-2683 2674 -620 0
-2682 -163 2669 2673 0
-168 -2682 2670 2673 0
-172 -2682 2671 2673 0
-2682 -175 2673 2672 0
-2683 2674 -176 2672 0
-2690 2681 771 627 0
-2691 2682 772 628 0
-2692 2683 629 773 0
-2692 2683 -629 0
-199 -2691 2678 2682 0
-204 -2691 2679 2682 0
-2691 -208 2680 2682 0
-2691 -211 2682 2681 0
-2692 -212 2681 2683 0
-2692 -214 2683 2682 0
-2699 2690 780 636 0
-2700 2691 781 637 0
2692 -2701 638 782 0
-2699 -248 2692 0
-2701 -248 2690 2692 0
-250 -2701 2692 2691 0
-2708 2699 645 789 0
2700 -2709 646 790 0
2701 -2710 647 791 0
-2708 2701 -284 0
-2710 2699 -284 2701 0
2700 2701 -286 -2710 0
-2717 2708 654 798 0
-2709 2718 799 655 0
2709 -2718 655 799 0
-2709 2718 -799 0
2710 -2719 656 800 0
2710 -320 -2719 2708 0
-2726 2717 663 807 0
2727 -2718 808 664 0
2718 -2727 664 808 0
2727 -2718 -808 0
2719 -2728 665 809 0
-356 2719 2717 -2728 0
-2735 2726 816 672 0
2736 -2727 817 673 0
2736 -2727 -817 0
2728 -2737 674 818 0
2726 -392 2728 -2737 0
-394 2728 2727 -2737 0
-2744 2735 681 825 0
2745 -2736 682 826 0
2745 -2736 -826 0
2737 -2746 683 827 0
2737 2735 -428 -2746 0
-2753 2744 834 690 0
-2745 2754 835 691 0
-2745 2754 -835 0
2746 -2755 692 836 0
2744 -464 2746 -2755 0
-2751 2760 697 841 0
-841 -2751 2760 0
-2752 2761 698 842 0
-2752 2761 -842 0
2753 -2762 699 843 0
-2754 2763 700 844 0
-844 -2754 2763 0
2755 -2764 701 845 0
-2750 -487 2763 0
-2751 2761 -490 0
-491 -2751 2762 0
-492 -2751 2763 0
-495 -2752 2762 0
-496 -2752 2763 0
2753 2755 -500 -2764 0
-502 -2755 -2754 2763 0
-2759 849 2768 705 0
-2759 -849 2768 0
-2760 706 2769 850 0
-2760 -850 2769 0
-2761 707 2770 851 0
-851 -2761 2770 0
-2762 852 2771 708 0
-2762 -852 2771 0
-2763 709 2772 853 0
-2763 -853 2772 0
2773 -2764 710 854 0
2764 710 -2773 854 0
-854 2773 -2764 0
-2758 -513 2768 0
-2758 -514 2769 0
-2758 -515 2770 0
-2758 -516 2771 0
-2758 -517 2772 0
-520 -2759 2769 0
-521 -2759 2770 0
-2759 -522 2771 0
-2759 -523 2772 0
-526 -2760 2770 0
-2760 -527 2771 0
-2760 -528 2772 0
-2761 -531 2771 0
-2761 -532 2772 0
-2762 -535 2772 0
-536 -2764 2771 -2762 0
-536 2764 2762 -2773 0
2764 -538 2763 -2773 0
-2768 714 858 0
-2768 -858 0
-2769 859 715 0
-2769 -859 0
-2770 860 716 0
-2770 -860 0
-2771 717 861 0
-2771 -861 0
-2772 862 718 0
-2772 -862 0
2773 863 719 0
-2768 -556 0
-2768 -557 0
-2768 -558 0
-2768 -559 0
-2769 -562 0
-2769 -563 0
-2769 -564 0
-2770 -567 0
-2770 -568 0
-2771 -571 0
-2773 -2771 -572 0
-2772 -574 -2773 0
-2776 578 722 0
-2782 -29 0
-2785 731 2776 587 0
-2787 -61 2782 0
-2794 2785 740 596 0
-2796 2787 598 742 0
-3051 583 727 0
-3060 736 3051 592 0
-3069 3060 745 601 0
-3316 578 722 0
-3316 -578 0
-3317 723 579 0
-3317 -579 0
-3318 724 580 0
-3319 725 581 0
3320 582 726 0
-3321 583 727 0
3323 729 585 0
-3318 -10 0
-3318 -22 0
-3319 -22 0
-3318 -25 0
-3322 -25 0
-3319 -29 0
-3322 -29 0
-3325 731 3316 587 0
-3325 -587 3316 0
-3326 732 3317 588 0
-3327 589 3318 733 0
-3328 590 3319 734 0
-3328 -590 3319 0
3329 591 -3320 735 0
-3330 736 3321 592 0
738 3332 594 -3323 0
-3331 -61 3318 3322 0
-3331 -65 3322 3319 0
-3334 3325 740 596 0
-3335 741 3326 597 0
3338 -3329 600 744 0
-744 3338 -3329 0
-3339 3330 745 601 0
3331 -3340 746 602 0
747 -3332 3341 603 0
3331 -3338 -104 0
3340 -3329 -104 0
3347 -3338 609 753 0
-3347 3338 609 753 0
3347 -3338 -753 0
-3348 3339 754 610 0
3349 -3340 755 611 0
3340 -3349 755 611 0
756 -3341 3350 612 0
-3341 -756 3350 0
3349 -3338 -140 0
3349 -3340 -144 -3341 0
3358 -3349 764 620 0
3358 -3349 -764 0
-3350 3359 765 621 0
-3356 3349 -176 0
3358 -3347 -176 0
3358 -3349 -180 -3350 0
-3365 3356 771 627 0
3367 -3358 629 773 0
3358 -3367 -629 0
3367 -773 -3358 0
3367 -3358 -216 -3359 0
3376 -3367 638 782 0
-782 3376 -3367 0
3385 -3376 647 791 0
3385 -3376 -791 0
3393 -3384 655 799 0
-3384 3393 -799 0
-3385 3394 656 800 0
-3385 3394 -800 0
-3393 3402 808 664 0
-3393 3402 -808 0
-3394 3403 665 809 0
3403 -3394 -809 0
3411 -3402 817 673 0
3411 -3402 -817 0
-3403 3412 674 818 0
-818 -3403 3412 0
3420 -3411 826 682 0
3420 -3411 -826 0
3421 -3412 683 827 0
3421 -3412 -827 0
3428 -3419 690 834 0
3428 -3419 -834 0
-3420 3429 835 691 0
-3420 3429 -835 0
3430 -3421 692 836 0
-836 3430 -3421 0
3429 -3419 -463 0
-466 -3421 3429 -3420 0
3437 -3428 699 843 0
-3428 3437 -843 0
-3429 3438 700 844 0
-3429 3438 -844 0
3439 -3430 701 845 0
3439 -3430 -845 0
-499 -3428 3438 0
-3435 706 3444 850 0
-3435 -850 3444 0
-3436 707 3445 851 0
-3436 -851 3445 0
-3437 708 3446 852 0
-3437 -852 3446 0
-3438 709 3447 853 0
-3438 -853 3447 0
3448 -3439 710 854 0
-3435 -526 3445 0
-3435 -527 3446 0
-3435 -528 3447 0
-3436 -531 3446 0
-3436 -532 3447 0
-3437 -535 3447 0
-3439 -3438 -538 3447 0
-3444 859 715 0
-3444 -859 0
-3445 860 716 0
-3445 -860 0
-3446 717 861 0
-3446 -861 0
-3447 862 718 0
-3447 -862 0
3448 863 719 0
-3443 -559 0
-3444 -562 0
-3444 -563 0
-3444 -564 0
-3445 -567 0
-3445 -568 0
-3446 -571 0
-3448 -3446 -572 0
3448 -572 3446 0
-3592 -14 0
-17 3589 0
3592 -20 0
-3589 -29 0
-3592 -34 0
-3856 578 722 0
-3856 -578 0
-3857 723 579 0
-3857 -579 0
3858 724 580 0
3858 -724 0
-3859 725 581 0
-3859 -581 0
3860 582 726 0
-3861 727 583 0
-3862 728 584 0
3863 729 585 0
-3857 -9 0
-3859 -11 0
-3861 -13 0
-3862 -14 0
-3859 -17 0
-3861 -19 0
-3862 -20 0
-3858 -22 0
3859 -22 0
-3858 -24 0
3861 -24 0
3862 -25 0
-3861 -28 0
-3859 -29 0
-3862 -29 0
-3861 -34 0
-3862 -34 0
-3865 731 3856 587 0
-3866 732 3857 588 0
3867 589 -3858 733 0
-733 3867 -3858 0
3868 -3859 590 734 0
-3868 590 3859 734 0
-3868 -590 3859 0
3868 -734 -3859 0
3869 591 -3860 735 0
3870 -3861 592 736 0
-3870 736 3861 592 0
3871 -3862 593 737 0
-3871 737 3862 593 0
3871 -3862 -737 0
738 3872 594 -3863 0
-3868 -47 3856 3859 0
-3871 -50 3862 3856 0
-3868 -53 3857 3859 0
-56 -3871 3862 3857 0
3868 -58 -3858 0
-3868 -58 3858 3859 0
3870 -60 -3858 0
-3867 -61 3862 0
3871 -61 -3858 0
-3871 3858 -61 3862 0
-3859 -65 3871 0
-65 -3871 3862 3859 0
-70 -3871 3862 3861 0
-3874 3865 740 596 0
-3875 741 3866 597 0
3876 -3867 598 742 0
-3876 3867 742 598 0
3876 -742 -3867 0
3877 -3868 599 743 0
-3877 3868 599 743 0
3877 -3868 -743 0
3878 -3869 600 744 0
3879 -3870 745 601 0
-3879 3870 745 601 0
3879 -745 -3870 0
3880 -3871 602 746 0
3871 -3880 746 602 0
3880 -3871 -746 0
747 -3872 3881 603 0
-3879 -85 3865 3870 0
-3879 -91 3866 3870 0
3877 -94 -3867 0
-96 3879 -3867 0
-3879 -96 3867 3870 0
3880 -97 -3867 0
3880 -3868 -101 0
3878 -3871 -104 -3869 0
3880 -3869 -104 0
3880 -106 -3870 0
-106 -3880 3871 3870 0
3887 -3878 609 753 0
3887 -3878 -753 0
-3888 3879 754 610 0
3889 -3880 755 611 0
3889 -3880 -755 0
756 -3881 3890 612 0
-3888 -121 3874 3879 0
-3888 -127 3879 3875 0
-3888 -132 3876 3879 0
3889 -133 -3876 0
3876 -133 3880 -3889 0
-136 -3888 3877 3879 0
3889 -137 -3877 0
-137 3880 3877 -3889 0
-139 -3887 3879 0
-139 3888 -3878 0
3880 -3887 -140 0
3887 -3880 -140 -3878 0
3889 -3878 -140 0
3889 -3879 -142 0
3880 3879 -3889 -142 0
3889 -3880 -144 -3881 0
3896 -3887 618 762 0
-3896 3887 762 618 0
-3896 3887 -618 0
3896 -3887 -762 0
-3888 3897 763 619 0
-3888 3897 -763 0
3898 -3889 764 620 0
3898 -3889 -764 0
-3890 3899 765 621 0
-3896 -175 3888 0
-3888 3896 -175 -3887 0
3897 -175 -3887 0
-3896 3889 -176 0
3896 -3889 -176 -3887 0
3898 -3887 -176 0
-3898 -180 3890 0
3898 -3889 -180 -3890 0
3905 -3896 771 627 0
-3905 3896 771 627 0
3905 -771 -3896 0
-3897 3906 628 772 0
-3897 3906 -772 0
3907 -3898 629 773 0
-211 -3905 3897 0
-3897 -211 -3896 3905 0
3906 -211 -3896 0
-3907 -216 3899 0
3907 -3898 -216 -3899 0
3914 -3905 780 636 0
-3914 3905 780 636 0
-3914 3905 -636 0
3914 -780 -3905 0
3915 -3906 781 637 0
-3906 3915 -781 0
3916 -3907 638 782 0
-3916 3907 638 782 0
3916 -782 -3907 0
3906 -247 -3914 0
-247 -3906 -3905 3914 0
3915 -247 -3905 0
3906 -247 -3915 3905 0
3914 -248 -3905 -3907 0
3915 -3906 -250 -3907 0
-3914 3923 645 789 0
-3923 3914 789 645 0
3914 -3923 -645 0
-789 -3914 3923 0
3924 -3915 646 790 0
3915 -3924 790 646 0
3915 -3924 -646 0
3924 -3915 -790 0
3925 -3916 647 791 0
-3925 3916 647 791 0
3925 -3916 -791 0
3915 -3923 -283 0
3923 -3915 -283 -3914 0
-3914 3924 -283 0
-3914 -3916 -284 3923 0
3924 -286 -3916 -3915 0
-3923 3932 654 798 0
3932 -3923 -798 0
-3924 3933 799 655 0
3933 -3924 -799 0
3934 -3925 656 800 0
3934 -3925 -800 0
-3932 3924 -319 0
-3924 -3923 -319 3932 0
-3923 3933 -319 0
-320 -3925 -3923 3932 0
3933 -3925 -322 -3924 0
-3932 3941 663 807 0
3941 -3932 -807 0
-3933 3942 808 664 0
-3933 3942 -808 0
3943 -3934 665 809 0
3943 -3934 -809 0
-3932 -3933 3941 -355 0
-3932 3942 -355 0
-3932 3941 -3934 -356 0
-3933 3942 -3934 -358 0
3943 -3933 -358 0
-3941 3950 672 816 0
-816 3950 -3941 0
-3942 3951 817 673 0
-3942 3951 -817 0
3952 -3943 674 818 0
3952 -3943 -818 0
-3950 3942 -391 0
3950 -3942 -391 -3941 0
-3941 3951 -391 0
3941 3942 -3951 -391 0
-392 -3943 -3941 3950 0
-394 -3943 3951 -3942 0
-3950 3959 825 681 0
-3950 3959 -825 0
3960 -3951 682 826 0
3951 -3960 826 682 0
3951 -3960 -682 0
3960 -3951 -826 0
3961 -3952 683 827 0
3961 -3952 -827 0
3951 3948 -3960 -420 0
-3959 3951 -427 0
-3950 -3951 -427 3959 0
-3950 3960 -427 0
3951 -3960 -427 3950 0
3959 -3952 -428 -3950 0
3960 -430 -3952 -3951 0
-3959 3968 834 690 0
-3959 3968 -834 0
3969 -3960 835 691 0
3960 -3969 835 691 0
3969 -3960 -835 0
3970 -3961 692 836 0
3970 -3961 -836 0
3955 -445 -3969 3960 0
3956 -3969 -451 3960 0
-456 -3969 3957 3960 0
3958 -460 -3969 3960 0
-3959 -3960 -463 3968 0
-3959 3969 -463 0
3959 3960 -463 -3969 0
-466 -3961 3969 -3960 0
3961 3960 -466 -3970 0
-3968 3977 699 843 0
-3968 3977 -843 0
3978 -3969 844 700 0
-3978 3969 844 700 0
3978 -3969 -844 0
3979 -3970 701 845 0
3970 -3979 701 845 0
3979 -3970 -845 0
-3968 -499 -3969 3977 0
3978 -3968 -499 0
3977 -500 -3970 -3968 0
-3970 3978 -502 -3969 0
-3977 708 3986 852 0
-3977 -852 3986 0
-3978 3987 709 853 0
3978 853 -3987 709 0
-3978 3987 -853 0
3988 -3979 710 854 0
3979 710 -3988 854 0
3988 -3979 -854 0
-3986 3978 -535 0
-3977 -3978 -535 3986 0
-3979 -536 3986 -3977 0
-3978 3987 -3979 -538 0
-3986 717 861 0
-3986 -861 0
3987 862 718 0
3988 863 719 0
-3986 -571 -3987 0
3987 -571 3986 0
-3986 -3988 -572 0
-4396 578 722 0
-4397 723 579 0
-4398 -580 0
4399 725 581 0
4399 -725 0
4400 582 726 0
-4401 583 727 0
-4402 728 584 0
4403 729 585 0
-4402 -25 0
-4399 -28 0
4401 -28 0
4402 -29 0
-4405 731 4396 587 0
-4406 732 4397 588 0
-4407 4398 733 589 0
4408 590 -4399 734 0
4408 -734 -4399 0
4409 591 -4400 735 0
4410 -4401 592 736 0
-4410 736 4401 592 0
4411 -4402 593 737 0
4411 -4402 -737 0
738 4412 594 -4403 0
4410 -64 -4399 0
-65 -4408 4402 0
4411 -65 -4399 0
-4414 4405 740 596 0
-4415 741 4406 597 0
-4416 4407 742 598 0
4417 -4408 599 743 0
-4417 4408 743 599 0
4417 -743 -4408 0
4418 -4409 600 744 0
4419 -4410 601 745 0
-4419 4410 745 601 0
4420 -4411 602 746 0
4420 -4411 -746 0
747 -4412 4421 603 0
-100 4419 -4408 0
4420 -101 -4408 0
4418 -4411 -104 -4409 0
4420 -4409 -104 0
4420 -4410 -106 0
-4423 4414 605 749 0
-4424 606 4415 750 0
4427 -4418 609 753 0
4427 -4418 -753 0
-4428 4419 754 610 0
4429 -4420 755 611 0
4429 -4420 -755 0
756 -4421 4430 612 0
-4428 -121 4414 4419 0
-4428 -127 4415 4419 0
-4428 -132 4416 4419 0
-136 -4428 4417 4419 0
4429 -137 -4417 0
-139 -4427 4419 0
-139 4428 -4418 0
4427 -4420 -140 -4418 0
4429 -4418 -140 0
4429 -4419 -142 0
4429 -4420 -144 -4421 0
-4420 -144 4430 0
-4433 615 4424 759 0
4436 -4427 618 762 0
4427 -4436 -618 0
4436 -4427 -762 0
4437 -4428 763 619 0
4437 -4428 -763 0
4438 -4429 764 620 0
4438 -4429 -764 0
-4430 4439 765 621 0
-4436 -175 4428 0
4437 -175 -4427 0
-4436 4429 -176 0
4436 -4429 -176 -4427 0
4438 -4427 -176 0
-4438 -180 4430 0
4438 -4429 -180 -4430 0
4445 -4436 771 627 0
4436 -4445 627 771 0
4445 -771 -4436 0
-4437 4446 628 772 0
-4437 4446 -772 0
4447 -4438 629 773 0
4438 -4447 629 773 0
4447 -773 -4438 0
-198 -4445 4433 4436 0
-211 -4445 4437 0
4446 -211 -4436 0
-4447 -216 4439 0
4447 -4438 -216 -4439 0
4454 -4445 780 636 0
4445 -4454 -636 0
4454 -780 -4445 0
4455 -4446 637 781 0
4455 -4446 -781 0
4456 -4447 638 782 0
4447 -4456 638 782 0
4456 -782 -4447 0
4455 -247 -4445 0
4455 -250 -4447 -4446 0
4463 -4454 645 789 0
4463 -4454 -789 0
-4455 4464 790 646 0
4455 -4464 790 646 0
-4455 4464 -790 0
4465 -4456 647 791 0
4456 -4465 647 791 0
4465 -4456 -791 0
-4454 4464 -283 0
4454 4455 -4464 -283 0
4464 -286 -4456 -4455 0
4472 -4463 654 798 0
4472 -4463 -798 0
4473 -4464 655 799 0
4473 -4464 -799 0
4474 -4465 656 800 0
4465 -4474 656 800 0
4474 -4465 -800 0
4473 -4463 -319 0
4472 -320 -4463 -4465 0
4473 -4465 -322 -4464 0
4481 -4472 663 807 0
4481 -4472 -807 0
4482 -4473 664 808 0
4473 -4482 -664 0
4482 -4473 -808 0
4483 -4474 665 809 0
4474 -4483 665 809 0
4483 -4474 -809 0
4482 -4472 -355 0
4481 -356 -4474 -4472 0
4482 -358 -4473 -4474 0
4490 -4481 816 672 0
4490 -816 -4481 0
4491 -4482 817 673 0
4491 -4482 -817 0
4492 -4483 674 818 0
4483 -4492 674 818 0
4491 -4481 -391 0
-4481 -392 -4483 4490 0
4491 -394 -4483 -4482 0
-4490 4499 681 825 0
-4490 4499 -825 0
-4491 4500 826 682 0
-4491 4500 -826 0
4501 -4492 683 827 0
-4490 4500 -427 0
4490 4491 -4500 -427 0
-4491 4500 -430 -4492 0
4491 4492 -430 -4501 0
-4499 4508 834 690 0
4509 -4500 691 835 0
4509 -4500 -835 0
4510 -4501 692 836 0
4501 -4510 692 836 0
-4499 4509 -463 0
4509 -4500 -466 -4501 0
4501 4500 -4510 -466 0
-4509 4518 700 844 0
4510 -4519 701 845 0
-4509 -4510 -502 4518 0
4510 4509 -502 -4519 0
4519 710 -4528 854 0
4513 4518 -4527 -517 0
4514 -523 -4527 4518 0
4515 -528 -4527 4518 0
4516 -532 -4527 4518 0
4518 4517 -535 -4527 0
4519 4518 -538 -4528 0
4527 862 718 0
4528 863 719 0
4527 4522 -553 0
4527 4523 -559 0
4527 4524 -564 0
4527 4525 -568 0
4527 4526 -571 0
577 4530 721 0
-4530 4539 586 730 0
-4539 595 4548 739 0
604 -4548 4557 748 0
613 -4557 4566 757 0
622 -4566 4575 766 0
631 -4575 4584 775 0
640 -4584 4593 784 0
649 -4593 4602 793 0
658 -4602 4611 802 0
667 -4611 4620 811 0
676 -4620 4629 820 0
-4620 -397 4630 0
685 -4629 4638 829 0
-4639 -686 4630 0
-4630 -433 -4629 4638 0
4639 -433 -4629 0
4640 -4630 -441 0
694 -4638 4647 838 0
4648 -4639 695 839 0
-4640 4649 840 696 0
-4640 -840 4649 0
4648 -469 -4638 0
4640 -4648 -477 0
4649 -4639 -477 0
4650 -478 -4639 0
4651 -479 -4639 0
703 -4647 4656 847 0
-4648 704 4657 848 0
-4649 705 4658 849 0
-4650 850 4659 706 0
-850 -4650 4659 0
-4651 851 4660 707 0
-4647 -505 4657 0
-4648 -513 4658 0
712 -4656 856 0
-4657 857 713 0
-4658 714 858 0
-4658 -858 0
-4659 859 715 0
-4659 -859 0
-4660 860 716 0
-4660 -860 0
-4657 -549 0
-4657 -550 0
-4657 -551 0
-4658 -556 0
-4658 -557 0
-4658 -4662 -559 0
4662 -571 0
577 5205 721 0
-5205 5214 586 730 0
-5214 5223 595 739 0
604 -5223 5232 748 0
613 -5232 5241 757 0
622 -5241 5250 766 0
631 -5250 5259 775 0
640 -5259 5268 784 0
649 -5268 5277 793 0
658 -5277 5286 802 0
667 -5286 5295 811 0
676 -5295 5304 820 0
685 -5304 5313 829 0
694 -5313 5322 838 0
703 -5322 5331 847 0
-5331 -541 0
-5611 578 722 0
-5611 -578 0
-5616 583 727 0
-5620 731 5611 587 0
-5620 -587 5611 0
-5625 736 5616 592 0
-5629 5620 740 596 0
-5634 5625 745 601 0
-5638 5629 -605 0
-5638 -121 5634 0
-5647 5638 758 614 0
5647 -5656 767 623 0
-5656 5647 -623 0
5656 -5665 776 632 0
-5665 5656 -632 0
-5884 725 581 0
-5885 582 726 0
5886 583 727 0
-5883 -10 0
-5887 -25 0
-5894 591 5885 735 0
-5896 -65 5884 5887 0
-5903 5894 600 744 0
-5905 5896 602 746 0
-5914 5905 -140 5903 0
-5923 5914 -620 0
-5932 5923 629 773 0
5932 -5941 638 782 0
5941 -5950 647 791 0
5950 -5959 656 800 0
6004 710 -6013 854 0
6013 863 719 0
-6151 578 722 0
-6152 723 579 0
-6153 724 580 0
6155 582 726 0
727 583 6156 0
-727 6156 0
-6157 728 584 0
6158 729 585 0
-6157 -20 0
6157 -32 0
-6156 -34 0
6157 -34 0
-6160 731 6151 587 0
-6161 732 6152 588 0
6164 591 -6155 735 0
6165 736 -6156 592 0
6165 -736 -6156 0
6166 593 -6157 737 0
-6166 6157 593 737 0
6166 -737 -6157 0
738 6167 594 -6158 0
-738 6167 -6158 0
-6166 -61 6157 6153 0
6166 -70 -6156 0
-6169 6160 740 596 0
-6170 741 6161 597 0
6173 -6164 600 744 0
6174 -6165 745 601 0
6174 -745 -6165 0
6175 -6166 746 602 0
6175 -6166 -746 0
747 -6167 6176 603 0
6175 -6164 -104 0
-106 -6174 6166 0
6175 -106 -6165 0
-6178 6169 605 749 0
-6179 606 6170 750 0
6182 -6173 609 753 0
6183 -6174 754 610 0
6183 -754 -6174 0
6184 -6175 755 611 0
6175 -6184 755 611 0
6184 -6175 -755 0
756 -6176 6185 612 0
-6176 -756 6185 0
6182 -6175 -140 -6173 0
6184 -6173 -140 0
6175 -6183 -142 0
-6174 -6175 -142 6183 0
6184 -6174 -142 0
6184 -6175 -144 -6176 0
-6187 6178 614 758 0
-6188 615 6179 759 0
6191 -6182 618 762 0
6191 -6182 -762 0
6192 -6183 763 619 0
-6192 6183 763 619 0
6192 -763 -6183 0
6193 -6184 764 620 0
6193 -6184 -764 0
-6185 6194 765 621 0
-6191 6183 -175 0
-6182 -175 -6183 6191 0
6192 -175 -6182 0
-6191 6184 -176 0
6191 -6184 -176 -6182 0
6193 -6182 -176 0
6193 -6184 -180 -6185 0
6200 -6191 627 771 0
-6200 6191 771 627 0
-771 6200 -6191 0
6201 -6192 628 772 0
6201 -772 -6192 0
6202 -6193 629 773 0
6192 -6200 -211 0
6200 -211 -6192 -6191 0
6201 -6191 -211 0
6201 -214 -6193 -6192 0
6202 -6192 -214 0
6202 -6193 -216 -6194 0
6209 -6200 780 636 0
-780 6209 -6200 0
781 -6201 6210 637 0
-781 -6201 6210 0
782 -6202 638 6211 0
-782 -6202 6211 0
-247 6201 -6209 0
-247 -6200 -6201 6209 0
-247 -6200 6210 0
-6200 -248 -6202 6209 0
-250 -6202 -6201 6210 0
6218 -6209 789 645 0
-789 -6209 6218 0
790 646 6219 -6210 0
-790 -6210 6219 0
791 -6211 647 6220 0
647 6211 -6220 791 0
-791 -6211 6220 0
6218 -283 -6210 -6209 0
-6209 -283 6219 0
6218 -284 -6211 -6209 0
-286 6219 -6211 -6210 0
-6218 6227 798 654 0
-798 6227 -6218 0
655 799 -6219 6228 0
-799 6228 -6219 0
-6220 6229 656 800 0
-800 6229 -6220 0
-319 -6218 -6219 6227 0
-319 -6218 6228 0
-320 -6218 -6220 6227 0
-320 -6218 6229 0
-322 6228 -6220 -6219 0
6236 -6227 663 807 0
-6227 6236 -807 0
808 6237 -6228 664 0
-808 6237 -6228 0
809 6238 -6229 665 0
-809 -6229 6238 0
-6236 -355 6228 0
-6227 -355 -6228 6236 0
-6227 -355 6237 0
6236 -356 -6229 -6227 0
-358 -6229 6237 -6228 0
6245 -6236 672 816 0
-816 -6236 6245 0
6246 -6237 673 817 0
-817 -6237 6246 0
-6238 6247 674 818 0
-818 6247 -6238 0
-6245 -391 6237 0
-6236 -391 -6237 6245 0
-6236 -391 6246 0
-392 -6236 -6238 6245 0
-394 -6237 -6238 6246 0
-6245 6254 681 825 0
-6245 6254 -825 0
-6246 6255 826 682 0
-826 -6246 6255 0
6256 -6247 683 827 0
6256 -6247 -827 0
-6254 -427 6246 0
-6245 -427 -6246 6254 0
-6245 -427 6255 0
-6245 6254 -6247 -428 0
-430 6255 -6247 -6246 0
6263 -6254 690 834 0
6263 -6254 -834 0
6264 -6255 835 691 0
6264 -6255 -835 0
6265 -6256 692 836 0
6265 -836 -6256 0
-6263 -463 6255 0
-6255 6263 -463 -6254 0
6264 -6254 -463 0
-464 -6256 6263 -6254 0
6264 -466 -6256 -6255 0
-6263 6272 843 699 0
6272 -6263 -843 0
6273 -6264 844 700 0
6273 -6264 -844 0
6274 -6265 701 845 0
6274 -6265 -845 0
-499 6272 -6264 -6263 0
6272 -6263 -500 -6265 0
6273 -6265 -502 -6264 0
-6272 708 6281 852 0
-6272 -852 6281 0
-6273 6282 709 853 0
-6273 6282 -853 0
6283 -6274 710 854 0
6283 -6274 -854 0
-6272 -6273 -535 6281 0
-6272 -536 6281 -6274 0
-6274 -538 6282 -6273 0
-6278 -858 0
-6279 -859 0
-6280 -860 0
-6281 717 861 0
-6281 -861 0
6282 862 718 0
-6277 -549 0
-6277 -550 0
-6277 -551 0
-6277 -552 0
6282 -553 6277 0
-6278 -558 0
6282 -559 6278 0
-6279 -563 0
6282 -564 6279 0
-6280 -567 0
6282 -568 6280 0
-6281 -571 -6282 0
6282 -571 6281 0
-6281 -6283 -572 0
577 6690 721 0
6691 578 722 0
6692 723 579 0
6692 -723 0
-6694 725 581 0
6696 583 727 0
6691 -9 0
6691 -13 0
6692 -19 0
-6690 6699 586 730 0
6700 731 -6691 587 0
6701 732 -6692 588 0
6705 736 -6696 592 0
-37 -6691 6699 -6690 0
6700 -49 -6696 -6691 0
-6699 6708 595 739 0
-6700 6709 596 740 0
6710 741 -6701 597 0
6714 -6705 745 601 0
-73 -6700 6708 -6699 0
-81 6709 -6701 -6700 0
604 -6708 6717 748 0
6718 -6709 605 749 0
6719 606 -6710 750 0
-6709 -109 6717 -6708 0
6718 -117 -6709 -6710 0
-121 6718 -6709 -6714 0
613 -6717 6726 757 0
6727 -6718 614 758 0
6728 759 -6719 615 0
-6718 -145 6726 -6717 0
622 -6726 6735 766 0
6736 623 -6727 767 0
-181 -6727 -6726 6735 0
6736 -6728 -6727 -189 0
631 -6735 6744 775 0
-6736 6745 632 776 0
6744 -217 -6736 -6735 0
640 -6744 6753 784 0
6754 -6745 641 785 0
-6745 -253 6753 -6744 0
649 -6753 6762 793 0
-6754 -6753 6762 -289 0
658 -6762 6771 802 0
667 -6771 6780 811 0
676 -6780 6789 820 0
685 -6789 6798 829 0
694 -6798 6807 838 0
-6807 6816 703 847 0
712 -6816 856 0
577 7365 721 0
7366 578 722 0
7367 723 579 0
7368 724 580 0
-724 7368 0
7370 582 726 0
727 583 7371 0
7366 -10 0
7368 -10 0
-7366 -14 0
7367 -19 0
7371 -19 0
7368 -24 0
-7371 -34 0
-7365 7374 586 730 0
7375 731 -7366 587 0
7376 732 -7367 588 0
7377 589 -7368 733 0
7379 591 -7370 735 0
7380 736 -7371 592 0
-37 -7366 7374 -7365 0
-45 7375 -7367 -7366 0
-46 7375 -7366 -7368 0
-49 7375 -7366 -7371 0
7378 -58 -7368 0
-7374 7383 595 739 0
-7375 7384 596 740 0
7385 741 -7376 597 0
7388 -7379 600 744 0
7389 -7380 745 601 0
7389 -745 -7380 0
-73 -7375 7383 -7374 0
-81 -7376 7384 -7375 0
7390 -97 -7377 0
7390 -7378 -101 0
604 -7383 7392 748 0
7393 -7384 605 749 0
7394 606 -7385 750 0
7398 -7389 754 610 0
-7384 -109 7392 -7383 0
7393 -121 -7384 -7389 0
7397 -7390 -140 -7388 0
613 -7392 7401 757 0
-7393 614 7402 758 0
7403 615 -7394 759 0
7407 -7398 619 763 0
-7393 -145 7401 -7392 0
-153 -7393 7402 -7394 0
-156 -7393 7402 -7397 0
-7393 -157 7402 -7398 0
622 -7401 7410 766 0
7411 -7402 623 767 0
7412 624 -7403 768 0
-7402 -181 7410 -7401 0
-193 7411 -7407 -7402 0
631 -7410 7419 775 0
-7411 7420 632 776 0
7421 633 -7412 777 0
-7411 -217 7419 -7410 0
640 -7419 7428 784 0
-7420 7429 641 785 0
-7420 -253 7428 -7419 0
-261 -7420 7429 -7421 0
649 -7428 7437 793 0
7438 -7429 650 794 0
-7429 -7428 7437 -289 0
658 -7437 7446 802 0
-7438 659 7447 803 0
667 -7446 7455 811 0
-7447 -7446 7455 -361 0
676 -7455 7464 820 0
685 -7464 7473 829 0
694 -7473 7482 838 0
-7482 7491 703 847 0
712 -7491 856 0
577 8040 721 0
8041 578 722 0
8042 723 579 0
8044 725 581 0
727 583 8046 0
8046 -727 0
8041 -11 0
8041 -13 0
8044 -28 0
-8044 -29 0
-8046 -34 0
-8040 8049 586 730 0
8050 731 -8041 587 0
8051 732 -8042 588 0
8053 590 -8044 734 0
8055 736 -8046 592 0
-37 -8041 8049 -8040 0
-45 8050 -8042 -8041 0
8050 -47 -8044 -8041 0
8050 -49 -8046 -8041 0
8051 -53 -8044 -8042 0
8051 -55 -8042 -8046 0
-8049 8058 595 739 0
-8050 8059 596 740 0
8060 741 -8051 597 0
8064 -8055 745 601 0
-73 -8050 8058 -8049 0
-81 -8051 8059 -8050 0
-83 -8053 8059 -8050 0
-85 -8055 8059 -8050 0
604 -8058 8067 748 0
8068 -8059 605 749 0
-8059 -109 8067 -8058 0
8068 -117 -8059 -8060 0
613 -8067 8076 757 0
-8068 614 8077 758 0
-8068 -145 8076 -8067 0
622 -8076 8085 766 0
8086 -8077 623 767 0
-8077 -181 8085 -8076 0
631 -8085 8094 775 0
-8086 8095 632 776 0
-8086 -217 8094 -8085 0
640 -8094 8103 784 0
-8095 8104 641 785 0
-8095 -8094 8103 -253 0
649 -8103 8112 793 0
-8104 -8103 8112 -289 0
658 -8112 8121 802 0
667 -8121 8130 811 0
676 -8130 8139 820 0
685 -8139 8148 829 0
694 -8148 8157 838 0
-8157 8166 703 847 0
712 -8166 856 0
-8166 -541 0
577 8715 721 0
8716 578 722 0
8717 723 579 0
8717 -723 0
8718 724 580 0
8719 725 581 0
8720 582 726 0
8721 583 727 0
8723 729 585 0
8716 -9 0
8716 -10 0
8718 -10 0
8716 -11 0
-8717 -20 0
8718 -22 0
8722 -25 0
8722 -29 0
-8715 8724 586 730 0
8725 731 -8716 587 0
8726 732 -8717 588 0
8727 589 -8718 733 0
8728 590 -8719 734 0
8729 591 -8720 735 0
8730 736 -8721 592 0
8731 593 -8722 737 0
8731 -737 -8722 0
738 8732 594 -8723 0
-45 8725 -8717 -8716 0
-46 8725 -8718 -8716 0
8725 -49 -8721 -8716 0
-58 8727 -8719 -8718 0
-61 8727 -8718 -8722 0
8731 -61 -8718 0
8728 -65 -8719 -8722 0
8731 -65 -8719 0
-8724 8733 595 739 0
-8725 8734 596 740 0
8735 741 -8726 597 0
8736 -8727 742 598 0
8738 -8729 600 744 0
8739 -8730 745 601 0
8740 -8731 602 746 0
747 -8732 8741 603 0
-73 -8725 8733 -8724 0
-81 -8726 8734 -8725 0
-82 -8725 8734 -8727 0
-83 -8728 8734 -8725 0
8736 -97 -8731 -8727 0
8737 -101 -8731 -8728 0
8738 -8731 -104 -8729 0
8740 -8729 -104 0
604 -8733 8742 748 0
8743 -8734 605 749 0
8744 606 -8735 750 0
8745 -8736 751 607 0
8747 -8738 609 753 0
8748 -754 -8739 0
8749 -8740 755 611 0
756 -8741 8750 612 0
-8734 -109 8742 -8733 0
8743 -117 -8734 -8735 0
-119 8743 -8734 -8737 0
-121 8743 -8734 -8739 0
8747 -8740 -140 -8738 0
8749 -8738 -140 0
8749 -8740 -144 -8741 0
613 -8742 8751 757 0
-8743 614 8752 758 0
8753 615 -8744 759 0
8756 -8747 618 762 0
8756 -8747 -762 0
8758 -8749 764 620 0
-8750 8759 765 621 0
-8743 -145 8751 -8742 0
-154 -8743 8752 -8745 0
8758 -8749 -180 -8750 0
622 -8751 8760 766 0
8761 -8752 623 767 0
8762 624 -8753 768 0
8765 -8756 771 627 0
8767 -8758 629 773 0
-8752 -181 8760 -8751 0
8767 -8758 -216 -8759 0
631 -8760 8769 775 0
-8761 8770 632 776 0
8771 633 -8762 777 0
8774 -8765 636 780 0
8776 -8767 638 782 0
-8761 -217 8769 -8760 0
640 -8769 8778 784 0
8779 -8770 641 785 0
8771 -8780 786 642 0
8772 -8781 643 787 0
8785 -8776 647 791 0
-8770 -253 8778 -8769 0
-8771 -261 8779 -8770 0
8784 -8774 -283 0
649 -8778 8787 793 0
8788 -8779 650 794 0
8780 -8789 651 795 0
-8790 8781 652 796 0
8781 -8790 -652 0
8793 -8784 655 799 0
8794 -8785 656 800 0
-8779 -289 -8778 8787 0
8793 -8785 -322 -8784 0
658 -8787 8796 802 0
8797 -8788 659 803 0
8789 -8798 804 660 0
-8799 8790 805 661 0
8790 -8799 -661 0
8802 -8793 664 808 0
8790 -8798 -340 0
8802 -8793 -358 -8794 0
667 -8796 8805 811 0
8806 -8797 668 812 0
8798 -8807 669 813 0
8798 -8807 -669 0
-8808 8799 670 814 0
8799 -8808 -670 0
8811 -8802 673 817 0
8798 -369 -8806 0
-370 -8806 8799 0
-376 -8807 8799 0
676 -8805 8814 820 0
-8806 8815 677 821 0
-8815 8806 821 677 0
8806 -8815 -677 0
8807 -8816 822 678 0
8807 -8816 -678 0
-8817 8808 679 823 0
-8817 8808 -679 0
8820 -8811 682 826 0
8807 -8815 -405 0
-406 8808 -8815 0
-412 8808 -8816 0
685 -8814 8823 829 0
-8815 8824 830 686 0
8815 -8824 830 686 0
8815 -8824 -686 0
-8825 8816 687 831 0
8816 -8825 -687 0
8817 -8826 688 832 0
8817 -8826 -688 0
8829 -8820 835 691 0
-8824 8816 -441 0
8817 -8824 -442 0
-448 8817 -8825 0
694 -8823 8832 838 0
8824 -8833 839 695 0
8824 -8833 -695 0
8825 -8834 696 840 0
-696 8825 -8834 0
-8835 8826 841 697 0
8826 -8835 -697 0
8828 -699 -8837 0
-8824 -469 -8823 8832 0
8825 -8833 -477 0
-478 8826 -8833 0
-484 8826 -8834 0
-8832 8841 703 847 0
8833 704 848 -8842 0
8833 -704 -8842 0
8834 705 -8843 849 0
8834 -705 -8843 0
8835 850 -8844 706 0
8835 -706 -8844 0
8837 852 -8846 708 0
8837 -708 -8846 0
8834 -513 -8842 0
8835 -514 -8842 0
8837 -516 -8842 0
-520 8835 -8843 0
8837 -522 -8843 0
8837 -527 -8844 0
8837 -531 -8845 0
712 -8841 856 0
8842 857 713 0
8842 -713 0
8843 714 858 0
8843 -714 0
8844 715 859 0
8844 -715 0
8845 716 860 0
8845 -716 0
8846 717 861 0
8846 -717 0
8843 -549 0
8844 -550 0
8845 -551 0
8846 -552 0
8844 -556 0
8845 -557 0
8846 -558 0
8845 -562 0
8846 -563 0
8846 -567 0
9612 -9621 817 673 0
9621 -9630 682 826 0
9630 -9639 691 835 0
9639 -9648 844 700 0
9648 709 -9657 853 0
9657 862 718 0
-9796 578 722 0
-9797 723 579 0
-9799 725 581 0
9800 582 726 0
-9801 583 727 0
9802 728 584 0
9802 -728 0
9803 729 585 0
-9805 731 9796 587 0
-9806 732 9797 588 0
9809 591 -9800 735 0
9811 -737 -9802 0
738 9812 594 -9803 0
-9814 9805 740 596 0
-9815 741 9806 597 0
9818 -9809 600 744 0
9820 -9811 746 602 0
747 -9812 9821 603 0
9818 -9811 -104 -9809 0
9820 -9809 -104 0
-9823 9814 605 749 0
-9824 606 9815 750 0
9827 -9818 609 753 0
9829 -9820 755 611 0
756 -9821 9830 612 0
9827 -9820 -140 -9818 0
9829 -9818 -140 0
9829 -9820 -144 -9821 0
9836 -9827 618 762 0
9838 -9829 764 620 0
-9830 9839 765 621 0
9837 -175 -9827 0
9838 -9829 -180 -9830 0
9845 -9836 771 627 0
9846 -9837 628 772 0
9847 -9838 629 773 0
9847 -9838 -216 -9839 0
9854 -9845 636 780 0
9856 -9847 638 782 0
9855 -9846 -250 -9847 0
9864 -9855 790 646 0
9865 -9856 647 791 0
9864 -9854 -283 0
9873 -9864 655 799 0
9874 -9865 656 800 0
9873 -9865 -322 -9864 0
9882 -9873 664 808 0
9882 -9873 -358 -9874 0
9891 -9882 673 817 0
9900 -9891 682 826 0
9927 -9918 709 853 0
9913 9918 -517 -9927 0
9927 862 718 0
9927 9923 -559 0
10741 578 722 0
10743 724 580 0
10745 582 726 0
-10746 583 727 0
10747 -728 0
10748 729 585 0
10743 -25 0
10747 -25 0
10750 731 -10741 587 0
10752 589 -10743 733 0
10754 591 -10745 735 0
-10755 736 10746 592 0
10756 -737 -10747 0
738 10757 594 -10748 0
10752 -61 -10743 -10747 0
10763 -10754 600 744 0
10765 -10756 746 602 0
747 -10757 10766 603 0
756 -10766 10775 612 0
10772 -10765 -140 -10763 0
10774 -10763 -140 0
10781 -10772 618 762 0
10783 -10774 620 764 0
-10775 10784 765 621 0
10783 -10774 -180 -10775 0
10790 -10781 771 627 0
10792 -10783 629 773 0
10792 -10783 -216 -10784 0
10799 -10790 636 780 0
10801 -10792 638 782 0
10810 -10801 647 791 0
10809 -10799 -283 0
577 11955 721 0
11956 578 722 0
-11957 723 579 0
11958 724 580 0
11959 725 581 0
11959 -725 0
-11961 583 727 0
11962 728 584 0
11962 -728 0
-11956 -9 0
11956 -10 0
11958 -10 0
11956 -11 0
-11956 -13 0
11956 -14 0
11958 -22 0
-11958 -24 0
11958 -25 0
-11959 -28 0
11959 -29 0
-11955 11964 586 730 0
11965 731 -11956 587 0
-11965 587 11956 731 0
-11965 -587 11956 0
-11966 732 11957 588 0
11967 589 -11958 733 0
-11967 11958 733 589 0
-11970 736 11961 592 0
11971 593 -11962 737 0
11971 -737 -11962 0
-46 11965 -11956 -11958 0
-47 11965 -11959 -11956 0
11965 -50 -11962 -11956 0
11968 -58 -11958 0
11968 -65 -11962 -11959 0
-11964 11973 595 739 0
-11965 11974 596 740 0
-11974 11965 740 596 0
11977 -11968 743 599 0
-73 -11965 11973 -11964 0
-83 -11968 11974 -11965 0
-86 11974 -11971 -11965 0
11977 -101 -11971 -11968 0
604 -11973 11982 748 0
11983 -11974 605 749 0
-11983 11974 749 605 0
11986 -11977 752 608 0
-11974 -109 11982 -11973 0
613 -11982 11991 757 0
-11983 614 11992 758 0
-11983 -145 11991 -11982 0
-155 -11983 11992 -11986 0
622 -11991 12000 766 0
12001 -11992 623 767 0
-11992 -181 12000 -11991 0
631 -12000 12009 775 0
12010 -12001 632 776 0
-12001 -217 12009 -12000 0
640 -12009 12018 784 0
12019 -12010 785 641 0
-12010 -12009 12018 -253 0
649 -12018 12027 793 0
-12019 -12018 12027 -289 0
658 -12027 12036 802 0
667 -12036 12045 811 0
676 -12045 12054 820 0
685 -12054 12063 829 0
694 -12063 12072 838 0
-12072 12081 703 847 0
-12081 712 856 0
12361 578 722 0
12364 725 581 0
-12366 583 727 0
12367 -25 0
12364 -29 0
12370 731 -12361 587 0
12373 590 -12364 734 0
-12375 736 12366 592 0
12373 -65 -12364 -12367 0
577 12495 721 0
12496 578 722 0
12497 723 579 0
-723 12497 0
12498 724 580 0
12498 -724 0
12499 725 581 0
12499 -725 0
12500 582 726 0
-12501 727 583 0
-12501 -583 0
12502 728 584 0
12502 -728 0
12503 729 585 0
12496 -9 0
12497 -9 0
12496 -10 0
12496 -11 0
-12496 -13 0
12496 -14 0
12497 -16 0
12498 -16 0
12497 -17 0
-12497 -19 0
12497 -20 0
12498 -22 0
-12498 -24 0
12498 -25 0
-12499 -28 0
12499 -29 0
-12495 12504 586 730 0
12505 731 -12496 587 0
-12505 -587 12496 0
12506 732 -12497 588 0
12506 -732 -12497 0
12507 589 -12498 733 0
-12507 12498 733 589 0
-12507 12498 -589 0
12507 -733 -12498 0
12508 590 -12499 734 0
12508 -734 -12499 0
12509 591 -12500 735 0
-12510 736 12501 592 0
-12510 -592 12501 0
12511 593 -12502 737 0
12511 -737 -12502 0
738 12512 594 -12503 0
-37 -12496 12504 -12495 0
-45 12505 -12497 -12496 0
-46 12505 -12498 -12496 0
-47 12505 -12499 -12496 0
12508 -47 -12496 0
-12505 -49 12501 0
12510 -49 -12496 0
12505 -50 -12502 -12496 0
12506 -52 -12498 -12497 0
12506 -53 -12499 -12497 0
12508 -53 -12497 0
12506 -56 -12502 -12497 0
-58 12507 -12498 -12499 0
-12507 -60 12501 0
12507 -61 -12498 -12502 0
-64 -12508 12501 0
12508 -65 -12502 -12499 0
-12504 12513 595 739 0
-12505 12514 596 740 0
12515 741 -12506 597 0
12515 -741 -12506 0
12516 -12507 742 598 0
12517 -12508 743 599 0
12518 -12509 600 744 0
-12519 12510 745 601 0
12520 -12511 746 602 0
12520 -12511 -746 0
747 -12512 12521 603 0
-73 -12505 12513 -12504 0
-81 12514 -12506 -12505 0
-82 -12505 12514 -12507 0
-83 -12508 12514 -12505 0
12515 -88 -12506 -12507 0
12515 -89 -12508 -12506 0
12515 -92 -12511 -12506 0
12516 -97 -12511 -12507 0
12517 -101 -12511 -12508 0
12518 -12511 -104 -12509 0
604 -12513 12522 748 0
12523 -12514 605 749 0
12524 606 -12515 750 0
12525 -12516 751 607 0
12526 -12517 752 608 0
12526 -752 -12517 0
12527 -12518 609 753 0
12527 -12518 -753 0
-12528 12519 754 610 0
12529 -12520 755 611 0
12529 -12520 -755 0
756 -12521 12530 612 0
-12514 -109 12522 -12513 0
12523 -117 -12515 -12514 0
-118 12523 -12514 -12516 0
-119 12523 -12517 -12514 0
12523 -12518 -120 -12514 0
-12523 -121 12519 0
-124 12524 -12516 -12515 0
-125 12524 -12517 -12515 0
12524 -126 -12515 -12518 0
-127 -12524 12519 0
-136 -12526 12519 0
12527 -12520 -140 -12518 0
12529 -12518 -140 0
613 -12522 12531 757 0
-12523 614 12532 758 0
-12532 12523 614 758 0
-12532 12523 -614 0
12533 615 -12524 759 0
12534 -12525 616 760 0
12535 -12526 617 761 0
12536 -12527 618 762 0
12536 -12527 -762 0
12538 -12529 620 764 0
12538 -12529 -764 0
-12530 12539 765 621 0
-12523 -145 12531 -12522 0
-153 -12523 12532 -12524 0
-154 -12525 12532 -12523 0
-155 -12523 12532 -12526 0
-156 -12527 12532 -12523 0
-160 12533 -12524 -12525 0
-161 12533 -12526 -12524 0
12533 -12527 -162 -12524 0
12537 -175 -12527 0
12536 -12529 -176 -12527 0
12538 -12527 -176 0
12538 -12529 -180 -12530 0
622 -12531 12540 766 0
12541 -12532 623 767 0
-12541 12532 767 623 0
-12541 -623 12532 0
12543 -12534 769 625 0
12544 -12535 770 626 0
12545 -12536 771 627 0
12545 -771 -12536 0
12546 -12537 628 772 0
12546 -12537 -772 0
12547 -12538 629 773 0
-12532 -181 12540 -12531 0
12541 -12532 -12533 -189 0
-12534 12541 -190 -12532 0
-191 -12535 12541 -12532 0
-192 12541 -12536 -12532 0
12547 -12538 -216 -12539 0
631 -12540 12549 775 0
-12541 12550 632 776 0
12541 -12550 776 632 0
12541 -12550 -632 0
-12545 12554 636 780 0
-780 12554 -12545 0
-12546 12555 637 781 0
-781 12555 -12546 0
12556 -12547 638 782 0
-12541 -217 12549 -12540 0
-247 12555 -12545 0
12555 -250 -12547 -12546 0
640 -12549 12558 784 0
-12550 12559 641 785 0
12550 -12559 785 641 0
-641 12550 -12559 0
-12562 12553 644 788 0
-644 12553 -12562 0
12563 -12554 789 645 0
12563 -789 -12554 0
12564 -12555 790 646 0
12565 -12556 647 791 0
-12550 -12549 12558 -253 0
12559 -253 -12549 0
12564 -12554 -283 0
649 -12558 12567 793 0
12568 -12559 650 794 0
12559 -12568 794 650 0
-12568 12559 -650 0
-794 -12559 12568 0
-12571 12562 653 797 0
-12563 12572 654 798 0
12573 -12564 799 655 0
12574 -12565 656 800 0
-12558 -289 -12559 12567 0
-310 12562 -12570 0
12573 -12563 -319 0
-320 -12565 12572 -12563 0
12573 -12565 -322 -12564 0
658 -12567 12576 802 0
-12568 659 12577 803 0
-12577 12568 803 659 0
12568 -12577 -659 0
-12579 12570 661 805 0
12570 -12579 -661 0
662 12571 -12580 806 0
-662 12571 -12580 0
-12572 12581 663 807 0
12572 -12581 807 663 0
12572 -12581 -663 0
12582 -12573 808 664 0
12583 -12574 665 809 0
-12568 -325 -12567 12576 0
12572 -336 -12577 0
-12578 -340 12570 0
-342 12572 -12578 0
-347 12572 -12579 0
-351 12572 -12580 0
12582 -12573 -358 -12574 0
667 -12576 12585 811 0
-12577 12586 668 812 0
-12586 12577 812 668 0
-668 12577 -12586 0
669 -12587 813 12578 0
-669 -12587 12578 0
-12588 12579 670 814 0
12579 -12588 -670 0
12580 -12589 815 671 0
12580 -12589 -671 0
-12590 12581 816 672 0
-12590 12581 -672 0
-12582 12591 817 673 0
-12582 12591 -817 0
12592 -12583 674 818 0
12583 -12592 674 818 0
-12577 -12576 -361 12585 0
-369 -12586 12578 0
-370 12579 -12586 0
-371 12580 -12586 0
12581 -372 -12586 0
-376 12579 -12587 0
-377 12580 -12587 0
-378 12581 -12587 0
-382 12580 -12588 0
-383 12581 -12588 0
-387 12581 -12589 0
-12581 12591 -391 0
676 -12585 12594 820 0
-12586 12595 677 821 0
-12595 12586 821 677 0
12586 -12595 -677 0
678 822 -12596 12587 0
-678 12587 -12596 0
12588 823 -12597 679 0
12588 -679 -12597 0
824 680 -12598 12589 0
-680 12589 -12598 0
-12599 12590 681 825 0
12590 -12599 -681 0
12591 -12600 682 826 0
12591 -682 -12600 0
12601 -12592 683 827 0
12592 -12601 683 827 0
-12586 -397 -12585 12594 0
-405 -12595 12587 0
-405 -12586 12595 -12587 0
-406 12588 -12595 0
-12595 -407 12589 0
-12589 -407 12595 -12586 0
-408 12590 -12595 0
-409 12591 -12595 0
-412 12588 -12596 0
-413 12589 -12596 0
-414 12590 -12596 0
-415 12591 -12596 0
-418 12589 -12597 0
-419 12590 -12597 0
12591 -420 -12597 0
-423 12590 -12598 0
12591 -424 -12598 0
12591 -12599 -427 0
-12591 12600 -430 -12592 0
685 -12594 12603 829 0
-12595 12604 686 830 0
-12604 12595 830 686 0
-12604 -686 12595 0
687 12596 -12605 831 0
-12605 12596 -687 0
12597 832 -12606 688 0
-688 12597 -12606 0
-12607 12598 833 689 0
-689 12598 -12607 0
12599 -12608 834 690 0
12599 -12608 -690 0
-12600 12609 835 691 0
12600 -12609 691 835 0
-691 12600 -12609 0
12601 -12610 692 836 0
-12595 -433 -12594 12603 0
-12604 -441 12596 0
-12604 -442 12597 0
-443 12598 -12604 0
-444 12599 -12604 0
-445 12600 -12604 0
-448 12597 -12605 0
-449 12598 -12605 0
-450 12599 -12605 0
12600 -451 -12605 0
-454 12598 -12606 0
-455 12599 -12606 0
-456 12600 -12606 0
-459 12599 -12607 0
-460 12600 -12607 0
12600 -12608 -463 0
12601 -464 -12608 0
694 -12603 12612 838 0
-12613 12604 839 695 0
-12613 12604 -695 0
-12614 12605 696 840 0
-696 12605 -12614 0
841 12606 -12615 697 0
-697 12606 -12615 0
842 12607 -12616 698 0
-698 12607 -12616 0
12608 -12617 699 843 0
-699 12608 -12617 0
12609 -12618 844 700 0
12609 -700 -12618 0
12610 -12619 701 845 0
-12604 -469 -12603 12612 0
-12613 -477 12605 0
-478 12606 -12613 0
-479 12607 -12613 0
-480 12608 -12613 0
-480 12608 12604 -12617 0
-481 12609 -12613 0
-484 12606 -12614 0
-485 12607 -12614 0
-486 12608 -12614 0
-487 12609 -12614 0
-490 12607 -12615 0
-491 12608 -12615 0
12609 -492 -12615 0
-495 12608 -12616 0
-496 12609 -12616 0
-499 12609 -12617 0
12610 -502 -12618 0
-12612 12621 703 847 0
12613 -12622 848 704 0
12613 -704 -12622 0
12614 705 -12623 849 0
12614 -705 -12623 0
12615 706 -12624 850 0
12615 -706 -12624 0
12616 851 707 -12625 0
12616 -707 -12625 0
12617 852 -12626 708 0
12617 -708 -12626 0
12618 709 -12627 853 0
12618 -709 -12627 0
12619 710 -12628 854 0
-12613 -12612 -505 12621 0
12614 -513 -12622 0
12615 -514 -12622 0
12616 -515 -12622 0
12617 -516 -12622 0
12618 -517 -12622 0
-520 12615 -12623 0
-521 12616 -12623 0
12617 -522 -12623 0
12618 -523 -12623 0
12616 -526 -12624 0
12617 -527 -12624 0
12618 -528 -12624 0
12617 -531 -12625 0
12618 -532 -12625 0
12618 -535 -12626 0
-12621 712 856 0
12622 857 713 0
12622 -713 0
12623 714 858 0
12623 -714 0
12624 715 859 0
12624 -715 0
12625 716 860 0
12625 -716 0
12626 717 861 0
12626 -717 0
12627 718 862 0
12628 863 719 0
12623 -549 0
12624 -550 0
12625 -551 0
12626 -552 0
12627 -553 0
12624 -556 0
12625 -557 0
12626 -558 0
12627 -559 0
12625 -562 0
12626 -563 0
12627 -564 0
12626 -567 0
12627 -568 0
12627 -571 0
577 13440 721 0
13441 578 722 0
13442 723 579 0
13445 582 726 0
13446 727 583 0
13446 -727 0
13447 728 584 0
13447 -728 0
13448 729 585 0
13441 -9 0
-13441 -11 0
13441 -13 0
-17 -13442 0
13442 -19 0
13446 -34 0
-13440 13449 586 730 0
13450 731 -13441 587 0
13451 732 -13442 588 0
13454 591 -13445 735 0
13455 736 -13446 592 0
13455 -736 -13446 0
13456 593 -13447 737 0
13456 -737 -13447 0
738 13457 594 -13448 0
-45 13450 -13442 -13441 0
13450 -49 -13441 -13446 0
13451 -55 -13446 -13442 0
13455 -70 -13447 -13446 0
13456 -72 -13448 -13447 0
-13449 13458 595 739 0
-13450 13459 596 740 0
13460 741 -13451 597 0
13463 -13454 600 744 0
13464 -13455 745 601 0
-745 13464 -13455 0
13465 -13456 746 602 0
13465 -13456 -746 0
747 -13457 13466 603 0
-73 -13450 13458 -13449 0
-81 13459 -13451 -13450 0
-85 -13455 13459 -13450 0
-86 13459 -13456 -13450 0
13463 -13456 -104 -13454 0
13465 -13454 -104 0
-106 13464 -13456 -13455 0
-107 13464 -13457 -13455 0
604 -13458 13467 748 0
13468 -13459 605 749 0
13469 606 -13460 750 0
13472 -13463 609 753 0
13472 -13463 -753 0
13473 -13464 754 610 0
-754 13473 -13464 0
13474 -13465 755 611 0
13474 -13465 -755 0
756 -13466 13475 612 0
-13466 -756 13475 0
-13459 -109 13467 -13458 0
13468 -117 -13459 -13460 0
13472 -139 -13463 -13464 0
13472 -13465 -140 -13463 0
13473 -13464 -142 -13465 0
13474 -13465 -144 -13466 0
613 -13467 13476 757 0
-13468 614 13477 758 0
13478 759 -13469 615 0
13481 -13472 618 762 0
13481 -13472 -762 0
13482 -13473 763 619 0
13482 -763 -13473 0
13483 -13474 764 620 0
13483 -13474 -764 0
-13475 13484 765 621 0
-13468 -145 13476 -13467 0
-13468 -13469 13477 -153 0
-163 13478 -13473 -13469 0
13481 -175 -13472 -13473 0
13481 -13474 -176 -13472 0
13483 -13472 -176 0
13482 -178 -13474 -13473 0
13483 -13474 -180 -13475 0
622 -13476 13485 766 0
13486 -13477 623 767 0
13490 -13481 771 627 0
-771 13490 -13481 0
13491 -13482 772 628 0
13491 -772 -13482 0
13492 -13483 629 773 0
13492 -773 -13483 0
-13477 -181 13485 -13476 0
-13477 13486 -189 -13478 0
-193 -13477 13486 -13482 0
13490 -211 -13482 -13481 0
13490 -212 -13483 -13481 0
13491 -214 -13483 -13482 0
13492 -13482 -214 0
13492 -13483 -216 -13484 0
631 -13485 13494 775 0
-13486 13495 632 776 0
13499 -13490 636 780 0
-780 13499 -13490 0
13500 -13491 637 781 0
-781 13500 -13491 0
13501 -13492 638 782 0
13501 -782 -13492 0
-13486 -217 13494 -13485 0
-247 13499 -13491 -13490 0
13499 -248 -13492 -13490 0
13500 -250 -13492 -13491 0
640 -13494 13503 784 0
-13495 13504 641 785 0
-13499 13508 645 789 0
-789 13508 -13499 0
13509 -13500 790 646 0
-790 13509 -13500 0
13510 -13501 647 791 0
13510 -13501 -791 0
-13495 -253 13503 -13494 0
-283 -13499 -13500 13508 0
13508 -13501 -284 -13499 0
-286 -13501 13509 -13500 0
649 -13503 13512 793 0
13513 -13504 650 794 0
13517 -13508 798 654 0
-798 13517 -13508 0
13518 -13509 799 655 0
13518 -13509 -799 0
13519 -13510 656 800 0
13519 -13510 -800 0
-13504 -13503 13512 -289 0
-319 13517 -13509 -13508 0
-320 13517 -13510 -13508 0
13518 -13510 -322 -13509 0
658 -13512 13521 802 0
-13513 659 13522 803 0
-13517 13526 663 807 0
13526 -13517 -807 0
13527 -13518 808 664 0
-13518 13527 -808 0
13528 -13519 665 809 0
13528 -13519 -809 0
13526 -13518 -355 -13517 0
13526 -356 -13519 -13517 0
-358 13527 -13519 -13518 0
667 -13521 13530 811 0
13535 -13526 816 672 0
-816 13535 -13526 0
-13527 13536 817 673 0
-13527 13536 -817 0
13537 -13528 674 818 0
13537 -818 -13528 0
-13522 -13521 13530 -361 0
-13526 -13527 -391 13535 0
-392 13535 -13528 -13526 0
-394 -13528 13536 -13527 0
676 -13530 13539 820 0
13544 -13535 681 825 0
-13535 13544 -825 0
-13536 13545 826 682 0
-13536 13545 -826 0
13546 -13537 683 827 0
-13537 13546 -827 0
13544 -13536 -427 -13535 0
13544 -13535 -428 -13537 0
13545 -430 -13537 -13536 0
685 -13539 13548 829 0
-13544 13553 690 834 0
13553 -13544 -834 0
-13545 13554 691 835 0
13554 -13545 -835 0
13555 -13546 692 836 0
13555 -836 -13546 0
13549 -433 -13539 0
-13544 -13545 -463 13553 0
-464 13553 -13546 -13544 0
13554 -466 -13546 -13545 0
694 -13548 13557 838 0
13558 -13549 695 839 0
13562 -13553 843 699 0
13562 -13553 -843 0
-13554 13563 844 700 0
-13554 13563 -844 0
13564 -13555 701 845 0
13564 -13555 -845 0
13558 -469 -13548 0
13558 -480 -13549 -13553 0
-481 -13554 -13549 13558 0
-13553 -499 -13554 13562 0
13562 -13553 -500 -13555 0
-13555 -13554 -502 13563 0
-13557 13566 703 847 0
-13558 704 13567 848 0
-13562 13571 708 852 0
-13562 13571 -852 0
-13563 13572 853 709 0
-13563 13572 -853 0
-13557 -505 13567 0
-13563 -13562 13571 -535 0
-13562 -13564 -536 13571 0
-13564 13572 -538 -13563 0
-13566 712 856 0
-13567 857 713 0
-13571 -13567 -552 0
-13572 -13567 -553 0
13985 582 726 0
13988 729 585 0
13987 -25 0
13994 591 -13985 735 0
13996 593 -13987 737 0
13996 -737 -13987 0
738 13997 594 -13988 0
14003 -13994 600 744 0
14005 -13996 746 602 0
747 -13997 14006 603 0
756 -14006 14015 612 0
14012 -14005 -140 -14003 0
14014 -14003 -140 0
14021 -14012 618 762 0
14023 -14014 620 764 0
-14015 14024 765 621 0
14023 -14014 -180 -14015 0
14030 -14021 771 627 0
14032 -14023 629 773 0
14032 -14023 -216 -14024 0
14039 -14030 636 780 0
14041 -14032 638 782 0
14050 -14041 647 791 0
14049 -14039 -283 0
-14049 14058 799 655 0
-14049 14058 -799 0
14059 -14050 656 800 0
-14058 14067 808 664 0
-14058 14067 -808 0
14068 -14059 665 809 0
577 14115 721 0
14116 578 722 0
14117 723 579 0
14117 -723 0
14118 724 580 0
14118 -724 0
-14119 725 581 0
-14119 -581 0
14120 582 726 0
14121 727 583 0
14121 -727 0
14122 728 584 0
14122 -728 0
14123 729 585 0
14116 -9 0
14116 -10 0
-14116 -11 0
14116 -13 0
14116 -14 0
14117 -16 0
-17 -14117 0
14117 -19 0
14117 -20 0
-14118 -22 0
14118 -24 0
14118 -25 0
14121 -34 0
-14115 14124 586 730 0
14125 731 -14116 587 0
14116 -14125 731 587 0
-14125 14116 -587 0
14126 732 -14117 588 0
14126 -732 -14117 0
14127 589 -14118 733 0
-14127 14118 733 589 0
-14127 14118 -589 0
14127 -733 -14118 0
-14128 590 14119 734 0
14129 591 -14120 735 0
14130 736 -14121 592 0
14130 -736 -14121 0
14131 593 -14122 737 0
14131 -737 -14122 0
738 14132 594 -14123 0
-45 14125 -14117 -14116 0
-46 14125 -14118 -14116 0
-14125 -47 14119 0
14125 -49 -14121 -14116 0
14125 -50 -14122 -14116 0
14126 -52 -14117 -14118 0
14126 -55 -14121 -14117 0
14126 -56 -14122 -14117 0
-58 -14127 14119 0
14127 -60 -14121 -14118 0
14127 -61 -14118 -14122 0
14130 -70 -14121 -14122 0
-14124 14133 595 739 0
-14125 14134 596 740 0
-14134 14125 740 596 0
14135 741 -14126 597 0
14136 -14127 742 598 0
-14136 14127 742 598 0
-598 -14136 14127 0
14136 -742 -14127 0
-14137 14128 599 743 0
-14137 -599 14128 0
14138 -14129 600 744 0
14139 -14130 745 601 0
14139 -745 -14130 0
14140 -14131 746 602 0
14140 -14131 -746 0
747 -14132 14141 603 0
-73 -14125 14133 -14124 0
-81 -14126 14134 -14125 0
-82 -14125 14134 -14127 0
-85 -14125 14134 -14130 0
-86 -14125 14134 -14131 0
14135 -88 -14126 -14127 0
14135 -91 -14130 -14126 0
-96 14136 -14130 -14127 0
-97 14136 -14131 -14127 0
14138 -14131 -104 -14129 0
14139 -106 -14131 -14130 0
604 -14133 14142 748 0
14143 -14134 605 749 0
14144 606 -14135 750 0
14145 -14136 751 607 0
-14146 14137 752 608 0
-14146 -608 14137 0
14147 -14138 609 753 0
14147 -14138 -753 0
14148 -14139 754 610 0
14148 -754 -14139 0
14149 -14140 755 611 0
14149 -14140 -755 0
756 -14141 14150 612 0
-14141 -756 14150 0
-14134 -109 14142 -14133 0
14143 -117 -14134 -14135 0
14144 -117 -14134 0
-118 14143 -14134 -14136 0
-121 14143 -14134 -14139 0
-124 14144 -14136 -14135 0
-127 14144 -14139 -14135 0
-131 14145 -14138 -14136 0
-132 14145 -14139 -14136 0
-139 14147 -14139 -14138 0
14147 -14140 -140 -14138 0
14148 -14140 -142 -14139 0
14149 -14140 -144 -14141 0
613 -14142 14151 757 0
-14143 614 14152 758 0
14153 759 -14144 615 0
-14155 14146 761 617 0
-14155 14146 -617 0
14156 -14147 618 762 0
-14156 14147 -618 0
14156 -14147 -762 0
14157 -14148 763 619 0
14157 -763 -14148 0
14158 -14149 764 620 0
14158 -14149 -764 0
-14150 14159 765 621 0
-14143 -145 14151 -14142 0
-153 -14144 14152 -14143 0
14153 -153 -14143 0
-14148 -157 14152 -14143 0
-163 14153 -14148 -14144 0
14156 -175 -14147 -14148 0
14149 -14156 -176 0
14156 -14149 -176 -14147 0
14157 -14148 -14149 -178 0
14158 -14149 -180 -14150 0
622 -14151 14160 766 0
14161 -14152 623 767 0
-14161 14152 767 623 0
-14161 -623 14152 0
14162 768 -14153 624 0
-14164 14155 770 626 0
14165 -14156 771 627 0
-14165 14156 771 627 0
-771 14165 -14156 0
14166 -14157 772 628 0
14166 -772 -14157 0
14167 -14158 629 773 0
-14152 -181 14160 -14151 0
14161 -14152 -14153 -189 0
-192 14165 -14152 0
-193 -14157 14161 -14152 0
-211 14165 -14157 -14156 0
-212 14165 -14156 -14158 0
14166 -214 -14158 -14157 0
14167 -14158 -216 -14159 0
631 -14160 14169 775 0
-14161 14170 632 776 0
14171 777 -14162 633 0
634 -14172 778 14163 0
-634 14163 -14172 0
14174 -14165 780 636 0
-780 14174 -14165 0
14175 -14166 781 637 0
14175 -781 -14166 0
14176 -14167 638 782 0
14176 -782 -14167 0
-14161 -217 14169 -14160 0
-225 -14162 14170 -14161 0
-226 -14163 14170 -14161 0
-14164 -227 -14161 14170 0
-228 -14165 14170 -14161 0
-229 -14166 14170 -14161 0
-247 14174 -14166 -14165 0
14174 -248 -14165 -14167 0
14175 -250 -14167 -14166 0
640 -14169 14178 784 0
-14170 14179 641 785 0
14170 -14179 785 641 0
14170 -641 -14179 0
14172 -14181 643 787 0
-643 14172 -14181 0
14183 -14174 789 645 0
14183 -789 -14174 0
14184 -14175 790 646 0
14184 -14175 -790 0
14185 -14176 647 791 0
-14170 -14169 14178 -253 0
14179 -253 -14169 0
-261 -14170 14179 -14171 0
-262 -14179 14172 0
14183 -283 -14174 -14175 0
14184 -283 -14174 0
14183 -14176 -284 -14174 0
14184 -286 -14176 -14175 0
649 -14178 14187 793 0
14188 -14179 650 794 0
14180 -14189 651 795 0
14180 -651 -14189 0
14181 -14190 796 652 0
-652 14181 -14190 0
14182 -14191 653 797 0
14182 -14191 -653 0
14192 -14183 798 654 0
14192 -14183 -798 0
14193 -14184 799 655 0
14193 -14184 -799 0
14194 -14185 656 800 0
-14179 -14178 14187 -289 0
-297 -14188 14180 0
-298 -14188 14181 0
-299 14182 -14188 0
-304 -14189 14181 0
-305 14182 -14189 0
-310 14182 -14190 0
14192 -14184 -319 -14183 0
14192 -320 -14183 -14185 0
-14185 14193 -322 -14184 0
658 -14187 14196 802 0
-14188 14197 659 803 0
659 14188 803 -14197 0
-659 14188 -14197 0
660 -14198 804 14189 0
-660 14189 -14198 0
805 661 -14199 14190 0
-661 14190 -14199 0
-14200 14191 662 806 0
-14200 14191 -662 0
14201 -14192 663 807 0
14201 -14192 -807 0
14202 -14193 808 664 0
14202 -14193 -808 0
14203 -14194 665 809 0
-14188 -325 -14187 14196 0
-333 14189 -14197 0
-334 14190 -14197 0
14191 -335 -14197 0
-340 14190 -14198 0
-341 14191 -14198 0
-346 14191 -14199 0
14201 -356 -14194 -14192 0
14202 -358 -14194 -14193 0
667 -14196 14205 811 0
-14197 14206 668 812 0
14197 -14206 812 668 0
14197 -668 -14206 0
14198 -14207 669 813 0
14198 -14207 -669 0
14199 -14208 814 670 0
14199 -14208 -670 0
14200 -14209 815 671 0
14200 -14209 -671 0
14210 -14201 816 672 0
14210 -816 -14201 0
14211 -14202 817 673 0
14211 -14202 -817 0
14212 -14203 674 818 0
14206 -14196 -361 0
14198 -369 -14206 0
-370 14199 -14206 0
-371 14200 -14206 0
-376 14199 -14207 0
-377 14200 -14207 0
-382 -14208 14200 0
14210 -14201 -391 -14202 0
14211 -394 -14203 -14202 0
676 -14205 14214 820 0
14215 -14206 677 821 0
-14215 14206 677 821 0
-677 -14215 14206 0
678 -14216 822 14207 0
-678 14207 -14216 0
14208 -14217 823 679 0
14208 -14217 -679 0
14209 -14218 824 680 0
14209 -14218 -680 0
14219 -14210 681 825 0
14210 -14219 -681 0
-14211 14220 826 682 0
-14211 14220 -826 0
14221 -14212 683 827 0
-14206 -14205 14214 -397 0
-405 14207 -14215 0
-406 14208 -14215 0
14209 -407 -14215 0
-412 14208 -14216 0
-413 14209 -14216 0
14210 -414 -14216 0
-418 -14217 14209 0
14210 -419 -14217 0
14210 -423 -14218 0
14211 -424 -14218 0
14220 -430 -14212 -14211 0
685 -14214 14223 829 0
14224 -14215 686 830 0
-14224 14215 830 686 0
-14224 -686 14215 0
-14225 14216 687 831 0
-687 -14225 14216 0
14217 -14226 832 688 0
14217 -14226 -688 0
-14227 14218 689 833 0
14218 -14227 -689 0
-14228 14219 834 690 0
14219 -14228 -690 0
14229 -14220 835 691 0
14230 -14221 692 836 0
-14215 -433 -14214 14223 0
-14224 14216 -441 0
14217 -14224 -442 0
-443 14218 -14224 0
-444 14219 -14224 0
-14220 -445 -14215 14224 0
-448 14217 -14225 0
-449 14218 -14225 0
-450 14219 -14225 0
-454 14218 -14226 0
-455 14219 -14226 0
14219 -14227 -459 0
694 -14223 14232 838 0
14224 -14233 695 839 0
14224 -14233 -695 0
14225 -14234 696 840 0
-696 14225 -14234 0
14226 -14235 841 697 0
14226 -697 -14235 0
14227 -14236 842 698 0
-698 14227 -14236 0
14228 -14237 699 843 0
14228 -699 -14237 0
14229 -700 -14238 0
-14224 -469 -14223 14232 0
-14233 14225 -477 0
14226 -478 -14233 0
-479 14227 -14233 0
14228 -480 -14233 0
-484 14226 -14234 0
-485 14227 -14234 0
-486 14228 -14234 0
14229 -487 -14234 0
14227 -14235 -490 0
-491 14228 -14235 0
14229 -492 -14235 0
-495 14228 -14236 0
-14232 14241 703 847 0
704 -14242 848 14233 0
14233 -704 -14242 0
14234 705 -14243 849 0
14234 -705 -14243 0
14235 706 -14244 850 0
14235 -706 -14244 0
14236 851 -14245 707 0
14236 -707 -14245 0
14237 708 -14246 852 0
14237 -708 -14246 0
14238 853 -14247 709 0
-14233 -14232 -505 14241 0
14234 -513 -14242 0
-514 14235 -14242 0
14236 -515 -14242 0
-516 14237 -14242 0
14238 -517 -14242 0
-520 14235 -14243 0
-521 14236 -14243 0
-522 14237 -14243 0
14238 -523 -14243 0
14236 -526 -14244 0
-527 14237 -14244 0
14238 -528 -14244 0
14237 -531 -14245 0
14238 -532 -14245 0
14238 -535 -14246 0
-14241 712 856 0
14242 857 713 0
14242 -713 0
14243 714 858 0
14243 -714 0
14244 715 859 0
14244 -715 0
14245 716 860 0
14245 -716 0
14246 717 861 0
14246 -717 0
14247 718 862 0
14247 -718 0
14243 -549 0
14244 -550 0
14245 -551 0
14246 -552 0
14247 -553 0
14244 -556 0
14245 -557 0
14246 -558 0
14247 -559 0
14245 -562 0
14246 -563 0
14247 -564 0
14246 -567 0
14247 -568 0
14247 -571 0
577 14385 721 0
14390 582 726 0
14391 727 583 0
14391 -727 0
14392 728 584 0
14392 -728 0
14393 729 585 0
14391 -34 0
-14385 14394 586 730 0
14399 591 -14390 735 0
14400 736 -14391 592 0
14400 -736 -14391 0
14401 593 -14392 737 0
14401 -737 -14392 0
738 14402 594 -14393 0
14400 -70 -14391 -14392 0
595 -14394 14403 739 0
14408 -14399 600 744 0
14409 -14400 745 601 0
14409 -745 -14400 0
14410 -14401 746 602 0
14410 -14401 -746 0
747 -14402 14411 603 0
14410 -14399 -104 0
14409 -106 -14401 -14400 0
604 -14403 14412 748 0
14417 -14408 609 753 0
14418 -14409 754 610 0
14418 -754 -14409 0
14419 -14410 755 611 0
14419 -14410 -755 0
756 -14411 14420 612 0
14417 -14410 -140 -14408 0
14419 -14408 -140 0
14418 -14409 -142 -14410 0
14418 -143 -14411 -14409 0
14419 -14410 -144 -14411 0
613 -14412 14421 757 0
14426 -14417 618 762 0
14426 -14417 -762 0
14427 -14418 763 619 0
14427 -763 -14418 0
14428 -14419 764 620 0
-14420 14429 765 621 0
14426 -175 -14418 -14417 0
14426 -14419 -176 -14417 0
14428 -14417 -176 0
14428 -178 -14418 0
14428 -14419 -180 -14420 0
622 -14421 14430 766 0
14435 -14426 771 627 0
14435 -771 -14426 0
14436 -14427 628 772 0
14436 -772 -14427 0
14437 -14428 629 773 0
-14437 14428 629 773 0
14437 -14428 -216 -14429 0
631 -14430 14439 775 0
14445 -14436 781 637 0
14445 -781 -14436 0
14446 -14437 638 782 0
14445 -250 -14437 -14436 0
14446 -250 -14436 0
640 -14439 14448 784 0
-14445 14454 790 646 0
-14445 14454 -790 0
14455 -14446 647 791 0
14455 -14446 -791 0
-14445 -286 -14446 14454 0
14455 -14445 -286 0
649 -14448 14457 793 0
-14454 14463 799 655 0
-14454 14463 -799 0
14464 -14455 656 800 0
-14455 14463 -322 -14454 0
658 -14457 14466 802 0
-14463 14472 664 808 0
-14463 14472 -808 0
14473 -14464 665 809 0
-14464 14473 -809 0
14472 -358 -14464 -14463 0
667 -14466 14475 811 0
-14472 14481 817 673 0
-14472 14481 -817 0
14482 -14473 674 818 0
-14473 14482 -818 0
-14472 14481 -394 -14473 0
676 -14475 14484 820 0
14476 -14485 -677 0
14490 -14481 682 826 0
-14481 14490 -826 0
14491 -14482 683 827 0
-14476 -14475 14484 -397 0
14485 -397 -14475 0
14490 -14482 -430 -14481 0
685 -14484 14493 829 0
-14490 14499 835 691 0
-14490 14499 -835 0
14500 -14491 692 836 0
14494 -433 -14484 0
14495 -14485 -441 0
14499 -466 -14491 -14490 0
694 -14493 14502 838 0
14503 -14494 695 839 0
-14495 14504 696 840 0
-14499 14508 844 700 0
14508 -14499 -844 0
14509 -14500 701 845 0
14503 -469 -14493 0
14504 -14494 -477 0
-14500 14508 -502 -14499 0
-14502 14511 703 847 0
-14504 14513 705 849 0
-14508 14517 709 853 0
14517 -14508 -853 0
-14503 14513 -513 0
-14508 -517 14512 -14503 0
-14508 -14509 -538 14517 0
-14511 712 856 0
-14512 -549 0
-14513 -14517 -559 0
14791 578 722 0
14794 725 581 0
-14791 -10 0
14793 -10 0
14925 577 721 0
14926 578 722 0
14927 723 579 0
14927 -723 0
-14928 724 580 0
-14928 -580 0
14929 725 581 0
14930 582 726 0
14931 583 727 0
14932 728 584 0
14932 -728 0
14926 -9 0
-14926 -10 0
14926 -13 0
14928 -16 0
14929 -29 0
14930 -32 0
14934 -14925 586 730 0
14935 731 -14926 587 0
14936 732 -14927 588 0
-14937 589 14928 733 0
-14937 -589 14928 0
14938 590 -14929 734 0
14939 591 -14930 735 0
14940 736 -14931 592 0
14941 593 -14932 737 0
14941 -737 -14932 0
-14935 -46 14928 0
-47 14935 -14929 -14926 0
-48 14935 -14930 -14926 0
14935 -49 -14926 -14931 0
14936 -53 -14929 -14927 0
595 14943 -14934 739 0
-14935 14944 596 740 0
14945 741 -14936 597 0
-14946 14937 742 598 0
-14946 -598 14937 0
14947 -14938 599 743 0
14949 -14940 745 601 0
-73 -14935 14943 -14934 0
-81 -14936 14944 -14935 0
14948 -14941 -104 -14939 0
604 -14943 14952 748 0
14953 -14944 605 749 0
14954 606 -14945 750 0
-14955 14946 751 607 0
-607 -14955 14946 0
14956 -14947 752 608 0
14957 -14948 609 753 0
14958 -14949 754 610 0
-14944 -109 14952 -14943 0
14953 -117 -14944 -14945 0
-121 14953 -14944 -14949 0
613 -14952 14961 757 0
-14953 614 14962 758 0
14963 759 -14954 615 0
14965 -14956 761 617 0
-14953 -145 14961 -14952 0
-14953 -14954 14962 -153 0
622 -14961 14970 766 0
14971 -14962 623 767 0
14972 624 -14963 768 0
14974 -14965 770 626 0
-14962 -181 14970 -14961 0
14971 -14962 -14963 -189 0
631 -14970 14979 775 0
-14971 14980 632 776 0
14981 633 -14972 777 0
-14971 -217 14979 -14970 0
640 -14979 14988 784 0
-14980 14989 641 785 0
-14980 -253 14988 -14979 0
-261 -14980 14989 -14981 0
649 -14988 14997 793 0
14998 -14989 650 794 0
-14989 -14988 14997 -289 0
658 -14997 15006 802 0
-14998 15007 659 803 0
667 -15006 15015 811 0
676 -15015 15024 820 0
685 -15024 15033 829 0
694 -15033 15042 838 0
-15042 15051 703 847 0
-15051 712 856 0
15195 577 721 0
-15196 578 722 0
-15196 -578 0
-15197 723 579 0
-15197 -579 0
-15197 -9 0
15204 -15195 586 730 0
-15205 731 15196 587 0
-15205 -587 15196 0
-15206 732 15197 588 0
-15206 -588 15197 0
-15206 -45 15196 15197 0
595 15213 -15204 739 0
-15214 15205 740 596 0
-596 -15214 15205 0
-15215 741 15206 597 0
-15215 -597 15206 0
-15215 -81 15205 15206 0
604 -15213 15222 748 0
-15223 15214 749 605 0
-15223 15214 -605 0
-15224 606 15215 750 0
-15224 -606 15215 0
-15224 -117 15215 15214 0
613 -15222 15231 757 0
-15232 15223 758 614 0
-15232 15223 -614 0
-15233 759 15224 615 0
-15233 -615 15224 0
-15233 -153 15223 15224 0
622 -15231 15240 766 0
-15241 15232 623 767 0
-15241 15232 -623 0
-15242 624 15233 768 0
-15242 -624 15233 0
-15242 -189 15233 15232 0
631 -15240 15249 775 0
-15250 15241 632 776 0
-15250 15241 -632 0
-15251 633 15242 777 0
-633 -15251 15242 0
-15251 -225 15241 15242 0
640 -15249 15258 784 0
15250 -15259 785 641 0
15250 -15259 -641 0
-15260 786 15251 642 0
-642 -15260 15251 0
-15260 15250 -261 15251 0
15259 -15268 794 650 0
15259 -15268 -650 0
15260 -15269 651 795 0
-15269 15260 -651 0
15268 -289 -15258 0
15259 -15269 -297 15260 0
-15277 15268 659 803 0
-15277 15268 -659 0
15269 -15278 804 660 0
-15278 15269 -660 0
15268 -15278 -333 15269 0
-15286 15277 668 812 0
-15286 15277 -668 0
15278 -15287 669 813 0
15278 -15287 -669 0
15278 15277 -369 -15287 0
15286 -15295 821 677 0
15286 -15295 -677 0
15287 -15296 822 678 0
-15296 15287 -678 0
-15296 15286 -405 15287 0
-15304 15295 686 830 0
15295 -15304 -686 0
-15305 15296 687 831 0
15296 -15305 -687 0
15295 -15305 -441 15296 0
15305 -15314 840 696 0
15305 -696 -15314 0
15304 -15314 -477 15305 0
15314 705 -15323 849 0
15314 -705 -15323 0
15323 858 714 0
15323 -714 0
-15332 723 579 0
15334 725 581 0
15333 -10 0
15465 577 721 0
15466 578 722 0
-15467 723 579 0
-15467 -579 0
15468 724 580 0
15468 -724 0
15469 725 581 0
15469 -725 0
15471 727 583 0
15471 -727 0
15472 728 584 0
15473 729 585 0
15465 -1 0
-15466 -9 0
15466 -10 0
15466 -11 0
15466 -13 0
15466 -14 0
15468 -22 0
15468 -24 0
15468 -25 0
15472 -25 0
15469 -29 0
15472 -29 0
15470 -32 0
15471 -34 0
15474 -15465 586 730 0
15475 731 -15466 587 0
-15475 587 15466 731 0
-15475 -587 15466 0
-15476 732 15467 588 0
-15476 -588 15467 0
15477 589 -15468 733 0
15478 590 -15469 734 0
15480 736 -15471 592 0
15480 -736 -15471 0
738 15482 594 -15473 0
-15475 -45 15467 0
-45 15476 -15466 0
-47 15475 -15469 -15466 0
-48 15475 -15470 -15466 0
15475 -50 -15466 -15472 0
15477 -61 -15468 -15472 0
15481 -61 -15468 0
15478 -65 -15472 -15469 0
15483 -15474 595 739 0
-15475 15484 596 740 0
-15484 15475 740 596 0
-596 -15484 15475 0
-15485 741 15476 597 0
-15485 -597 15476 0
15489 -15480 745 601 0
747 -15482 15491 603 0
-73 -15475 15483 -15474 0
-81 -15484 15476 0
-81 15485 -15475 0
-85 -15475 15484 -15480 0
604 -15483 15492 748 0
15493 -15484 605 749 0
15484 -15493 749 605 0
-605 15484 -15493 0
-15494 606 15485 750 0
-606 -15494 15485 0
15498 -15489 754 610 0
15498 -754 -15489 0
-15484 -109 15492 -15483 0
15493 -109 -15483 0
-117 15485 -15493 0
15494 -117 -15484 0
-117 15484 15485 -15494 0
-123 15493 -15484 -15491 0
613 -15492 15501 757 0
15502 -15493 614 758 0
-15502 15493 758 614 0
-15502 15493 -614 0
-15503 759 15494 615 0
-615 -15503 15494 0
-153 -15502 15494 0
-153 15503 -15493 0
622 -15501 15510 766 0
15511 -15502 623 767 0
-15511 15502 623 767 0
-15511 15502 -623 0
-15512 768 15503 624 0
-624 -15512 15503 0
-189 -15511 15503 0
-189 15502 -15512 15503 0
631 -15510 15519 775 0
-15511 15520 632 776 0
15511 -15520 632 776 0
15511 -15520 -632 0
-15521 633 15512 777 0
-633 -15521 15512 0
-15511 -217 15519 -15510 0
15520 -217 -15510 0
-225 -15520 15512 0
-225 -15521 15511 15512 0
640 -15519 15528 784 0
-15520 641 15529 785 0
-15529 15520 785 641 0
-15529 -641 15520 0
786 642 -15530 15521 0
-642 15521 -15530 0
-15520 -253 15528 -15519 0
-261 -15529 15521 0
-261 15520 -15530 15521 0
649 -15528 15537 793 0
650 -15538 794 15529 0
-650 -15538 15529 0
651 15530 795 -15539 0
-651 15530 -15539 0
-297 -15538 15530 0
-297 15529 15530 -15539 0
658 -15537 15546 802 0
15547 659 -15538 803 0
15538 -15547 803 659 0
-15547 15538 -659 0
15539 -15548 804 660 0
-15548 15539 -660 0
15547 -325 -15537 0
-15547 15539 -333 0
-15548 15538 -333 15539 0
667 -15546 15555 811 0
15556 -15547 668 812 0
-15556 15547 668 812 0
-15556 15547 -668 0
-15557 15548 813 669 0
15548 -15557 -669 0
-369 -15556 15548 0
-369 -15557 15547 15548 0
676 -15555 15564 820 0
-15556 15565 677 821 0
-15565 15556 677 821 0
-15565 15556 -677 0
15557 -15566 822 678 0
15557 -15566 -678 0
-15556 -397 -15555 15564 0
15565 -397 -15555 0
-15565 15557 -405 0
-15566 -405 15556 15557 0
685 -15564 15573 829 0
-15565 15574 686 830 0
-15574 15565 686 830 0
15565 -15574 -686 0
15566 -15575 831 687 0
15566 -15575 -687 0
-15574 15566 -441 0
15565 15566 -441 -15575 0
694 -15573 15582 838 0
-15583 15574 839 695 0
-15583 15574 -695 0
15575 -15584 696 840 0
-696 15575 -15584 0
-15574 -469 -15573 15582 0
15575 -15583 -477 0
15575 15574 -477 -15584 0
-15582 15591 703 847 0
15583 704 848 -15592 0
15583 -704 -15592 0
15584 705 -15593 849 0
15584 -705 -15593 0
15584 -513 -15592 0
-15591 712 856 0
15592 857 713 0
15592 -713 0
15593 714 858 0
15593 -714 0
15593 -549 0
-15601 578 722 0
-15601 -578 0
15602 723 579 0
15603 724 580 0
15603 -724 0
15604 725 581 0
15604 -725 0
15605 582 726 0
15606 583 727 0
15607 728 584 0
15607 -728 0
15608 729 585 0
15603 -22 0
15603 -25 0
15604 -29 0
-15610 731 15601 587 0
-15610 -587 15601 0
15612 589 -15603 733 0
15614 591 -15605 735 0
15615 736 -15606 592 0
15616 -737 -15607 0
738 15617 594 -15608 0
15613 -65 -15607 -15604 0
-15619 15610 740 596 0
-596 -15619 15610 0
15623 -15614 600 744 0
15624 -15615 745 601 0
15625 -15616 746 602 0
747 -15617 15626 603 0
15623 -15616 -104 -15614 0
15625 -15614 -104 0
-15628 15619 605 749 0
-15628 15619 -605 0
15632 -15623 609 753 0
15633 -15624 754 610 0
15634 -15625 755 611 0
756 -15626 15635 612 0
15632 -15625 -140 -15623 0
15634 -15623 -140 0
15634 -15625 -144 -15626 0
15641 -15632 618 762 0
15643 -15634 764 620 0
-15635 15644 765 621 0
15650 -15641 771 627 0
15652 -15643 -216 -15644 0
15659 -15650 636 780 0
15661 -15652 638 782 0
15670 -15661 647 791 0
15669 -15659 -283 0
15728 -714 0
-15727 -15732 -553 0
15732 -559 0
15735 577 721 0
-15736 578 722 0
-15736 -578 0
15737 723 579 0
15737 -723 0
15738 724 580 0
15740 582 726 0
15741 583 727 0
15742 728 584 0
15742 -728 0
15743 729 585 0
15737 -16 0
15737 -17 0
15737 -19 0
15741 -19 0
15737 -20 0
15738 -24 0
15741 -24 0
15744 -15735 586 730 0
-15745 731 15736 587 0
-15745 -587 15736 0
15746 732 -15737 588 0
15749 591 -15740 735 0
15750 736 -15741 592 0
15751 -737 -15742 0
738 15752 594 -15743 0
595 15753 -15744 739 0
-15754 15745 740 596 0
-596 -15754 15745 0
15758 -15749 600 744 0
15759 -15750 745 601 0
15760 -15751 746 602 0
747 -15752 15761 603 0
604 -15753 15762 748 0
-15763 15754 749 605 0
-15763 15754 -605 0
15768 -15759 754 610 0
756 -15761 15770 612 0
15767 -15760 -140 -15758 0
15769 -15758 -140 0
613 -15762 15771 757 0
15763 -15772 758 614 0
-614 15763 -15772 0
15776 -15767 618 762 0
15778 -15769 620 764 0
-15770 15779 765 621 0
622 -15771 15780 766 0
-15781 15772 623 767 0
-15781 15772 -623 0
15785 -15776 771 627 0
15787 -15778 -216 -15779 0
631 -15780 15789 775 0
-15790 15781 776 632 0
-632 -15790 15781 0
15794 -15785 636 780 0
15796 -15787 638 782 0
15790 -217 -15780 0
640 -15789 15798 784 0
15790 -15799 785 641 0
-641 15790 -15799 0
15805 -15796 647 791 0
15799 -253 -15789 0
15804 -15794 -283 0
649 -15798 15807 793 0
-15808 15799 650 794 0
-15808 -650 15799 0
15808 -289 -15798 0
658 -15807 15816 802 0
15808 -15817 659 803 0
-15817 15808 -659 0
15817 -325 -15807 0
667 -15816 15825 811 0
-15826 668 812 15817 0
-15826 -668 15817 0
-15817 -15816 -361 15825 0
676 -15825 15834 820 0
-15835 15826 821 677 0
-15835 15826 -677 0
-15826 -15825 15834 -397 0
685 -15834 15843 829 0
-15844 15835 830 686 0
-15844 -686 15835 0
-15835 -433 -15834 15843 0
694 -15843 15852 838 0
-15853 15844 839 695 0
-15853 15844 -695 0
-15844 -469 -15843 15852 0
-15852 15861 703 847 0
15853 -15862 848 704 0
15853 -704 -15862 0
-15853 -15852 -505 15861 0
-15861 712 856 0
15862 857 713 0
15862 -713 0
-15870 577 721 0
15871 578 722 0
15872 723 579 0
15874 725 581 0
15875 582 726 0
15876 727 583 0
15876 -727 0
15877 728 584 0
15877 -728 0
15878 729 585 0
15873 -10 0
15874 -28 0
15874 -29 0
15876 -34 0
-15879 15870 586 730 0
15880 731 -15871 587 0
15881 732 -15872 588 0
15883 590 -15874 734 0
15883 -734 -15874 0
15884 591 -15875 735 0
15885 736 -15876 592 0
15885 -736 -15876 0
15886 593 -15877 737 0
15886 -737 -15877 0
738 15887 594 -15878 0
15883 -64 -15876 -15874 0
595 -15888 15879 739 0
15889 -15880 596 740 0
15890 741 -15881 597 0
15881 -15890 741 597 0
15893 -15884 600 744 0
15894 -15885 745 601 0
15894 -745 -15885 0
15895 -15886 746 602 0
15895 -15886 -746 0
747 -15887 15896 603 0
15893 -15886 -104 -15884 0
15895 -15884 -104 0
15895 -106 -15885 0
604 -15897 15888 748 0
15898 -15889 749 605 0
15899 606 -15890 750 0
15890 -15899 750 606 0
15902 -15893 609 753 0
15904 -15895 755 611 0
15904 -15895 -755 0
756 -15896 15905 612 0
15902 -139 -15894 -15893 0
15903 -139 -15893 0
15902 -15895 -140 -15893 0
15904 -15893 -140 0
15904 -15894 -142 0
15904 -15895 -144 -15896 0
613 -15906 15897 757 0
15907 -15898 614 758 0
15908 615 -15899 759 0
15899 -15908 759 615 0
15911 -15902 618 762 0
15912 -15903 763 619 0
15913 -15904 764 620 0
15913 -15904 -764 0
-15905 15914 765 621 0
15912 -175 -15902 0
15911 -15904 -176 -15902 0
15913 -15902 -176 0
15913 -15904 -180 -15905 0
622 -15915 15906 766 0
15920 -15911 771 627 0
15921 -15912 628 772 0
15922 -15913 629 773 0
15908 -189 -15916 0
15921 -211 -15911 0
15922 -15913 -216 -15914 0
631 -15924 15915 775 0
15916 -15925 632 776 0
15916 -15925 -632 0
15929 -15920 780 636 0
15930 -15921 781 637 0
15931 -15922 638 782 0
15916 -15925 -217 15915 0
15930 -247 -15920 0
15930 -250 -15921 -15922 0
640 -15933 15924 784 0
-15933 -640 15924 0
15925 -15934 641 785 0
15925 -15934 -641 0
15938 -15929 645 789 0
15939 -15930 790 646 0
15940 -15931 647 791 0
15925 -15934 -253 15924 0
15939 -15929 -283 0
649 -15942 15933 793 0
15934 -15943 794 650 0
15934 -15943 -650 0
15947 -15938 654 798 0
15948 -15939 799 655 0
15949 -15940 656 800 0
15934 -15943 -289 15933 0
15948 -15939 -15940 -322 0
658 15951 -15942 802 0
-15951 658 15942 802 0
-658 15942 -15951 0
15943 -15952 659 803 0
15943 -15952 -659 0
15956 -15947 663 807 0
15957 -15948 808 664 0
15958 -15949 665 809 0
667 -15951 15960 811 0
667 -15960 15951 811 0
15951 -667 -15960 0
15952 -15961 668 812 0
-668 15952 -15961 0
15966 -15957 673 817 0
15967 -15958 674 818 0
15966 -15956 -391 0
676 15969 -15960 820 0
-15969 676 15960 820 0
15961 -15970 677 821 0
15961 -15970 -677 0
15975 -15966 826 682 0
15975 -15966 -430 -15967 0
685 -15969 15978 829 0
-15978 685 15969 829 0
-685 -15978 15969 0
15970 -15979 686 830 0
15970 -686 -15979 0
15984 -15975 691 835 0
694 -15978 15987 838 0
-15987 694 15978 838 0
15979 -15988 695 839 0
15979 -15988 -695 0
15980 -15989 696 840 0
-696 15980 -15989 0
-15979 -469 15987 -15978 0
15979 -469 15978 -15988 0
15980 -15988 -477 0
-15987 15996 703 847 0
15988 704 848 -15997 0
15988 -704 -15997 0
15989 705 -15998 849 0
15989 -705 -15998 0
15989 -513 -15997 0
-15996 712 856 0
15997 857 713 0
15997 -713 0
15998 714 858 0
15998 -714 0
15999 715 859 0
15999 -715 0
16000 716 860 0
16000 -716 0
15998 -549 0
15999 -550 0
16000 -551 0
16001 -552 0
15999 -556 0
16000 -557 0
16001 -558 0
16000 -562 0
16001 -563 0
16001 -567 0
16006 578 722 0
16007 723 579 0
16007 -723 0
16008 724 580 0
16009 725 581 0
16009 -725 0
16010 582 726 0
16011 727 583 0
16012 728 584 0
16012 -728 0
16013 729 585 0
16006 -9 0
16006 -10 0
16008 -10 0
16006 -11 0
16009 -11 0
16006 -13 0
16011 -13 0
16006 -14 0
16007 -19 0
16011 -19 0
16008 -22 0
16009 -22 0
16008 -25 0
16009 -28 0
16009 -29 0
16011 -34 0
16015 731 -16006 587 0
16006 -16015 -587 0
16016 732 -16007 588 0
16017 589 -16008 733 0
16018 590 -16009 734 0
16018 -734 -16009 0
16019 591 -16010 735 0
16020 736 -16011 592 0
16021 593 -16012 737 0
16021 -737 -16012 0
738 16022 594 -16013 0
16011 -49 -16015 0
16017 -61 -16008 -16012 0
16018 -64 -16009 -16011 0
16018 -65 -16012 -16009 0
16024 -16015 596 740 0
16015 -16024 740 596 0
-596 16015 -16024 0
16025 741 -16016 597 0
16016 -16025 741 597 0
16016 -16025 -597 0
16026 -16017 742 598 0
16027 -16018 599 743 0
16028 -16019 744 600 0
16029 -16020 745 601 0
747 -16022 16031 603 0
16028 -16021 -104 -16019 0
16024 -16033 749 605 0
-16034 16025 750 606 0
16039 -16030 -755 0
756 -16031 16040 612 0
-16042 16033 758 614 0
16034 -16043 759 615 0
16048 -16039 -764 0
16042 -16051 623 767 0
16042 -623 -16051 0
16043 -189 -16051 0
16049 -16057 -216 0
16051 -16060 632 776 0
16057 -16066 638 782 0
16060 -16069 641 785 0
16066 -16075 647 791 0
-1 -16140 0
-16140 -9 0
16140 -10 0
-16140 -11 0
-16140 -13 0
-16140 -14 0
16140 -16 0
-17 -16140 0
-16140 -19 0
-16140 -20 0
16140 -22 0
16140 -24 0
-25 16140 0
-28 -16140 0
-16140 -29 0
-16140 -32 0
-16140 -34 0
-45 -16141 -16006 -16007 1561 1562 0
-46 16141 -1563 0
-47 -1564 16141 0
-49 -1566 16141 0
-49 -16141 -16006 -16011 1561 1566 0
-50 -1567 16141 0
-50 -16141 -16006 -16012 1561 1567 0
-52 16141 -1563 0
-55 -1566 16141 0
-56 -1567 16141 0
-56 -16141 1567 -16012 1562 -16007 0
-58 16141 -1563 0
-58 16141 -1564 0
-60 16141 -1563 0
-1566 -60 16141 0
16141 -61 -1563 0
16141 -61 -1567 0
-64 -1564 16141 0
-64 -1566 16141 0
-64 -16141 -16009 1566 -16011 1564 0
-65 -1564 16141 0
-65 -1567 16141 0
-65 -16141 1564 1567 -16012 -16009 0
-1566 -70 16141 0
-70 -1567 16141 0
-70 -16141 -16011 -16012 1566 1567 0
-1573 -83 16142 0
-85 -1575 16142 0
-86 -1576 16142 0
-89 -1573 16142 0
-91 -1575 16142 0
-92 -1576 16142 0
-94 -1572 16142 0
-94 -1573 16142 0
-96 -1572 16142 0
-97 -1572 16142 0
-97 -1576 16142 0
-100 -1573 16142 0
-100 -1575 16142 0
-1573 -101 16142 0
-101 -1576 16142 0
-1576 -104 16142 0
1576 -104 -16142 -16019 1574 -16021 0
-106 -1575 16142 0
-106 -1576 16142 0
-106 -16020 -16142 1575 -16021 1576 0
16026 -118 16143 0
16027 -119 16143 0
-122 -1585 16143 0
-128 -1585 16143 0
-133 -1585 16143 0
-137 -1582 16143 0
-137 -1585 16143 0
-1585 -140 16143 0
-1584 -142 16143 0
-1585 -142 16143 0
-1585 -144 16143 0
-1594 -176 16144 0
-1594 -180 16144 0
-1603 -216 16145 0
-1620 -283 16147 0
-286 1620 -16147 -16066 -16065 1621 0
-1628 -300 16148 0
-1628 -306 16148 0
-311 -1628 16148 0
-1628 -315 16148 0
-1628 -319 16148 0
-1629 -319 16148 0
-1637 -336 16149 0
-342 -1637 16149 0
-347 -1637 16149 0
-351 -1637 16149 0
-1637 -355 16149 0
-1648 -394 16150 0
1674 -502 -16153 -16119 -16120 1675 0
16156 -16140 0
16160 -16141 0
16160 -16156 0
16161 -16156 -16141 0
16165 -16161 0
16165 -16160 -16142 0
-16161 -16142 16166 0
16169 -16165 0
-16166 16170 0
-16165 -16143 16170 0
-16166 -16143 16171 0
16174 -16170 0
-16171 16175 0
16174 -16169 -16144 0
-16170 -16144 16175 0
-16175 16179 0
-16174 16179 -16145 0
-16179 16183 0
-16183 16187 0
-16187 16191 0
-16191 16195 0
-16195 16199 0
-16199 16203 0
-16203 16207 0
-16207 16211 0
-16211 16215 0
-16171 -16144 0
-16175 -16145 0
-16179 -16146 0
-16183 -16147 0
-16148 -16187 0
-16149 -16191 0
-16195 -16150 0
-16199 -16151 0
-16203 -16152 0
-16207 -16153 0
-16154 -16211 0
-16215 -16155 0
-16216 -9 0
16216 -11 0
-16216 -13 0
-16216 -14 0
-17 16216 0
-16216 -19 0
16216 -22 0
-16216 -24 0
-16216 -25 0
-28 16216 0
16216 -29 0
-47 16217 -1699 0
-1701 -49 16217 0
-53 16217 -1699 0
-55 -1701 16217 0
16217 -58 -1699 0
-1701 16217 -60 0
16217 -1702 -61 0
-64 16217 -1699 0
-64 -1701 16217 0
16217 -65 -1699 0
-16217 -70 -16011 -16012 1701 1702 0
-83 -1708 16218 0
-1710 -85 16218 0
-86 -1711 16218 0
-89 -1708 16218 0
-89 1708 -16218 -16018 1706 -16016 0
-91 -1710 16218 0
-92 -1711 16218 0
-94 -1708 16218 0
-96 -1710 16218 0
-97 -1711 16218 0
-100 -1708 16218 0
-100 -1710 16218 0
-101 -1708 16218 0
-101 -1711 16218 0
-1711 -104 16218 0
-1710 -106 16218 0
-106 -1711 16218 0
-16218 -106 1710 1711 -16021 -16020 0
-117 -16025 -16219 -16024 1714 1715 0
-118 -16026 -16219 -16024 1714 1716 0
-119 -16027 -16219 1717 1714 -16024 0
-16024 -120 1718 -16219 1714 -16028 0
-121 -16029 -16219 -16024 1714 1719 0
-122 -1720 16219 0
-123 -16219 -16024 -16031 1714 1721 0
-128 -1720 16219 0
-133 -1720 16219 0
-137 -1717 16219 0
-137 -1720 16219 0
-140 -1720 16219 0
-1719 -142 16219 0
-142 -1720 16219 0
1719 -16219 -142 1720 -16029 -16030 0
-144 -1720 16219 0
-1729 -176 16220 0
-1729 -180 16220 0
16221 -1738 -216 0
16221 -216 -1739 0
-16221 -16049 -216 1739 1738 -16048 0
16232 -16216 0
16236 -16217 0
16236 -16232 0
16237 -16217 -16232 0
16241 -16237 0
16241 -16218 -16236 0
-16237 -16218 16242 0
-16242 16246 0
-16241 16246 -16219 0
-16242 16247 -16219 0
-16247 16251 0
-16246 16251 -16220 0
-16247 -16220 0
-16251 -16221 0
-16292 -9 0
-16292 -13 0
-16292 -19 0
16006 16293 -50 0
16011 16293 -70 0
-1844 -104 16294 0
16024 -117 16295 0
16024 -118 16295 0
-119 16024 16295 0
16024 -121 16295 0
-140 -1853 16295 0
16029 -142 16295 0
-1855 -144 16295 0
-156 -1862 16296 0
-1862 16296 -162 0
-167 -1862 16296 0
-171 -1862 16296 0
-175 -1862 16296 0
16296 -1862 -176 0
16296 -1864 -180 0
-1873 16297 -216 0
-228 -1880 16298 0
-234 -1880 16298 0
-239 -1880 16298 0
-243 -1880 16298 0
-247 -1880 16298 0
-248 -1880 16298 0
-264 -1889 16299 0
-270 -1889 16299 0
-275 -1889 16299 0
-279 -1889 16299 0
-283 -1889 16299 0
-284 -1889 16299 0
-300 -1898 16300 0
-303 16300 -1901 0
-306 -1898 16300 0
-309 16300 -1901 0
-311 -1898 16300 0
-314 16300 -1901 0
-315 -1898 16300 0
-318 -1901 16300 0
-319 -1898 16300 0
-320 -1898 16300 0
-321 16300 -1901 0
-323 16300 -1901 0
-324 16300 -1901 0
-336 -1907 16301 0
-342 -1907 16301 0
-345 -1910 16301 0
-347 -1907 16301 0
-350 -1910 16301 0
-351 -1907 16301 0
-354 -1910 16301 0
-355 -1907 16301 0
-356 -1907 16301 0
-357 -1910 16301 0
-1908 -358 16301 0
-1909 -358 16301 0
-359 -1910 16301 0
-372 -1916 16302 0
-375 16302 -1919 0
-378 -1916 16302 0
-381 16302 -1919 0
-383 -1916 16302 0
-386 16302 -1919 0
-387 -1916 16302 0
-390 16302 -1919 0
-391 -1916 16302 0
-392 -1916 16302 0
-393 16302 -1919 0
-395 16302 -1919 0
-396 16302 -1919 0
-408 -1925 16303 0
-411 16303 -1928 0
-414 -1925 16303 0
-417 -1928 16303 0
-419 -1925 16303 0
-422 16303 -1928 0
-423 -1925 16303 0
-426 16303 -1928 0
-427 -1925 16303 0
-428 -1925 16303 0
-429 16303 -1928 0
-431 16303 -1928 0
-432 16303 -1928 0
-444 -1934 16304 0
-450 -1934 16304 0
-455 -1934 16304 0
-459 -1934 16304 0
-463 -1934 16304 0
-464 -1934 16304 0
-499 -1943 16305 0
-500 -1943 16305 0
-535 -1952 16306 0
-536 -1952 16306 0
-16293 16310 0
16312 -16294 0
-16310 16312 0
-16295 16314 0
16314 -16312 0
-16295 -16312 16315 0
16316 -16296 0
16316 -16314 0
-16315 16317 0
-16296 -16314 16317 0
-16317 16319 0
-16297 -16316 16319 0
16321 -16319 0
16323 -16321 0
16325 -16323 0
16327 -16325 0
16329 -16327 0
16331 -16329 0
16333 -16331 0
16335 -16333 0
-16315 -16296 0
-16297 -16317 0
-16298 -16319 0
-16299 -16321 0
-16300 -16323 0
-16301 -16325 0
-16302 -16327 0
-16303 -16329 0
-16304 -16331 0
-16305 -16333 0
-16306 -16335 0
-16338 -9 0
-16338 -11 0
-16338 -13 0
16338 -14 0
-16338 -19 0
16338 -20 0
-16338 -22 0
-16338 -24 0
16338 -25 0
-28 -16338 0
16338 -29 0
16338 -34 0
16339 -50 -2377 0
16339 -56 -2377 0
16339 -61 -2377 0
16339 -65 -2377 0
16339 -70 -2377 0
-86 -2386 16340 0
-92 -2386 16340 0
-97 -2386 16340 0
-101 -2386 16340 0
-106 -2386 16340 0
-128 -2395 16341 0
-133 -2395 16341 0
-137 -2395 16341 0
-2395 -140 16341 0
-2395 -142 16341 0
16342 -2404 -176 0
16342 -2404 -180 0
16343 -2413 -216 0
16354 -16338 0
16358 -16339 0
16358 -16354 0
16359 -16339 -16354 0
16363 -16359 0
16363 -16340 -16358 0
-16340 16364 -16359 0
-16364 16368 0
16368 -16341 -16363 0
-16364 -16341 16369 0
-16369 16373 0
-16368 16373 -16342 0
-16369 -16342 0
-16373 -16343 0
-16414 -9 0
-16414 -13 0
-16414 -19 0
16007 -45 16415 0
-51 16415 -2513 0
-57 16415 -2513 0
-62 16415 -2513 0
16009 -64 16415 0
16011 -64 16415 0
16009 -65 16415 0
16012 -65 16415 0
-66 16415 -2513 0
-69 16415 -2513 0
16011 -70 16415 0
-71 16415 -2513 0
-72 16415 -2513 0
-87 -2522 16416 0
-93 -2522 16416 0
-98 -2522 16416 0
-102 -2522 16416 0
-2521 -104 16416 0
-105 -2522 16416 0
16020 -106 16416 0
16021 -106 16416 0
-107 -2522 16416 0
-108 -2522 16416 0
16025 -117 16417 0
16029 -121 16417 0
-123 -2531 16417 0
-129 -2531 16417 0
-134 -2531 16417 0
-138 -2531 16417 0
-2530 -140 16417 0
-141 -2531 16417 0
-2529 -142 16417 0
-2530 -142 16417 0
16029 -142 16417 0
16030 -142 16417 0
-143 -2531 16417 0
-144 -2531 16417 0
-159 -2540 16418 0
-165 16418 -2540 0
-174 -2540 16418 0
-2539 -176 16418 0
-177 16418 -2540 0
-179 16418 -2540 0
-180 -2540 16418 0
16043 -189 16419 0
-216 16419 -2549 0
-2551 -217 16420 0
16051 -217 16420 0
16051 -225 16420 0
16051 -226 16420 0
16051 -227 16420 0
16051 -228 16420 0
16051 -229 16420 0
-231 16420 -2558 0
-237 16420 -2558 0
-242 16420 -2558 0
-246 16420 -2558 0
-2555 -247 16420 0
-2556 -247 16420 0
-249 16420 -2558 0
-2556 -250 16420 0
-2557 -250 16420 0
-251 16420 -2558 0
-252 16420 -2558 0
16060 -253 16421 0
-267 16421 -2567 0
-273 16421 -2567 0
-278 16421 -2567 0
-282 16421 -2567 0
-2564 -283 16421 0
-2565 -283 16421 0
-2564 -284 16421 0
-2566 -284 16421 0
-285 16421 -2567 0
-2565 -286 16421 0
-2566 -286 16421 0
16065 -286 16421 0
16066 -286 16421 0
-287 16421 -2567 0
-288 16421 -2567 0
16069 -289 16422 0
-2569 -303 16422 0
-303 16422 -2576 0
-2570 -309 16422 0
-309 16422 -2576 0
-312 -2571 16422 0
-313 -2571 16422 0
-2571 -314 16422 0
-314 16422 -2576 0
-2572 -315 16422 0
-318 16422 -2576 0
-319 -2573 16422 0
-319 -2574 16422 0
-320 -2573 16422 0
16075 -320 16422 0
-2573 -321 16422 0
-321 16422 -2576 0
-2574 -322 16422 0
-2575 -322 16422 0
-2574 -323 16422 0
-323 16422 -2576 0
-2575 -324 16422 0
-324 16422 -2576 0
-333 -2579 16423 0
-2583 -337 16423 0
-340 -2579 16423 0
-341 -2579 16423 0
-343 -2579 16423 0
-343 -2583 16423 0
-344 -2579 16423 0
-345 16423 -2585 0
-348 -2580 16423 0
-348 -2583 16423 0
-350 16423 -2585 0
-351 -2581 16423 0
-352 -2581 16423 0
-352 -2583 16423 0
-353 -2581 16423 0
-354 16423 -2585 0
-355 -2582 16423 0
-355 -2583 16423 0
-356 -2582 16423 0
-357 16423 -2585 0
-358 -2583 16423 0
-2584 -358 16423 0
-359 16423 -2585 0
-2584 -360 16423 0
-360 16423 -2585 0
-372 -2591 16424 0
-373 -2592 16424 0
-375 16424 -2594 0
-376 -2588 16424 0
-377 -2588 16424 0
-378 -2588 16424 0
-378 -2591 16424 0
-2588 -379 16424 0
-2592 -379 16424 0
-381 16424 -2594 0
-383 -2591 16424 0
-384 -2589 16424 0
-384 -2592 16424 0
-386 16424 -2594 0
-387 -2590 16424 0
-387 -2591 16424 0
-388 -2590 16424 0
-388 -2592 16424 0
-390 16424 -2594 0
-391 -2591 16424 0
-391 -2592 16424 0
-392 -2591 16424 0
-393 16424 -2594 0
-394 -2592 16424 0
-394 -2593 16424 0
-395 16424 -2594 0
-2593 -396 16424 0
-396 16424 -2594 0
-408 -2600 16425 0
-409 -2601 16425 0
-411 16425 -2603 0
-412 -2597 16425 0
-413 -2597 16425 0
-414 -2597 16425 0
-414 -2600 16425 0
-415 -2597 16425 0
-415 -2601 16425 0
-417 16425 -2603 0
-419 -2600 16425 0
-420 -2598 16425 0
-420 -2601 16425 0
-422 16425 -2603 0
-423 -2599 16425 0
-423 -2600 16425 0
-424 -2599 16425 0
-424 -2601 16425 0
-426 16425 -2603 0
-427 -2600 16425 0
-427 -2601 16425 0
-2600 -428 16425 0
-2602 -428 16425 0
-429 16425 -2603 0
-430 -2601 16425 0
-2602 -430 16425 0
-431 16425 -2603 0
-2602 -432 16425 0
-432 16425 -2603 0
-2604 -433 16426 0
-2610 -445 16426 0
-447 16426 -2612 0
-448 -2606 16426 0
-449 -2606 16426 0
-450 -2606 16426 0
-2606 -451 16426 0
-2610 -451 16426 0
-453 16426 -2612 0
-456 -2607 16426 0
-456 -2610 16426 0
-458 16426 -2612 0
-459 -2608 16426 0
-460 -2608 16426 0
-2610 -460 16426 0
-462 16426 -2612 0
-463 -2609 16426 0
-2610 -463 16426 0
-464 -2609 16426 0
-465 16426 -2612 0
-2610 -466 16426 0
-2611 -466 16426 0
-467 16426 -2612 0
-2611 -468 16426 0
-468 16426 -2612 0
-478 -2614 16427 0
-481 -2614 16427 0
-481 -2619 16427 0
-484 -2615 16427 0
-485 -2615 16427 0
-486 -2615 16427 0
-487 -2615 16427 0
-2619 -487 16427 0
-2616 -492 16427 0
-2619 -492 16427 0
-495 -2617 16427 0
-496 -2617 16427 0
-2619 -496 16427 0
-499 -2618 16427 0
-2619 -499 16427 0
-500 -2618 16427 0
-2619 -502 16427 0
-2620 -502 16427 0
16119 -502 16427 0
16120 -502 16427 0
-2620 -504 16427 0
-504 16427 -2621 0
-2623 -514 16428 0
-520 -2624 16428 0
-521 -2624 16428 0
-522 -2624 16428 0
-523 -2624 16428 0
-2626 -531 16428 0
-2626 -532 16428 0
-2627 -535 16428 0
-2627 -536 16428 0
-2628 -538 16428 0
-2629 -540 16428 0
-540 -2630 16428 0
-2638 -576 16429 0
-576 16429 -2639 0
-16415 16431 0
-16416 16432 0
-16431 16432 0
-16417 16433 0
-16432 16433 0
-16418 16434 0
-16433 16434 0
-16419 16435 0
-16434 16435 0
16436 -16435 0
16437 -16436 0
16438 -16437 0
16439 -16438 0
16440 -16439 0
16441 -16440 0
16442 -16441 0
16443 -16442 0
16444 -16443 0
-16417 -16432 0
-16433 -16418 0
-16434 -16419 0
-16420 -16435 0
-16421 -16436 0
-16422 -16437 0
-16423 -16438 0
-16424 -16439 0
-16425 -16440 0
-16426 -16441 0
-16427 -16442 0
-16428 -16443 0
-16429 -16444 0
-16538 1441 -104 -12509 1439 -12511 0
-16539 -117 -12515 -12514 1445 1444 0
16539 -121 12519 0
-124 -16539 1446 -12516 1445 -12515 0
-127 16539 12519 0
-130 -16539 -12516 -12517 1447 1446 0
16539 -139 12519 0
-16540 -160 1455 1454 -12525 -12524 0
16540 -175 12528 0
16621 -325 14188 0
-14194 -358 -16621 -14193 1504 1503 0
-124 16706 14946 0
-130 16706 14946 0
-132 16706 14946 0
-139 -16706 -14949 -14948 1448 1449 0
-154 16707 14955 0
-16707 -175 1458 1457 -14958 -14957 0
16794 -9 0
16794 -16 0
-17 16794 0
16794 -19 0
16794 -20 0
-45 16795 15467 0
-52 16795 15467 0
-53 16795 15467 0
-54 16795 15467 0
-55 16795 15467 0
-56 16795 15467 0
-57 16795 15467 0
-16795 -61 -15468 1432 1428 -15472 0
-81 15476 16796 0
-16796 -82 -15475 -15477 1435 1437 0
-16796 -83 -15478 -15475 1435 1438 0
-16796 -85 1435 -15480 -15475 1440 0
-88 15476 16796 0
-89 15476 16796 0
-90 15476 16796 0
-91 15476 16796 0
-92 15476 16796 0
-93 15476 16796 0
-117 15485 16797 0
-124 15485 16797 0
-125 15485 16797 0
-126 15485 16797 0
-127 15485 16797 0
-128 15485 16797 0
-129 15485 16797 0
-153 15494 16798 0
-160 15494 16798 0
-161 15494 16798 0
-162 15494 16798 0
-163 15494 16798 0
-164 15494 16798 0
-165 15494 16798 0
-189 15503 16799 0
-196 15503 16799 0
-197 15503 16799 0
-198 15503 16799 0
-199 15503 16799 0
-200 15503 16799 0
-201 15503 16799 0
15511 -217 16800 0
-225 15512 16800 0
-232 15512 16800 0
-233 15512 16800 0
-234 15512 16800 0
-235 15512 16800 0
-236 15512 16800 0
-237 15512 16800 0
15520 -253 16801 0
-261 15521 16801 0
16802 -289 15529 0
16803 15538 -325 0
16803 15538 -333 0
-334 16803 15538 0
-335 16803 15538 0
16803 -336 15538 0
16803 15538 -337 0
16804 15547 -361 0
16805 15556 -397 0
16806 15565 -433 0
16807 15574 -469 0
16808 15583 -505 0
16810 -16794 0
-16795 16813 0
16813 -16810 0
16814 -16795 -16810 0
-16796 16816 0
16816 -16813 0
16817 -16814 0
16817 -16796 -16813 0
-16814 -16796 16818 0
-16797 16819 0
16819 -16816 0
16820 -16817 0
-16818 16821 0
-16817 -16797 16821 0
-16798 16822 0
16822 -16819 0
16823 -16820 0
-16821 16824 0
-16820 -16798 16824 0
-16799 16825 0
16825 -16822 0
-16824 16827 0
-16823 -16799 16827 0
-16800 16828 0
16828 -16825 0
-16827 16830 0
-16801 16831 0
16831 -16828 0
-16830 16833 0
-16833 16836 0
16835 -16802 -16831 0
-16836 16839 0
-16835 -16803 16839 0
-16839 16842 0
-16842 16845 0
-16845 16848 0
-16848 16851 0
-16827 -16800 0
-16830 -16801 0
-16833 -16802 0
-16836 -16803 0
-16839 -16804 0
-16805 -16842 0
-16806 -16845 0
-16848 -16807 0
-16851 -16808 0
16856 -50 15736 0
-16856 -70 1432 -15742 1431 -15741 0
17005 -469 15978 0
-15980 -15979 -477 -17005 2614 2615 0
-487 -15984 -15980 -17005 2615 2619 0
17055 -3329 -104 0
17056 -3338 -140 0
17056 -3341 -144 0
17057 -3347 -176 0
17057 -180 -3350 0
17058 -3358 -216 0
17060 -253 15924 0
17060 -286 -3376 0
17061 -289 15933 0
17061 -320 -3385 0
17064 -397 15960 0
17065 -433 15969 0
17065 -464 -3421 0
17065 -466 -3421 0
17073 -17054 0
17077 -17055 0
17077 -17073 0
17081 -17056 0
17081 -17077 0
17082 -17056 -17077 0
17085 -17057 0
17085 -17081 0
17086 -17082 0
17086 -17057 -17081 0
17089 -17085 0
17090 -17086 0
17090 -17058 -17085 0
17091 -17058 -17086 0
17093 -17089 0
17094 -17090 0
17095 -17091 0
17098 -17094 0
17099 -17095 0
17098 -17093 -17060 0
-17095 17100 -17060 0
17102 -17098 0
17103 -17099 0
17103 -17061 -17098 0
-17061 -17099 17104 0
17106 -17102 0
17107 -17103 0
-17104 17108 0
17111 -17107 0
-17108 17112 0
-17112 17116 0
-17111 -17064 17116 0
-17100 -17061 0
-17116 -17065 0
17138 -325 15942 0
1908 -358 -17138 -15948 -15949 1909 0
17207 -83 14128 0
17207 -89 14128 0
-94 17207 14128 0
-17207 -14131 -104 -14129 2519 2521 0
-119 17208 14137 0
-121 -14134 -17208 -14139 2524 2529 0
-125 17208 14137 0
-139 2529 2528 -17208 -14139 -14138 0
17208 -144 -2531 0
14146 -155 17209 0
-165 17209 -2540 0
-166 17209 14146 0
17209 -170 -2540 0
-174 17209 -2540 0
-175 -14148 -17209 2538 -14147 2537 0
-2539 17209 -176 0
-14149 -17209 -176 2539 2537 -14147 0
-179 17209 -2540 0
17209 -180 -2540 0
17210 -216 -2549 0
17211 14161 -217 0
-17211 -14161 -217 2551 2550 -14160 0
17211 -225 14161 0
14162 17211 -225 0
-226 17211 14161 0
-226 14163 17211 0
-227 17211 14161 0
-227 17211 14164 0
-228 17211 14161 0
-229 17211 14161 0
14166 -229 17211 0
-232 14163 17211 0
-2555 -247 17211 0
-247 -17211 2556 -14165 -14166 2555 0
17212 14170 -253 0
-14176 -284 -17212 2564 -14174 2566 0
17213 -289 14179 0
-311 -14183 -14181 -17213 2571 2573 0
2572 -315 -14183 -14182 -17213 2573 0
2572 -316 -14184 -14182 -17213 2574 0
17214 -325 14188 0
-342 -14192 -14189 -17214 2579 2582 0
-347 -14192 -14190 -17214 2580 2582 0
-351 -14192 -14191 -17214 2581 2582 0
-14194 -358 -17214 -14193 2583 2584 0
-397 17216 14206 0
-414 -14210 -14207 -17216 2597 2600 0
-419 -14208 -17216 -14210 2598 2600 0
-14209 -17216 -14210 -423 2599 2600 0
-14211 -424 -17216 -14209 2599 2601 0
-17216 -14212 -428 -14210 2600 2602 0
17217 14215 -433 0
-448 -14217 -14216 -17217 2606 2607 0
-466 -17217 -14221 2611 2610 -14220 0
17218 14224 -469 0
-14229 -14226 -492 -17218 2616 2619 0
-496 -14229 -14227 -17218 2617 2619 0
17236 -17208 0
17241 -17209 0
17241 -17236 0
17246 -17210 0
17246 -17241 0
17251 -17246 0
17257 -17251 -17212 0
17262 -17257 0
18310 -10 0
18310 -16 0
18310 -22 0
18310 -24 0
18310 -25 0
-18310 -29 0
18311 -46 -3858 0
18311 -52 -3858 0
18311 -58 -3858 0
18311 -60 -3858 0
18311 -61 -3858 0
-64 -18311 3859 3861 -15876 -15874 0
18311 -65 -3859 0
18311 -65 -3862 0
18312 -94 -3867 0
18312 -96 -3867 0
18312 -97 -3867 0
18312 -3868 -101 0
18312 -101 -3871 0
18312 -3869 -104 0
18312 -106 -3870 0
18312 -106 -3871 0
18313 -3878 -120 0
-121 3874 -18313 3879 -15894 -15889 0
18313 -122 -3880 0
18313 -126 -3878 0
-128 18313 -3880 0
-131 18313 -3878 0
18313 -133 -3876 0
18313 -133 -3880 0
-135 18313 -3878 0
18313 -137 -3877 0
18313 -137 -3880 0
18313 -139 -3878 0
18313 -3878 -140 0
18313 -3880 -140 0
18313 -3879 -142 0
18313 -3880 -142 0
18313 -3880 -144 0
-3888 18314 -157 0
18314 -3887 -162 0
-3888 18314 -163 0
-167 18314 -3887 0
-3888 18314 -168 0
18314 -171 -3887 0
-3888 18314 -172 0
18314 -175 -3887 0
18314 -3887 -176 0
18314 -3889 -180 0
18314 -180 -3890 0
18315 -192 -3896 0
-3897 18315 -193 0
-198 18315 -3896 0
-199 -3897 18315 0
-203 18315 -3896 0
-204 -3897 18315 0
-207 18315 -3896 0
-3897 -208 18315 0
18315 -211 -3896 0
-3897 18315 -211 0
18315 -3899 -216 0
18316 -217 15915 0
18316 -228 -3905 0
18316 -3906 -229 0
18316 -234 -3905 0
-235 18316 -3906 0
-239 18316 -3905 0
-240 18316 -3906 0
-243 18316 -3905 0
-244 18316 -3906 0
18316 -247 -3905 0
18316 -247 -3906 0
18316 -248 -3907 0
18316 -250 -3907 0
18317 -253 15924 0
-264 18317 -3914 0
-265 18317 -3915 0
-270 18317 -3914 0
-271 18317 -3915 0
-275 18317 -3914 0
-276 18317 -3915 0
-279 18317 -3914 0
-280 18317 -3915 0
18317 -3914 -283 0
18317 -3915 -283 0
18317 -3916 -284 0
18317 -286 -3916 0
18318 -289 15933 0
18318 -3923 -300 0
-301 -3924 18318 0
-306 18318 -3923 0
-307 -3924 18318 0
-311 18318 -3923 0
-3924 18318 -312 0
18318 -3923 -315 0
-316 -3924 18318 0
18318 -3923 -319 0
-3924 18318 -319 0
-320 -3925 18318 0
-3924 18318 -322 0
18318 -3925 -322 0
18319 -325 15942 0
-3932 18319 -336 0
-3933 18319 -337 0
-342 -3932 18319 0
-343 -3933 18319 0
-347 -3932 18319 0
-348 -3933 18319 0
-351 -3932 18319 0
-352 -3933 18319 0
-3932 18319 -355 0
-3933 18319 -355 0
-356 -3932 18319 0
-356 -3934 18319 0
-3933 18319 -358 0
18319 -358 -3934 0
18320 -361 15951 0
-373 18320 -3942 0
18320 -3942 -379 0
-384 18320 -3942 0
-388 18320 -3942 0
-3941 18320 -391 0
18320 -3942 -391 0
-3941 18320 -392 0
-392 -3943 18320 0
18320 -394 -3942 0
18320 -394 -3943 0
18321 -397 15960 0
-409 -3951 18321 0
-415 -3951 18321 0
-3948 -420 18321 0
-3951 18321 -420 0
-3951 -424 18321 0
-3950 18321 -427 0
-3951 18321 -427 0
-3950 18321 -428 0
-3952 18321 -428 0
-3951 18321 -430 0
18321 -430 -3952 0
18322 -433 15969 0
-3955 18322 -445 0
18322 -445 -3960 0
-3956 18322 -451 0
18322 -3960 -451 0
-3957 -456 18322 0
-456 18322 -3960 0
-3958 18322 -460 0
18322 -460 -3960 0
-3959 18322 -463 0
18322 -3960 -463 0
18322 -466 -3960 0
18322 -466 -3961 0
18323 -469 15978 0
-481 -3969 18323 0
-487 -3969 18323 0
-3969 18323 -492 0
-496 -3969 18323 0
-3968 -499 18323 0
-499 -3969 18323 0
18323 -500 -3970 0
-3969 18323 -502 0
-3970 18323 -502 0
18324 -3978 -517 0
-3978 18324 -523 0
-3978 18324 -528 0
-3978 18324 -532 0
-3978 18324 -535 0
18324 -3979 -536 0
18324 -3978 -538 0
18324 -3979 -538 0
18325 -553 -3987 0
18325 -559 -3987 0
18325 -564 -3987 0
18325 -568 -3987 0
-3986 18325 -571 0
18325 -571 -3987 0
18325 -572 -3988 0
18326 -18310 0
18333 -18311 0
18333 -18326 0
18334 -18311 -18326 0
18340 -18312 0
18340 -18333 0
18341 -18334 0
18341 -18312 -18333 0
18342 -18334 -18312 0
18347 -18313 0
18347 -18340 0
18348 -18341 0
18349 -18342 0
18348 -18313 -18340 0
18349 -18341 -18313 0
18350 -18342 -18313 0
18355 -18348 0
18356 -18349 0
18357 -18350 0
18355 -18314 -18347 0
18356 -18348 -18314 0
18357 -18349 -18314 0
-18350 18358 -18314 0
18363 -18356 0
18364 -18357 0
-18358 18365 0
18363 -18315 -18355 0
18364 -18356 -18315 0
18365 -18357 -18315 0
-18358 18366 -18315 0
18370 -18363 0
18371 -18364 0
-18365 18372 0
-18366 18373 0
18371 -18316 -18363 0
18372 -18316 -18364 0
-18365 18373 -18316 0
-18366 -18316 18374 0
18377 -18370 0
18378 -18371 0
18379 -18372 0
-18373 18380 0
-18374 18381 0
18378 -18370 -18317 0
18379 -18371 -18317 0
18380 -18372 -18317 0
-18373 -18317 18381 0
18385 -18378 0
18386 -18379 0
-18380 18387 0
-18381 18388 0
18385 -18318 -18377 0
18386 -18318 -18378 0
18387 -18379 -18318 0
-18380 -18318 18388 0
18392 -18385 0
18393 -18386 0
-18387 18394 0
-18388 18395 0
18393 -18319 -18385 0
-18386 18394 -18319 0
-18387 -18319 18395 0
18399 -18392 0
18400 -18393 0
18401 -18394 0
-18395 18402 0
18400 -18392 -18320 0
18401 -18393 -18320 0
-18394 18402 -18320 0
18407 -18400 0
18408 -18401 0
-18402 18409 0
18407 -18321 -18399 0
18408 -18400 -18321 0
-18401 -18321 18409 0
18414 -18407 0
18415 -18408 0
-18409 18416 0
18415 -18407 -18322 0
-18408 18416 -18322 0
18422 -18415 0
-18416 18423 0
18422 -18414 -18323 0
-18415 -18323 18423 0
-18423 18430 0
-18422 -18324 18430 0
-18374 -18317 0
-18381 -18318 0
-18388 -18319 0
-18395 -18320 0
-18402 -18321 0
-18409 -18322 0
-18416 -18323 0
-18423 -18324 0
-18430 -18325 0
18431 -22 0
18431 -28 0
18431 -29 0
18432 -4401 -49 0
18432 -55 -4401 0
18432 -58 -4399 0
18432 -4401 -60 0
18432 -4402 -61 0
18432 -64 -4399 0
18432 -4401 -64 0
18432 -65 -4399 0
18433 -4410 -85 0
18433 -86 -4411 0
18433 -91 -4410 0
18433 -92 -4411 0
18433 -94 -4408 0
18433 -96 -4410 0
18433 -97 -4411 0
18433 -100 -4408 0
18433 -100 -4410 0
18433 -101 -4408 0
18433 -101 -4411 0
18433 -4409 -104 0
18433 -4410 -106 0
18433 -106 -4411 0
18434 -4418 -120 0
18434 -122 -4420 0
-126 18434 -4418 0
-127 4415 -18434 4419 -15894 -15890 0
-128 18434 -4420 0
-131 18434 -4418 0
18434 -133 -4420 0
-135 18434 -4418 0
18434 -137 -4417 0
18434 -137 -4420 0
18434 -139 -4418 0
18434 -4418 -140 0
18434 -4420 -140 0
18434 -4419 -142 0
18434 -4420 -142 0
18434 -4421 -144 0
18435 -156 -4427 0
18435 -4428 -157 0
18435 -4427 -162 0
-167 18435 -4427 0
18435 -171 -4427 0
18435 -175 -4427 0
18435 -4427 -176 0
18435 -4429 -180 0
18435 -180 -4430 0
18436 -192 -4436 0
-4437 18436 -193 0
-198 18436 -4436 0
-199 -4437 18436 0
-203 18436 -4436 0
-204 -4437 18436 0
-207 18436 -4436 0
-4437 -208 18436 0
18436 -211 -4436 0
-4437 18436 -211 0
18436 -4439 -216 0
18437 -217 15915 0
18437 -228 -4445 0
18437 -4446 -229 0
-234 18437 -4445 0
-235 18437 -4446 0
-239 18437 -4445 0
-240 18437 -4446 0
-243 18437 -4445 0
-244 18437 -4446 0
-247 18437 -4445 0
-247 18437 -4446 0
18437 -250 -4447 0
18438 -253 15924 0
-264 18438 -4454 0
-265 18438 -4455 0
-270 18438 -4454 0
-271 18438 -4455 0
-275 18438 -4454 0
-276 18438 -4455 0
-279 18438 -4454 0
18438 -280 -4455 0
18438 -4454 -283 0
18438 -4455 -283 0
18438 -286 -4456 0
18439 -289 15933 0
-4463 18439 -300 0
-301 18439 -4464 0
-306 -4463 18439 0
-307 18439 -4464 0
-311 -4463 18439 0
18439 -4464 -312 0
-4463 -315 18439 0
-316 18439 -4464 0
-4463 -319 18439 0
-319 18439 -4464 0
-320 -4465 18439 0
-4465 18439 -322 0
18440 -325 15942 0
-4472 18440 -336 0
18440 -4473 -337 0
-342 -4472 18440 0
-343 18440 -4473 0
-347 -4472 18440 0
-348 18440 -4473 0
-351 -4472 18440 0
-352 18440 -4473 0
-4472 18440 -355 0
18440 -4473 -355 0
-358 18440 -4473 0
-358 -4474 18440 0
18441 -361 15951 0
-373 18441 -4482 0
18441 -4482 -379 0
-384 18441 -4482 0
-388 18441 -4482 0
-4481 18441 -391 0
18441 -4482 -391 0
-392 -4483 18441 0
18441 -394 -4482 0
18441 -394 -4483 0
18442 -397 15960 0
-409 -4491 18442 0
-415 -4491 18442 0
-4491 18442 -420 0
-4491 18442 -424 0
-4490 18442 -427 0
-4491 18442 -427 0
-4491 18442 -430 0
18442 -430 -4492 0
18443 -433 15969 0
-444 -4499 18443 0
-4500 18443 -445 0
-450 -4499 18443 0
-4500 18443 -451 0
-455 -4499 18443 0
-4500 -456 18443 0
-4499 18443 -459 0
-4500 18443 -460 0
-4499 18443 -463 0
-4500 18443 -463 0
-4500 18443 -466 0
18443 -466 -4501 0
18444 -469 15978 0
-481 -4509 18444 0
-4509 18444 -487 0
-4509 18444 -492 0
-4509 18444 -496 0
-4508 18444 -499 0
-4509 18444 -499 0
-4509 18444 -502 0
18444 -4510 -502 0
-4513 18445 -517 0
18445 -4518 -517 0
-4514 18445 -523 0
-4518 18445 -523 0
-4515 18445 -528 0
-4518 18445 -528 0
-4516 18445 -532 0
-4518 18445 -532 0
-4517 18445 -535 0
18445 -4518 -535 0
18445 -4518 -538 0
18445 -4519 -538 0
-4522 18446 -553 0
18446 -553 -4527 0
-4523 18446 -559 0
18446 -559 -4527 0
-4524 18446 -564 0
18446 -564 -4527 0
-4525 18446 -568 0
18446 -568 -4527 0
-4526 18446 -571 0
18446 -571 -4527 0
18447 -18431 0
18454 -18432 0
18454 -18447 0
18455 -18432 -18447 0
18461 -18433 0
18461 -18454 0
18462 -18455 0
18462 -18433 -18454 0
18463 -18455 -18433 0
18468 -18434 0
18468 -18461 0
18469 -18462 0
18470 -18463 0
18469 -18434 -18461 0
18470 -18462 -18434 0
18471 -18463 -18434 0
18476 -18469 0
18477 -18470 0
18478 -18471 0
18476 -18435 -18468 0
18477 -18469 -18435 0
18478 -18470 -18435 0
18479 -18471 -18435 0
18484 -18477 0
18485 -18478 0
-18479 18486 0
18484 -18436 -18476 0
18485 -18477 -18436 0
18486 -18478 -18436 0
-18479 18487 -18436 0
18491 -18484 0
18492 -18485 0
18493 -18486 0
-18487 18494 0
18492 -18437 -18484 0
18493 -18437 -18485 0
-18486 18494 -18437 0
-18487 -18437 18495 0
18499 -18492 0
18500 -18493 0
-18494 18501 0
-18495 18502 0
18499 -18491 -18438 0
18500 -18492 -18438 0
18501 -18493 -18438 0
-18494 -18438 18502 0
18506 -18499 0
18507 -18500 0
-18501 18508 0
-18502 18509 0
18507 -18439 -18499 0
18508 -18500 -18439 0
-18501 -18439 18509 0
18513 -18506 0
18514 -18507 0
-18508 18515 0
-18509 18516 0
18514 -18440 -18506 0
18515 -18507 -18440 0
-18508 -18440 18516 0
18520 -18513 0
18521 -18514 0
-18515 18522 0
-18516 18523 0
18521 -18513 -18441 0
18522 -18514 -18441 0
-18515 18523 -18441 0
18528 -18521 0
-18522 18529 0
-18523 18530 0
18528 -18442 -18520 0
18529 -18521 -18442 0
-18522 -18442 18530 0
18535 -18528 0
18536 -18529 0
-18530 18537 0
18536 -18528 -18443 0
-18529 18537 -18443 0
18543 -18536 0
-18537 18544 0
18543 -18535 -18444 0
-18536 -18444 18544 0
-18544 18551 0
-18543 -18445 18551 0
-18502 -18439 0
-18509 -18440 0
-18516 -18441 0
-18523 -18442 0
-18530 -18443 0
-18537 -18444 0
-18544 -18445 0
-18551 -18446 0
18552 -13 0
18552 -19 0
-18552 -22 0
18552 -24 0
18552 -28 0
18552 -34 0
18553 -49 -6156 0
18553 -55 -6156 0
18553 -60 -6156 0
18553 -64 -6156 0
18553 -70 -6156 0
18554 -85 -6165 0
18554 -86 -6166 0
18554 -91 -6165 0
18554 -92 -6166 0
18554 -96 -6165 0
18554 -97 -6166 0
18554 -100 -6165 0
18554 -101 -6166 0
18554 -106 -6165 0
18554 -106 -6166 0
18555 -137 -6175 0
18555 -6173 -140 0
18555 -6174 -142 0
18556 -156 -6182 0
18556 -6182 -162 0
-167 18556 -6182 0
-171 18556 -6182 0
18556 -6182 -176 0
18556 -180 -6185 0
-189 -18557 6188 -15907 6187 -15908 0
-192 18557 -6191 0
18557 -193 -6192 0
-198 18557 -6191 0
-199 18557 -6192 0
-203 18557 -6191 0
-204 18557 -6192 0
-207 18557 -6191 0
-208 18557 -6192 0
18557 -6194 -216 0
18558 -217 15915 0
18558 -6200 -228 0
-234 18558 -6200 0
-239 18558 -6200 0
-243 18558 -6200 0
-247 18558 -6200 0
18558 -6200 -248 0
18559 -253 15924 0
-264 -6209 18559 0
-270 -6209 18559 0
-275 -6209 18559 0
-279 -6209 18559 0
-6209 18559 -283 0
18559 -284 -6211 0
18560 -289 15933 0
18560 -6218 -300 0
-306 18560 -6218 0
-311 18560 -6218 0
-315 18560 -6218 0
-319 18560 -6218 0
-320 18560 -6218 0
-320 18560 -6220 0
18560 -322 -6220 0
18561 -325 15942 0
18561 -6227 -336 0
18561 -337 -6228 0
-342 18561 -6227 0
-343 18561 -6228 0
-347 18561 -6227 0
-348 18561 -6228 0
-351 18561 -6227 0
-352 18561 -6228 0
18561 -6227 -355 0
18561 -355 -6228 0
-356 18561 -6229 0
-358 18561 -6229 0
18562 -361 15951 0
18562 -6236 -372 0
-378 18562 -6236 0
18562 -379 -6237 0
-383 18562 -6236 0
-384 18562 -6237 0
-387 18562 -6236 0
-388 18562 -6237 0
18562 -6236 -391 0
18562 -391 -6237 0
-392 18562 -6238 0
18562 -394 -6237 0
18562 -394 -6238 0
18563 -397 15960 0
-6245 18563 -408 0
-409 18563 -6246 0
-414 -6245 18563 0
-415 18563 -6246 0
-419 -6245 18563 0
18563 -420 -6246 0
-6245 18563 -423 0
18563 -424 -6246 0
-6245 18563 -427 0
18563 -427 -6246 0
-6245 18563 -428 0
18563 -428 -6247 0
18563 -430 -6247 0
18564 -433 15969 0
-444 -6254 18564 0
-6255 18564 -445 0
-450 18564 -6254 0
-6255 18564 -451 0
-455 18564 -6254 0
-456 -6255 18564 0
-6254 18564 -459 0
-6255 18564 -460 0
18564 -6254 -463 0
18564 -6255 -463 0
-464 -6256 18564 0
18564 -466 -6256 0
-469 18565 15978 0
15979 -469 18565 0
-6263 -480 18565 0
-481 -6264 18565 0
-486 -6263 18565 0
-6264 -487 18565 0
-491 -6263 18565 0
-6264 -492 18565 0
-495 -6263 18565 0
-6264 -496 18565 0
-499 -6263 18565 0
-499 -6264 18565 0
-6263 -500 18565 0
-500 -6265 18565 0
-6265 -502 18565 0
18566 -505 15987 0
18566 -6273 -517 0
18566 -6273 -523 0
18566 -6273 -528 0
18566 -6273 -532 0
-6272 18566 -535 0
18566 -6273 -535 0
-6272 18566 -536 0
-6274 18566 -538 0
-18567 -15997 -549 -15998 6277 6278 0
-18567 -550 -15997 -15999 6279 6277 0
-18567 -551 -15997 6277 6280 -16000 0
-18567 -552 -15997 -16001 6277 6281 0
-6277 18567 -553 0
18567 -553 -6282 0
-18567 -558 -16001 -15998 6278 6281 0
-6278 -559 18567 0
18567 -559 -6282 0
-18567 -563 -15999 6279 -16001 6281 0
-6279 -564 18567 0
18567 -564 -6282 0
-18567 -16001 6280 -16000 -567 6281 0
-6280 -568 18567 0
18567 -568 -6282 0
-6281 18567 -571 0
-6282 -571 18567 0
-6283 -572 18567 0
18568 -18552 0
18575 -18553 0
18575 -18568 0
18576 -18553 -18568 0
18582 -18554 0
18582 -18575 0
18583 -18576 0
18583 -18554 -18575 0
18584 -18576 -18554 0
18590 -18583 0
-18584 18591 0
18590 -18555 -18582 0
18591 -18583 -18555 0
18592 -18584 -18555 0
18598 -18591 0
-18592 18599 0
18598 -18590 -18556 0
18599 -18591 -18556 0
-18592 18600 -18556 0
-18599 18606 0
-18600 18607 0
18606 -18598 -18557 0
-18599 18607 -18557 0
-18600 18608 -18557 0
18613 -18606 0
-18607 18614 0
-18608 18615 0
18614 -18558 -18606 0
-18607 18615 -18558 0
18620 -18613 0
-18614 18621 0
-18615 18622 0
18621 -18613 -18559 0
-18614 18622 -18559 0
-18615 -18559 18623 0
18627 -18620 0
-18621 18628 0
-18622 18629 0
-18623 18630 0
18628 -18620 -18560 0
-18621 18629 -18560 0
-18622 -18560 18630 0
18634 -18627 0
-18628 18635 0
-18629 18636 0
-18630 18637 0
18635 -18627 -18561 0
-18628 18636 -18561 0
-18629 -18561 18637 0
18641 -18634 0
-18635 18642 0
-18636 18643 0
-18637 18644 0
18642 -18634 -18562 0
-18635 18643 -18562 0
-18636 18644 -18562 0
18648 -18641 0
-18642 18649 0
18650 -18643 0
-18644 18651 0
18649 -18641 -18563 0
-18642 18650 -18563 0
-18643 -18563 18651 0
18656 -18649 0
18657 -18650 0
-18651 18658 0
18656 -18648 -18564 0
-18649 18657 -18564 0
-18650 -18564 18658 0
18664 -18657 0
-18658 18665 0
18664 -18656 -18565 0
-18657 -18565 18665 0
-18665 18672 0
-18664 18672 -18566 0
-18623 -18560 0
-18630 -18561 0
-18637 -18562 0
-18644 -18563 0
-18651 -18564 0
-18658 -18565 0
-18665 -18566 0
-18672 -18567 0
-17 -18673 0
-18673 -19 0
-18673 -24 0
18673 -25 0
18673 -29 0
18673 -34 0
18674 -61 -9802 0
-64 -18674 -15876 -15874 9799 9801 0
18674 -65 -9802 0
18675 -9809 -104 0
18676 -9818 -140 0
18676 -9821 -144 0
18677 -175 -9827 0
18677 -9829 -180 0
18678 -9839 -216 0
18679 -250 -9847 0
-265 18680 -9855 0
-271 18680 -9855 0
-276 18680 -9855 0
18680 -9855 -280 0
18680 -9854 -283 0
-9855 18680 -283 0
-301 18681 -9864 0
18681 -307 -9864 0
18681 -9864 -312 0
-316 18681 -9864 0
18681 -9864 -319 0
18681 -9864 -322 0
18682 -325 15942 0
18682 -358 -9874 0
18683 -361 15951 0
18684 -397 15960 0
-409 -9891 18684 0
-415 -9891 18684 0
-9891 18684 -420 0
-9891 18684 -424 0
-9891 18684 -427 0
18685 -433 15969 0
18686 -469 15978 0
-9913 18687 -517 0
18687 -9918 -517 0
18688 -553 -9927 0
-9923 18688 -559 0
18688 -559 -9927 0
18688 -564 -9927 0
18688 -568 -9927 0
18688 -571 -9927 0
18689 -18673 0
18697 -18674 -18689 0
18704 -18697 0
18705 -18697 -18675 0
18712 -18705 0
18712 -18676 -18704 0
18713 -18705 -18676 0
18719 -18712 0
18720 -18713 0
18720 -18712 -18677 0
18727 -18720 0
18727 -18719 -18678 0
18728 -18720 -18678 0
18734 -18727 0
18736 -18728 -18679 0
-18736 18743 0
18742 -18680 -18734 0
-18736 -18680 18744 0
18749 -18742 0
-18743 18750 0
-18744 18751 0
18750 -18742 -18681 0
-18743 -18681 18751 0
18757 -18750 0
-18751 18758 0
18757 -18749 -18682 0
18764 -18757 0
-18758 18765 0
18771 -18764 0
-18765 18772 0
-18764 -18684 18772 0
18778 -18771 0
-18772 18779 0
-18778 -18686 18786 0
-18786 18793 0
-18751 -18682 0
-18758 -18683 0
-18765 -18684 0
-18772 -18685 0
-18779 -18686 0
-18786 -18687 0
-18793 -18688 0
18794 -22 0
18794 -25 0
-56 -18795 -12502 1567 1562 -12497 0
18795 -61 -1563 0
18795 -65 -1567 0
18795 -70 12501 0
18796 -85 12510 0
-91 18796 12510 0
-96 18796 12510 0
18796 -100 12510 0
-18796 -101 1576 -12511 1573 -12508 0
18796 -104 -1576 0
-118 -18797 -12514 -12516 1579 1581 0
-119 -18797 -12517 1582 1579 -12514 0
-12518 -120 -18797 -12514 1579 1583 0
18797 -121 12519 0
-125 -18797 1582 -12515 1580 -12517 0
-126 -18797 -12518 1580 -12515 1583 0
-139 18797 12519 0
18797 -1585 -144 0
-154 18798 12523 0
18798 -155 12523 0
18798 -156 12523 0
18798 12523 -157 0
18798 12528 -157 0
-161 -18798 -12524 1591 1589 -12526 0
-18798 -12527 -162 -12524 1589 1592 0
18798 -175 12528 0
18798 -1594 -180 0
18799 -1603 -216 0
-18799 1603 -216 -12538 -12539 1604 0
18800 -226 12541 0
18800 -227 12541 0
18800 -228 12541 0
18800 -229 12541 0
18801 12550 -253 0
1615 -12550 -253 -12549 1614 -18801 0
-261 18801 12550 0
-262 12550 18801 0
-263 18801 12550 0
-264 18801 12550 0
-265 18801 12550 0
18803 12568 -325 0
12568 18803 -333 0
-334 18803 12568 0
-335 18803 12568 0
-336 18803 12568 0
18803 12568 -337 0
18804 12577 -361 0
-369 18804 12577 0
-370 18804 12577 0
-371 18804 12577 0
-372 12577 18804 0
-373 18804 12577 0
18805 12586 -397 0
18805 -405 12586 0
18805 -405 12587 0
-406 18805 12586 0
18805 12586 -407 0
18805 -407 12589 0
-408 18805 12586 0
-409 18805 12586 0
18806 12595 -433 0
12595 18806 -441 0
18806 12595 -442 0
-443 18806 12595 0
-444 18806 12595 0
-445 18806 12595 0
-464 -12601 -12599 -18806 1664 1666 0
18807 -469 12603 0
18807 12604 -469 0
1673 -499 -12608 -12609 -18807 1674 0
1674 -12609 -502 -18807 -12610 1675 0
18808 12613 -505 0
1682 -12617 -535 -12618 -18808 1683 0
18810 -18794 0
18817 -18795 0
18817 -18810 0
18818 -18795 -18810 0
18825 -18796 -18817 0
18826 -18796 -18818 0
18833 -18825 -18797 0
18834 -18826 -18797 0
18840 -18833 0
18841 -18834 0
-18834 18842 -18798 0
-18842 18849 0
-18841 18849 -18799 0
-18842 18850 -18799 0
18856 -18849 0
-18850 18857 0
18857 -18849 -18800 0
-18856 18864 -18801 0
-18857 -18801 18865 0
-18864 18871 0
-18865 18872 0
-18871 18878 0
-18872 18879 0
-18871 -18803 18879 0
-18878 18885 0
-18879 18886 0
-18878 -18804 18886 0
18892 -18885 0
-18886 18893 0
-18885 -18805 18893 0
-18893 18900 0
-18892 -18806 18900 0
-18900 18907 0
-18872 -18803 0
-18879 -18804 0
-18886 -18805 0
-18893 -18806 0
-18900 -18807 0
-18907 -18808 0
18915 -9 0
18915 -10 0
18915 -11 0
18915 -13 0
18915 -14 0
-18915 -16 0
18915 -22 0
18915 -29 0
-18915 -32 0
-18915 -34 0
-45 18916 15736 0
-46 18916 15736 0
-47 18916 15736 0
-49 18916 15736 0
18916 -50 15736 0
-55 -18916 -15737 -15741 1697 1701 0
-18916 -60 -15738 1701 1698 -15741 0
18916 -1702 -61 0
-65 18916 -1699 0
18917 -97 -1711 0
18917 -1711 -104 0
18918 -117 15754 0
18918 -121 15754 0
18919 -154 15763 0
-155 18919 15763 0
18919 -156 15763 0
18919 -157 15763 0
18919 -1729 -176 0
18919 -1729 -180 0
18920 -1738 -216 0
-225 18921 15781 0
-226 18921 15781 0
-227 18921 15781 0
-228 18921 15781 0
-229 18921 15781 0
15790 18922 -253 0
-261 18922 15790 0
-262 18922 15790 0
-263 18922 15790 0
-264 18922 15790 0
-265 18922 15790 0
-266 15790 18922 0
18923 -289 15799 0
-297 18923 15799 0
-298 18923 15799 0
-299 18923 15799 0
-300 18923 15799 0
-301 18923 15799 0
15808 18924 -325 0
15808 18924 -333 0
-334 15808 18924 0
-335 15808 18924 0
-336 15808 18924 0
15808 18924 -337 0
18925 15817 -361 0
-369 15817 18925 0
-370 15817 18925 0
-371 15817 18925 0
-372 15817 18925 0
-373 15817 18925 0
18926 15826 -397 0
-405 15826 18926 0
-406 15826 18926 0
15826 18926 -407 0
-408 15826 18926 0
-409 15826 18926 0
18927 15835 -433 0
15835 18927 -441 0
18927 15835 -442 0
-443 18927 15835 0
-444 18927 15835 0
-445 18927 15835 0
18928 -469 15843 0
18928 15844 -469 0
18928 15844 -477 0
18929 15853 -505 0
18931 -18915 0
18939 -18916 -18931 0
18947 -18917 -18939 0
18955 -18947 -18918 0
18962 -18955 0
18963 -18955 -18919 0
18970 -18963 0
18970 -18962 -18920 0
18971 -18963 -18920 0
18977 -18970 0
18978 -18971 0
-18921 18978 -18970 0
-18921 -18971 18979 0
18985 -18978 0
-18979 18986 0
18985 -18922 -18977 0
-18922 -18978 18986 0
18992 -18985 0
-18986 18993 0
-18923 -18985 18993 0
18999 -18992 0
-18993 19000 0
-18924 -18992 19000 0
19006 -18999 0
-19000 19007 0
-18999 19007 -18925 0
19013 -19006 0
-19007 19014 0
-18926 -19006 19014 0
19020 -19013 0
-19014 19021 0
-19013 -18927 19021 0
-19021 19028 0
-19020 -18928 19028 0
-18979 -18922 0
-18986 -18923 0
-18924 -18993 0
-19000 -18925 0
-19007 -18926 0
-19014 -18927 0
-19021 -18928 0
-19028 -18929 0
19160 -2659 -117 0
19160 -2659 -118 0
19160 -2659 -119 0
-139 -19160 2664 -15893 2663 -15894 0
19533 8824 -469 0
-8829 -499 3428 -19533 -8828 3429 0
-117 -14135 -19765 -14134 3334 3335 0
19765 -3341 -144 0
-19776 3435 -526 -14235 -14236 3436 0
-19776 3435 -14235 -527 -14237 3437 0
19776 -3439 -538 0
-19777 -559 -14243 -14247 3447 3443 0
19777 -572 -3448 0
-45 20126 15601 0
-46 20126 15601 0
20126 -47 15601 0
20126 -49 15601 0
-52 -20126 -15602 -15603 3317 3318 0
-53 -20126 -15604 -15602 3317 3319 0
-55 -20126 -15606 -15602 3317 3321 0
-56 -20126 -15607 -15602 3317 3322 0
-58 -20126 -15604 -15603 3318 3319 0
-20126 -60 -15603 -15606 3318 3321 0
-20126 -61 -15607 3318 3322 -15603 0
-64 -20126 -15604 -15606 3319 3321 0
-70 -20126 -15607 3322 3321 -15606 0
-2735 -428 20499 0
-2737 -428 20499 0
20501 14224 -469 0
-14229 2750 -14225 -20501 -487 2754 0
-14226 2751 -20501 2754 -14229 -492 0
20502 14233 -505 0
-14233 2758 -14234 -513 -20502 2759 0
-14235 -14233 -20502 2758 -514 2760 0
-515 -14233 -20502 -14236 2758 2761 0
-516 -14233 -14237 2758 -20502 2762 0
14238 20502 -517 0
-14233 -14238 -517 2758 -20502 2763 0
-520 -14235 2759 -14234 -20502 2760 0
-521 -14236 2759 -14234 -20502 2761 0
-522 -14237 -14234 -20502 2759 2762 0
-523 -14238 -20502 2759 -14234 2763 0
-526 2760 -14236 -14235 -20502 2761 0
-527 -14235 -14237 -20502 2760 2762 0
-528 2760 -20502 -14235 -14238 2763 0
-14237 -531 -14236 -20502 2761 2762 0
14238 20502 -532 0
2763 -532 -14236 2761 -14238 -20502 0
-14238 -20502 -535 -14237 2763 2762 0
20502 -536 -2762 0
-536 20502 -2764 0
-2763 20502 -538 0
20502 -538 -2764 0
-20624 -9 0
-20624 -11 0
20624 -13 0
-17 -20624 0
20624 -34 0
20760 -16 0
-20760 -34 0
20896 -22 0
-20896 -34 0
-15899 -153 -20900 -15898 2128 2129 0
20900 -175 -2132 0
21032 -19 0
-21032 -25 0
-21304 -13 0
21304 -19 0
-21304 -29 0
-21304 -34 0
21440 -9 0
21440 -10 0
21440 -13 0
21440 -16 0
-21440 -19 0
21440 -22 0
21440 -24 0
21440 -25 0
-28 -21440 0
-21440 -29 0
-21440 -34 0
-21576 -11 0
-21576 -14 0
-17 -21576 0
21576 -19 0
21576 -24 0
-21576 -29 0
-118 -21579 -12516 -12514 2796 2794 0
21579 -121 12519 0
15727 21727 -553 0
15732 21727 -553 0
-21727 -559 -15728 -15732 1553 1557 0
37 541 181 433 397 469 361 325 253 217 145 109 289 73 505 1 0
21803 -1 0
-37 21804 0
-21803 21804 0
-21803 -37 0
-73 21805 0
-21804 21805 0
-73 -21804 0
-109 21806 0
-21805 21806 0
-109 -21805 0
-145 21807 0
-21806 21807 0
-145 -21806 0
-181 21808 0
-21807 21808 0
-21807 -181 0
-217 21809 0
-21808 21809 0
-217 -21808 0
-253 21810 0
-21809 21810 0
-253 -21809 0
-289 21811 0
-21810 21811 0
-289 -21810 0
-325 21812 0
-21811 21812 0
-325 -21811 0
-361 21813 0
-21812 21813 0
-361 -21812 0
-397 21814 0
-21813 21814 0
-397 -21813 0
-433 21815 0
-21814 21815 0
-433 -21814 0
-469 21816 0
-21815 21816 0
-469 -21815 0
-505 21817 0
-21816 21817 0
-505 -21816 0
-21817 -541 0
-2 0
-3 0
-4 0
-5 0
-6 0
-7 0
-8 0
-38 0
-39 0
-40 0
-41 0
-42 0
-43 0
-44 0
-74 0
-75 0
-76 0
-77 0
-78 0
-79 0
-80 0
-110 0
-111 0
-112 0
-113 0
-114 0
-115 0
-116 0
-146 0
-147 0
-148 0
-149 0
-150 0
-151 0
-152 0
-182 0
-183 0
-184 0
-185 0
-186 0
-187 0
-188 0
-218 0
-219 0
-220 0
-221 0
-222 0
-223 0
-224 0
-254 0
-255 0
-256 0
-257 0
-258 0
-259 0
-260 0
-290 0
-291 0
-292 0
-293 0
-294 0
-295 0
-296 0
-326 0
-327 0
-328 0
-329 0
-330 0
-331 0
-332 0
-362 0
-363 0
-364 0
-365 0
-366 0
-367 0
-368 0
-398 0
-399 0
-400 0
-401 0
-402 0
-403 0
-404 0
-434 0
-435 0
-436 0
-437 0
-438 0
-439 0
-440 0
-470 0
-471 0
-472 0
-473 0
-474 0
-475 0
-476 0
-506 0
-507 0
-508 0
-509 0
-510 0
-511 0
-512 0
-542 0
-543 0
-544 0
-545 0
-546 0
-547 0
-548 0
21823 21822 21821 0
21826 21824 21825 0
21873 -21824 0
-21825 -21873 0
21828 21827 21829 0
21875 -21827 0
-21875 21876 0
-21875 -21828 0
-21876 -21829 0
21830 21831 21832 0
21877 -21830 0
-21831 21878 0
21878 -21877 0
-21831 -21877 0
-21832 -21878 0
21834 21835 21833 0
21879 -21833 0
-21834 21880 0
21880 -21879 0
-21834 -21879 0
-21835 -21880 0
21836 21838 21837 0
-21836 21881 0
-21837 21882 0
-21881 21882 0
-21882 -21838 0
21840 21841 21839 0
-21839 21883 0
-21883 21884 0
-21884 -21841 0
21842 21843 21844 0
21846 21847 21845 0
21848 21849 21850 0
21853 21852 21851 0
21856 21855 21854 0
21857 21858 21859 0
21860 21861 21862 0
21865 21863 21864 0
-21866 21901 0
-21867 21902 0
-21901 21902 0
-21902 -21868 0
21818 0
21868 0
21821 -1 -21818 0
21821 -9 -21818 0
21821 -10 -21818 0
21821 -11 -21818 0
-12 -21818 0
21821 -13 -21818 0
21821 -14 -21818 0
-15 -21818 0
21821 -16 -21818 0
21821 -17 -21818 0
-18 -21818 0
21821 -19 -21818 0
21821 -20 -21818 0
-21 -21818 0
21821 -22 -21818 0
-23 -21818 0
21821 -24 -21818 0
21821 -25 -21818 0
-26 -21818 0
-27 -21818 0
21821 -28 -21818 0
21821 -29 -21818 0
-30 -21818 0
-31 -21818 0
21822 -32 -21818 0
-33 -21818 0
21821 -34 -21818 0
-35 -21818 0
-36 -21818 0
-45 21824 -21821 0
-46 21824 -21821 0
-47 21824 -21821 0
-48 -21821 0
-49 21824 -21821 0
-50 -21821 21824 0
-51 -21821 0
-52 21824 -21821 0
-53 21824 -21821 0
-54 -21821 0
-55 21824 -21821 0
-56 21824 -21821 0
-57 -21821 0
-58 21824 -21821 0
-59 -21821 0
21824 -21821 -60 0
21824 -21821 -61 0
-62 -21821 0
-63 -21821 0
-64 21824 -21821 0
-65 21824 -21821 0
-66 -21821 0
-67 -21821 0
-68 -21821 21825 0
-69 -21821 0
-70 21824 -21821 0
-71 -21821 0
-72 -21821 0
-21822 -37 21825 0
-45 -21822 21825 0
-46 -21822 21825 0
-47 -21822 21825 0
-48 -21822 21825 0
-49 -21822 21825 0
-50 -21822 0
-51 -21822 0
-52 -21822 21825 0
-53 -21822 21825 0
-54 -21822 21825 0
-55 -21822 21825 0
-56 -21822 0
-21822 -57 0
-58 -21822 21825 0
-59 -21822 21825 0
-21822 21825 -60 0
-21822 -61 0
-62 -21822 0
-63 -21822 21825 0
-64 -21822 21825 0
-65 -21822 0
-66 -21822 0
-67 -21822 21825 0
-68 -21822 0
-69 -21822 0
-70 -21822 0
-71 -21822 0
-72 -21822 21826 0
-21823 -72 0
-73 21827 -21824 0
-81 21827 -21824 0
-82 21827 -21824 0
-83 21827 -21824 0
-84 -21824 0
-85 21827 -21824 0
-86 21827 -21824 0
-87 -21824 0
-88 21827 -21824 0
-89 21827 -21824 0
-90 -21824 0
-91 21827 -21824 0
-92 21827 -21824 0
-93 -21824 0
-94 21827 -21824 0
-95 -21824 0
-96 21827 -21824 0
-97 21827 -21824 0
-98 -21824 0
-99 -21824 0
-100 21827 -21824 0
-101 21827 -21824 0
-102 -21824 0
-103 -21824 0
21828 -104 -21824 0
-105 -21824 0
-106 21827 -21824 0
-107 -21824 0
-108 -21824 0
-81 21828 -21825 0
-82 21828 -21825 0
-83 21828 -21825 0
-84 21828 -21825 0
-85 21828 -21825 0
-86 -21825 0
-87 -21825 0
-88 21828 -21825 0
-89 21828 -21825 0
-90 21828 -21825 0
-91 21828 -21825 0
-92 -21825 0
-93 -21825 0
-94 21828 -21825 0
-95 21828 -21825 0
-96 21828 -21825 0
-97 -21825 0
-98 -21825 0
-99 21828 -21825 0
-100 21828 -21825 0
-101 -21825 0
-102 -21825 0
-103 21828 -21825 0
-104 -21825 0
-105 -21825 0
-106 -21825 0
-107 -21825 0
-21825 -108 21829 0
-73 -21826 21829 0
-81 -21826 21829 0
-82 -21826 21829 0
-83 -21826 21829 0
-84 -21826 21829 0
-85 -21826 21829 0
-87 -21826 0
-88 -21826 21829 0
-89 -21826 21829 0
-90 -21826 21829 0
-91 -21826 21829 0
-93 -21826 0
-94 -21826 21829 0
-95 -21826 21829 0
-96 -21826 21829 0
-98 -21826 0
-99 -21826 21829 0
-100 -21826 21829 0
-102 -21826 0
-103 -21826 21829 0
-104 -21826 21829 0
-105 -21826 0
-106 -21826 21829 0
-107 -21826 0
-21826 -108 0
-109 -21827 21830 0
-117 -21827 21830 0
-118 -21827 21830 0
-119 -21827 21830 0
-120 -21827 0
-121 -21827 21830 0
-122 -21827 21830 0
-123 -21827 0
-124 -21827 21830 0
-125 -21827 21830 0
-126 -21827 0
-127 -21827 21830 0
-128 -21827 21830 0
-129 -21827 0
-130 -21827 21830 0
-131 -21827 0
-132 -21827 21830 0
-133 -21827 21830 0
-134 -21827 0
-135 -21827 0
-136 -21827 21830 0
-137 -21827 21830 0
-138 -21827 0
-139 -21827 0
-140 -21827 21831 0
-141 -21827 0
-21827 -142 21830 0
-143 -21827 0
-21827 -144 0
-109 -21828 21831 0
-117 -21828 21831 0
-118 -21828 21831 0
-119 -21828 21831 0
-120 -21828 21831 0
-121 -21828 21831 0
-122 -21828 0
-123 -21828 0
-124 -21828 21831 0
-125 -21828 21831 0
-126 -21828 21831 0
-127 -21828 21831 0
-128 -21828 0
-129 -21828 0
-130 -21828 21831 0
-131 -21828 21831 0
-132 -21828 21831 0
-133 -21828 0
-134 -21828 0
-135 -21828 21831 0
-136 -21828 21831 0
-137 -21828 0
-138 -21828 0
-139 -21828 21831 0
-140 -21828 0
-141 -21828 0
-21828 -142 0
-143 -21828 0
-21828 -144 21832 0
-109 -21829 21832 0
-117 -21829 21832 0
-118 -21829 21832 0
-119 -21829 21832 0
-120 -21829 21832 0
-121 -21829 21832 0
-123 -21829 0
-124 -21829 21832 0
-125 -21829 21832 0
-126 -21829 21832 0
-127 -21829 21832 0
-129 -21829 0
-130 -21829 21832 0
-131 -21829 21832 0
-132 -21829 21832 0
-134 -21829 0
-135 -21829 21832 0
-136 -21829 21832 0
-138 -21829 0
-139 -21829 21832 0
-140 -21829 21832 0
-141 -21829 0
-21829 -142 21832 0
-143 -21829 0
-21829 -144 0
-145 21833 -21830 0
-153 21833 -21830 0
-154 21833 -21830 0
-155 21833 -21830 0
-156 -21830 0
-157 21833 -21830 0
-158 21833 -21830 0
-159 -21830 0
-160 21833 -21830 0
-161 21833 -21830 0
-162 -21830 0
-163 21833 -21830 0
-164 21833 -21830 0
-165 -21830 0
-166 21833 -21830 0
-167 -21830 0
-168 21833 -21830 0
-169 21833 -21830 0
-21830 -170 0
-171 -21830 0
-172 21833 -21830 0
21833 -173 -21830 0
-174 -21830 0
-175 -21830 0
-176 21834 -21830 0
-21830 -177 0
-178 21833 -21830 0
-179 -21830 0
-180 -21830 0
-145 21834 -21831 0
-153 21834 -21831 0
-154 21834 -21831 0
-155 21834 -21831 0
-156 21834 -21831 0
-157 21834 -21831 0
-158 -21831 0
-159 -21831 0
-160 21834 -21831 0
-161 21834 -21831 0
21834 -21831 -162 0
-163 21834 -21831 0
-164 -21831 0
-165 -21831 0
-166 21834 -21831 0
-167 21834 -21831 0
-168 21834 -21831 0
-21831 -169 0
-21831 -170 0
-171 21834 -21831 0
-172 21834 -21831 0
-21831 -173 0
-174 -21831 0
-175 21834 -21831 0
-176 -21831 0
-21831 -177 0
-178 -21831 0
-179 -21831 0
-180 -21831 21835 0
-145 -21832 21835 0
-153 -21832 21835 0
-154 -21832 21835 0
-155 -21832 21835 0
-156 -21832 21835 0
-157 -21832 21835 0
-159 -21832 0
-160 -21832 21835 0
-161 -21832 21835 0
-162 -21832 21835 0
-163 -21832 21835 0
-165 -21832 0
-166 -21832 21835 0
-167 -21832 21835 0
-168 -21832 21835 0
-21832 -170 0
-171 -21832 21835 0
-172 -21832 21835 0
-174 -21832 0
-175 -21832 21835 0
-176 -21832 21835 0
-21832 -177 0
-178 -21832 21835 0
-179 -21832 0
-180 -21832 0
-195 -21833 0
-21833 -216 0
-21834 21837 -181 0
-189 -21834 21837 0
-190 -21834 21837 0
-191 -21834 21837 0
-192 -21834 21837 0
-193 -21834 21837 0
-194 -21834 0
-21834 -195 0
-196 -21834 21837 0
-197 -21834 21837 0
-198 -21834 21837 0
-199 -21834 21837 0
-200 -21834 0
-201 -21834 0
-202 -21834 21837 0
-203 -21834 21837 0
-204 -21834 21837 0
-205 -21834 0
-206 -21834 0
-207 -21834 21837 0
-208 -21834 21837 0
-209 -21834 0
-210 -21834 0
-211 -21834 21837 0
-212 -21834 0
-213 -21834 0
-214 -21834 0
-215 -21834 0
21838 -21834 -216 0
21838 -21835 -181 0
-189 21838 -21835 0
-190 21838 -21835 0
-191 21838 -21835 0
-192 21838 -21835 0
-193 21838 -21835 0
-195 -21835 0
-196 21838 -21835 0
-197 21838 -21835 0
-198 21838 -21835 0
-199 21838 -21835 0
-201 -21835 0
-202 21838 -21835 0
-203 21838 -21835 0
-204 21838 -21835 0
-206 -21835 0
-207 21838 -21835 0
-208 21838 -21835 0
-210 -21835 0
-211 21838 -21835 0
-212 21838 -21835 0
-213 -21835 0
-214 21838 -21835 0
-215 -21835 0
-21835 -216 0
-21836 -231 0
-21837 -231 0
-217 21841 -21838 0
-225 21841 -21838 0
-226 21841 -21838 0
-227 21841 -21838 0
-228 21841 -21838 0
-229 21841 -21838 0
-231 -21838 0
-232 21841 -21838 0
-233 21841 -21838 0
-234 21841 -21838 0
-235 21841 -21838 0
-237 -21838 0
-238 21841 -21838 0
-239 21841 -21838 0
-240 21841 -21838 0
-242 -21838 0
-243 21841 -21838 0
-244 21841 -21838 0
-246 -21838 0
-247 21841 -21838 0
-248 21841 -21838 0
-249 -21838 0
-250 21841 -21838 0
-251 -21838 0
-252 -21838 0
-21839 -287 0
-21840 -287 0
-253 -21841 21844 0
-261 -21841 21844 0
-262 -21841 21844 0
-263 -21841 21844 0
-264 -21841 21844 0
-265 -21841 21844 0
-267 -21841 0
-268 -21841 21844 0
-269 -21841 21844 0
-270 -21841 21844 0
-271 -21841 21844 0
-273 -21841 0
-274 -21841 21844 0
-275 -21841 21844 0
-276 -21841 21844 0
-278 -21841 0
-279 -21841 21844 0
-280 -21841 21844 0
-282 -21841 0
-283 -21841 21844 0
-284 -21841 21844 0
-285 -21841 0
-286 -21841 21844 0
-287 -21841 0
-288 -21841 0
-289 -21842 21845 0
-297 -21842 21845 0
-298 -21842 21845 0
-299 -21842 21845 0
-300 -21842 0
-301 -21842 21845 0
-21842 -302 21845 0
-303 -21842 0
-304 -21842 21845 0
-305 -21842 21845 0
-306 -21842 0
-307 -21842 21845 0
-308 -21842 21845 0
-309 -21842 0
-310 -21842 21845 0
-311 -21842 0
-312 -21842 21845 0
-313 -21842 21845 0
-314 -21842 0
-315 -21842 0
-316 -21842 21845 0
-317 -21842 21845 0
-318 -21842 0
-319 -21842 0
-320 -21842 21846 0
-321 -21842 0
-21842 -322 21845 0
-323 -21842 0
-324 -21842 0
-21843 -302 0
-21843 -317 0
-21843 -318 0
-289 21847 -21844 0
-297 21847 -21844 0
-298 21847 -21844 0
-299 21847 -21844 0
-300 21847 -21844 0
-301 21847 -21844 0
-303 -21844 0
-304 21847 -21844 0
-305 21847 -21844 0
-306 21847 -21844 0
-307 21847 -21844 0
-309 -21844 0
-310 21847 -21844 0
-311 21847 -21844 0
-312 21847 -21844 0
-314 -21844 0
-315 21847 -21844 0
-316 21847 -21844 0
-318 -21844 0
-319 21847 -21844 0
-321 -21844 0
-323 -21844 0
-324 -21844 0
-325 21848 -21845 0
-333 21848 -21845 0
-334 21848 -21845 0
-335 21848 -21845 0
-336 -21845 0
21848 -21845 -337 0
-338 21848 -21845 0
-21845 -339 0
-340 21848 -21845 0
-341 21848 -21845 0
-342 -21845 0
-343 21848 -21845 0
-344 21848 -21845 0
-345 -21845 0
-346 21848 -21845 0
-347 -21845 0
-348 21848 -21845 0
-349 21848 -21845 0
-350 -21845 0
-351 -21845 0
-352 21848 -21845 0
-353 21848 -21845 0
-354 -21845 0
-355 -21845 0
-356 21849 -21845 0
-357 -21845 0
-358 21848 -21845 0
-359 -21845 0
-360 -21845 0
-325 -21846 21849 0
-333 -21846 21849 0
-334 -21846 21849 0
-335 -21846 21849 0
-336 -21846 21849 0
-21846 21849 -337 0
-338 -21846 0
-21846 -339 0
-340 -21846 21849 0
-341 -21846 21849 0
-342 -21846 21849 0
-343 -21846 21849 0
-344 -21846 0
-345 -21846 0
-346 -21846 21849 0
-347 -21846 21849 0
-348 -21846 21849 0
-349 -21846 0
-21846 -350 0
-351 -21846 21849 0
-352 -21846 21849 0
-353 -21846 0
-354 -21846 0
-355 -21846 21849 0
-356 -21846 0
-357 -21846 0
-358 -21846 0
-359 -21846 0
-21847 -339 0
-345 -21847 0
-350 -21847 0
-354 -21847 0
-357 -21847 0
-359 -21847 0
-360 -21847 0
-21848 -361 21851 0
-369 -21848 21851 0
-370 -21848 21851 0
-371 -21848 21851 0
-372 -21848 0
-373 -21848 21851 0
-374 -21848 21851 0
-375 -21848 0
-376 -21848 21851 0
-377 -21848 21851 0
-378 -21848 0
-21848 -379 21851 0
-380 -21848 21851 0
-381 -21848 0
-382 -21848 21851 0
-383 -21848 0
-384 -21848 21851 0
-385 -21848 21851 0
-386 -21848 0
-387 -21848 0
-388 -21848 21851 0
-21848 -389 21851 0
-390 -21848 0
-391 -21848 0
-392 -21848 21852 0
-393 -21848 0
-394 -21848 21851 0
-395 -21848 0
-396 -21848 0
-361 -21849 21852 0
-369 -21849 21852 0
-370 -21849 21852 0
-371 -21849 21852 0
-372 -21849 21852 0
-373 -21849 21852 0
-374 -21849 0
-375 -21849 0
-376 -21849 21852 0
-377 -21849 21852 0
-378 -21849 21852 0
-379 -21849 21852 0
-380 -21849 0
-381 -21849 0
-382 -21849 21852 0
-383 -21849 21852 0
-384 -21849 21852 0
-385 -21849 0
-386 -21849 0
-387 -21849 21852 0
-388 -21849 21852 0
-389 -21849 0
-390 -21849 0
-391 -21849 21852 0
-392 -21849 0
-393 -21849 0
-394 -21849 0
-395 -21849 0
-375 -21850 0
-381 -21850 0
-386 -21850 0
-390 -21850 0
-393 -21850 0
-395 -21850 0
-397 -21851 21854 0
-405 -21851 21854 0
-406 -21851 21854 0
-407 -21851 21854 0
-408 -21851 0
-409 -21851 21854 0
-410 -21851 21854 0
-411 -21851 0
-412 -21851 21854 0
-413 -21851 21854 0
-414 -21851 0
-415 -21851 21854 0
-416 -21851 21854 0
-417 -21851 0
-418 -21851 21854 0
-419 -21851 0
-420 -21851 21854 0
-21851 21854 -421 0
-422 -21851 0
-423 -21851 0
-424 -21851 21854 0
-21851 -425 21854 0
-426 -21851 0
-427 -21851 0
-428 -21851 21855 0
-429 -21851 0
-430 -21851 21854 0
-431 -21851 0
-432 -21851 0
-397 21855 -21852 0
-405 21855 -21852 0
-406 21855 -21852 0
-407 21855 -21852 0
-408 21855 -21852 0
-409 21855 -21852 0
-410 -21852 0
-411 -21852 0
-412 21855 -21852 0
-413 21855 -21852 0
-414 21855 -21852 0
-415 21855 -21852 0
-416 -21852 0
-417 -21852 0
-418 21855 -21852 0
-419 21855 -21852 0
-420 21855 -21852 0
-21852 -421 0
-422 -21852 0
-423 21855 -21852 0
-424 21855 -21852 0
-425 -21852 0
-426 -21852 0
-427 21855 -21852 0
-428 -21852 0
-429 -21852 0
-430 -21852 0
-431 -21852 0
-411 -21853 0
-417 -21853 0
-422 -21853 0
-426 -21853 0
-429 -21853 0
-431 -21853 0
-432 -21853 0
-433 -21854 21857 0
-441 -21854 21857 0
-442 -21854 21857 0
-443 -21854 21857 0
-444 -21854 0
-445 -21854 21857 0
-446 -21854 21857 0
-447 -21854 0
-448 -21854 21857 0
-449 -21854 21857 0
-450 -21854 0
-451 -21854 21857 0
-452 -21854 21857 0
-453 -21854 0
-454 -21854 21857 0
-455 -21854 0
-456 -21854 21857 0
-457 -21854 21857 0
-458 -21854 0
-459 -21854 0
-460 -21854 21857 0
-461 -21854 21857 0
-462 -21854 0
-463 -21854 0
-464 -21854 21858 0
-465 -21854 0
-466 -21854 21857 0
-467 -21854 0
-468 -21854 0
-433 -21855 21858 0
-441 -21855 21858 0
-442 -21855 21858 0
-443 -21855 21858 0
-444 -21855 21858 0
-445 -21855 21858 0
-446 -21855 0
-447 -21855 0
-448 -21855 21858 0
-449 -21855 21858 0
-450 -21855 21858 0
-451 -21855 21858 0
-452 -21855 0
-453 -21855 0
-454 -21855 21858 0
-455 -21855 21858 0
-456 -21855 21858 0
-457 -21855 0
-458 -21855 0
-459 -21855 21858 0
-460 -21855 21858 0
-461 -21855 0
-462 -21855 0
-463 -21855 21858 0
-464 -21855 0
-465 -21855 0
-466 -21855 0
-467 -21855 0
-447 -21856 0
-453 -21856 0
-458 -21856 0
-462 -21856 0
-465 -21856 0
-467 -21856 0
-468 -21856 0
-469 21860 -21857 0
-477 21860 -21857 0
-478 21860 -21857 0
-479 21860 -21857 0
-480 -21857 0
-481 21860 -21857 0
-482 21860 -21857 0
-483 -21857 0
-484 21860 -21857 0
-485 21860 -21857 0
-486 -21857 0
-487 21860 -21857 0
-488 21860 -21857 0
-489 -21857 0
21860 -21857 -490 0
-491 -21857 0
-492 21860 -21857 0
-493 21860 -21857 0
-494 -21857 0
-495 -21857 0
-496 21860 -21857 0
-497 21860 -21857 0
-498 -21857 0
-499 -21857 0
-500 -21857 21861 0
-21857 -501 0
-502 21860 -21857 0
-503 -21857 0
-504 -21857 0
-469 -21858 21861 0
-21858 -477 21861 0
-478 -21858 21861 0
-479 -21858 21861 0
-480 -21858 21861 0
-481 -21858 21861 0
-482 -21858 0
-483 -21858 0
-484 -21858 21861 0
-485 -21858 21861 0
-486 -21858 21861 0
-487 -21858 21861 0
-488 -21858 0
-489 -21858 0
-21858 21861 -490 0
-491 -21858 21861 0
-492 -21858 21861 0
-21858 -493 0
-494 -21858 0
-495 -21858 21861 0
-496 -21858 21861 0
-497 -21858 0
-498 -21858 0
-499 -21858 21861 0
-500 -21858 0
-21858 -501 0
-502 -21858 0
-503 -21858 0
-483 -21859 0
-489 -21859 0
-494 -21859 0
-498 -21859 0
-21859 -501 0
-503 -21859 0
-504 -21859 0
-505 -21860 21863 0
-513 -21860 21863 0
-514 -21860 21863 0
-515 -21860 21863 0
-516 -21860 0
-517 -21860 21863 0
-518 -21860 21863 0
-519 -21860 0
-520 -21860 21863 0
-521 -21860 21863 0
-522 -21860 0
-523 -21860 21863 0
-524 -21860 21863 0
-525 -21860 0
-526 -21860 21863 0
-527 -21860 0
-528 -21860 21863 0
-529 -21860 21863 0
-530 -21860 0
-531 -21860 0
-532 -21860 21863 0
-533 -21860 21863 0
-534 -21860 0
-535 -21860 0
-536 -21860 21864 0
-21860 -537 0
-538 -21860 21863 0
-539 -21860 0
-540 -21860 0
-505 -21861 21864 0
-513 -21861 21864 0
-514 -21861 21864 0
-515 -21861 21864 0
-516 -21861 21864 0
-517 -21861 21864 0
-518 -21861 0
-519 -21861 0
-520 -21861 21864 0
-521 -21861 21864 0
-522 -21861 21864 0
-523 -21861 21864 0
-524 -21861 0
-525 -21861 0
-526 -21861 21864 0
-527 -21861 21864 0
-528 -21861 21864 0
-529 -21861 0
-530 -21861 0
-531 -21861 21864 0
-532 -21861 21864 0
-533 -21861 0
-534 -21861 0
-21861 -535 21864 0
-536 -21861 0
-21861 -537 0
-538 -21861 0
-539 -21861 0
-519 -21862 0
-525 -21862 0
-530 -21862 0
-534 -21862 0
-21862 -537 0
-539 -21862 0
-540 -21862 0
-549 -21863 21866 0
-550 -21863 21866 0
-551 -21863 21866 0
-552 -21863 0
-553 -21863 21866 0
-554 -21863 21866 0
-555 -21863 0
-556 -21863 21866 0
-557 -21863 21866 0
-558 -21863 0
-559 -21863 21866 0
-560 -21863 21866 0
-561 -21863 0
-562 -21863 21866 0
-563 -21863 0
-564 -21863 21866 0
-565 -21863 21866 0
-566 -21863 0
-567 -21863 0
-568 -21863 21866 0
-569 -21863 21866 0
-570 -21863 0
-571 -21863 0
-572 -21863 21867 0
-573 -21863 0
-574 -21863 21866 0
-575 -21863 0
-576 -21863 0
-21864 -549 21867 0
-21864 -550 21867 0
-21864 -551 21867 0
-552 -21864 21867 0
-21864 -553 21867 0
-21864 -554 0
-555 -21864 0
-21864 -556 21867 0
-21864 -557 21867 0
-558 -21864 21867 0
-21864 -559 21867 0
-21864 -560 0
-561 -21864 0
-21864 -562 21867 0
-563 -21864 21867 0
-21864 -564 21867 0
-21864 -565 0
-566 -21864 0
-567 -21864 21867 0
-21864 -568 21867 0
-21864 -569 0
-570 -21864 0
-571 -21864 21867 0
-21864 -572 0
-573 -21864 0
-21864 -574 0
-575 -21864 0
-555 -21865 0
-561 -21865 0
-566 -21865 0
-570 -21865 0
-573 -21865 0
-575 -21865 0
-21905 34 0
21905 -34 -21818 0
-21823 -50 0
-21908 70 0
-70 -21821 21908 0
-86 -21826 0
-92 -21826 0
-97 -21826 0
-101 -21826 0
-21911 106 0
-106 21911 -21824 0
21912 -142 0
-21913 21829 0
-21829 -21912 21913 0
-122 -21829 0
-128 -21829 0
-133 -21829 0
-137 -21829 0
-21914 142 0
-21827 -142 21914 0
158 -21915 164 169 173 176 178 151 0
21915 -176 0
-178 21915 0
-21916 21832 0
-21916 21915 0
-21832 21916 -21915 0
-158 -21832 0
-164 -21832 0
-169 -21832 0
-21832 -173 0
-21917 21830 0
-21917 178 0
194 -21918 200 205 209 212 214 187 0
-212 21918 0
-214 21918 0
-21919 21835 0
-21919 21918 0
-21835 21919 -21918 0
-194 -21835 0
-200 -21835 0
-205 -21835 0
-209 -21835 0
-21920 21833 0
-21920 214 0
230 -21921 236 241 245 248 250 223 0
-248 21921 0
-250 21921 0
-21922 21921 0
21922 -21838 -21921 0
-230 -21838 0
-236 -21838 0
-241 -21838 0
-245 -21838 0
-21923 21836 0
266 -21924 272 277 281 284 286 259 0
-284 21924 0
-286 21924 0
-21925 21924 0
-21924 -21841 21925 0
-266 -21841 0
-272 -21841 0
-277 -21841 0
-281 -21841 0
-21926 21839 0
-21927 302 308 313 317 320 322 295 0
-320 21927 0
-322 21927 0
21844 -21928 0
21927 -21928 0
-21844 21928 -21927 0
-302 -21844 0
-308 -21844 0
-313 -21844 0
-317 -21844 0
-21929 21842 0
338 -21930 344 349 353 356 358 331 0
-356 21930 0
-358 21930 0
-21931 21930 0
-21847 21931 -21930 0
-338 -21847 0
-344 -21847 0
-349 -21847 0
-353 -21847 0
-21932 21845 0
-392 21933 0
-394 21933 0
-21933 -21850 21934 0
-374 -21850 0
-21850 -380 0
-385 -21850 0
-21850 -389 0
-21935 21848 0
410 -21936 416 421 425 428 430 403 0
21936 -428 0
-430 21936 0
-21937 21936 0
21937 -21936 -21853 0
-410 -21853 0
-416 -21853 0
-21853 -421 0
-425 -21853 0
-21938 21851 0
-464 21939 0
-466 21939 0
-21939 21940 -21856 0
-446 -21856 0
-452 -21856 0
-457 -21856 0
-461 -21856 0
-21941 21854 0
482 -21942 488 493 497 500 502 475 0
-500 21942 0
-502 21942 0
21943 -21859 -21942 0
-482 -21859 0
-488 -21859 0
-21859 -493 0
-497 -21859 0
-21944 21857 0
518 -21945 524 529 533 536 538 511 0
21945 -536 0
-538 21945 0
-21946 21945 0
21946 -21862 -21945 0
-518 -21862 0
-524 -21862 0
-529 -21862 0
-533 -21862 0
-21947 21860 0
-21948 554 565 560 572 574 569 547 0
21948 -572 0
21948 -574 0
-21949 21948 0
-21865 -21948 21949 0
-21865 -554 0
-21865 -560 0
-21865 -565 0
-21865 -569 0
-21950 21863 0
-21916 21955 0
-21919 21956 0
-21955 21956 0
-21919 -21955 0
-21922 21957 0
-21956 21957 0
-21922 -21956 0
-21925 21958 0
-21957 21958 0
-21925 -21957 0
21959 -21928 0
-21958 21959 0
-21958 -21928 0
-21931 21960 0
21960 -21959 0
-21931 -21959 0
-21934 21961 0
21961 -21960 0
-21934 -21960 0
-21937 21962 0
-21961 21962 0
-21937 -21961 0
-21940 21963 0
-21962 21963 0
-21940 -21962 0
-21943 21964 0
-21963 21964 0
-21963 -21943 0
21965 -21946 0
-21964 21965 0
-21964 -21946 0
-21949 -21965 0
21923 21926 -21966 21905 21920 21917 21911 21908 21914 21929 21932 21935 21938 21941 21944 21947 21950 0
21966 -21905 0
-21908 21966 0
-21911 21966 0
-21914 21966 0
-176 21966 -21832 0
-212 -21835 21966 0
-248 -21838 21966 0
-284 -21841 21966 0
-320 21966 -21844 0
-356 -21847 21966 0
-392 -21850 21966 0
-428 21966 -21853 0
-464 -21856 21966 0
-500 21966 -21859 0
-536 21966 -21862 0
21966 -21865 -572 0
21967 16140 0
21980 16141 -21967 0
21992 -21980 0
21993 16142 -21980 0
22004 -21992 0
-21993 22005 0
16143 22005 -21992 0
-21993 16143 22006 0
22016 -22004 0
22017 -22005 0
-22006 22018 0
22017 16144 -22004 0
16144 22018 -22005 0
22029 -22017 0
-22018 22030 0
22029 16145 -22016 0
16145 -22017 22030 0
22042 -22030 0
22042 16146 -22029 0
16146 22043 -22030 0
22055 -22043 0
22055 16147 -22042 0
16147 22056 -22043 0
-22056 22068 0
-22055 16148 22068 0
-22056 16148 22069 0
22081 -22069 0
22081 16149 -22068 0
-22069 16149 22082 0
-22082 22094 0
-22081 16150 22094 0
22095 16150 -22082 0
-22095 22107 0
-22094 22107 16151 0
-22095 22108 16151 0
22120 -22108 0
-22107 22120 16152 0
-22108 22121 16152 0
22133 -22121 0
-22120 22133 16153 0
-22121 22134 16153 0
-22134 22146 0
-22133 22146 16154 0
-22134 16154 0
-22146 16155 0
-22942 16338 16140 16414 16216 16292 0
22942 -16140 0
22942 -16216 0
22942 -16338 0
22943 -16141 0
22943 -16217 0
22943 -16339 0
-16142 22944 0
-16218 22944 0
-16340 22944 0
-16143 22945 0
-16219 22945 0
-16295 22945 0
22946 -16144 0
-16220 22946 0
22947 -16145 0
-16221 22947 0
22948 -16146 0
22949 -16147 0
-16148 22950 0
-16149 22951 0
-16150 22952 0
-16151 22953 0
-16152 22954 0
-16153 22955 0
-16154 22956 0
-16155 22957 0
22958 -22942 0
22964 -22943 -22958 0
22969 -22964 0
-22944 22970 -22964 0
22974 -22969 0
-22970 22975 0
-22945 22975 -22969 0
-22970 -22945 22976 0
22980 -22975 0
22981 -22976 0
22980 -22946 -22974 0
-22975 22981 -22946 0
-22976 -22946 22982 0
22986 -22981 0
-22982 22987 0
22986 -22980 -22947 0
-22981 -22947 22987 0
22991 -22986 0
-22987 22992 0
-22948 22992 -22986 0
22996 -22991 0
-22992 22997 0
-22949 22997 -22991 0
23001 -22996 0
-22997 23002 0
-22950 23002 -22996 0
23006 -23001 0
23007 -23002 0
-22951 23007 -23001 0
23011 -23006 0
23012 -23007 0
23012 -22952 -23006 0
23016 -23011 0
23017 -23012 0
23017 -22953 -23011 0
23021 -23016 0
23022 -23017 0
-22954 23022 -23016 0
23026 -23021 0
23027 -23022 0
23027 -22955 -23021 0
23032 -23027 0
-22956 23032 -23026 0
-22982 -22947 0
-22987 -22948 0
-22992 -22949 0
-22950 -22997 0
-22951 -23002 0
-22952 -23007 0
-22953 -23012 0
-22954 -23017 0
-22955 -23022 0
-22956 -23027 0
-22957 -23032 0
108 72 144 180 216 36 0
