p cnf 40891 29346
43 41 3 4 5 6 7 8 9 10 11 12 13 14 15 16 17 1 2 25 21 20 28 24 26 31 27 23 37 30 34 32 19 38 35 36 33 22 39 40 29 42 18 44 45 0
1189 -19 0
-1189 -20 0
-811 1 2 3 4 5 6 7 8 9 0
-991 0
-812 10 11 12 13 14 15 16 17 0
-992 1 0
-813 20 18 19 21 23 22 24 0
813 -18 0
-993 2 10 0
-814 26 25 27 29 28 30 0
-994 18 11 3 0
-815 31 32 34 33 35 0
815 -31 0
-995 25 12 4 19 0
-816 38 36 37 39 0
816 -38 0
-996 31 13 5 20 26 0
-817 41 40 42 0
-997 6 14 21 27 32 36 0
-818 43 44 0
-998 37 15 7 33 22 28 40 0
998 -22 0
998 -28 0
-819 45 0
-999 43 16 8 34 38 29 23 41 0
999 -23 0
999 -29 0
999 -34 0
999 -38 0
999 -43 0
-820 0
-1000 9 17 24 30 35 39 42 44 45 0
82 71 54 46 49 59 81 63 52 47 77 64 78 51 50 53 62 57 61 55 48 56 79 69 60 58 86 88 76 75 65 67 74 73 80 68 66 83 84 85 72 87 70 89 90 0
1232 -63 0
1233 -64 0
-1232 -64 0
-1233 1234 0
-1234 1235 0
-1235 1236 0
-1235 -67 0
-1236 -68 0
-70 1239 0
-71 1240 0
-1239 -71 0
-1240 1241 0
-73 1242 0
-1241 1242 0
-74 1243 0
-1242 1243 0
-1243 1244 0
1245 -76 0
1245 -1244 0
1246 -1245 0
1247 -78 0
1247 -1246 0
-78 -1246 0
-79 1248 0
1248 -1247 0
-79 -1247 0
1249 -1248 0
1250 -1249 0
1251 -82 0
1251 -1250 0
-82 -1250 0
-83 1252 0
1252 -1251 0
-83 -1251 0
1253 -1252 0
1254 -1253 0
1255 -1254 0
1256 -1255 0
-88 -1256 0
-821 54 49 46 47 50 48 53 51 52 0
-47 821 0
-48 821 0
-49 821 0
-50 821 0
-52 821 0
-1001 0
-822 62 59 57 56 60 55 61 58 0
-1002 46 0
-823 68 63 65 66 64 67 69 0
-63 823 0
-64 823 0
-1003 55 47 0
-824 74 72 71 70 73 75 0
824 -70 0
-1004 56 48 63 0
-825 79 80 76 78 77 0
-78 825 0
-1005 70 49 64 57 0
1005 -64 0
-826 83 84 82 81 0
-82 826 0
-1006 58 50 71 76 65 0
1006 -71 0
-76 1006 0
-827 86 85 87 0
-1007 77 51 81 59 72 66 0
-828 88 89 0
828 -88 0
-1008 67 52 85 73 82 78 60 0
1008 -82 0
-829 90 0
-1009 74 53 83 79 88 86 68 61 0
-68 1009 0
-74 1009 0
-79 1009 0
-83 1009 0
-88 1009 0
-830 0
-1010 69 54 80 75 62 84 87 89 90 0
-54 1010 0
-62 1010 0
-69 1010 0
1010 -75 0
-80 1010 0
-84 1010 0
-87 1010 0
-89 1010 0
-90 1010 0
-18 -46 0
-18 -49 0
-18 -50 0
-19 -46 0
-19 -48 0
-19 -50 0
-46 -20 0
-48 -20 0
-49 -20 0
-61 -20 0
-22 -46 0
-22 -48 0
-22 -49 0
-22 -50 0
-46 -23 0
-23 -48 0
-23 -49 0
-23 -50 0
-25 -46 0
-25 -47 0
-25 -50 0
-26 -46 0
-26 -47 0
-26 -49 0
-61 -26 0
-64 -26 0
-28 -46 0
-28 -47 0
-28 -49 0
-28 -50 0
-64 -28 0
-29 -46 0
-29 -47 0
-29 -49 0
-29 -50 0
-64 -29 0
-31 -46 0
-31 -47 0
-48 -31 0
-55 -31 0
-56 -31 0
-60 -31 0
-61 -31 0
-63 -31 0
-67 -31 0
-68 -31 0
-73 -31 0
-74 -31 0
-33 -46 0
-33 -47 0
-33 -48 0
-33 -50 0
-63 -33 0
-34 -46 0
-34 -47 0
-34 -48 0
-34 -50 0
-63 -34 0
-37 -46 0
-61 -37 0
-63 -37 0
-64 -37 0
-68 -37 0
-70 -37 0
-79 -37 0
-46 -38 0
-38 -49 0
-63 -38 0
-64 -38 0
-67 -38 0
-70 -38 0
-73 -38 0
-78 -38 0
-41 -46 0
-41 -47 0
-41 -48 0
-41 -49 0
-41 -50 0
-55 -41 0
-56 -41 0
-57 -41 0
-58 -41 0
-60 -41 0
-63 -41 0
-64 -41 0
-65 -41 0
-67 -41 0
-70 -41 0
-71 -41 0
-73 -41 0
-41 -75 0
-76 -41 0
-78 -41 0
-82 -41 0
-46 -43 0
-47 -43 0
-48 -43 0
-49 -43 0
-50 -43 0
-63 -43 0
-64 -43 0
-65 -43 0
-71 -43 0
-76 -43 0
111 91 97 96 103 110 102 98 115 95 99 104 94 131 128 135 107 93 92 133 109 116 100 114 118 121 117 113 127 120 123 122 119 105 125 126 112 101 129 130 108 132 106 134 124 0
-121 1289 0
-1289 1290 0
-123 1291 0
-1290 1291 0
-123 -1290 0
-1291 1292 0
-1291 -124 0
-1292 1293 0
-1293 1294 0
-127 1295 0
-1294 1295 0
-128 1296 0
-1295 1296 0
-128 -1295 0
-1296 1297 0
-1297 1298 0
-131 1299 0
-1298 1299 0
-1298 -131 0
-1299 1300 0
-1300 -133 0
99 91 -831 93 96 95 94 97 98 92 0
-92 831 0
-93 831 0
-94 831 0
-95 831 0
-96 831 0
-97 831 0
-1011 0
-832 100 101 102 103 104 105 106 107 0
-100 832 0
-101 832 0
-103 832 0
91 -1012 0
-833 110 114 109 112 108 113 111 0
-108 833 0
-109 833 0
-110 833 0
-1013 100 92 0
-834 116 120 115 119 118 117 0
-118 834 0
-1014 108 101 93 0
-108 1014 0
-835 123 125 121 124 122 0
-121 835 0
-123 835 0
-124 835 0
-1015 115 94 102 109 0
-109 1015 0
-115 1015 0
-836 127 129 128 126 0
-127 836 0
-128 836 0
-1016 110 95 103 121 116 0
-116 1016 0
-121 1016 0
-837 131 132 130 0
837 -131 0
-1017 126 96 104 111 117 122 0
-838 133 134 0
838 -133 0
-1018 123 130 97 118 127 105 112 0
-105 1018 0
-118 1018 0
-123 1018 0
-127 1018 0
-839 135 0
133 98 -1019 106 119 124 128 131 113 0
-113 1019 0
-124 1019 0
-128 1019 0
-131 1019 0
1019 -133 0
-840 0
-1020 134 99 135 107 114 120 125 129 132 0
-135 1020 0
-55 -93 0
-55 -94 0
-55 -95 0
-56 -92 0
-56 -94 0
-56 -95 0
-57 -92 0
-57 -93 0
-57 -95 0
-58 -92 0
-58 -93 0
-58 -94 0
-60 -92 0
-60 -93 0
-60 -94 0
-60 -95 0
-61 -92 0
-61 -93 0
-61 -94 0
-61 -95 0
-63 -91 0
-63 -94 0
-63 -95 0
-64 -91 0
-64 -93 0
-64 -95 0
-65 -91 0
-65 -93 0
-65 -94 0
-66 -91 0
-67 -91 0
-67 -93 0
-67 -94 0
-67 -95 0
-68 -91 0
-68 -93 0
-68 -94 0
-68 -95 0
-69 -91 0
-70 -91 0
-70 -92 0
-70 -95 0
-71 -91 0
-71 -92 0
-71 -94 0
-72 -91 0
-73 -91 0
-73 -92 0
-73 -94 0
-73 -95 0
-74 -91 0
-74 -92 0
-74 -94 0
-74 -95 0
-75 -91 0
-76 -91 0
-76 -92 0
-76 -93 0
-105 -76 0
-106 -76 0
-113 -76 0
-119 -76 0
-77 -91 0
-78 -91 0
-78 -92 0
-78 -93 0
-78 -95 0
-108 -78 0
-113 -78 0
-119 -78 0
-79 -91 0
-79 -92 0
-79 -93 0
-79 -95 0
-108 -79 0
-110 -79 0
-112 -79 0
-116 -79 0
-118 -79 0
-80 -91 0
-81 -91 0
-82 -91 0
-92 -82 0
-93 -82 0
-94 -82 0
-108 -82 0
-109 -82 0
-113 -82 0
-115 -82 0
-119 -82 0
-124 -82 0
-83 -91 0
-83 -92 0
-83 -93 0
-83 -94 0
-108 -83 0
-109 -83 0
-112 -83 0
-115 -83 0
-118 -83 0
-123 -83 0
-84 -91 0
-85 -91 0
-86 -91 0
-86 -92 0
-86 -93 0
-86 -94 0
-86 -99 0
-107 -86 0
-114 -86 0
-120 -86 0
-125 -86 0
-129 -86 0
-87 -91 0
-88 -91 0
-88 -92 0
-88 -93 0
-88 -94 0
-88 -95 0
-101 -88 0
-88 -102 0
-108 -88 0
-109 -88 0
-110 -88 0
-115 -88 0
-116 -88 0
-121 -88 0
-89 -91 0
-90 -91 0
176 157 136 142 144 180 174 172 151 170 137 140 138 141 178 171 168 154 175 149 139 152 165 153 173 166 160 167 145 169 143 162 156 148 159 164 158 161 150 155 146 177 163 179 147 0
-136 1303 0
-137 1304 0
-1303 1304 0
-138 1305 0
-1304 1305 0
-138 -1304 0
-139 1306 0
-1305 1306 0
-1305 -139 0
-140 1307 0
-1306 1307 0
-141 1308 0
-1307 1308 0
-1308 1309 0
-143 1310 0
1310 -1309 0
-144 1311 0
1311 -1310 0
1312 -145 0
1312 -1311 0
-145 -1311 0
-146 1313 0
1313 -1312 0
-147 1314 0
1314 -1313 0
-147 -1313 0
1315 -1314 0
-148 -1314 0
1316 -1315 0
-150 1317 0
1317 -1316 0
-150 -1316 0
1318 -1317 0
-151 -1317 0
1319 -1318 0
-153 1320 0
1320 -1319 0
-153 -1319 0
-154 1321 0
1321 -1320 0
-154 -1320 0
-155 1322 0
1322 -1321 0
-155 -1321 0
-156 1323 0
1323 -1322 0
-156 -1322 0
1324 -157 0
1324 -1323 0
-157 -1323 0
-158 1325 0
1325 -1324 0
-158 -1324 0
1326 -1325 0
-160 1327 0
1327 -1326 0
-160 -1326 0
-161 1328 0
1328 -1327 0
-161 -1327 0
-162 1329 0
1329 -1328 0
-162 -1328 0
-163 1330 0
1330 -1329 0
-163 -1329 0
-164 1331 0
1331 -1330 0
-164 -1330 0
1332 -1331 0
-166 1333 0
1333 -1332 0
-166 -1332 0
-167 1334 0
1334 -1333 0
-167 -1333 0
-168 1335 0
1335 -1334 0
-168 -1334 0
-169 1336 0
1336 -1335 0
-169 -1335 0
1337 -1336 0
-171 1338 0
1338 -1337 0
-171 -1337 0
-172 1339 0
1339 -1338 0
-172 -1338 0
-173 1340 0
1340 -1339 0
-173 -1339 0
1341 -174 0
1341 -1340 0
-175 1342 0
1342 -1341 0
-175 -1341 0
1343 -1342 0
-176 -1342 0
1344 -1343 0
-178 -1344 0
-841 144 137 136 142 141 140 143 139 138 0
-136 841 0
-137 841 0
-138 841 0
-139 841 0
-140 841 0
-1021 0
-842 150 146 152 149 147 148 145 151 0
842 -145 0
-146 842 0
-147 842 0
-150 842 0
-1022 136 0
-843 157 159 156 153 158 154 155 0
-153 843 0
-154 843 0
-155 843 0
-156 843 0
843 -157 0
843 -158 0
-1023 145 137 0
-137 1023 0
1023 -145 0
-844 163 165 162 160 161 164 0
-160 844 0
-161 844 0
-162 844 0
-163 844 0
-164 844 0
-1024 153 138 146 0
-138 1024 0
-146 1024 0
-153 1024 0
-845 168 170 169 167 166 0
-166 845 0
-167 845 0
-168 845 0
-1025 147 139 160 154 0
-139 1025 0
-147 1025 0
-846 172 174 173 171 0
-171 846 0
-172 846 0
-173 846 0
-1026 155 140 148 166 161 0
-140 1026 0
-166 1026 0
-847 175 177 176 0
-175 847 0
847 -176 0
-1027 149 141 156 167 171 162 0
-156 1027 0
-162 1027 0
-167 1027 0
-171 1027 0
-848 178 179 0
848 -178 0
-1028 150 142 175 163 172 157 168 0
-150 1028 0
1028 -168 0
1028 -172 0
1028 -175 0
-849 180 0
-1029 151 143 158 178 176 164 169 173 0
-151 1029 0
-158 1029 0
-164 1029 0
-169 1029 0
-173 1029 0
1029 -176 0
1029 -178 0
-850 0
-1030 179 159 152 165 174 177 170 180 144 0
-108 -136 0
-108 -139 0
-108 -140 0
-109 -136 0
-138 -109 0
-109 -140 0
-110 -136 0
-138 -110 0
-110 -139 0
-111 -136 0
-112 -136 0
-112 -139 0
-112 -140 0
-113 -136 0
-113 -138 0
-113 -139 0
-113 -140 0
-114 -136 0
-115 -136 0
-115 -137 0
-115 -140 0
-116 -136 0
-116 -137 0
-116 -139 0
-154 -116 0
-117 -136 0
-118 -136 0
-118 -137 0
-118 -139 0
-118 -140 0
-119 -136 0
-119 -137 0
-139 -119 0
-119 -140 0
-120 -136 0
-121 -136 0
-121 -137 0
-121 -138 0
-121 -145 0
-146 -121 0
-149 -121 0
-153 -121 0
-121 -157 0
-163 -121 0
-122 -136 0
-123 -136 0
-123 -137 0
-123 -138 0
-123 -140 0
-123 -158 0
-124 -136 0
-124 -137 0
-138 -124 0
-124 -140 0
-124 -157 0
-161 -124 0
-163 -124 0
-125 -136 0
-126 -136 0
-127 -136 0
-127 -137 0
-127 -138 0
-127 -139 0
-127 -158 0
-127 -164 0
-169 -127 0
-128 -136 0
-128 -137 0
-138 -128 0
-139 -128 0
-128 -145 0
-146 -128 0
-147 -128 0
-150 -128 0
-153 -128 0
-159 -128 0
-160 -128 0
-163 -128 0
-165 -128 0
-168 -128 0
-170 -128 0
-129 -136 0
-130 -136 0
-131 -136 0
-137 -131 0
-138 -131 0
-139 -131 0
-140 -131 0
-153 -131 0
-154 -131 0
-155 -131 0
-131 -157 0
-160 -131 0
-161 -131 0
-163 -131 0
-166 -131 0
-168 -131 0
-172 -131 0
-132 -136 0
-136 -133 0
-137 -133 0
-138 -133 0
-139 -133 0
-140 -133 0
-144 -133 0
-154 -133 0
-160 -133 0
-161 -133 0
-166 -133 0
-134 -136 0
-136 -135 0
-137 -135 0
-138 -135 0
-139 -135 0
-140 -135 0
-141 -135 0
-145 -135 0
-146 -135 0
-147 -135 0
-148 -135 0
-149 -135 0
-150 -135 0
-153 -135 0
-154 -135 0
-155 -135 0
-156 -135 0
-157 -135 0
-160 -135 0
-161 -135 0
-162 -135 0
-163 -135 0
-166 -135 0
-167 -135 0
-168 -135 0
-171 -135 0
-172 -135 0
-175 -135 0
192 225 189 215 194 186 187 184 221 188 181 224 223 182 206 198 214 216 196 205 200 199 195 204 220 211 185 193 213 201 218 191 202 209 222 212 183 208 219 217 203 210 190 197 207 0
-181 1347 0
-182 1348 0
-1347 1348 0
-182 -1347 0
-183 1349 0
-1348 1349 0
-183 -1348 0
-184 1350 0
-1349 1350 0
-184 -1349 0
-185 1351 0
-1350 1351 0
-1351 1352 0
-1352 1353 0
-1353 1354 0
1355 -1354 0
-190 1356 0
1356 -1355 0
-191 1357 0
1357 -1356 0
-192 1358 0
1358 -1357 0
-193 1359 0
1359 -1358 0
1360 -1359 0
-195 1361 0
1361 -1360 0
-196 1362 0
1362 -1361 0
1363 -1362 0
-198 1364 0
1364 -1363 0
-199 1365 0
1365 -1364 0
-200 1366 0
1366 -1365 0
1367 -1366 0
-202 1368 0
1368 -1367 0
-203 1369 0
1369 -1368 0
-203 -1368 0
1370 -1369 0
-205 1371 0
1371 -1370 0
-206 1372 0
1372 -1371 0
1373 -1372 0
-208 1374 0
1374 -1373 0
-209 1375 0
1375 -1374 0
-209 -1374 0
1376 -1375 0
-211 1377 0
1377 -1376 0
1378 -1377 0
-213 1379 0
1379 -1378 0
-213 -1378 0
-214 1380 0
1380 -1379 0
-214 -1379 0
1381 -1380 0
1382 -1381 0
-217 1383 0
1383 -1382 0
-217 -1382 0
-218 1384 0
1384 -1383 0
-218 -1383 0
1385 -1384 0
1386 -1385 0
1387 -1386 0
1388 -1387 0
-223 -1388 0
-851 188 189 181 182 185 186 183 184 187 0
-181 851 0
-182 851 0
-183 851 0
-185 851 0
-1031 0
-852 192 197 194 190 196 193 191 195 0
-190 852 0
-191 852 0
-192 852 0
-193 852 0
-1032 181 0
-853 201 203 202 199 198 200 204 0
-198 853 0
-199 853 0
-200 853 0
-1033 190 182 0
-854 208 207 210 205 209 206 0
-1034 198 183 191 0
-855 212 213 211 215 214 0
-211 855 0
-213 855 0
-1035 205 184 192 199 0
-184 1035 0
-192 1035 0
-199 1035 0
-205 1035 0
-856 216 217 218 219 0
-216 856 0
-218 856 0
-1036 200 185 193 211 206 0
-857 220 221 222 0
-220 857 0
857 -221 0
-1037 216 186 194 201 212 207 0
1037 -201 0
-207 1037 0
-212 1037 0
-216 1037 0
-858 223 224 0
858 -223 0
-1038 217 187 220 195 213 202 208 0
-195 1038 0
-213 1038 0
-217 1038 0
-859 225 0
-1039 221 196 203 188 223 218 214 209 0
-188 1039 0
-196 1039 0
-203 1039 0
-209 1039 0
-214 1039 0
-218 1039 0
1039 -221 0
-223 1039 0
-860 0
-1040 224 189 219 225 222 204 197 215 210 0
1040 -219 0
-184 -145 0
-146 -184 0
-146 -185 0
-147 -185 0
-148 -184 0
-149 -184 0
-149 -185 0
-150 -184 0
-150 -185 0
-184 -151 0
-151 -185 0
-184 -152 0
-185 -152 0
-153 -181 0
-153 -184 0
-153 -185 0
-154 -181 0
-154 -185 0
-155 -181 0
-184 -155 0
-156 -181 0
-156 -183 0
-156 -184 0
-156 -185 0
-157 -181 0
-184 -157 0
-185 -157 0
-158 -181 0
-184 -158 0
-185 -158 0
-159 -181 0
-159 -184 0
-159 -185 0
-160 -181 0
-160 -185 0
-161 -181 0
-161 -184 0
-162 -181 0
-162 -182 0
-162 -184 0
-162 -185 0
-163 -181 0
-163 -182 0
-184 -163 0
-185 -163 0
-164 -181 0
-164 -184 0
-164 -185 0
-165 -181 0
-165 -184 0
-165 -185 0
-166 -181 0
-166 -182 0
-166 -183 0
-166 -188 0
-190 -166 0
-191 -166 0
-195 -166 0
-166 -196 0
-203 -166 0
-209 -166 0
-167 -181 0
-167 -182 0
-167 -183 0
-167 -185 0
-168 -181 0
-168 -182 0
-168 -183 0
-185 -168 0
-169 -181 0
-169 -182 0
-169 -183 0
-169 -185 0
-190 -169 0
-191 -169 0
-202 -169 0
-169 -208 0
-170 -181 0
-170 -185 0
-171 -181 0
-171 -182 0
-171 -183 0
-171 -184 0
-172 -181 0
-172 -182 0
-172 -183 0
-172 -184 0
-172 -188 0
-203 -172 0
-209 -172 0
-214 -172 0
-173 -181 0
-173 -182 0
-173 -183 0
-173 -184 0
-213 -173 0
-175 -181 0
-175 -182 0
-175 -183 0
-184 -175 0
-185 -175 0
-197 -175 0
-210 -175 0
-215 -175 0
-176 -181 0
-182 -176 0
-176 -183 0
-184 -176 0
-185 -176 0
-190 -176 0
-191 -176 0
-192 -176 0
-193 -176 0
-195 -176 0
-197 -176 0
-198 -176 0
-199 -176 0
-200 -176 0
-202 -176 0
-205 -176 0
-206 -176 0
-208 -176 0
-210 -176 0
-211 -176 0
-213 -176 0
-215 -176 0
-217 -176 0
-177 -181 0
-184 -177 0
-185 -177 0
-178 -181 0
-178 -182 0
-178 -183 0
-184 -178 0
-185 -178 0
-199 -178 0
-200 -178 0
-205 -178 0
-211 -178 0
-179 -181 0
-179 -184 0
-179 -185 0
-180 -181 0
-180 -182 0
-180 -183 0
-184 -180 0
-185 -180 0
-186 -180 0
-190 -180 0
-191 -180 0
-192 -180 0
-193 -180 0
-180 -194 0
-195 -180 0
-198 -180 0
-199 -180 0
-200 -180 0
-201 -180 0
-202 -180 0
-205 -180 0
-206 -180 0
-207 -180 0
-208 -180 0
-211 -180 0
-212 -180 0
-213 -180 0
-216 -180 0
-217 -180 0
-220 -180 0
261 262 232 240 270 266 268 256 226 231 233 249 239 242 234 229 257 246 255 263 259 236 252 254 265 247 258 237 251 243 235 238 227 250 260 241 253 244 264 228 248 267 245 269 230 0
1391 -226 0
-227 1392 0
-1391 1392 0
-227 -1391 0
-228 1393 0
-1392 1393 0
1394 -229 0
-1393 1394 0
-1393 -229 0
-230 1395 0
-1394 1395 0
-1395 1396 0
1397 -232 0
-1396 1397 0
1398 -1397 0
-1398 1399 0
-235 1400 0
-1399 1400 0
-236 1401 0
-1400 1401 0
-237 1402 0
-1401 1402 0
-238 1403 0
-1402 1403 0
-1403 1404 0
-240 1405 0
-1404 1405 0
-241 1406 0
-1405 1406 0
-241 -1405 0
-1406 1407 0
-243 1408 0
-1407 1408 0
-244 1409 0
-1408 1409 0
-245 1410 0
-1409 1410 0
-1410 1411 0
-247 1412 0
-1411 1412 0
-248 1413 0
-1412 1413 0
-1413 1414 0
-250 1415 0
-1414 1415 0
-251 1416 0
-1415 1416 0
-1416 1417 0
-253 1418 0
-1417 1418 0
-254 1419 0
-1418 1419 0
-1419 1420 0
1421 -256 0
-1420 1421 0
-256 -1420 0
-257 1422 0
-1421 1422 0
-258 1423 0
-1422 1423 0
-258 -1422 0
-259 1424 0
-1423 1424 0
-259 -1423 0
-1424 1425 0
-260 -1424 0
-1425 1426 0
-261 -1425 0
1427 -262 0
1427 -1426 0
-1426 -262 0
-263 1428 0
1428 -1427 0
-263 -1427 0
1429 -1428 0
1430 -1429 0
1431 -1430 0
-266 -1430 0
1432 -1431 0
-268 -1432 0
-861 234 226 227 228 231 229 232 230 233 0
-226 861 0
-227 861 0
-228 861 0
-229 861 0
-230 861 0
-1041 0
235 239 -862 240 236 241 238 237 242 0
-238 862 0
-239 862 0
-241 862 0
-1042 226 0
-226 1042 0
-863 245 249 246 247 248 244 243 0
-243 863 0
-244 863 0
863 -245 0
-1043 235 227 0
-864 252 255 250 253 251 254 0
-1044 243 228 236 0
-865 257 260 256 258 259 0
-258 865 0
-1045 250 229 244 237 0
1045 -229 0
-244 1045 0
-250 1045 0
-866 261 264 262 263 0
866 -261 0
866 -262 0
-263 866 0
-1046 256 230 251 245 238 0
-238 1046 0
1046 -245 0
-251 1046 0
1046 -256 0
-867 265 267 266 0
-266 867 0
-1047 261 231 257 246 252 239 0
-246 1047 0
-252 1047 0
-257 1047 0
1047 -261 0
-868 268 269 0
868 -268 0
-1048 262 232 247 265 258 240 253 0
1048 -240 0
-258 1048 0
1048 -262 0
-265 1048 0
-869 270 0
-1049 266 233 254 268 248 241 259 263 0
-241 1049 0
-248 1049 0
-259 1049 0
-263 1049 0
1049 -266 0
1049 -268 0
-870 0
-1050 270 234 249 269 242 255 260 267 264 0
-198 -226 0
-198 -229 0
-230 -198 0
-199 -226 0
-199 -230 0
-200 -226 0
-200 -229 0
-201 -226 0
-201 -229 0
-202 -226 0
-202 -229 0
-202 -230 0
-203 -226 0
-203 -229 0
-203 -230 0
-205 -226 0
-205 -230 0
-205 -241 0
-206 -226 0
-206 -229 0
-207 -226 0
-207 -227 0
-207 -229 0
-208 -226 0
-208 -229 0
-230 -208 0
-209 -226 0
-209 -229 0
-209 -230 0
-210 -226 0
-211 -226 0
-211 -227 0
-211 -228 0
-211 -241 0
-211 -248 0
-212 -226 0
-212 -227 0
-213 -226 0
-213 -227 0
-213 -228 0
-230 -213 0
-235 -213 0
-236 -213 0
-238 -213 0
-241 -213 0
-243 -213 0
-213 -245 0
-248 -213 0
-251 -213 0
-213 -254 0
-214 -226 0
-214 -227 0
-214 -228 0
-214 -230 0
-235 -214 0
-236 -214 0
-238 -214 0
-239 -214 0
-214 -240 0
-243 -214 0
-214 -245 0
-214 -246 0
-247 -214 0
-214 -251 0
-214 -252 0
-253 -214 0
-215 -226 0
-216 -226 0
-216 -227 0
-216 -229 0
-216 -258 0
-216 -259 0
-217 -226 0
-217 -229 0
-259 -217 0
-218 -226 0
-227 -218 0
-228 -218 0
-218 -229 0
-237 -218 0
-218 -240 0
-244 -218 0
-250 -218 0
-258 -218 0
-220 -226 0
-220 -227 0
-220 -228 0
-220 -229 0
-220 -230 0
-243 -220 0
-244 -220 0
-220 -245 0
-250 -220 0
-220 -251 0
-220 -256 0
-259 -220 0
-226 -221 0
-227 -221 0
-228 -221 0
-229 -221 0
-230 -221 0
-235 -221 0
-236 -221 0
-237 -221 0
-238 -221 0
-240 -221 0
-243 -221 0
-244 -221 0
-245 -221 0
-247 -221 0
-250 -221 0
-251 -221 0
-253 -221 0
-255 -221 0
-256 -221 0
-258 -221 0
-260 -221 0
-262 -221 0
-264 -221 0
-222 -226 0
-223 -226 0
-227 -223 0
-228 -223 0
-229 -223 0
-230 -223 0
-235 -223 0
-236 -223 0
-237 -223 0
-238 -223 0
-243 -223 0
-244 -223 0
-245 -223 0
-250 -223 0
-251 -223 0
-256 -223 0
-225 -226 0
-227 -225 0
-228 -225 0
-229 -225 0
-230 -225 0
-231 -225 0
-225 -232 0
-235 -225 0
-236 -225 0
-237 -225 0
-238 -225 0
-239 -225 0
-240 -225 0
-243 -225 0
-244 -225 0
-245 -225 0
-246 -225 0
-247 -225 0
-250 -225 0
-251 -225 0
-252 -225 0
-253 -225 0
-256 -225 0
-257 -225 0
-258 -225 0
-225 -261 0
-225 -262 0
-265 -225 0
303 311 272 274 277 308 294 278 291 314 279 276 315 281 290 307 287 313 285 289 273 293 284 310 301 275 282 304 299 300 296 286 295 298 306 302 283 288 309 292 280 312 297 271 305 0
1436 -272 0
-273 1437 0
1437 -1436 0
-274 1438 0
-1437 -274 0
-275 1439 0
-1438 1439 0
-1438 -275 0
-1439 1440 0
-1440 1441 0
-1441 1442 0
-1442 1443 0
-279 -1442 0
-280 1444 0
-1443 1444 0
-281 1445 0
-1444 1445 0
-281 -1444 0
-282 1446 0
-1445 1446 0
-282 -1445 0
-283 1447 0
-1446 1447 0
-284 1448 0
-1447 1448 0
-284 -1447 0
-1448 1449 0
-285 -1448 0
-286 1450 0
-1449 1450 0
-286 -1449 0
-1450 1451 0
-288 1452 0
-1451 1452 0
-288 -1451 0
-289 1453 0
-1452 1453 0
-290 1454 0
-1453 1454 0
-290 -1453 0
-291 1455 0
-1454 1455 0
-291 -1454 0
-1455 1456 0
-293 1457 0
-1456 1457 0
-293 -1456 0
-1457 1458 0
-295 1459 0
-1458 1459 0
-295 -1458 0
-296 1460 0
-1459 1460 0
-297 1461 0
-1460 1461 0
-297 -1460 0
-1461 1462 0
-298 -1461 0
-299 1463 0
-1462 1463 0
-299 -1462 0
-1463 1464 0
-301 1465 0
-1464 1465 0
-301 -1464 0
-302 1466 0
-1465 1466 0
-302 -1465 0
-303 1467 0
-1466 1467 0
-303 -1466 0
-304 1468 0
-1467 1468 0
-304 -1467 0
-1468 1469 0
-305 -1468 0
-306 1470 0
-1469 1470 0
-306 -1469 0
-307 1471 0
-1470 1471 0
-307 -1470 0
-308 1472 0
-1471 1472 0
-308 -1471 0
-1472 1473 0
-1473 1474 0
-310 -1473 0
-311 1475 0
-1474 1475 0
-1474 -311 0
1476 -1475 0
-313 -1476 0
-871 276 279 271 277 274 278 273 275 272 0
-272 871 0
-273 871 0
-274 871 0
-279 871 0
-1051 0
285 -872 283 284 286 281 280 282 287 0
-280 872 0
-281 872 0
-282 872 0
-283 872 0
-285 872 0
-1052 271 0
-873 292 289 293 291 288 294 290 0
-1053 280 272 0
-874 298 296 299 295 300 297 0
-295 874 0
-1054 288 273 281 0
-875 302 305 303 301 304 0
-301 875 0
-302 875 0
-303 875 0
875 -304 0
875 -305 0
-1055 289 274 282 295 0
-295 1055 0
-876 306 309 308 307 0
-306 876 0
876 -307 0
-308 876 0
-1056 290 275 296 283 301 0
-275 1056 0
-283 1056 0
1056 -290 0
1056 -296 0
-301 1056 0
310 311 312 -877 0
877 -311 0
-1057 297 276 284 306 291 302 0
-284 1057 0
1057 -291 0
1057 -297 0
-302 1057 0
-306 1057 0
-878 313 314 0
878 -313 0
-1058 292 307 310 298 277 303 285 0
-285 1058 0
-292 1058 0
-298 1058 0
-303 1058 0
1058 -307 0
1058 -310 0
-879 315 0
-1059 311 278 304 308 293 313 286 299 0
-286 1059 0
-293 1059 0
-299 1059 0
-304 1059 0
-308 1059 0
1059 -311 0
-313 1059 0
-880 0
-1060 312 279 294 309 314 315 287 300 305 0
-305 1060 0
-315 1060 0
-241 -272 0
-273 -241 0
-241 -275 0
-242 -274 0
-243 -271 0
-243 -274 0
-244 -271 0
-245 -271 0
-274 -245 0
-246 -271 0
-246 -274 0
-247 -271 0
-247 -274 0
-248 -271 0
-273 -248 0
-248 -274 0
-274 -249 0
-250 -271 0
-251 -271 0
-251 -274 0
-252 -271 0
-274 -252 0
-253 -271 0
-253 -274 0
-254 -271 0
-274 -254 0
-255 -272 0
-255 -274 0
-256 -271 0
-256 -272 0
-273 -256 0
-280 -256 0
-286 -256 0
-293 -256 0
-257 -271 0
-258 -271 0
-258 -272 0
-258 -273 0
-258 -275 0
-258 -280 0
-258 -281 0
-283 -258 0
-284 -258 0
-258 -286 0
-288 -258 0
-258 -290 0
-258 -291 0
-293 -258 0
-258 -296 0
-258 -297 0
-258 -299 0
-259 -271 0
-259 -272 0
-259 -273 0
-259 -275 0
-259 -279 0
-259 -280 0
-259 -281 0
-283 -259 0
-284 -259 0
-285 -259 0
-259 -291 0
-259 -292 0
-259 -297 0
-298 -259 0
-260 -272 0
-261 -271 0
-274 -261 0
-304 -261 0
-262 -271 0
-273 -262 0
-274 -262 0
-304 -262 0
-263 -271 0
-263 -272 0
-273 -263 0
-263 -274 0
-263 -280 0
-263 -281 0
-282 -263 0
-285 -263 0
-288 -263 0
-289 -263 0
-292 -263 0
-295 -263 0
-298 -263 0
-303 -263 0
-264 -272 0
-264 -274 0
-265 -271 0
-265 -272 0
-265 -273 0
-265 -274 0
-265 -275 0
-265 -279 0
-265 -281 0
-282 -265 0
-283 -265 0
-288 -265 0
-289 -265 0
-265 -290 0
-295 -265 0
-265 -296 0
-265 -301 0
-265 -308 0
-266 -271 0
-266 -272 0
-273 -266 0
-274 -266 0
-275 -266 0
-279 -266 0
-280 -266 0
-281 -266 0
-282 -266 0
-283 -266 0
-285 -266 0
-288 -266 0
-289 -266 0
-266 -290 0
-292 -266 0
-295 -266 0
-266 -296 0
-298 -266 0
-301 -266 0
-303 -266 0
-305 -266 0
-266 -307 0
-267 -272 0
-267 -274 0
-267 -308 0
-268 -271 0
-272 -268 0
-273 -268 0
-274 -268 0
-275 -268 0
-280 -268 0
-281 -268 0
-282 -268 0
-283 -268 0
-288 -268 0
-289 -268 0
-268 -290 0
-295 -268 0
-268 -296 0
-301 -268 0
-269 -272 0
-269 -274 0
-269 -308 0
-270 -271 0
-272 -270 0
-273 -270 0
-274 -270 0
-275 -270 0
-276 -270 0
-270 -277 0
-280 -270 0
-281 -270 0
-282 -270 0
-283 -270 0
-284 -270 0
-285 -270 0
-288 -270 0
-289 -270 0
-270 -290 0
-270 -291 0
-292 -270 0
-295 -270 0
-270 -296 0
-270 -297 0
-298 -270 0
-301 -270 0
-302 -270 0
-303 -270 0
-306 -270 0
-270 -307 0
-310 -270 0
347 334 321 339 340 318 316 354 317 324 358 322 341 360 348 331 353 356 346 336 343 332 319 323 338 349 355 328 344 352 351 342 320 333 350 335 330 327 326 345 337 357 325 359 329 0
-316 1479 0
-317 1480 0
-1479 1480 0
-318 1481 0
-1480 1481 0
-319 1482 0
-1481 1482 0
-320 1483 0
-1482 1483 0
-1483 1484 0
-1484 1485 0
1486 -1485 0
-324 1487 0
1487 -1486 0
1488 -325 0
1488 -1487 0
-326 1489 0
1489 -1488 0
-327 1490 0
1490 -1489 0
-328 1491 0
1491 -1490 0
1492 -1491 0
-330 1493 0
1493 -1492 0
-331 1494 0
1494 -1493 0
-331 -1493 0
1495 -1494 0
-333 1496 0
1496 -1495 0
1497 -334 0
1497 -1496 0
-335 1498 0
1498 -1497 0
-336 1499 0
1499 -1498 0
1500 -337 0
1500 -1499 0
-337 -1499 0
-338 1501 0
1501 -1500 0
1502 -1501 0
-340 1503 0
1503 -1502 0
-341 1504 0
1504 -1503 0
-342 1505 0
1505 -1504 0
-342 -1504 0
-343 1506 0
1506 -1505 0
-343 -1505 0
-344 1507 0
1507 -1506 0
1508 -1507 0
-346 1509 0
1509 -1508 0
-346 -1508 0
1510 -347 0
1510 -1509 0
-347 -1509 0
-348 1511 0
1511 -1510 0
-348 -1510 0
-349 1512 0
1512 -1511 0
-349 -1511 0
1513 -1512 0
1514 -1513 0
-351 -1513 0
-352 1515 0
1515 -1514 0
-352 -1514 0
-353 1516 0
1516 -1515 0
-353 -1515 0
1517 -354 0
1517 -1516 0
-355 1518 0
1518 -1517 0
-355 -1517 0
-356 1519 0
1519 -1518 0
-356 -1518 0
1520 -1519 0
-358 -1520 0
-881 316 323 321 318 319 320 322 324 317 0
-316 881 0
-318 881 0
-319 881 0
-320 881 0
-321 881 0
-323 881 0
-324 881 0
-1061 0
-882 329 327 331 330 328 332 325 326 0
882 -325 0
-326 882 0
882 -327 0
-328 882 0
-330 882 0
882 -331 0
-1062 316 0
-883 336 338 337 334 339 335 333 0
-1063 325 317 0
-317 1063 0
1063 -325 0
-884 342 344 340 345 343 341 0
-1064 333 318 326 0
-885 347 346 349 348 350 0
-346 885 0
-348 885 0
-349 885 0
-1065 340 319 327 334 0
1065 -327 0
1065 -334 0
-886 351 352 353 354 0
-351 886 0
-352 886 0
-353 886 0
-1066 346 320 335 341 328 0
-320 1066 0
-328 1066 0
-346 1066 0
-887 356 357 355 0
-355 887 0
887 -356 0
-1067 336 347 351 321 329 342 0
-329 1067 0
-336 1067 0
-342 1067 0
-347 1067 0
-351 1067 0
358 -888 359 0
-358 888 0
-1068 355 322 337 352 343 348 330 0
-330 1068 0
1068 -337 0
-343 1068 0
-348 1068 0
-352 1068 0
-889 360 0
889 -360 0
-1069 356 323 344 358 331 338 349 353 0
-331 1069 0
-338 1069 0
-344 1069 0
-349 1069 0
-353 1069 0
-356 1069 0
-358 1069 0
-890 0
-1070 359 350 354 360 339 345 324 357 332 0
-288 -316 0
-289 -316 0
-289 -331 0
-290 -316 0
-316 -291 0
-292 -316 0
-293 -316 0
-293 -319 0
-295 -316 0
-295 -331 0
-295 -338 0
-296 -316 0
-316 -297 0
-298 -316 0
-299 -316 0
-301 -316 0
-301 -317 0
-318 -301 0
-301 -325 0
-326 -301 0
-330 -301 0
-301 -331 0
-301 -338 0
-344 -301 0
-302 -316 0
-303 -316 0
-303 -317 0
-318 -303 0
-320 -303 0
-303 -325 0
-326 -303 0
-328 -303 0
-303 -331 0
-335 -303 0
-338 -303 0
-341 -303 0
-344 -303 0
-304 -316 0
-304 -317 0
-304 -318 0
-304 -320 0
-326 -304 0
-328 -304 0
-330 -304 0
-304 -336 0
-304 -337 0
-304 -342 0
-343 -304 0
-304 -345 0
-305 -316 0
-306 -316 0
-306 -334 0
-316 -307 0
-317 -307 0
-318 -307 0
-319 -307 0
-329 -307 0
-307 -334 0
-336 -307 0
-342 -307 0
-347 -307 0
-349 -307 0
-308 -316 0
-308 -317 0
-318 -308 0
-319 -308 0
-308 -327 0
-329 -308 0
-332 -308 0
-308 -334 0
-336 -308 0
-308 -337 0
-340 -308 0
-342 -308 0
-343 -308 0
-345 -308 0
-308 -347 0
-348 -308 0
-350 -308 0
-310 -316 0
-310 -317 0
-318 -310 0
-319 -310 0
-320 -310 0
-310 -325 0
-326 -310 0
-310 -327 0
-328 -310 0
-333 -310 0
-310 -334 0
-335 -310 0
-340 -310 0
-341 -310 0
-346 -310 0
-353 -310 0
-316 -311 0
-317 -311 0
-318 -311 0
-319 -311 0
-320 -311 0
-324 -311 0
-325 -311 0
-326 -311 0
-327 -311 0
-328 -311 0
-330 -311 0
-332 -311 0
-333 -311 0
-334 -311 0
-335 -311 0
-337 -311 0
-340 -311 0
-341 -311 0
-343 -311 0
-345 -311 0
-346 -311 0
-348 -311 0
-350 -311 0
-352 -311 0
-354 -311 0
-313 -316 0
-317 -313 0
-318 -313 0
-319 -313 0
-320 -313 0
-324 -313 0
-313 -325 0
-326 -313 0
-327 -313 0
-328 -313 0
-333 -313 0
-313 -334 0
-335 -313 0
-340 -313 0
-341 -313 0
-346 -313 0
-351 -313 0
-313 -354 0
-315 -316 0
-317 -315 0
-318 -315 0
-319 -315 0
-320 -315 0
-321 -315 0
-315 -325 0
-326 -315 0
-327 -315 0
-328 -315 0
-329 -315 0
-330 -315 0
-333 -315 0
-315 -334 0
-335 -315 0
-336 -315 0
-315 -337 0
-340 -315 0
-341 -315 0
-342 -315 0
-343 -315 0
-346 -315 0
-315 -347 0
-348 -315 0
-351 -315 0
-352 -315 0
-355 -315 0
367 366 381 384 368 363 371 361 372 387 398 389 370 405 364 369 377 401 379 383 375 376 400 373 394 396 388 365 403 390 380 392 393 391 395 362 378 385 399 374 386 402 382 404 397 0
-361 1523 0
-362 1524 0
-1523 1524 0
-363 1525 0
-1524 1525 0
-364 1526 0
-1525 1526 0
-365 1527 0
-1526 1527 0
-1527 1528 0
-1528 1529 0
-1529 1530 0
-1530 1531 0
-370 1532 0
-1531 1532 0
-371 1533 0
-1532 1533 0
-372 1534 0
-1533 1534 0
-372 -1533 0
-373 1535 0
-1534 1535 0
-374 1536 0
-1535 1536 0
-375 1537 0
-1536 1537 0
-375 -1536 0
-376 1538 0
-1537 1538 0
-1538 1539 0
-378 1540 0
-1539 1540 0
-379 1541 0
-1540 1541 0
-379 -1540 0
-380 1542 0
-1541 1542 0
-381 1543 0
-1542 1543 0
-382 1544 0
-1543 1544 0
-382 -1543 0
-383 1545 0
-1544 1545 0
-1545 1546 0
-385 1547 0
-1546 1547 0
-385 -1546 0
-386 1548 0
-1547 1548 0
-386 -1547 0
-387 1549 0
-1548 1549 0
-388 1550 0
-1549 1550 0
-388 -1549 0
1551 -389 0
-1550 1551 0
-1550 -389 0
-1551 1552 0
-391 1553 0
-1552 1553 0
-391 -1552 0
-392 1554 0
-1553 1554 0
-393 1555 0
-1554 1555 0
-393 -1554 0
1556 -394 0
-1555 1556 0
-1555 -394 0
1557 -1556 0
1558 -1557 0
-396 -1557 0
-397 1559 0
1559 -1558 0
-397 -1558 0
1560 -398 0
1560 -1559 0
-1559 -398 0
1561 -1560 0
1562 -1561 0
1563 -401 0
1563 -1562 0
-1562 -401 0
1564 -1563 0
1565 -403 0
-1564 -403 0
-1565 1566 0
-405 -1566 0
-891 369 365 361 364 362 367 366 368 363 0
-362 891 0
-363 891 0
-364 891 0
-365 891 0
-1071 0
-892 372 370 377 374 375 373 376 371 0
892 -370 0
-371 892 0
892 -372 0
-373 892 0
-374 892 0
-375 892 0
-376 892 0
-1072 361 0
-893 379 378 381 382 384 380 383 0
-382 893 0
-1073 362 370 0
-894 385 390 388 389 387 386 0
-1074 363 378 371 0
-895 393 395 394 391 392 0
-391 895 0
895 -392 0
895 -394 0
-395 895 0
-1075 372 364 379 385 0
1075 -372 0
-896 399 396 398 397 0
-396 896 0
896 -398 0
-1076 365 380 373 386 391 0
-897 402 400 401 0
897 -401 0
-1077 392 374 396 366 381 387 0
-374 1077 0
-381 1077 0
-387 1077 0
1077 -392 0
-396 1077 0
-898 404 403 0
898 -403 0
-1078 367 400 375 397 388 382 393 0
-382 1078 0
-388 1078 0
-393 1078 0
-397 1078 0
-400 1078 0
-899 405 0
-405 899 0
394 -1079 376 401 389 403 383 398 368 0
-376 1079 0
-383 1079 0
1079 -389 0
1079 -394 0
1079 -398 0
1079 -401 0
1079 -403 0
-900 0
-1080 369 377 404 390 395 399 405 402 384 0
-365 -331 0
-333 -361 0
-373 -333 0
-361 -334 0
-373 -334 0
-335 -361 0
-336 -361 0
-363 -336 0
-336 -364 0
-336 -365 0
-369 -336 0
-337 -361 0
-365 -337 0
-338 -361 0
-338 -365 0
-340 -361 0
-340 -362 0
-341 -361 0
-341 -362 0
-342 -361 0
-342 -362 0
-342 -364 0
-342 -365 0
-343 -361 0
-343 -362 0
-343 -365 0
-344 -361 0
-344 -365 0
-344 -370 0
-345 -361 0
-346 -361 0
-346 -362 0
-346 -363 0
-369 -346 0
-346 -370 0
-346 -371 0
-346 -374 0
-346 -375 0
-346 -376 0
-346 -381 0
-384 -346 0
-387 -346 0
-390 -346 0
-361 -347 0
-362 -347 0
-363 -347 0
-365 -347 0
-348 -361 0
-348 -362 0
-348 -363 0
-348 -365 0
-348 -370 0
-348 -371 0
-373 -348 0
-348 -376 0
-378 -348 0
-380 -348 0
-348 -383 0
-386 -348 0
-348 -389 0
-349 -361 0
-349 -365 0
-349 -370 0
-349 -382 0
-349 -388 0
-350 -361 0
-351 -361 0
-351 -362 0
-363 -351 0
-351 -364 0
-352 -361 0
-352 -362 0
-352 -394 0
-353 -361 0
-353 -362 0
-353 -363 0
-353 -364 0
-353 -370 0
-353 -371 0
-353 -372 0
-378 -353 0
-353 -379 0
-353 -382 0
-385 -353 0
-353 -388 0
-353 -393 0
-361 -354 0
-355 -361 0
-355 -362 0
-363 -355 0
-355 -364 0
-355 -365 0
-355 -370 0
-355 -371 0
-355 -372 0
-373 -355 0
-378 -355 0
-379 -355 0
-380 -355 0
-385 -355 0
-386 -355 0
-391 -355 0
-356 -361 0
-356 -362 0
-363 -356 0
-364 -356 0
-365 -356 0
-369 -356 0
-356 -370 0
-371 -356 0
-356 -372 0
-373 -356 0
-375 -356 0
-378 -356 0
-379 -356 0
-380 -356 0
-382 -356 0
-384 -356 0
-385 -356 0
-386 -356 0
-388 -356 0
-390 -356 0
-391 -356 0
-393 -356 0
-395 -356 0
-397 -356 0
-399 -356 0
-358 -361 0
-358 -362 0
-363 -358 0
-358 -364 0
-358 -365 0
-369 -358 0
-358 -370 0
-371 -358 0
-358 -372 0
-373 -358 0
-374 -358 0
-378 -358 0
-379 -358 0
-380 -358 0
-381 -358 0
-384 -358 0
-385 -358 0
-386 -358 0
-387 -358 0
-390 -358 0
-391 -358 0
-358 -392 0
-395 -358 0
-396 -358 0
-399 -358 0
-360 -361 0
-360 -362 0
-363 -360 0
-364 -360 0
-365 -360 0
-360 -370 0
-371 -360 0
-360 -372 0
-373 -360 0
-374 -360 0
-375 -360 0
-378 -360 0
-379 -360 0
-380 -360 0
-381 -360 0
-382 -360 0
-385 -360 0
-386 -360 0
-387 -360 0
-388 -360 0
-391 -360 0
-360 -392 0
-393 -360 0
-396 -360 0
-397 -360 0
-400 -360 0
450 449 412 411 420 415 428 406 443 438 446 440 413 407 414 425 422 431 426 409 410 442 423 421 439 427 445 433 419 435 424 436 430 448 434 441 417 418 444 432 416 447 408 429 437 0
-406 1567 0
-407 1568 0
-1567 1568 0
-407 -1567 0
-408 1569 0
-1568 1569 0
-1569 1570 0
-410 1571 0
1571 -1570 0
1572 -1571 0
1573 -1572 0
1574 -1573 0
-414 1575 0
1575 -1574 0
-415 1576 0
1576 -1575 0
-416 1577 0
1577 -1576 0
-417 1578 0
1578 -1577 0
-417 -1577 0
-418 1579 0
1579 -1578 0
-418 -1578 0
-419 1580 0
1580 -1579 0
-420 1581 0
1581 -1580 0
-421 1582 0
1582 -1581 0
-421 -1581 0
1583 -1582 0
-423 1584 0
1584 -1583 0
-423 -1583 0
-424 1585 0
1585 -1584 0
-424 -1584 0
-425 1586 0
1586 -1585 0
-425 -1585 0
1587 -1586 0
-427 1588 0
1588 -1587 0
-427 -1587 0
-428 1589 0
1589 -1588 0
-428 -1588 0
1590 -1589 0
-430 1591 0
1591 -1590 0
-430 -1590 0
-431 1592 0
1592 -1591 0
-431 -1591 0
1593 -1592 0
-433 1594 0
1594 -1593 0
-433 -1593 0
-434 1595 0
1595 -1594 0
-434 -1594 0
1596 -1595 0
-436 1597 0
1597 -1596 0
-436 -1596 0
-437 1598 0
1598 -1597 0
-437 -1597 0
-438 1599 0
1599 -1598 0
-438 -1598 0
-439 1600 0
1600 -1599 0
-439 -1599 0
1601 -1600 0
-441 1602 0
1602 -1601 0
-442 1603 0
1603 -1602 0
-442 -1602 0
-443 1604 0
1604 -1603 0
-443 -1603 0
-444 1605 0
1605 -1604 0
-445 1606 0
1606 -1605 0
-445 -1605 0
-446 1607 0
1607 -1606 0
-446 -1606 0
1608 -1607 0
-448 -1608 0
414 409 406 413 408 410 412 407 411 -901 0
-1081 0
-902 422 420 419 418 417 421 416 415 0
-415 902 0
-416 902 0
-417 902 0
-418 902 0
-419 902 0
-420 902 0
-421 902 0
-1082 406 0
1082 -406 0
-903 429 424 427 426 423 428 425 0
903 -423 0
-425 903 0
903 -428 0
-1083 415 407 0
1083 -415 0
435 -904 432 431 433 434 430 0
-430 904 0
-432 904 0
904 -433 0
-434 904 0
-1084 423 408 416 0
-905 440 436 437 438 439 0
-437 905 0
-438 905 0
905 -439 0
-440 905 0
430 409 -1085 417 424 0
1085 -409 0
-417 1085 0
-424 1085 0
-430 1085 0
-906 444 442 443 441 0
-441 906 0
-442 906 0
906 -443 0
-1086 436 410 418 425 431 0
-410 1086 0
-418 1086 0
-425 1086 0
-431 1086 0
-436 1086 0
-907 447 446 445 0
907 -445 0
-446 907 0
-1087 441 411 419 426 432 437 0
-419 1087 0
-426 1087 0
-432 1087 0
-437 1087 0
-441 1087 0
-908 449 448 0
908 -448 0
-1088 442 412 445 420 427 438 433 0
-420 1088 0
-427 1088 0
-433 1088 0
-438 1088 0
-442 1088 0
-445 1088 0
-909 450 0
-1089 446 413 448 443 434 439 421 428 0
-421 1089 0
-428 1089 0
-434 1089 0
-439 1089 0
-443 1089 0
-446 1089 0
1089 -448 0
-910 0
-1090 435 414 440 447 449 429 422 450 444 0
-414 -376 0
-378 -406 0
-379 -406 0
-380 -406 0
-381 -406 0
-382 -406 0
-406 -383 0
-414 -383 0
-384 -406 0
-385 -406 0
-385 -415 0
-386 -406 0
-387 -406 0
-388 -406 0
-406 -389 0
-414 -389 0
-390 -406 0
-391 -406 0
-391 -407 0
-391 -408 0
-391 -415 0
-416 -391 0
-420 -391 0
-421 -391 0
-427 -391 0
-391 -433 0
-434 -391 0
-392 -406 0
-392 -415 0
-393 -406 0
-393 -415 0
-416 -393 0
-418 -393 0
-421 -393 0
-393 -423 0
-425 -393 0
-393 -428 0
-393 -431 0
-434 -393 0
-406 -394 0
-407 -394 0
-408 -394 0
-410 -394 0
-414 -394 0
-415 -394 0
-416 -394 0
-418 -394 0
-420 -394 0
-395 -406 0
-395 -415 0
-396 -406 0
-396 -407 0
-396 -408 0
-396 -409 0
-396 -415 0
-416 -396 0
-396 -423 0
-424 -396 0
-430 -396 0
-397 -406 0
-406 -398 0
-414 -398 0
-415 -398 0
-416 -398 0
-417 -398 0
-420 -398 0
-423 -398 0
-424 -398 0
-427 -398 0
-430 -398 0
-433 -398 0
-438 -398 0
-399 -406 0
-400 -406 0
-400 -407 0
-400 -408 0
-400 -409 0
-400 -410 0
-400 -415 0
-416 -400 0
-417 -400 0
-418 -400 0
-421 -400 0
-400 -423 0
-424 -400 0
-425 -400 0
-400 -428 0
-429 -400 0
-430 -400 0
-400 -431 0
-436 -400 0
-400 -439 0
-440 -400 0
-400 -443 0
-406 -401 0
-407 -401 0
-408 -401 0
-401 -409 0
-410 -401 0
-414 -401 0
-415 -401 0
-416 -401 0
-417 -401 0
-418 -401 0
-420 -401 0
-423 -401 0
-424 -401 0
-425 -401 0
-427 -401 0
-429 -401 0
-430 -401 0
-431 -401 0
-433 -401 0
-436 -401 0
-438 -401 0
-440 -401 0
-442 -401 0
-406 -403 0
-407 -403 0
-408 -403 0
-403 -409 0
-410 -403 0
-414 -403 0
-415 -403 0
-416 -403 0
-417 -403 0
-418 -403 0
-419 -403 0
-423 -403 0
-424 -403 0
-425 -403 0
-426 -403 0
-429 -403 0
-430 -403 0
-431 -403 0
-432 -403 0
-436 -403 0
-437 -403 0
-440 -403 0
-441 -403 0
-405 -406 0
-407 -405 0
-408 -405 0
-405 -409 0
-410 -405 0
-405 -412 0
-405 -415 0
-416 -405 0
-417 -405 0
-418 -405 0
-419 -405 0
-420 -405 0
-405 -423 0
-424 -405 0
-425 -405 0
-426 -405 0
-427 -405 0
-430 -405 0
-431 -405 0
-432 -405 0
-433 -405 0
-436 -405 0
-437 -405 0
-438 -405 0
-441 -405 0
-442 -405 0
-405 -445 0
476 477 457 467 466 472 459 495 483 488 491 460 489 455 493 456 470 452 458 469 468 479 473 474 451 471 481 487 484 480 453 465 454 463 482 462 490 475 485 478 461 492 486 494 464 0
-451 1611 0
-452 1612 0
-1611 1612 0
-453 1613 0
-1612 1613 0
-454 1614 0
-1613 1614 0
-455 1615 0
-1614 1615 0
-455 -1614 0
-1615 1616 0
-1616 1617 0
-458 1618 0
-1617 1618 0
-458 -1617 0
-1618 1619 0
-460 1620 0
-1619 1620 0
-461 1621 0
-1620 1621 0
-462 1622 0
-1621 1622 0
-462 -1621 0
-463 1623 0
-1622 1623 0
-464 1624 0
-1623 1624 0
-465 1625 0
-1624 1625 0
-465 -1624 0
-466 1626 0
-1625 1626 0
-466 -1625 0
-467 1627 0
-1626 1627 0
-467 -1626 0
-468 1628 0
-1627 1628 0
-468 -1627 0
-469 1629 0
-1628 1629 0
-469 -1628 0
-470 1630 0
-1629 1630 0
-470 -1629 0
-471 1631 0
-1630 1631 0
-471 -1630 0
-472 1632 0
-1631 1632 0
-472 -1631 0
-473 1633 0
-1632 1633 0
-473 -1632 0
-474 1634 0
-1633 1634 0
-474 -1633 0
-475 1635 0
-1634 1635 0
-475 -1634 0
-476 1636 0
-1635 1636 0
-476 -1635 0
-1636 1637 0
-477 -1636 0
-478 1638 0
-1637 1638 0
-478 -1637 0
-479 1639 0
-1638 1639 0
-479 -1638 0
-480 1640 0
-1639 1640 0
-480 -1639 0
-481 1641 0
-1640 1641 0
-481 -1640 0
-482 1642 0
-1641 1642 0
-482 -1641 0
-483 1643 0
-1642 1643 0
-483 -1642 0
-484 1644 0
-1643 1644 0
-484 -1643 0
-485 1645 0
-1644 1645 0
-485 -1644 0
-486 1646 0
-1645 1646 0
-486 -1645 0
-487 1647 0
-1646 1647 0
-487 -1646 0
-488 1648 0
-1647 1648 0
-488 -1647 0
-489 1649 0
-1648 1649 0
-490 1650 0
-1649 1650 0
-1649 -490 0
-491 1651 0
-1650 1651 0
-491 -1650 0
1652 -1651 0
-493 -1652 0
-911 459 453 454 458 452 451 456 455 457 0
-451 911 0
-452 911 0
-453 911 0
-454 911 0
-455 911 0
-458 911 0
-1091 0
-912 460 467 464 465 461 463 462 466 0
912 -460 0
-461 912 0
-462 912 0
-463 912 0
-464 912 0
-465 912 0
-466 912 0
-467 912 0
-1092 451 0
1092 -451 0
-913 473 474 471 470 469 468 472 0
913 -468 0
913 -469 0
913 -471 0
-472 913 0
-1093 460 452 0
-914 477 480 479 476 475 478 0
-1094 468 453 461 0
-915 481 485 482 483 484 0
915 -482 0
915 -483 0
-484 915 0
-485 915 0
-1095 475 454 462 469 0
-462 1095 0
-916 486 489 488 487 0
-1096 481 455 463 470 476 0
-455 1096 0
-463 1096 0
-470 1096 0
-476 1096 0
-481 1096 0
-917 491 492 490 0
917 -491 0
-1097 477 456 471 486 464 482 0
-464 1097 0
-471 1097 0
-477 1097 0
-482 1097 0
1097 -486 0
-918 493 494 0
918 -493 0
-1098 490 457 465 478 472 483 487 0
-465 1098 0
1098 -472 0
-487 1098 0
1098 -490 0
-919 495 0
919 -495 0
-1099 491 458 493 479 488 466 473 484 0
-458 1099 0
-466 1099 0
-473 1099 0
-479 1099 0
-484 1099 0
-488 1099 0
1099 -491 0
-493 1099 0
-920 0
-1100 492 459 474 467 480 489 495 494 485 0
-495 1100 0
-455 -415 0
-416 -455 0
-417 -455 0
-419 -455 0
-420 -455 0
-421 -455 0
-451 -423 0
-455 -423 0
-466 -423 0
-424 -451 0
-424 -455 0
-424 -466 0
-425 -451 0
-425 -465 0
-425 -466 0
-426 -451 0
-426 -455 0
-426 -465 0
-426 -466 0
-427 -451 0
-427 -455 0
-427 -462 0
-427 -466 0
-451 -428 0
-455 -428 0
-463 -428 0
-465 -428 0
-429 -451 0
-429 -455 0
-429 -458 0
-429 -463 0
-429 -465 0
-430 -451 0
-430 -455 0
-430 -466 0
-430 -472 0
-431 -451 0
-465 -431 0
-466 -431 0
-472 -431 0
-432 -451 0
-432 -455 0
-432 -465 0
-432 -466 0
-432 -472 0
-433 -451 0
-433 -455 0
-462 -433 0
-466 -433 0
-434 -451 0
-434 -455 0
-434 -463 0
-465 -434 0
-434 -472 0
-436 -451 0
-453 -436 0
-436 -460 0
-436 -461 0
-436 -465 0
-436 -466 0
-437 -451 0
-437 -455 0
-465 -437 0
-466 -437 0
-437 -472 0
-438 -451 0
-453 -438 0
-438 -455 0
-438 -460 0
-438 -461 0
-438 -463 0
-438 -466 0
-451 -439 0
-439 -452 0
-453 -439 0
-455 -439 0
-439 -460 0
-439 -461 0
-463 -439 0
-465 -439 0
-472 -439 0
-478 -439 0
-440 -451 0
-440 -455 0
-440 -458 0
-440 -463 0
-440 -465 0
-440 -472 0
-441 -451 0
-465 -441 0
-466 -441 0
-441 -472 0
-484 -441 0
-442 -451 0
-462 -442 0
-466 -442 0
-451 -443 0
-453 -443 0
-443 -454 0
-443 -460 0
-461 -443 0
-462 -443 0
-465 -443 0
-468 -443 0
-469 -443 0
-472 -443 0
-475 -443 0
-478 -443 0
-443 -483 0
-444 -451 0
-451 -445 0
-445 -452 0
-453 -445 0
-445 -454 0
-455 -445 0
-458 -445 0
-445 -460 0
-461 -445 0
-462 -445 0
-463 -445 0
-466 -445 0
-467 -445 0
-468 -445 0
-469 -445 0
-470 -445 0
-473 -445 0
-474 -445 0
-475 -445 0
-476 -445 0
-479 -445 0
-480 -445 0
-481 -445 0
-484 -445 0
-485 -445 0
-488 -445 0
-489 -445 0
-446 -451 0
-446 -452 0
-453 -446 0
-446 -454 0
-455 -446 0
-446 -460 0
-446 -461 0
-462 -446 0
-463 -446 0
-465 -446 0
-467 -446 0
-468 -446 0
-469 -446 0
-470 -446 0
-472 -446 0
-474 -446 0
-475 -446 0
-476 -446 0
-478 -446 0
-480 -446 0
-481 -446 0
-446 -483 0
-485 -446 0
-487 -446 0
-489 -446 0
-451 -448 0
-452 -448 0
-453 -448 0
-454 -448 0
-455 -448 0
-460 -448 0
-461 -448 0
-462 -448 0
-463 -448 0
-464 -448 0
-467 -448 0
-468 -448 0
-469 -448 0
-470 -448 0
-471 -448 0
-474 -448 0
-475 -448 0
-476 -448 0
-477 -448 0
-480 -448 0
-481 -448 0
-482 -448 0
-485 -448 0
-486 -448 0
-489 -448 0
-449 -451 0
-463 -449 0
-451 -450 0
-450 -452 0
-453 -450 0
-450 -454 0
-455 -450 0
-450 -460 0
-461 -450 0
-462 -450 0
-463 -450 0
-464 -450 0
-465 -450 0
-468 -450 0
-469 -450 0
-470 -450 0
-471 -450 0
-472 -450 0
-475 -450 0
-476 -450 0
-477 -450 0
-478 -450 0
-481 -450 0
-482 -450 0
-450 -483 0
-486 -450 0
-487 -450 0
-450 -490 0
509 526 498 503 529 532 535 536 504 513 511 539 508 537 515 522 512 502 538 510 540 500 533 519 530 517 505 523 518 525 506 501 507 496 499 521 520 531 534 516 524 527 514 528 497 0
-496 1655 0
-1655 -497 0
-511 1670 0
-1670 1671 0
-513 1672 0
-1671 1672 0
-514 1673 0
-1672 1673 0
-514 -1672 0
-515 1674 0
-1673 1674 0
-515 -1673 0
-1674 1675 0
-517 1676 0
-1675 1676 0
-517 -1675 0
-518 1677 0
-1676 1677 0
-518 -1676 0
-1677 1678 0
-520 1679 0
-1678 1679 0
-520 -1678 0
-521 1680 0
-1679 1680 0
-521 -1679 0
-1680 1681 0
-523 1682 0
-1681 1682 0
-523 -1681 0
-524 1683 0
-1682 1683 0
-524 -1682 0
-1683 1684 0
-526 1685 0
-1684 1685 0
-526 -1684 0
-527 1686 0
-1685 1686 0
-528 1687 0
-1686 1687 0
-528 -1686 0
-529 1688 0
-1687 1688 0
-529 -1687 0
-530 1689 0
-1688 1689 0
-530 -1688 0
-531 1690 0
-1689 1690 0
-532 1691 0
-1690 1691 0
-532 -1690 0
-533 1692 0
-1691 1692 0
-533 -1691 0
1693 -1692 0
1694 -535 0
1694 -1693 0
-535 -1693 0
-536 1695 0
1695 -1694 0
-536 -1694 0
1696 -537 0
1696 -1695 0
-537 -1695 0
-538 -1696 0
-921 501 498 496 502 500 499 503 497 504 0
-1101 0
-922 505 512 508 509 510 507 506 511 0
-505 922 0
-507 922 0
-508 922 0
-509 922 0
-510 922 0
-1102 496 0
-923 516 519 513 517 514 515 518 0
-1103 505 497 0
-924 522 525 523 520 521 524 0
-1104 513 498 506 0
-925 526 530 527 528 529 0
-1105 520 499 507 514 0
-926 533 534 532 531 0
-531 926 0
926 -532 0
926 -533 0
-1106 526 500 508 521 515 0
1106 -508 0
-521 1106 0
-927 535 537 536 0
927 -536 0
-1107 531 501 509 516 522 527 0
-509 1107 0
-516 1107 0
-522 1107 0
-527 1107 0
-531 1107 0
-928 538 539 0
-538 928 0
-1108 535 502 532 510 523 517 528 0
-510 1108 0
-517 1108 0
-523 1108 0
-528 1108 0
1108 -532 0
-929 540 0
929 -540 0
-1109 538 503 524 536 529 518 511 533 0
-511 1109 0
-518 1109 0
-524 1109 0
-529 1109 0
-533 1109 0
-536 1109 0
-930 0
-1110 525 504 530 534 540 519 512 539 537 0
-530 1110 0
-537 1110 0
-498 -460 0
-499 -460 0
-500 -460 0
-468 -496 0
-469 -496 0
-470 -496 0
-471 -496 0
-472 -496 0
-473 -496 0
-474 -496 0
-475 -496 0
-476 -496 0
-477 -496 0
-478 -496 0
-479 -496 0
-480 -496 0
-481 -496 0
-481 -505 0
-506 -481 0
-510 -481 0
-481 -511 0
-513 -481 0
-481 -517 0
-481 -518 0
-482 -496 0
-483 -496 0
-484 -496 0
-484 -497 0
-484 -498 0
-484 -500 0
-484 -505 0
-506 -484 0
-484 -508 0
-484 -509 0
-510 -484 0
-513 -484 0
-484 -515 0
-484 -516 0
-484 -517 0
-484 -521 0
-522 -484 0
-484 -523 0
-485 -496 0
-486 -496 0
-486 -497 0
-486 -498 0
-487 -496 0
-513 -487 0
-487 -529 0
-496 -488 0
-488 -497 0
-488 -498 0
-499 -488 0
-505 -488 0
-506 -488 0
-507 -488 0
-509 -488 0
-510 -488 0
-513 -488 0
-514 -488 0
-516 -488 0
-517 -488 0
-520 -488 0
-522 -488 0
-523 -488 0
-527 -488 0
-528 -488 0
-489 -496 0
-496 -490 0
-497 -490 0
-498 -490 0
-499 -490 0
-500 -490 0
-505 -490 0
-506 -490 0
-507 -490 0
-508 -490 0
-511 -490 0
-513 -490 0
-514 -490 0
-515 -490 0
-520 -490 0
-521 -490 0
-524 -490 0
-490 -526 0
-496 -491 0
-497 -491 0
-498 -491 0
-499 -491 0
-500 -491 0
-505 -491 0
-506 -491 0
-507 -491 0
-508 -491 0
-510 -491 0
-513 -491 0
-514 -491 0
-515 -491 0
-517 -491 0
-520 -491 0
-521 -491 0
-523 -491 0
-491 -526 0
-528 -491 0
-530 -491 0
-532 -491 0
-493 -496 0
-493 -497 0
-493 -498 0
-493 -499 0
-493 -500 0
-505 -493 0
-506 -493 0
-507 -493 0
-493 -508 0
-509 -493 0
-513 -493 0
-514 -493 0
-515 -493 0
-516 -493 0
-520 -493 0
-521 -493 0
-522 -493 0
-493 -526 0
-527 -493 0
-531 -493 0
-496 -495 0
-497 -495 0
-498 -495 0
-499 -495 0
-500 -495 0
-501 -495 0
-505 -495 0
-506 -495 0
-507 -495 0
-508 -495 0
-509 -495 0
-510 -495 0
-513 -495 0
-514 -495 0
-515 -495 0
-516 -495 0
-517 -495 0
-520 -495 0
-521 -495 0
-522 -495 0
-523 -495 0
-495 -526 0
-527 -495 0
-528 -495 0
-531 -495 0
-532 -495 0
-535 -495 0
546 547 583 581 556 557 585 551 549 580 568 554 579 544 542 553 578 543 567 541 576 562 563 548 560 564 545 561 569 570 572 566 577 574 575 573 571 565 555 550 552 582 559 584 558 0
-543 1701 0
-544 1702 0
-1701 1702 0
-545 1703 0
-1702 1703 0
-1703 1704 0
-1704 1705 0
-1705 1706 0
-1706 1707 0
-550 1708 0
1708 -1707 0
-551 1709 0
1709 -1708 0
-552 1710 0
1710 -1709 0
-553 1711 0
1711 -1710 0
-554 1712 0
1712 -1711 0
-555 1713 0
1713 -1712 0
-555 -1712 0
1714 -1713 0
1715 -1714 0
-558 1716 0
1716 -1715 0
-558 -1715 0
-559 1717 0
1717 -1716 0
-559 -1716 0
-560 1718 0
1718 -1717 0
-560 -1717 0
-561 1719 0
1719 -1718 0
-561 -1718 0
-562 1720 0
1720 -1719 0
-562 -1719 0
-563 1721 0
1721 -1720 0
1722 -1721 0
-565 1723 0
1723 -1722 0
-565 -1722 0
-566 1724 0
1724 -1723 0
-566 -1723 0
1725 -1724 0
-567 -1724 0
-568 1726 0
1726 -1725 0
-568 -1725 0
-569 1727 0
1727 -1726 0
-570 1728 0
1728 -1727 0
-571 1729 0
1729 -1728 0
-571 -1728 0
-572 1730 0
1730 -1729 0
-572 -1729 0
-573 1731 0
1731 -1730 0
-573 -1730 0
-574 1732 0
1732 -1731 0
1733 -1732 0
-576 1734 0
1734 -1733 0
-576 -1733 0
-577 1735 0
1735 -1734 0
-577 -1734 0
-578 1736 0
1736 -1735 0
-579 1737 0
1737 -1736 0
1738 -580 0
1738 -1737 0
-580 -1737 0
-581 1739 0
-581 -1738 0
-1739 1740 0
-1740 -583 0
-931 549 541 545 543 544 546 547 548 542 0
-1111 0
-932 550 557 554 551 552 555 553 556 0
-550 932 0
932 -551 0
-552 932 0
-553 932 0
-1112 541 0
1112 -541 0
-933 563 559 564 561 562 560 558 0
-558 933 0
-559 933 0
-560 933 0
-561 933 0
-562 933 0
-563 933 0
-1113 550 542 0
-934 567 570 569 568 566 565 0
-1114 558 551 543 0
-935 575 572 574 573 571 0
935 -571 0
-572 935 0
-573 935 0
-1115 544 552 565 559 0
-936 578 579 576 577 0
-576 936 0
-577 936 0
-1116 545 553 571 560 566 0
-553 1116 0
-937 582 581 580 0
937 -580 0
937 -581 0
-1117 546 576 561 567 572 554 0
1117 -546 0
1117 -554 0
-561 1117 0
-567 1117 0
-572 1117 0
-576 1117 0
-938 584 583 0
-1118 547 577 580 573 568 562 555 0
-562 1118 0
-568 1118 0
-573 1118 0
-577 1118 0
-580 1118 0
-939 585 0
-585 939 0
-1119 548 583 556 578 581 563 574 569 0
-581 1119 0
-583 1119 0
-940 0
-1120 549 584 582 579 564 585 557 575 570 0
-557 1120 0
-564 1120 0
-570 1120 0
-579 1120 0
-511 -542 0
-513 -541 0
-514 -541 0
-514 -551 0
-515 -541 0
-515 -551 0
-516 -541 0
-516 -551 0
-517 -541 0
-517 -551 0
-518 -541 0
-543 -518 0
-545 -518 0
-547 -518 0
-518 -551 0
-553 -518 0
-555 -518 0
-520 -541 0
-521 -541 0
-522 -541 0
-523 -541 0
-524 -541 0
-524 -542 0
-541 -526 0
-551 -526 0
-527 -541 0
-527 -551 0
-528 -541 0
-528 -551 0
-529 -541 0
-529 -542 0
-529 -551 0
-530 -541 0
-530 -551 0
-531 -541 0
-531 -551 0
-532 -541 0
-551 -532 0
-533 -541 0
-533 -542 0
-533 -551 0
-552 -533 0
-533 -554 0
-555 -533 0
-558 -533 0
-559 -533 0
-561 -533 0
-562 -533 0
-565 -533 0
-572 -533 0
-533 -573 0
-535 -541 0
-550 -535 0
-535 -551 0
-553 -535 0
-560 -535 0
-566 -535 0
-535 -571 0
-536 -541 0
-536 -542 0
-543 -536 0
-544 -536 0
-545 -536 0
-550 -536 0
-551 -536 0
-552 -536 0
-553 -536 0
-555 -536 0
-558 -536 0
-559 -536 0
-560 -536 0
-562 -536 0
-565 -536 0
-566 -536 0
-568 -536 0
-570 -536 0
-536 -571 0
-573 -536 0
-577 -536 0
-579 -536 0
-541 -537 0
-541 -538 0
-542 -538 0
-543 -538 0
-544 -538 0
-545 -538 0
-538 -546 0
-550 -538 0
-551 -538 0
-552 -538 0
-553 -538 0
-554 -538 0
-558 -538 0
-559 -538 0
-560 -538 0
-561 -538 0
-565 -538 0
-566 -538 0
-567 -538 0
-570 -538 0
-571 -538 0
-572 -538 0
-576 -538 0
-541 -540 0
-542 -540 0
-543 -540 0
-544 -540 0
-545 -540 0
-546 -540 0
-547 -540 0
-550 -540 0
-551 -540 0
-552 -540 0
-553 -540 0
-554 -540 0
-555 -540 0
-558 -540 0
-559 -540 0
-560 -540 0
-561 -540 0
-562 -540 0
-565 -540 0
-566 -540 0
-567 -540 0
-568 -540 0
-571 -540 0
-572 -540 0
-573 -540 0
-576 -540 0
-577 -540 0
-580 -540 0
592 591 626 588 595 628 630 607 613 597 594 601 610 600 593 603 586 609 624 617 616 622 604 599 587 625 598 589 614 615 596 611 590 619 620 602 618 623 606 621 612 627 605 629 608 0
-594 1751 0
-1751 1752 0
-1752 1753 0
-1753 1754 0
-1754 1755 0
-1755 1756 0
-1756 1757 0
-1757 1758 0
-602 1759 0
-1758 1759 0
-603 1760 0
-1759 1760 0
-604 1761 0
-1760 1761 0
-1761 1762 0
-1762 1763 0
-1763 1764 0
-1764 1765 0
-609 1766 0
-1765 1766 0
-610 1767 0
-1766 1767 0
-610 -1766 0
-611 1768 0
-1767 1768 0
-611 -1767 0
-1768 1769 0
-1769 1770 0
-613 -1769 0
-1770 1771 0
-615 1772 0
-1771 1772 0
-1772 1773 0
-616 -1772 0
-1773 1774 0
-618 1775 0
-1774 1775 0
-1774 -618 0
-1775 1776 0
-620 1777 0
-1776 1777 0
-620 -1776 0
-1777 1778 0
-622 1779 0
-1778 1779 0
-622 -1778 0
-623 1780 0
-1779 1780 0
-1780 1781 0
-1780 -624 0
1782 -625 0
-1781 1782 0
-626 1783 0
1783 -1782 0
-1782 -626 0
1784 -1783 0
1785 -1784 0
-628 -1784 0
1786 -1785 0
-630 -1786 0
591 586 -941 588 589 593 594 592 587 590 0
-1121 0
-942 595 600 596 597 599 601 598 602 0
-1122 586 0
-943 608 604 603 605 606 607 609 0
-605 943 0
-607 943 0
-1123 587 595 0
-944 615 610 612 613 611 614 0
-1124 603 588 596 0
-945 620 616 618 617 619 0
945 -618 0
-1125 589 610 597 604 0
-946 623 624 621 622 0
-1126 590 616 605 598 611 0
-947 625 627 626 0
-625 947 0
947 -626 0
-1127 591 621 599 612 617 606 0
-591 1127 0
-599 1127 0
-606 1127 0
-612 1127 0
-617 1127 0
-621 1127 0
-948 629 628 0
-1128 592 622 618 607 600 625 613 0
-618 1128 0
-949 630 0
-1129 593 628 626 619 601 623 614 608 0
-601 1129 0
1129 -614 0
1129 -619 0
1129 -623 0
1129 -626 0
1129 -628 0
-950 0
-1130 609 629 627 602 615 620 624 630 594 0
-594 -554 0
-558 -586 0
-559 -586 0
-560 -586 0
-561 -586 0
-562 -586 0
-563 -586 0
-565 -586 0
-565 -595 0
-566 -586 0
-566 -595 0
-567 -586 0
-567 -595 0
-568 -586 0
-569 -586 0
-569 -595 0
-570 -586 0
-586 -571 0
-595 -571 0
-572 -586 0
-572 -595 0
-603 -572 0
-573 -586 0
-574 -586 0
-574 -595 0
-576 -586 0
-576 -595 0
-576 -596 0
-603 -576 0
-577 -586 0
-577 -596 0
-578 -586 0
-578 -595 0
-578 -596 0
-579 -586 0
-579 -596 0
-586 -580 0
-580 -587 0
-588 -580 0
-589 -580 0
-590 -580 0
-595 -580 0
-596 -580 0
-597 -580 0
-598 -580 0
-603 -580 0
-604 -580 0
-605 -580 0
-610 -580 0
-611 -580 0
-616 -580 0
-581 -586 0
-581 -587 0
-588 -581 0
-589 -581 0
-590 -581 0
-592 -581 0
-594 -581 0
-595 -581 0
-581 -596 0
-597 -581 0
-598 -581 0
-600 -581 0
-602 -581 0
-603 -581 0
-604 -581 0
-605 -581 0
-607 -581 0
-609 -581 0
-610 -581 0
-611 -581 0
-613 -581 0
-615 -581 0
-616 -581 0
-581 -618 0
-620 -581 0
-622 -581 0
-581 -624 0
-586 -583 0
-583 -587 0
-588 -583 0
-589 -583 0
-590 -583 0
-595 -583 0
-596 -583 0
-597 -583 0
-598 -583 0
-599 -583 0
-603 -583 0
-604 -583 0
-605 -583 0
-606 -583 0
-610 -583 0
-611 -583 0
-612 -583 0
-616 -583 0
-617 -583 0
-583 -621 0
-586 -585 0
-585 -587 0
-588 -585 0
-589 -585 0
-590 -585 0
-592 -585 0
-595 -585 0
-596 -585 0
-597 -585 0
-598 -585 0
-599 -585 0
-600 -585 0
-603 -585 0
-604 -585 0
-605 -585 0
-606 -585 0
-607 -585 0
-610 -585 0
-611 -585 0
-612 -585 0
-613 -585 0
-616 -585 0
-617 -585 0
-618 -585 0
-585 -621 0
-622 -585 0
-585 -625 0
636 637 671 666 675 645 639 643 673 642 640 647 638 632 633 646 667 656 634 644 635 649 653 654 648 661 652 650 659 660 658 651 663 664 665 670 655 668 669 657 631 672 641 674 662 0
-640 1796 0
-641 1797 0
-1796 1797 0
-641 -1796 0
-642 1798 0
-1797 1798 0
-643 1799 0
-1798 1799 0
-644 1800 0
-1799 1800 0
-645 1801 0
-1800 1801 0
-1801 1802 0
-1802 1803 0
-648 1804 0
-1803 1804 0
-1803 -648 0
-649 1805 0
-1804 1805 0
-1805 1806 0
-651 1807 0
-1806 1807 0
-652 1808 0
-1807 1808 0
-1808 1809 0
-1809 1810 0
-655 1811 0
-1810 1811 0
-655 -1810 0
-1811 1812 0
-657 1813 0
-1812 1813 0
-1813 1814 0
-1814 1815 0
-1815 1816 0
-661 1817 0
-1816 1817 0
-661 -1816 0
-662 1818 0
-1817 1818 0
-1818 1819 0
-1819 1820 0
-1820 1821 0
-666 1822 0
-1821 1822 0
-1821 -666 0
-1822 1823 0
-667 -1822 0
-668 1824 0
-1823 1824 0
-1824 1825 0
1826 -670 0
1826 -1825 0
-670 -1825 0
1827 -671 0
1827 -1826 0
-671 -1826 0
1828 -1827 0
1829 -1828 0
-673 -1828 0
1830 -1829 0
-675 -1830 0
637 631 -951 638 634 632 635 633 636 639 0
-634 951 0
-1131 0
-952 646 644 645 640 643 642 641 647 0
-640 952 0
-1132 631 0
-953 649 651 648 650 652 653 654 0
-1133 632 640 0
1133 -640 0
-954 659 655 657 658 660 656 0
-1134 648 633 641 0
-955 664 662 661 663 665 0
-1135 655 634 642 649 0
1135 -642 0
-956 668 666 667 669 0
956 -666 0
-1136 635 661 643 656 650 0
-957 670 671 672 0
-670 957 0
957 -671 0
-1137 636 666 657 644 651 662 0
-644 1137 0
-651 1137 0
-657 1137 0
-662 1137 0
-666 1137 0
-958 673 674 0
-1138 637 670 645 663 667 658 652 0
-652 1138 0
-667 1138 0
1138 -670 0
-959 675 0
-1139 646 638 673 653 668 671 659 664 0
-638 1139 0
-668 1139 0
1139 -671 0
-673 1139 0
-960 0
-1140 675 665 669 672 639 654 647 674 660 0
-675 1140 0
-595 -634 0
-634 -596 0
-598 -634 0
-599 -632 0
-633 -599 0
-599 -634 0
-599 -635 0
-600 -632 0
-633 -600 0
-600 -634 0
-600 -635 0
-638 -600 0
-639 -600 0
-603 -631 0
-604 -631 0
-605 -631 0
-606 -631 0
-607 -631 0
-607 -642 0
-643 -607 0
-607 -644 0
-631 -608 0
-609 -631 0
-610 -631 0
-610 -640 0
-611 -631 0
-611 -640 0
-612 -631 0
-612 -640 0
-613 -631 0
-613 -640 0
-613 -644 0
-631 -614 0
-615 -631 0
-616 -631 0
-616 -640 0
-616 -648 0
-617 -631 0
-617 -640 0
-617 -648 0
-631 -618 0
-639 -618 0
-640 -618 0
-644 -618 0
-647 -618 0
-648 -618 0
-654 -618 0
-660 -618 0
-631 -619 0
-620 -631 0
-631 -621 0
-640 -621 0
-622 -631 0
-622 -640 0
-622 -642 0
-644 -622 0
-622 -648 0
-622 -655 0
-631 -623 0
-631 -625 0
-638 -625 0
-639 -625 0
-640 -625 0
-641 -625 0
-642 -625 0
-643 -625 0
-648 -625 0
-649 -625 0
-650 -625 0
-655 -625 0
-656 -625 0
-661 -625 0
-631 -626 0
-626 -632 0
-633 -626 0
-634 -626 0
-635 -626 0
-637 -626 0
-639 -626 0
-640 -626 0
-641 -626 0
-642 -626 0
-643 -626 0
-626 -645 0
-647 -626 0
-648 -626 0
-649 -626 0
-650 -626 0
-652 -626 0
-654 -626 0
-655 -626 0
-656 -626 0
-658 -626 0
-660 -626 0
-661 -626 0
-663 -626 0
-667 -626 0
-631 -628 0
-628 -632 0
-633 -628 0
-634 -628 0
-635 -628 0
-640 -628 0
-641 -628 0
-642 -628 0
-643 -628 0
-644 -628 0
-648 -628 0
-649 -628 0
-650 -628 0
-651 -628 0
-654 -628 0
-655 -628 0
-656 -628 0
-657 -628 0
-661 -628 0
-628 -662 0
-628 -666 0
-629 -671 0
-631 -630 0
-630 -632 0
-633 -630 0
-634 -630 0
-635 -630 0
-636 -630 0
-640 -630 0
-641 -630 0
-642 -630 0
-643 -630 0
-644 -630 0
-630 -645 0
-648 -630 0
-649 -630 0
-650 -630 0
-651 -630 0
-652 -630 0
-655 -630 0
-656 -630 0
-657 -630 0
-658 -630 0
-661 -630 0
-630 -662 0
-663 -630 0
-630 -666 0
-667 -630 0
-630 -670 0
676 682 685 711 718 697 720 696 714 680 716 688 695 687 690 678 692 677 684 700 686 706 689 691 707 679 708 681 698 699 703 702 683 709 710 694 701 713 704 705 712 717 715 719 693 0
-685 1840 0
-686 1841 0
-1840 1841 0
-1840 -686 0
-687 1842 0
-1841 1842 0
-688 1843 0
-1842 1843 0
-688 -1842 0
-689 1844 0
-1843 1844 0
-689 -1843 0
-690 1845 0
-1844 1845 0
-690 -1844 0
-1845 1846 0
-1846 1847 0
-693 1848 0
-1847 1848 0
-693 -1847 0
-694 1849 0
-1848 1849 0
-694 -1848 0
-695 1850 0
-1849 1850 0
-695 -1849 0
-696 1851 0
-1850 1851 0
-696 -1850 0
-697 1852 0
-1851 1852 0
-697 -1851 0
1853 -1852 0
1854 -1853 0
-700 1855 0
1855 -1854 0
-700 -1854 0
-701 1856 0
1856 -1855 0
-701 -1855 0
1857 -702 0
1857 -1856 0
-702 -1856 0
-703 1858 0
1858 -1857 0
-703 -1857 0
1859 -1858 0
1860 -1859 0
-706 1861 0
1861 -1860 0
-706 -1860 0
-707 1862 0
1862 -1861 0
-707 -1861 0
-708 1863 0
1863 -1862 0
-708 -1862 0
1864 -1863 0
1865 -1864 0
-711 1866 0
1866 -1865 0
-711 -1865 0
-712 1867 0
1867 -1866 0
-712 -1866 0
1868 -1867 0
1869 -1868 0
1870 -715 0
1870 -1869 0
-715 -1869 0
-716 1871 0
1871 -1870 0
-716 -1870 0
1872 -1871 0
-718 1873 0
-718 -1872 0
1874 -1873 0
-1874 -720 0
-961 676 681 684 677 680 678 682 683 679 0
-1141 0
-962 692 686 688 689 690 687 685 691 0
-685 962 0
-687 962 0
-688 962 0
962 -689 0
962 -690 0
-1142 676 0
1142 -676 0
-963 699 693 697 696 694 698 695 0
-693 963 0
-694 963 0
-696 963 0
963 -697 0
-1143 677 685 0
964 -702 0
-1144 678 686 693 0
1144 -693 0
-965 710 706 708 707 709 0
-1145 679 687 700 694 0
-966 714 711 712 713 0
-711 966 0
-1146 680 706 688 701 695 0
-967 717 715 716 0
-715 967 0
967 -716 0
-1147 681 711 689 696 702 707 0
-689 1147 0
-696 1147 0
-702 1147 0
-707 1147 0
-711 1147 0
-968 719 718 0
-1148 682 697 690 715 712 708 703 0
-969 720 0
-1149 683 698 691 716 713 718 704 709 0
-970 0
-1150 692 710 720 719 684 699 714 717 705 0
-683 -641 0
-651 -687 0
-651 -688 0
-652 -688 0
-654 -686 0
-655 -685 0
-656 -685 0
-685 -657 0
-657 -687 0
-688 -657 0
-694 -657 0
-657 -697 0
-658 -685 0
-658 -687 0
-685 -661 0
-680 -662 0
-683 -662 0
-685 -662 0
-688 -662 0
-695 -662 0
-662 -697 0
-699 -662 0
-701 -662 0
-703 -662 0
-704 -662 0
-705 -662 0
-663 -685 0
-685 -666 0
-686 -666 0
-694 -666 0
-700 -666 0
-667 -685 0
-668 -685 0
-668 -686 0
-678 -670 0
-679 -670 0
-680 -670 0
-685 -670 0
-686 -670 0
-670 -687 0
-688 -670 0
-693 -670 0
-694 -670 0
-695 -670 0
-699 -670 0
-700 -670 0
-701 -670 0
-704 -670 0
-705 -670 0
-706 -670 0
-709 -670 0
-670 -710 0
-671 -676 0
-677 -671 0
-678 -671 0
-679 -671 0
-680 -671 0
-684 -671 0
-685 -671 0
-686 -671 0
-671 -687 0
-688 -671 0
-690 -671 0
-692 -671 0
-693 -671 0
-694 -671 0
-695 -671 0
-671 -697 0
-699 -671 0
-700 -671 0
-701 -671 0
-703 -671 0
-705 -671 0
-706 -671 0
-708 -671 0
-671 -710 0
-712 -671 0
-714 -671 0
-673 -676 0
-677 -673 0
-678 -673 0
-679 -673 0
-680 -673 0
-685 -673 0
-686 -673 0
-673 -687 0
-688 -673 0
-689 -673 0
-693 -673 0
-694 -673 0
-695 -673 0
-696 -673 0
-700 -673 0
-701 -673 0
-702 -673 0
-706 -673 0
-707 -673 0
-711 -673 0
-675 -676 0
-677 -675 0
-678 -675 0
-679 -675 0
-680 -675 0
-681 -675 0
-685 -675 0
-686 -675 0
-675 -687 0
-688 -675 0
-689 -675 0
-690 -675 0
-693 -675 0
-694 -675 0
-695 -675 0
-696 -675 0
-697 -675 0
-700 -675 0
-701 -675 0
-702 -675 0
-703 -675 0
-706 -675 0
-707 -675 0
-708 -675 0
-711 -675 0
-712 -675 0
-715 -675 0
730 722 745 739 761 748 765 736 729 723 753 732 751 757 752 760 737 728 726 725 735 738 743 744 733 756 734 721 749 750 742 724 727 754 755 747 741 758 759 740 731 762 746 764 763 0
1884 -730 0
-731 1885 0
1885 -1884 0
1886 -1885 0
1887 -1886 0
-734 1888 0
1888 -1887 0
1889 -1888 0
1890 -1889 0
1891 -1890 0
1892 -738 0
1892 -1891 0
-1891 -738 0
-739 1893 0
1893 -1892 0
-739 -1892 0
1894 -1893 0
-740 -1893 0
1895 -1894 0
-741 -1894 0
1896 -1895 0
-1895 -742 0
1897 -1896 0
1898 -1897 0
-745 1899 0
1899 -1898 0
-745 -1898 0
-746 1900 0
1900 -1899 0
-746 -1899 0
1901 -1900 0
-747 -1900 0
1902 -1901 0
-748 -1901 0
1903 -1902 0
-749 -1902 0
1904 -1903 0
-751 1905 0
1905 -1904 0
-751 -1904 0
-752 1906 0
1906 -1905 0
-752 -1905 0
1907 -1906 0
-753 -1906 0
1908 -1907 0
1909 -1908 0
1910 -1909 0
-756 -1909 0
1911 -1910 0
-757 -1910 0
1912 -1911 0
1913 -1912 0
-760 -1913 0
1915 -761 0
-1915 1916 0
-763 -1916 0
721 -971 727 728 726 723 725 724 722 729 0
-1151 0
730 -972 735 736 734 733 732 731 737 0
972 -730 0
-731 972 0
-732 972 0
-733 972 0
-734 972 0
-735 972 0
-1152 721 0
-721 1152 0
-1153 730 722 0
974 -745 0
-1154 738 723 731 0
1154 -738 0
1155 -745 0
-976 756 759 757 758 0
976 -756 0
-1156 751 725 740 733 746 0
-977 760 762 761 0
-760 977 0
-1157 756 726 741 752 747 734 0
-726 1157 0
-734 1157 0
-741 1157 0
-747 1157 0
-752 1157 0
-756 1157 0
-978 763 764 0
-1158 760 757 748 727 742 753 735 0
-979 765 0
-1159 728 743 736 761 754 749 763 758 0
-980 0
729 -1160 764 737 765 750 755 762 759 744 0
-690 -722 0
-723 -690 0
-724 -690 0
-725 -690 0
-726 -690 0
-693 -721 0
-694 -721 0
-695 -721 0
-696 -721 0
-721 -697 0
-724 -697 0
-725 -697 0
-726 -697 0
-731 -697 0
-732 -697 0
-733 -697 0
-734 -697 0
-699 -721 0
-700 -721 0
-700 -730 0
-701 -721 0
-701 -730 0
-721 -702 0
-702 -730 0
-702 -739 0
-740 -702 0
-703 -721 0
-703 -730 0
-704 -721 0
-705 -721 0
-706 -721 0
-706 -730 0
-706 -738 0
-707 -721 0
-707 -722 0
-723 -707 0
-725 -707 0
-727 -707 0
-707 -730 0
-731 -707 0
-707 -738 0
-707 -742 0
-746 -707 0
-708 -721 0
-708 -730 0
-731 -708 0
-708 -738 0
-709 -721 0
-709 -738 0
-721 -710 0
-710 -738 0
-711 -721 0
-711 -730 0
-731 -711 0
-711 -732 0
-711 -738 0
-739 -711 0
-711 -745 0
-712 -721 0
-712 -730 0
-712 -738 0
-712 -745 0
-713 -721 0
-713 -738 0
-715 -721 0
-715 -722 0
-723 -715 0
-724 -715 0
-725 -715 0
-715 -730 0
-731 -715 0
-715 -732 0
-733 -715 0
-715 -738 0
-739 -715 0
-740 -715 0
-715 -745 0
-746 -715 0
-715 -751 0
-721 -716 0
-716 -722 0
-723 -716 0
-724 -716 0
-725 -716 0
-727 -716 0
-730 -716 0
-731 -716 0
-732 -716 0
-733 -716 0
-735 -716 0
-738 -716 0
-739 -716 0
-740 -716 0
-742 -716 0
-745 -716 0
-746 -716 0
-716 -748 0
-716 -751 0
-753 -716 0
-757 -716 0
-721 -718 0
-726 -718 0
-718 -730 0
-731 -718 0
-732 -718 0
-733 -718 0
-734 -718 0
-738 -718 0
-739 -718 0
-740 -718 0
-741 -718 0
-745 -718 0
-746 -718 0
-747 -718 0
-718 -751 0
-752 -718 0
-756 -718 0
-721 -720 0
-722 -720 0
-723 -720 0
-724 -720 0
-725 -720 0
-726 -720 0
-727 -720 0
-720 -730 0
-731 -720 0
-732 -720 0
-733 -720 0
-734 -720 0
-735 -720 0
-720 -738 0
-739 -720 0
-740 -720 0
-741 -720 0
-742 -720 0
-745 -720 0
-746 -720 0
-747 -720 0
-748 -720 0
-751 -720 0
-752 -720 0
-753 -720 0
-756 -720 0
-757 -720 0
-760 -720 0
766 810 768 769 770 771 772 773 774 767 776 777 778 779 780 781 782 808 784 785 786 787 788 789 790 791 792 793 794 795 783 797 798 799 800 801 802 803 804 796 806 807 805 809 775 0
1936 -783 0
1937 -1936 0
1938 -1937 0
1939 -1938 0
1940 -1939 0
1941 -1940 0
1942 -1941 0
1943 -790 0
1943 -1942 0
-1942 -790 0
1944 -1943 0
1945 -1944 0
1946 -1945 0
1947 -1946 0
1948 -1947 0
1949 -796 0
1949 -1948 0
-1948 -796 0
1950 -1949 0
1951 -1950 0
1952 -1951 0
1953 -1952 0
1954 -801 0
1954 -1953 0
-1953 -801 0
1955 -1954 0
1956 -1955 0
1957 -1956 0
1958 -805 0
-1957 -805 0
-1958 1959 0
-1959 1960 0
-1960 -808 0
-981 766 767 768 769 770 771 772 773 774 0
-1161 0
-982 775 776 777 778 779 780 781 782 0
-1162 766 0
983 -783 0
-1163 775 767 0
-984 790 791 792 793 794 795 0
-1164 783 776 768 0
-985 796 797 798 799 800 0
985 -796 0
-986 801 802 803 804 0
-1166 796 778 785 791 770 0
-988 808 809 0
-989 810 0
-1169 808 781 788 794 799 803 806 773 0
-990 0
-1170 810 782 789 795 800 804 807 809 774 0
-738 -766 0
-739 -766 0
-740 -766 0
-741 -766 0
-742 -766 0
-745 -766 0
-745 -775 0
-746 -766 0
-746 -775 0
-747 -766 0
-747 -775 0
-748 -766 0
-749 -766 0
-750 -766 0
-751 -766 0
-751 -775 0
-751 -783 0
-752 -775 0
-752 -783 0
-753 -775 0
-753 -783 0
-754 -766 0
-756 -766 0
-756 -775 0
-756 -783 0
-756 -790 0
-757 -775 0
-757 -783 0
-757 -790 0
-758 -766 0
-759 -766 0
-760 -766 0
-760 -775 0
-760 -783 0
-760 -790 0
-760 -796 0
-761 -775 0
-761 -783 0
-761 -790 0
-761 -796 0
-763 -766 0
-763 -775 0
-763 -783 0
-763 -790 0
-763 -796 0
-763 -801 0
-764 -766 0
-765 -766 0
-765 -775 0
-765 -783 0
-765 -790 0
-765 -796 0
-765 -801 0
-765 -805 0
-1966 814 994 0
-1967 815 995 0
-1969 817 997 0
-1971 999 819 0
-1972 1000 820 0
-1971 -23 0
-1971 -29 0
-1968 -31 0
-1967 -33 0
-1967 -34 0
-1971 -34 0
-1971 -38 0
-1971 -41 0
-1971 -43 0
-1976 824 1966 1004 0
-1977 825 1967 1005 0
-1978 1968 826 1006 0
-1979 827 1969 1007 0
-1981 1009 829 1971 0
1010 -1982 830 1972 0
-1981 -83 1968 1971 0
-1980 -88 1971 0
-1981 -88 1970 1971 0
-1987 1977 835 1015 0
-1988 836 1978 1016 0
-1989 1979 837 1017 0
-1991 1981 1019 839 0
1020 -1992 1982 840 0
-1991 -128 1978 1981 0
-1991 -131 1981 1979 0
-1997 1987 845 1025 0
-1999 1989 847 1027 0
-2001 1991 1029 849 0
1030 -2002 1992 850 0
-1998 -166 1988 1987 0
-2001 -169 1987 1991 0
-1999 1991 -176 0
-2001 1991 -176 1989 0
-2001 1990 -178 1991 0
-2007 1997 1035 855 0
-2008 1998 856 1036 0
-2009 1999 1037 857 0
-2011 2001 859 1039 0
1040 -2012 2002 860 0
-2010 -213 1997 2000 0
-2011 2001 -221 1999 0
-2011 2000 -223 2001 0
-2017 2007 865 1045 0
-2019 1047 2009 867 0
-2020 2010 868 1048 0
-2021 2011 1049 869 0
1050 -2022 2012 870 0
-2021 -263 2008 2011 0
-2021 -266 2011 2009 0
-2027 2017 875 1055 0
-2029 1057 2019 877 0
-2030 2020 878 1058 0
-2031 2021 879 1059 0
1060 -2032 2022 880 0
-2031 2021 -311 2019 0
-2039 1067 2029 887 0
-2030 -1068 2040 0
-2041 2031 889 1069 0
-2031 -1069 2041 0
1070 -2042 2032 890 0
-2041 -356 2031 2029 0
-2049 2039 897 1077 0
-2040 2050 898 1078 0
-2041 1079 899 2051 0
-2051 2041 899 1079 0
-2041 -1079 2051 0
1080 -2052 2042 900 0
-2051 2041 -401 2039 0
-2040 -403 2051 0
-2051 2040 -403 2041 0
-2052 -405 2041 2042 0
-2059 2049 907 1087 0
-2051 2061 1089 909 0
-2061 2051 909 1089 0
-2051 -1089 2061 0
-2062 1090 2052 910 0
-2051 -450 2062 0
-2069 2059 917 1097 0
-2061 1099 2071 919 0
-2071 2061 919 1099 0
-2061 -1099 2071 0
1100 -2062 2072 920 0
-2072 1100 2062 920 0
-2071 2059 -491 2061 0
-2060 -493 2071 0
-2061 -495 2072 0
-2074 2064 -922 0
-2079 2069 927 1107 0
-2071 1109 2081 929 0
-2081 2071 929 1109 0
1110 -2072 2082 930 0
-2082 1110 2072 930 0
-2064 -511 2081 0
-2081 -536 2071 2069 0
-2071 -540 2082 0
-2084 2074 1112 932 0
-2089 2079 -937 0
-2091 2081 1119 939 0
1120 -2082 2092 940 0
-2092 1120 2082 940 0
-2091 -581 2081 2079 0
-2101 2091 949 1129 0
1130 -2092 2102 950 0
-2102 1130 2092 950 0
-2099 2084 -599 2089 0
-2091 -630 2102 0
-2095 2105 -1133 0
1140 -2102 2112 960 0
-2094 -640 2105 0
-2096 -655 2107 0
1150 -2112 2122 970 0
1160 -2122 2132 980 0
1170 -2132 990 0
-2133 811 991 0
-2134 812 992 0
-2135 813 993 0
-2135 -813 0
-2136 814 994 0
-2136 -814 0
2137 815 995 0
-995 2137 0
-2138 816 996 0
-2138 -816 0
-2139 817 997 0
-2140 818 998 0
-818 -2140 0
-2141 999 819 0
-2142 1000 820 0
-18 -2136 0
-2138 -20 0
-2140 -22 0
-2141 -23 0
-2138 -26 0
-2140 -28 0
-2141 -29 0
-2137 -31 0
2138 -31 0
-2137 -33 0
2140 -33 0
-2137 -34 0
2141 -34 0
-2140 -37 0
-2138 -38 0
-2141 -38 0
-2141 -41 0
-2140 -43 0
-2141 -43 0
821 -2143 1001 2133 0
-2144 822 1002 2134 0
-2145 823 1003 2135 0
-2145 -823 2135 0
-2146 824 2136 1004 0
-2146 -824 2136 0
2147 825 -2137 1005 0
-2147 2137 1005 825 0
-825 -2147 2137 0
-1005 2147 -2137 0
2148 -2138 826 1006 0
-2148 826 2138 1006 0
-826 -2148 2138 0
2148 -1006 -2138 0
-2149 827 2139 1007 0
-2140 2150 828 1008 0
-2150 1008 2140 828 0
-828 -2150 2140 0
-2140 2150 -1008 0
-2141 2151 829 1009 0
-2151 1009 829 2141 0
-2141 -1009 2151 0
1010 -2152 830 2142 0
-2146 -63 2136 2135 0
-64 -2147 2135 2137 0
-65 -2148 2138 2135 0
-2150 -67 2135 2140 0
-68 -2151 2135 2141 0
-70 -2147 2137 2136 0
-2148 -71 2138 2136 0
-73 -2150 2136 2140 0
-2146 -74 2141 0
-74 -2151 2136 2141 0
-2147 -76 2138 0
-76 2148 -2137 0
-2148 2137 2138 -76 0
-78 -2147 2140 0
-78 2150 -2137 0
-2150 -78 2137 2140 0
-79 -2147 2141 0
-79 2151 -2137 0
-79 -2151 2137 2141 0
-82 -2148 2140 0
-82 -2138 2150 0
-2150 -82 2138 2140 0
-83 -2148 2141 0
-83 -2138 2151 0
-83 -2151 2141 2138 0
-2151 -86 2141 2139 0
-87 -2152 2139 2142 0
-2150 -88 2141 0
-88 -2140 2151 0
-88 -2151 2140 2141 0
-90 -2152 2141 2142 0
831 -2153 2143 1011 0
-2153 -831 2143 0
-2154 2144 1012 832 0
-2154 -832 2144 0
-2155 2145 833 1013 0
-2155 -833 2145 0
-2156 2146 1014 834 0
-834 -2156 2146 0
-2147 2157 835 1015 0
-2157 2147 1015 835 0
-2157 -835 2147 0
-1015 -2147 2157 0
2158 836 -2148 1016 0
-2158 2148 836 1016 0
-836 -2158 2148 0
-1016 2158 -2148 0
-2159 2149 837 1017 0
-2150 2160 1018 838 0
-2160 2150 1018 838 0
-2160 -838 2150 0
-1018 -2150 2160 0
-2151 2161 1019 839 0
-2161 2151 1019 839 0
-2151 2161 -1019 0
1020 -2162 2152 840 0
-2155 -92 2143 2145 0
-2156 -93 2143 2146 0
-2157 -94 2143 2147 0
-2158 -95 2143 2148 0
-101 -2156 2144 2146 0
-103 -2158 2148 2144 0
-105 -2160 2150 2144 0
-2156 -108 2145 2146 0
-109 -2157 2147 2145 0
-110 -2158 2148 2145 0
-112 -2160 2150 2145 0
-113 -2161 2151 2145 0
-2157 -115 2147 2146 0
-116 -2158 2148 2146 0
-118 -2160 2146 2150 0
-119 -2161 2151 2146 0
-121 -2157 2148 0
-121 -2147 2158 0
-121 -2158 2148 2147 0
-123 -2157 2150 0
-123 -2147 2160 0
-123 -2160 2147 2150 0
-124 -2157 2151 0
-124 -2147 2161 0
-124 -2161 2147 2151 0
-127 -2158 2150 0
-127 2160 -2148 0
-2160 -127 2150 2148 0
-128 -2158 2151 0
-128 -2151 -2148 2158 0
-128 2161 -2148 0
-128 -2161 2148 2151 0
-2161 -131 2151 2149 0
-2160 2151 -133 0
-2151 -2150 -133 2160 0
-133 -2150 2161 0
-2161 2151 2150 -133 0
-2162 2151 -135 2152 0
841 -2163 2153 1021 0
2153 -841 -2163 0
-2164 2154 1022 842 0
-2164 -842 2154 0
-2165 2155 843 1023 0
-2165 2155 -843 0
-2166 2156 1024 844 0
-2166 2156 -844 0
-2157 2167 845 1025 0
-2167 2157 845 1025 0
-2167 -845 2157 0
-2157 -1025 2167 0
-2158 2168 1026 846 0
-2168 2158 846 1026 0
-2168 2158 -846 0
-1026 -2158 2168 0
-2169 2159 847 1027 0
-2160 1028 2170 848 0
-2170 1028 2160 848 0
-848 -2170 2160 0
-2160 -1028 2170 0
-2161 1029 849 2171 0
-2171 2161 849 1029 0
-2161 -1029 2171 0
1030 -2172 2162 850 0
-2164 -136 2153 2154 0
-2165 -137 2155 2153 0
-2166 -138 2156 2153 0
-2167 -139 2157 2153 0
-2168 2158 -140 2153 0
-146 -2166 2154 2156 0
-150 -2170 2160 2154 0
-2166 -153 2155 2156 0
-2167 -154 2155 2157 0
-2168 2158 -155 2155 0
-2170 2155 2160 -157 0
-158 -2171 2155 2161 0
-160 -2167 2157 2156 0
-2168 -161 2158 2156 0
-163 -2170 2160 2156 0
-164 -2171 2156 2161 0
-2167 -166 2158 0
-166 -2157 2168 0
-166 -2168 2157 2158 0
-168 -2167 2160 0
-168 -2157 2170 0
-168 -2170 2160 2157 0
-169 -2167 2161 0
-169 -2157 2171 0
-169 -2171 2157 2161 0
-2168 -172 2160 0
-172 -2158 2170 0
-172 -2170 2158 2160 0
-2168 -173 2161 0
-173 -2161 -2158 2168 0
-173 -2158 2171 0
-173 -2171 2158 2161 0
-176 -2171 2161 2159 0
-2170 -178 2161 0
-2160 -178 -2161 2170 0
-2160 -178 2171 0
-178 -2171 2160 2161 0
851 -2173 2163 1031 0
-2173 -851 2163 0
2164 -2174 1032 852 0
-852 -2174 2164 0
-2175 2165 853 1033 0
-2175 2165 -853 0
-2176 2166 1034 854 0
-2176 -854 2166 0
-2167 2177 855 1035 0
-2177 2167 1035 855 0
-855 -2177 2167 0
-2167 -1035 2177 0
-2168 2178 856 1036 0
-2178 2168 856 1036 0
-2178 2168 -856 0
-2168 -1036 2178 0
-2179 2169 857 1037 0
-2170 2180 858 1038 0
-2180 2170 1038 858 0
-2180 2170 -858 0
-2170 -1038 2180 0
-2171 2181 859 1039 0
-2181 2171 859 1039 0
-2171 -1039 2181 0
1040 -2182 2172 860 0
-181 -2174 2163 2164 0
-2175 2165 -182 2163 0
-2176 -183 2163 2166 0
-2177 -184 2167 2163 0
-2178 2168 -185 2163 0
-190 -2175 2164 2165 0
-191 -2176 2164 2166 0
-192 -2177 2167 2164 0
-2178 -193 2164 2168 0
-195 -2180 2170 2164 0
-196 -2181 2164 2171 0
-2176 -198 2165 2166 0
-199 -2177 2167 2165 0
-200 -2178 2168 2165 0
-202 -2180 2170 2165 0
-203 -2181 2171 2165 0
-205 -2177 2167 2166 0
-206 -2178 2168 2166 0
-208 -2180 2170 2166 0
-209 -2181 2171 2166 0
-211 -2177 2168 0
-211 -2167 2178 0
-211 -2178 2168 2167 0
-212 -2167 2179 0
-213 -2177 2170 0
-213 -2167 2180 0
-2180 -213 2167 2170 0
-214 -2177 2171 0
-214 -2167 -2171 2177 0
-214 -2167 2181 0
-214 -2181 2171 2167 0
-2178 -217 2170 0
-217 -2168 2180 0
-217 -2180 2168 2170 0
-2178 -218 2171 0
-218 -2168 2178 -2171 0
-218 -2168 2181 0
-218 -2181 2168 2171 0
-2181 -221 2171 2169 0
-2180 -223 2171 0
-2171 -223 2180 -2170 0
-2170 -223 2181 0
-2181 2170 -223 2171 0
2171 -225 -2182 2172 0
861 -2183 2173 1041 0
-2183 -861 2173 0
-2184 2174 1042 862 0
-2184 2174 -862 0
-2185 2175 863 1043 0
-2185 -863 2175 0
-2186 2176 864 1044 0
-2186 -864 2176 0
-2177 865 2187 1045 0
-2187 2177 865 1045 0
-2187 -865 2177 0
-2177 -1045 2187 0
-2178 866 2188 1046 0
-2188 2178 866 1046 0
-2188 2178 -866 0
-2178 -1046 2188 0
-2189 1047 2179 867 0
-2189 -867 2179 0
-2180 868 2190 1048 0
-2190 2180 1048 868 0
-868 -2190 2180 0
-2180 -1048 2190 0
-2181 1049 869 2191 0
-2191 2181 869 1049 0
-2181 -1049 2191 0
1050 -2192 2182 870 0
-2184 -226 2173 2174 0
-227 -2185 2173 2175 0
-2186 -228 2173 2176 0
-2187 2177 -229 2173 0
-230 -2188 2178 2173 0
-235 -2185 2174 2175 0
-236 -2186 2174 2176 0
-237 -2187 2177 2174 0
-238 -2188 2174 2178 0
-2190 -240 2174 2180 0
-241 -2191 2174 2181 0
-243 -2186 2175 2176 0
-244 -2187 2177 2175 0
-2188 -245 2175 2178 0
-247 -2190 2175 2180 0
-248 -2191 2175 2181 0
-250 -2187 2176 2177 0
-251 -2188 2176 2178 0
-253 -2190 2176 2180 0
-254 -2191 2176 2181 0
-2187 2178 -256 0
-2177 -256 2188 0
-2188 2178 -256 2177 0
-258 -2187 2180 0
-258 -2180 2187 -2177 0
-258 -2177 2190 0
-258 -2190 2177 2180 0
-259 -2187 2181 0
-259 -2177 2191 0
-259 -2191 2177 2181 0
-2188 2180 -262 0
-2178 -2180 -262 2188 0
-2178 -262 2190 0
-2190 2180 -262 2178 0
-2188 -263 2181 0
-2178 -263 -2181 2188 0
-2178 -263 2191 0
-263 -2191 2181 2178 0
-264 -2188 2182 0
-2191 2181 -266 2179 0
-2190 2181 -268 0
-2180 -2181 -268 2190 0
-2180 -268 2191 0
-2191 -268 2180 2181 0
-2191 -270 2182 0
-2181 -270 2192 0
2181 -270 2182 -2192 0
871 -2193 2183 1051 0
-2193 -871 2183 0
-2194 2184 1052 872 0
-2194 2184 -872 0
-2195 2185 1053 873 0
-2195 2185 -873 0
-2196 2186 874 1054 0
-2196 2186 -874 0
-2187 875 2197 1055 0
-2197 2187 875 1055 0
-2197 -875 2187 0
-2187 -1055 2197 0
-2188 876 2198 1056 0
-2198 2188 1056 876 0
-2198 2188 -876 0
-2188 -1056 2198 0
-2189 877 2199 1057 0
-2199 1057 2189 877 0
-2199 2189 -877 0
-2190 1058 2200 878 0
-2200 2190 878 1058 0
-2200 2190 -878 0
-2190 -1058 2200 0
-2191 1059 2201 879 0
-2201 2191 1059 879 0
-2191 -1059 2201 0
1060 -2202 2192 880 0
-2194 -271 2183 2184 0
-2195 -272 2183 2185 0
-2196 -273 2183 2186 0
-2197 -274 2183 2187 0
-275 -2198 2183 2188 0
-2195 -280 2184 2185 0
-2196 -281 2184 2186 0
-282 -2197 2187 2184 0
-283 -2198 2184 2188 0
-285 -2200 2184 2190 0
-2201 -286 2191 2184 0
-288 -2196 2185 2186 0
-289 -2197 2187 2185 0
-2198 2185 -290 2188 0
-2200 -292 2185 2190 0
-293 -2201 2191 2185 0
-295 -2197 2187 2186 0
-2198 2186 -296 2188 0
-298 -2200 2186 2190 0
-299 -2201 2186 2191 0
-2197 -301 2188 0
-301 -2187 -2188 2197 0
-301 -2187 2198 0
-301 -2198 2188 2187 0
-302 -2187 2199 0
-2197 -303 2190 0
-2187 -303 -2190 2197 0
-2187 -303 2200 0
-2200 -303 2187 2190 0
-2197 -304 2191 0
-304 -2191 2197 -2187 0
-304 -2187 2201 0
-304 -2201 2191 2187 0
-306 -2188 2199 0
-2198 2190 -307 0
-2188 -2190 -307 2198 0
-2188 -307 2200 0
-2200 2188 -307 2190 0
-308 -2198 2191 0
-308 -2191 2198 -2188 0
-308 -2188 2201 0
-308 -2201 2191 2188 0
-2201 2191 -311 2189 0
-2200 2191 -313 0
-2190 -2191 -313 2200 0
-2190 -313 2201 0
-2201 2191 -313 2190 0
-315 2191 2192 -2202 0
881 -2203 2193 1061 0
-2203 -881 2193 0
-2204 2194 1062 882 0
-2204 -882 2194 0
-2205 2195 883 1063 0
-2205 -883 2195 0
-2206 2196 884 1064 0
-2206 -884 2196 0
-2197 1065 2207 885 0
-2207 2197 885 1065 0
-2207 -885 2197 0
-2197 -1065 2207 0
-2198 1066 2208 886 0
-2208 2198 886 1066 0
-886 -2208 2198 0
-1066 -2198 2208 0
-2199 1067 2209 887 0
-2209 1067 2199 887 0
-2209 -887 2199 0
-2199 -1067 2209 0
-2200 1068 2210 888 0
-2210 2200 1068 888 0
-2210 2200 -888 0
-2200 -1068 2210 0
-2201 1069 2211 889 0
-2211 2201 1069 889 0
-2211 -889 2201 0
-1069 -2201 2211 0
1070 -2212 2202 890 0
-2204 -316 2193 2194 0
-2205 -317 2193 2195 0
-2206 -318 2193 2196 0
-2207 -319 2193 2197 0
-320 -2208 2198 2193 0
-2205 -325 2194 2195 0
-326 -2206 2194 2196 0
-2207 -327 2197 2194 0
-328 -2208 2198 2194 0
-330 -2210 2194 2200 0
-331 -2211 2201 2194 0
-333 -2206 2195 2196 0
-2207 2197 -334 2195 0
-335 -2208 2195 2198 0
-2210 -337 2200 2195 0
-338 -2211 2201 2195 0
-340 -2207 2196 2197 0
-341 -2208 2198 2196 0
-343 -2210 2196 2200 0
-344 -2211 2196 2201 0
-346 -2207 2198 0
-346 -2197 2208 0
-346 -2208 2197 2198 0
-2207 -348 2200 0
-2197 -348 -2200 2207 0
-2197 -348 2210 0
-348 -2210 2197 2200 0
-349 -2207 2201 0
-349 -2197 2207 -2201 0
-349 -2197 2211 0
-349 -2211 2197 2201 0
-350 -2207 2202 0
-2198 -351 2209 0
-352 -2208 2200 0
-352 -2200 -2198 2208 0
-352 -2198 2210 0
-352 -2210 2200 2198 0
-353 -2208 2201 0
-353 -2198 2208 -2201 0
-353 -2198 2211 0
-353 -2211 2201 2198 0
-2209 -355 2200 0
-2199 -355 2210 0
-2199 -356 -2201 2209 0
-356 -2211 2199 2201 0
-358 -2210 2201 0
-2200 -358 -2201 2210 0
-2200 -358 2211 0
-358 -2211 2200 2201 0
-2211 -360 2202 0
-360 -2212 2202 2201 0
891 -2213 2203 1071 0
-2213 -891 2203 0
-2214 892 2204 1072 0
-2214 -892 2204 0
-2215 893 2205 1073 0
-2215 -893 2205 0
-2216 2206 894 1074 0
-2216 -894 2206 0
-2207 2217 895 1075 0
-2217 895 2207 1075 0
-2217 -895 2207 0
-2207 2217 -1075 0
-2208 2218 896 1076 0
-2218 2208 896 1076 0
-896 -2218 2208 0
-2208 -1076 2218 0
-2209 1077 2219 897 0
-2219 2209 897 1077 0
-2219 2209 -897 0
-2209 -1077 2219 0
-2210 1078 2220 898 0
-2220 1078 2210 898 0
-2220 2210 -898 0
-2210 -1078 2220 0
-2211 1079 899 2221 0
-2221 1079 2211 899 0
-2221 -899 2211 0
-2211 -1079 2221 0
1080 -2222 2212 900 0
-2214 -361 2203 2204 0
-2215 -362 2205 2203 0
-2216 -363 2203 2206 0
-2217 -364 2203 2207 0
-365 -2218 2208 2203 0
-2215 -370 2204 2205 0
-2216 -371 2204 2206 0
-2217 -372 2204 2207 0
-373 -2218 2208 2204 0
-2220 -375 2210 2204 0
-376 -2221 2204 2211 0
-378 -2216 2205 2206 0
-2217 -379 2205 2207 0
-380 -2218 2208 2205 0
-382 -2220 2205 2210 0
-2221 2205 -383 2211 0
-385 -2217 2206 2207 0
-386 -2218 2206 2208 0
-388 -2220 2206 2210 0
-2221 2211 -389 2206 0
-391 -2217 2208 0
-391 -2207 2218 0
-391 -2218 2208 2207 0
-2207 -392 2219 0
-393 -2217 2210 0
-393 -2207 -2210 2217 0
-393 -2207 2220 0
-393 -2220 2210 2207 0
-2217 -394 2211 0
-2207 -2211 -394 2217 0
-2207 -394 2221 0
-2221 2207 -394 2211 0
-396 -2208 2219 0
-397 -2218 2210 0
-397 -2208 2218 -2210 0
-397 -2208 2220 0
-397 -2220 2208 2210 0
-2218 -398 2211 0
-2208 -2211 -398 2218 0
-2208 -398 2221 0
-2221 2208 -398 2211 0
-399 -2208 2222 0
-2209 -400 2220 0
-2221 2211 -401 2209 0
-2220 2211 -403 0
-2210 -2211 -403 2220 0
-2210 -403 2221 0
-2221 2211 -403 2210 0
-2221 -405 2212 0
2211 -405 2212 -2222 0
901 -2223 2213 1081 0
-2224 2214 902 1082 0
-2224 2214 -902 0
-2225 2215 903 1083 0
-2226 2216 904 1084 0
-2217 905 2227 1085 0
-2227 2217 1085 905 0
-2227 -905 2217 0
-2217 2227 -1085 0
-2218 906 2228 1086 0
2218 -2228 906 1086 0
-2228 2218 -906 0
-1086 -2218 2228 0
-2219 2229 1087 907 0
-2229 2219 907 1087 0
-2229 2219 -907 0
-2219 -1087 2229 0
-2220 908 2230 1088 0
-2230 2220 908 1088 0
-2230 2220 -908 0
-2220 -1088 2230 0
-2221 2231 1089 909 0
2221 -2231 1089 909 0
-2221 -1089 2231 0
1090 -2232 2222 910 0
-2224 -406 2213 2214 0
-2227 2217 -409 2213 0
-410 -2228 2213 2218 0
-417 -2227 2217 2214 0
-418 -2228 2218 2214 0
-420 -2230 2214 2220 0
-421 -2231 2221 2214 0
-424 -2227 2217 2215 0
-425 -2228 2218 2215 0
-427 -2230 2215 2220 0
-428 -2231 2221 2215 0
-430 -2227 2216 2217 0
-431 -2228 2218 2216 0
-433 -2230 2216 2220 0
-434 -2231 2221 2216 0
-436 -2217 2228 0
-436 -2228 2218 2217 0
-2217 -437 2229 0
-438 -2227 2220 0
-438 -2220 2227 -2217 0
-438 -2217 2230 0
-438 -2230 2217 2220 0
-2227 -439 2221 0
-2217 -2221 -439 2227 0
-2217 -439 2231 0
-439 -2231 2221 2217 0
-441 -2218 2229 0
-442 -2228 2220 0
-442 -2220 2228 -2218 0
-442 -2218 2230 0
-442 -2230 2220 2218 0
-2228 -443 2221 0
-2221 -443 2228 -2218 0
-2218 -443 2231 0
-443 -2231 2221 2218 0
-2229 -445 2220 0
-2219 -445 2230 0
-446 -2231 2221 2219 0
-2230 2221 -448 0
-2220 -2221 -448 2230 0
-2220 -448 2231 0
2220 -2231 -448 2221 0
2221 -450 -2232 2222 0
-2224 2234 1092 912 0
-2234 2224 1092 912 0
-2234 2224 -912 0
-2225 913 2235 1093 0
-2235 2225 1093 913 0
-2226 1094 2236 914 0
-2236 2226 914 1094 0
-2236 -914 2226 0
-2227 1095 2237 915 0
-2237 2227 915 1095 0
-2227 -1095 2237 0
-2228 916 2238 1096 0
-2238 2228 916 1096 0
-2238 -916 2228 0
-1096 -2228 2238 0
-2229 917 2239 1097 0
-2239 2229 917 1097 0
-2239 2229 -917 0
-2229 -1097 2239 0
-2230 1098 2240 918 0
-2230 -1098 2240 0
-2231 1099 2241 919 0
-2241 2231 1099 919 0
-2241 2231 -919 0
-2231 -1099 2241 0
1100 2242 -2232 920 0
1100 -2242 2232 920 0
-466 -2241 2231 2224 0
-2236 -468 2225 2226 0
-2225 -472 2240 0
-473 -2241 2231 2225 0
-479 -2241 2231 2226 0
-481 -2237 2228 0
-481 -2227 2238 0
-2227 -482 2239 0
-2237 -483 2230 0
-2230 -483 2237 -2227 0
-2227 -483 2240 0
-484 -2237 2231 0
-484 -2227 -2231 2237 0
-484 -2227 2241 0
-484 -2241 2227 2231 0
-486 -2228 2239 0
-487 -2238 2230 0
-487 -2228 2240 0
-487 -2240 2228 2230 0
-2238 -488 2231 0
-2228 -2231 -488 2238 0
-2228 -488 2241 0
-2241 -488 2231 2228 0
-2239 2230 -490 0
-2229 -490 2240 0
-2241 2231 -491 2229 0
-2240 -493 2231 0
-2230 -493 -2231 2240 0
-2230 -493 2241 0
-493 -2241 2231 2230 0
-2241 -495 2232 0
2231 -495 2232 -2242 0
-2234 2244 1102 922 0
-2235 1103 2245 923 0
-2236 924 2246 1104 0
-2237 2247 925 1105 0
-1105 -2237 2247 0
-2238 2248 926 1106 0
-2248 926 2238 1106 0
-2238 -1106 2248 0
-2239 1107 927 2249 0
-2249 2239 927 1107 0
-2249 2239 -927 0
-2239 -1107 2249 0
-2240 1108 2250 928 0
2240 -2250 1108 928 0
-2240 -1108 2250 0
-2241 1109 929 2251 0
-2251 2241 929 1109 0
-2241 -1109 2251 0
1110 -2242 2252 930 0
1110 -2252 2242 930 0
-2235 -513 2246 0
-524 -2251 2241 2236 0
-2237 2248 -526 0
-527 -2237 2249 0
-2237 -528 2250 0
-2237 -529 -2241 2247 0
-531 -2238 2249 0
-2238 -532 2250 0
-533 -2238 -2241 2248 0
-533 -2238 2251 0
-533 -2251 2238 2241 0
-2239 -535 2250 0
-2239 -2241 -536 2249 0
-2251 -536 2239 2241 0
-2240 -2241 -538 2250 0
-2251 2240 -538 2241 0
-2251 -540 2242 0
-2241 -540 2252 0
2241 -540 2242 -2252 0
-2244 2254 932 1112 0
-2245 1113 2255 933 0
-2246 1114 2256 934 0
-2247 2257 935 1115 0
-1115 -2247 2257 0
-2248 2258 936 1116 0
-1116 -2248 2258 0
-2249 2259 937 1117 0
-2259 2249 -937 0
-2249 -1117 2259 0
-2250 2260 938 1118 0
-2260 2250 938 1118 0
-1118 -2250 2260 0
-2251 1119 939 2261 0
-2261 2251 1119 939 0
-2251 -1119 2261 0
1120 -2262 2252 940 0
-2247 -571 2258 0
-572 -2247 2259 0
-2247 -573 2260 0
-576 -2258 2249 0
-576 -2248 2259 0
-577 -2248 2260 0
-2249 -580 2260 0
-2249 -2251 -581 2259 0
-581 -2261 2251 2249 0
-2261 -585 2252 0
-2251 -585 -2252 2261 0
2251 -585 2252 -2262 0
-2254 2264 942 1122 0
-2255 1123 2265 943 0
-2256 2266 944 1124 0
-2257 2267 945 1125 0
-2258 2268 946 1126 0
-1126 -2258 2268 0
-2259 1127 2269 947 0
-2259 -1127 2269 0
-2260 1128 2270 948 0
-2270 2260 948 1128 0
-2260 -1128 2270 0
-2261 1129 949 2271 0
-2271 2261 1129 949 0
-2261 -1129 2271 0
1130 -2272 2262 950 0
-2258 -621 2269 0
-622 -2258 2270 0
-2259 -625 2270 0
2261 -630 2262 -2272 0
-2268 956 2278 1136 0
-2268 -1136 2278 0
-2269 957 2279 1137 0
-2269 -1137 2279 0
-2270 1138 2280 958 0
-2270 -1138 2280 0
-2281 1139 2271 959 0
1140 -2282 2272 960 0
-2265 -648 2276 0
-2268 -666 2279 0
-667 -2268 2280 0
-2269 -670 2280 0
2271 -675 2272 -2282 0
-2278 1146 2288 966 0
-2279 1147 2289 967 0
-2280 1148 2290 968 0
2281 -720 2282 -2292 0
-2303 811 991 0
-2304 812 992 0
-2305 813 993 0
-2305 -813 0
-2306 814 994 0
-2306 -814 0
-2307 815 995 0
-2307 -815 0
2308 816 996 0
2308 -996 0
-2309 817 997 0
-2310 818 998 0
-2310 -818 0
-2311 999 819 0
-2312 1000 820 0
-18 -2306 0
-2307 -19 0
-2310 -22 0
-2311 -23 0
-2307 -25 0
-2310 -28 0
-2311 -29 0
-2310 -33 0
-2311 -34 0
-2308 -37 0
2310 -37 0
-2308 -38 0
2311 -38 0
-2311 -43 0
-2313 821 1001 2303 0
-2314 822 1002 2304 0
-2315 823 1003 2305 0
-2315 -823 2305 0
-2316 824 2306 1004 0
-2316 -824 2306 0
-2317 825 1005 2307 0
-2317 -825 2307 0
2318 826 -2308 1006 0
-2318 2308 1006 826 0
-2318 -826 2308 0
2318 -1006 -2308 0
-2319 827 2309 1007 0
2320 828 -2310 1008 0
-2320 1008 2310 828 0
-2320 -828 2310 0
2320 -1008 -2310 0
-2311 2321 829 1009 0
-2321 1009 829 2311 0
-2311 -1009 2321 0
1010 -2322 830 2312 0
-2316 -63 2306 2305 0
-2315 -64 2307 0
-2317 -64 2305 2307 0
-2318 -65 2305 2308 0
-2320 -67 2305 2310 0
-68 -2321 2305 2311 0
-2317 -70 2306 2307 0
-2318 -71 2308 2306 0
-2320 -73 2306 2310 0
-74 -2321 2306 2311 0
-2318 -76 2307 2308 0
-2320 -78 2307 2310 0
-79 -2321 2307 2311 0
-2318 -82 2310 0
-82 2320 -2308 0
-2320 -82 2308 2310 0
-2318 -83 2311 0
-83 2321 -2308 0
-83 -2321 2311 2308 0
-2321 -86 2311 2309 0
-2320 -88 2311 0
-88 2321 -2310 0
-88 -2321 2311 2310 0
831 -2323 2313 1011 0
-2323 -831 2313 0
-2324 2314 1012 832 0
-2324 -832 2314 0
-2325 2315 833 1013 0
-2325 -833 2315 0
-2326 2316 1014 834 0
-2326 -834 2316 0
-2327 2317 835 1015 0
-2327 -835 2317 0
2328 836 -2318 1016 0
-2328 2318 836 1016 0
-836 -2328 2318 0
-1016 2328 -2318 0
-2329 2319 837 1017 0
-2320 2330 1018 838 0
-2330 2320 1018 838 0
-2330 -838 2320 0
-1018 -2320 2330 0
-2321 2331 1019 839 0
-2331 2321 1019 839 0
-2321 2331 -1019 0
1020 -2332 2322 840 0
-2325 -92 2313 2315 0
-2326 -93 2313 2316 0
-2327 -94 2313 2317 0
-2328 -95 2313 2318 0
-2332 -99 2313 2322 0
-106 -2331 2321 2314 0
-2326 -108 2315 2316 0
-2327 -109 2315 2317 0
-110 -2328 2318 2315 0
-2330 -112 2320 2315 0
-113 -2331 2321 2315 0
-2327 -115 2316 2317 0
-116 -2328 2318 2316 0
-2330 -118 2320 2316 0
-119 -2331 2316 2321 0
-121 -2328 2317 2318 0
-2330 -123 2317 2320 0
-124 -2331 2321 2317 0
-127 -2328 2320 0
-127 2330 -2318 0
-2330 -127 2318 2320 0
-128 -2328 2321 0
-128 2331 -2318 0
-2331 -128 2318 2321 0
-2331 -131 2321 2319 0
-2330 2321 -133 0
-2321 -2320 -133 2330 0
-133 -2320 2331 0
-2331 2321 2320 -133 0
-2332 2321 -135 2322 0
841 -2333 2323 1021 0
-2333 2323 -841 0
-2334 2324 1022 842 0
-2334 -842 2324 0
-2335 2325 843 1023 0
-2335 2325 -843 0
-2336 2326 1024 844 0
-2336 2326 -844 0
-2337 2327 845 1025 0
-2337 -845 2327 0
-2328 2338 1026 846 0
-2338 2328 1026 846 0
-2338 2328 -846 0
-1026 -2328 2338 0
-2339 2329 847 1027 0
-2330 1028 2340 848 0
-2340 1028 2330 848 0
-2340 -848 2330 0
-2330 -1028 2340 0
-2331 1029 849 2341 0
-2341 2331 1029 849 0
-2331 -1029 2341 0
1030 -2342 2332 850 0
-2334 -136 2323 2324 0
-2335 -137 2325 2323 0
-2336 -138 2326 2323 0
-2337 -139 2327 2323 0
-2338 2328 -140 2323 0
-2335 2325 -145 2324 0
-2336 -153 2325 2326 0
-2337 -154 2325 2327 0
-2338 -155 2325 2328 0
-2340 2325 2330 -157 0
-158 -2341 2325 2331 0
-2337 -160 2326 2327 0
-2338 -161 2328 2326 0
-2340 -163 2330 2326 0
-164 -2341 2326 2331 0
-2338 -166 2328 2327 0
-2340 -168 2327 2330 0
-169 -2341 2327 2331 0
-2338 -172 2330 0
-172 -2328 2340 0
-2340 -172 2328 2330 0
-2338 -173 2331 0
-173 -2328 2341 0
-173 -2341 2331 2328 0
-176 -2341 2331 2329 0
-2340 -178 2331 0
-2330 -178 2341 0
-178 -2341 2330 2331 0
851 -2343 2333 1031 0
-2343 -851 2333 0
-2344 2334 852 1032 0
-2344 -852 2334 0
-2345 2335 853 1033 0
-2345 2335 -853 0
-2346 2336 1034 854 0
-2346 -854 2336 0
-2347 2337 1035 855 0
-2347 -855 2337 0
-2338 2348 856 1036 0
-2348 2338 856 1036 0
-2348 2338 -856 0
-2338 -1036 2348 0
-2349 2339 857 1037 0
-2340 2350 858 1038 0
-2350 2340 1038 858 0
-2350 2340 -858 0
-2340 -1038 2350 0
-2341 2351 859 1039 0
-2351 2341 1039 859 0
-2341 -1039 2351 0
1040 -2352 2342 860 0
-2344 -181 2333 2334 0
-2345 2335 -182 2333 0
-2346 -183 2333 2336 0
-2347 -184 2337 2333 0
-2348 2338 -185 2333 0
-190 -2345 2334 2335 0
-191 -2346 2334 2336 0
-192 -2347 2334 2337 0
-2348 -193 2334 2338 0
-195 -2350 2340 2334 0
-2351 -196 2334 2341 0
-2346 -198 2335 2336 0
-2347 -199 2335 2337 0
-2348 -200 2338 2335 0
-202 -2350 2340 2335 0
-203 -2351 2335 2341 0
-2347 -205 2336 2337 0
-206 -2348 2336 2338 0
-2350 -208 2340 2336 0
-209 -2351 2336 2341 0
-2348 -211 2338 2337 0
-2350 -213 2337 2340 0
-214 -2351 2337 2341 0
-2348 -217 2340 0
-2338 -217 2350 0
-2350 -217 2340 2338 0
-2348 -218 2341 0
-2338 -218 2351 0
-218 -2351 2338 2341 0
-2351 2341 -221 2339 0
-2350 2341 -223 0
-2340 -223 2351 0
-2351 2340 -223 2341 0
2341 -225 2342 -2352 0
861 -2353 2343 1041 0
-2353 -861 2343 0
-2354 2344 1042 862 0
-2354 2344 -862 0
-2355 2345 863 1043 0
-2355 -863 2345 0
-2356 2346 864 1044 0
-2356 -864 2346 0
-2357 2347 865 1045 0
-2357 -865 2347 0
-2348 866 2358 1046 0
-2358 2348 866 1046 0
-2358 2348 -866 0
-2348 -1046 2358 0
-2359 2349 1047 867 0
-2350 1048 2360 868 0
-2360 2350 868 1048 0
-2350 -1048 2360 0
-2351 1049 869 2361 0
-2361 2351 1049 869 0
-2351 -1049 2361 0
1050 -2362 2352 870 0
-2354 -226 2343 2344 0
-228 -2356 2343 2346 0
-2357 2347 -229 2343 0
-2358 -230 2348 2343 0
-236 -2356 2344 2346 0
-237 -2357 2344 2347 0
-238 -2358 2348 2344 0
-2360 -240 2344 2350 0
-241 -2361 2351 2344 0
-243 -2356 2345 2346 0
-244 -2357 2345 2347 0
-2358 -245 2345 2348 0
-247 -2360 2345 2350 0
-248 -2361 2351 2345 0
-250 -2357 2346 2347 0
-2358 -251 2346 2348 0
-253 -2360 2346 2350 0
-254 -2361 2351 2346 0
-2358 2348 -256 2347 0
-258 -2360 2347 2350 0
-259 -2361 2351 2347 0
-2358 2350 -262 0
-2348 -2350 -262 2358 0
-2348 -262 2360 0
-2358 -263 2351 0
-2348 -263 2361 0
-263 -2361 2351 2348 0
-2361 2351 -266 2349 0
-2360 2351 -268 0
-2350 -268 2361 0
-2361 -268 2350 2351 0
-2361 -270 2352 0
2351 -270 -2362 2352 0
871 -2363 2353 1051 0
-2364 2354 1052 872 0
-2364 2354 -872 0
-2365 2355 873 1053 0
-2365 2355 -873 0
-2366 2356 874 1054 0
-2366 2356 -874 0
-2367 2357 1055 875 0
-2367 -875 2357 0
-2358 1056 2368 876 0
-2368 2358 876 1056 0
-2358 -1056 2368 0
-2369 1057 2359 877 0
-2360 878 2370 1058 0
-2370 2360 1058 878 0
-2360 -1058 2370 0
-2361 1059 879 2371 0
-2371 2361 1059 879 0
-2361 -1059 2371 0
1060 -2372 2362 880 0
-282 -2367 2357 2354 0
-2371 -286 2361 2354 0
-289 -2367 2355 2357 0
-2368 2358 -290 2355 0
-2370 -292 2355 2360 0
-293 -2371 2361 2355 0
-295 -2367 2356 2357 0
-298 -2370 2360 2356 0
-299 -2371 2356 2361 0
-2368 -301 2357 2358 0
-2370 -303 2357 2360 0
-2367 -304 2361 0
-304 -2371 2357 2361 0
-2368 2360 -307 0
-2358 -307 2370 0
-2370 2358 -307 2360 0
-2368 -308 2361 0
-2358 -308 -2361 2368 0
-308 -2371 2361 2358 0
-2371 2361 -311 2359 0
-2370 2361 -313 0
-2360 -2361 -313 2370 0
-2360 -313 2371 0
-2371 2360 -313 2361 0
2361 -315 -2372 2362 0
881 -2373 2363 1061 0
-2374 2364 1062 882 0
-2365 1063 2375 883 0
-2377 2367 1065 885 0
-2368 1066 2378 886 0
-2378 2368 886 1066 0
-2368 -1066 2378 0
-2379 1067 2369 887 0
-2370 1068 2380 888 0
-2380 2370 1068 888 0
-2370 -1068 2380 0
-2371 1069 2381 889 0
2371 -2381 889 1069 0
2371 -2381 -889 0
-2371 -1069 2381 0
1070 -2382 2372 890 0
-331 -2381 2364 2371 0
-338 -2381 2371 2365 0
-344 -2381 2366 2371 0
-2378 -346 2368 2367 0
-2380 -348 2370 2367 0
-349 -2381 2371 2367 0
-2368 -2370 -352 2378 0
-2368 -352 2380 0
-353 -2368 2378 -2371 0
-2368 -353 2381 0
-353 -2381 2368 2371 0
-356 -2381 2371 2369 0
-2370 -358 -2371 2380 0
-358 -2381 2370 2371 0
-2382 -360 2372 2371 0
-2383 -891 2373 0
-2384 2374 892 1072 0
-2375 893 2385 1073 0
-2387 2377 1075 895 0
-2387 2377 -895 0
-2378 2388 896 1076 0
-2378 -1076 2388 0
-2379 2389 897 1077 0
-2389 2379 897 1077 0
-2380 1078 2390 898 0
-2390 1078 2380 898 0
-2390 2380 -898 0
-2380 -1078 2390 0
2391 -2381 899 1079 0
-2391 1079 2381 899 0
-2381 2391 -1079 0
1080 -2392 2382 900 0
-393 -2390 2377 2380 0
-2391 2377 -394 2381 0
-2378 -2380 -397 2388 0
-2378 -397 2390 0
-2378 -398 2391 0
-2391 -398 2381 2378 0
-2391 -401 2381 2379 0
-2390 2381 -403 0
-2380 -2381 -403 2390 0
-2391 -403 2381 2380 0
-405 2381 2382 -2392 0
-2385 903 2395 1083 0
-2397 2387 905 1085 0
-2388 2398 906 1086 0
-2388 -1086 2398 0
-2389 907 2399 1087 0
-2399 2389 907 1087 0
-2399 2389 -907 0
-2390 908 2400 1088 0
-2400 2390 908 1088 0
-2390 -1088 2400 0
-2391 909 1089 2401 0
2391 -2401 1089 909 0
1090 2402 -2392 910 0
-2402 2392 1090 910 0
-2394 -406 2383 2384 0
-438 -2400 2390 2387 0
-439 -2401 2391 2387 0
-2388 -442 2400 0
-2388 -443 2398 -2391 0
-2388 2401 -443 0
-446 -2401 2391 2389 0
-2391 -2390 -448 2400 0
2391 -2401 -448 2390 0
2391 -450 2392 -2402 0
-2398 1096 2408 916 0
-2398 -1096 2408 0
-2409 2399 917 1097 0
-2409 2399 -917 0
-2400 1098 2410 918 0
-2410 2400 1098 918 0
-2400 -1098 2410 0
-2401 1099 2411 919 0
-2411 2401 1099 919 0
-2401 -1099 2411 0
1100 -2402 2412 920 0
1100 -2412 2402 920 0
-2395 -472 2410 0
-484 -2411 2401 2397 0
-2398 -486 2409 0
-2398 -487 2410 0
-2398 -2401 -488 2408 0
-2398 -488 2411 0
-2411 2401 -491 2399 0
-2400 -493 2410 -2401 0
-2411 -493 2401 2400 0
2401 -495 2402 -2412 0
-2408 926 2418 1106 0
-2408 -1106 2418 0
-2409 927 2419 1107 0
-2419 2409 927 1107 0
-2410 1108 2420 928 0
-2410 -1108 2420 0
-2411 1109 929 2421 0
-2421 2411 1109 929 0
1110 -2422 2412 930 0
-2408 -531 2419 0
-2408 -532 2420 0
-2421 -536 2411 2409 0
-2410 -2411 -538 2420 0
-2421 2411 -538 2410 0
2411 -540 2412 -2422 0
-2418 2428 936 1116 0
-2418 -1116 2428 0
-2419 2429 937 1117 0
-2429 2419 -937 0
-2419 -1117 2429 0
-2420 1118 2430 938 0
-2420 -1118 2430 0
2421 -2431 1119 939 0
-2421 -1119 2431 0
1120 -2432 2422 940 0
-2418 -576 2429 0
-577 -2418 2430 0
-2431 -581 2421 2419 0
2421 -2432 2422 -585 0
-2428 2438 946 1126 0
-2428 -1126 2438 0
-2429 1127 2439 947 0
-2429 -1127 2439 0
-2430 1128 2440 948 0
-2430 -1128 2440 0
-2431 1129 949 2441 0
2431 -2441 949 1129 0
1130 -2442 2432 950 0
-2435 -607 2430 0
-2428 -621 2439 0
-2428 -622 2440 0
-2429 -625 2440 0
2431 -630 2432 -2442 0
-2438 956 2448 1136 0
-2439 957 2449 1137 0
-2439 -1137 2449 0
-2440 1138 2450 958 0
-2440 -1138 2450 0
-2441 2451 959 1139 0
-2451 1139 2441 959 0
-2452 2442 1140 960 0
-2435 -648 2446 0
-2438 -666 2449 0
-2438 -667 2450 0
-2439 -670 2450 0
2441 -675 2442 -2452 0
-2448 1146 2458 966 0
-2449 1147 2459 967 0
-2449 -1147 2459 0
-2450 1148 2460 968 0
-2449 -716 2461 0
2451 -720 2452 -2462 0
-2473 811 991 0
-2474 812 992 0
-2475 813 993 0
-2476 814 994 0
-2477 815 995 0
-2477 -815 0
-2478 816 996 0
2479 817 997 0
-2480 818 998 0
-2480 -818 0
-2481 999 819 0
-2482 1000 820 0
-2475 -18 0
-2477 -19 0
-23 -2481 0
-2477 -25 0
-29 -2481 0
-2477 -31 0
-2478 -31 0
-34 -2481 0
-2478 -37 0
-2480 -37 0
-2478 -38 0
-38 -2481 0
-41 2481 0
-2481 -43 0
-2483 821 1001 2473 0
-2483 -821 2473 0
-2484 822 1002 2474 0
-2484 -822 2474 0
-2485 823 2475 1003 0
-2485 -823 2475 0
-2486 824 2476 1004 0
-2486 -824 2476 0
-2487 825 2477 1005 0
-2487 -825 2477 0
-2488 826 2478 1006 0
-2488 -826 2478 0
2489 827 1007 -2479 0
-1007 2489 -2479 0
-2490 1008 2480 828 0
-2490 -828 2480 0
1009 2491 829 -2481 0
-2491 1009 829 2481 0
1010 -2492 830 2482 0
-2486 -63 2476 2475 0
-2487 -64 2475 2477 0
-2488 -65 2475 2478 0
-2490 -67 2475 2480 0
-68 -2491 2475 2481 0
-2487 -70 2476 2477 0
-2488 -71 2478 2476 0
-73 -2490 2476 2480 0
-74 -2491 2476 2481 0
-2488 -76 2478 2477 0
-2490 -78 2480 2477 0
-79 -2491 2481 2477 0
-82 -2488 2480 0
-2490 -82 2480 2478 0
-83 -2491 2481 2478 0
-85 2490 -2479 0
-86 2491 -2479 0
-2490 -88 2481 0
-88 -2491 2480 2481 0
831 -2493 2483 1011 0
-2493 -831 2483 0
-2494 2484 1012 832 0
-2495 2485 833 1013 0
-833 -2495 2485 0
-2496 2486 1014 834 0
-2496 -834 2486 0
-2497 2487 835 1015 0
-2497 -835 2487 0
-2498 1016 2488 836 0
-2489 2499 837 1017 0
-2500 2490 1018 838 0
-2500 -838 2490 0
-2491 2501 1019 839 0
-2501 2491 1019 839 0
-2491 2501 -1019 0
1020 -2502 2492 840 0
-2495 -92 2483 2485 0
-2497 -94 2483 2487 0
-106 -2501 2491 2484 0
-108 -2496 2485 2486 0
-109 -2497 2487 2485 0
-110 -2498 2485 2488 0
-112 -2500 2485 2490 0
-113 -2501 2485 2491 0
-115 -2497 2486 2487 0
-116 -2498 2486 2488 0
-118 -2500 2486 2490 0
-119 -2501 2486 2491 0
-121 -2498 2488 2487 0
-123 -2500 2490 2487 0
-124 -2501 2487 2491 0
-127 -2500 2490 2488 0
-2498 -128 2491 0
-128 -2501 2488 2491 0
-131 -2489 2501 0
-2501 2491 -133 2490 0
841 -2503 2493 1021 0
2493 -841 -2503 0
-2504 842 1022 2494 0
-2508 2498 1026 846 0
847 -2499 2509 1027 0
-1027 -2499 2509 0
-2501 1029 849 2511 0
-2511 2501 1029 849 0
-1029 -2501 2511 0
1030 -2512 2502 850 0
-2505 -153 2496 0
-158 -2511 2495 2501 0
-164 -2511 2496 2501 0
-169 -2511 2497 2501 0
-173 -2511 2498 2501 0
-176 -2499 2511 0
-2510 -178 2501 0
-178 -2511 2500 2501 0
851 -2513 2503 1031 0
-2514 2504 852 1032 0
-2509 2519 1037 857 0
-2519 2509 1037 857 0
-1037 -2509 2519 0
-2511 2521 859 1039 0
-2521 2511 1039 859 0
-2511 -1039 2521 0
1040 -2522 2512 860 0
-2520 -213 2510 2507 0
-218 -2521 2511 2508 0
-2511 -221 2519 -2509 0
-221 -2509 2521 0
861 -2523 2513 1041 0
-2524 2514 1042 862 0
-2527 -865 2517 0
1047 867 2529 -2519 0
-1047 -2519 2529 0
-2530 2520 868 1048 0
1049 -2521 869 2531 0
-2531 1049 2521 869 0
-1049 -2521 2531 0
1050 -2532 2522 870 0
-2530 -258 2517 2520 0
-259 -2531 2517 2521 0
-265 -2519 2530 0
-266 -2529 2521 0
-266 -2519 2531 0
-267 2522 -2529 0
2522 -270 2521 -2532 0
871 -2533 2523 1051 0
-2534 2524 1052 872 0
-2534 2524 -872 0
1057 -2529 2539 877 0
-2539 877 2529 1057 0
-1057 -2529 2539 0
-2530 878 2540 1058 0
-2540 2530 878 1058 0
-2531 1059 879 2541 0
-2541 2531 1059 879 0
-2531 -1059 2541 0
1060 -2542 2532 880 0
-2534 -271 2523 2524 0
-2537 2527 -274 2523 0
-2540 -303 2527 2530 0
-308 -2541 2528 2531 0
-2531 -311 -2529 2539 0
-311 -2529 2541 0
-313 -2541 2531 2530 0
-315 2531 2532 -2542 0
881 -2543 2533 1061 0
-2544 2534 1062 882 0
-2544 -882 2534 0
885 -2547 2537 1065 0
887 1067 2549 -2539 0
887 -2549 2539 1067 0
-1067 -2539 2549 0
-2540 1068 2550 888 0
2540 -2550 1068 888 0
2540 -2550 -888 0
-2541 1069 889 2551 0
-2551 1069 2541 889 0
-1069 -2541 2551 0
1070 -2552 2542 890 0
-355 -2539 2550 0
-356 -2549 2541 0
-356 -2539 -2541 2549 0
-356 -2539 2551 0
-360 2542 -2551 0
-2553 -891 2543 0
-2554 2544 1072 892 0
-2557 2547 895 1075 0
1077 2559 897 -2549 0
-1077 -2549 2559 0
1078 2560 898 -2550 0
-1078 -2550 2560 0
1079 -2551 899 2561 0
1079 -2561 2551 899 0
-2551 -1079 2561 0
1080 -2562 2552 900 0
-2554 -361 2544 2543 0
-376 -2561 2544 2551 0
-383 -2561 2545 2551 0
-389 -2561 2546 2551 0
-393 -2560 2547 2550 0
-394 -2561 2547 2551 0
-398 -2561 2548 2551 0
-400 -2549 2560 0
-2551 -401 2559 -2549 0
-401 -2549 2561 0
-401 -2561 2549 2551 0
-2550 2561 -403 0
-2561 -403 2550 2551 0
-405 2552 -2561 0
-405 2552 2551 -2562 0
-2564 2554 1082 902 0
907 2569 1087 -2559 0
-2569 907 2559 1087 0
-1087 -2559 2569 0
908 2570 1088 -2560 0
-2570 2560 1088 908 0
-1088 -2560 2570 0
-2561 2571 1089 909 0
-2571 2561 1089 909 0
-1089 -2561 2571 0
1090 -2572 2562 910 0
-2564 -406 2553 2554 0
-2568 -443 2561 0
-445 -2559 2570 0
-446 -2569 2561 0
-446 -2559 -2561 2569 0
-446 -2559 2571 0
-450 2561 -2572 2562 0
2564 -2574 1092 912 0
2564 -2574 -912 0
917 1097 -2569 2579 0
1097 -2579 2569 917 0
-1097 -2569 2579 0
-2570 1098 2580 918 0
-2570 -1098 2580 0
-2571 1099 2581 919 0
2571 -2581 1099 919 0
-919 2571 -2581 0
-2571 -1099 2581 0
1100 -2582 2572 920 0
-2578 -481 2567 2568 0
-2578 -488 2571 0
-490 -2579 2570 0
-490 -2569 2580 0
-491 -2579 2571 0
-2571 -491 -2569 2579 0
-491 -2569 2581 0
2571 -2581 2569 -491 0
-2570 -493 2581 0
-495 2572 -2581 0
2571 -495 2572 -2582 0
-2574 922 2584 1102 0
2574 -2584 1102 922 0
2574 -2584 -922 0
-2579 1107 927 2589 0
-1107 -2579 2589 0
-2580 1108 2590 928 0
-1108 -2580 2590 0
-2581 1109 929 2591 0
-2591 2581 1109 929 0
-1109 -2581 2591 0
1110 -2592 2582 930 0
-509 -2574 2589 0
-535 -2579 2590 0
-536 -2589 2581 0
-536 -2581 2589 -2579 0
-536 -2579 2591 0
-2580 -538 2591 0
-2581 -540 2592 0
2581 -540 2582 -2592 0
-2584 932 2594 1112 0
-1112 -2584 2594 0
2599 -2589 937 1117 0
-1117 -2589 2599 0
-2590 2600 938 1118 0
-1118 -2590 2600 0
-2591 1119 939 2601 0
-2601 2591 1119 939 0
-1119 -2591 2601 0
1120 -2602 2592 940 0
-550 -2584 2595 0
-551 -2584 2596 0
-552 -2584 2597 0
-553 -2584 2598 0
-554 -2584 2599 0
-555 -2584 2600 0
-580 -2589 2600 0
-581 -2599 2591 0
-581 -2591 -2589 2599 0
-582 -2599 2592 0
-583 -2590 2601 0
-585 -2601 2592 0
-585 -2591 -2592 2601 0
-2602 -585 2591 2592 0
-2594 2604 942 1122 0
-2595 1123 2605 943 0
-2605 -943 2595 0
-2596 2606 944 1124 0
-2597 2607 945 1125 0
-2598 2608 946 1126 0
-2599 1127 947 2609 0
-1127 -2599 2609 0
-2600 1128 2610 948 0
-1128 -2600 2610 0
-2601 1129 949 2611 0
-2611 2601 1129 949 0
-949 -2611 2601 0
-2601 -1129 2611 0
1130 -2612 2602 950 0
-2594 -599 2609 0
-2594 -600 2610 0
-2605 -607 2600 0
-2597 -618 2610 0
-2608 -622 2600 0
-625 -2599 2610 0
-2601 -626 -2599 2609 0
-2599 -626 2611 0
-626 -2611 2601 2599 0
-2600 -628 -2601 2610 0
-628 -2600 2611 0
-630 -2611 2602 0
-630 2601 2602 -2612 0
-2609 957 2619 1137 0
-1137 -2609 2619 0
-2610 958 2620 1138 0
-1138 -2610 2620 0
-2611 1139 959 2621 0
-2621 2611 1139 959 0
-2611 -1139 2621 0
-2622 2612 1140 960 0
-2608 -666 2619 0
-670 -2609 2620 0
-671 -2609 2621 0
-2621 -671 2609 2611 0
-2611 -675 2622 0
2611 -675 2612 -2622 0
-2618 1146 2628 966 0
-2619 1147 2629 967 0
-1147 -2619 2629 0
-2620 1148 2630 968 0
-1148 -2620 2630 0
-2621 1149 2631 969 0
-2621 -1149 2631 0
-715 -2619 2630 0
-716 -2619 2631 0
-718 -2620 2631 0
2621 -720 2622 -2632 0
1160 2632 -2642 980 0
2642 1170 990 0
-2643 811 991 0
-2644 812 992 0
-2645 813 993 0
-2645 -813 0
-2646 814 994 0
-2646 -814 0
2647 815 995 0
2647 -995 0
-2648 816 996 0
-2648 -816 0
2649 817 997 0
-2650 818 998 0
-2650 -818 0
-2651 999 819 0
-2652 1000 820 0
-2646 -18 0
-2648 -20 0
-2650 -22 0
-2651 -23 0
-2648 -26 0
-2650 -28 0
-2651 -29 0
-2647 -31 0
2648 -31 0
-2647 -33 0
2650 -33 0
-2647 -34 0
2651 -34 0
-2650 -37 0
-2651 -38 0
-2651 -43 0
-2653 821 1001 2643 0
-2654 822 1002 2644 0
-2655 823 1003 2645 0
-2655 -823 2645 0
-2656 824 2646 1004 0
-2656 -824 2646 0
2657 825 -2647 1005 0
-2657 2647 1005 825 0
2657 -1005 -2647 0
2658 -2648 1006 826 0
-2658 826 2648 1006 0
-2658 -826 2648 0
2658 -2648 -1006 0
2659 827 -2649 1007 0
-2650 2660 828 1008 0
-2660 1008 2650 828 0
-2660 -828 2650 0
-2650 2660 -1008 0
2661 -2651 829 1009 0
-2661 1009 829 2651 0
2661 -1009 -2651 0
1010 -2662 830 2652 0
-2656 -63 2646 2645 0
-2645 -65 2658 0
-2658 -65 2648 2645 0
-68 -2661 2645 2651 0
-70 -2657 2647 2646 0
-2658 -71 2648 2646 0
-74 -2661 2651 2646 0
2658 -76 -2647 0
-2657 -78 2650 0
-78 2660 -2647 0
-79 2661 -2647 0
-2658 -82 2650 0
-82 -2648 2660 0
-83 -2658 2651 0
-83 2661 -2648 0
-83 -2661 2651 2648 0
-2660 -88 2651 0
-2650 -88 2661 0
-88 -2661 2650 2651 0
831 -2663 2653 1011 0
-2664 2654 1012 832 0
-2666 2656 1014 834 0
2667 -2657 835 1015 0
-2667 2657 1015 835 0
-2667 -835 2657 0
2667 -2657 -1015 0
2668 836 -2658 1016 0
-2668 2658 836 1016 0
2668 -1016 -2658 0
2669 -2659 837 1017 0
2670 -2660 1018 838 0
-2670 2660 1018 838 0
-1018 -2660 2670 0
-2661 2671 839 1019 0
-2671 2661 839 1019 0
2671 -2661 -1019 0
1020 -2672 2662 840 0
-2667 -94 2653 2657 0
-2668 -95 2653 2658 0
-2665 -108 2656 0
-2665 -109 2657 0
-2667 -109 2655 2657 0
-110 -2668 2658 2655 0
-113 2661 -2671 2655 0
-2667 -115 2656 2657 0
-116 -2668 2656 2658 0
-119 2661 -2671 2656 0
-121 2668 -2657 0
-123 2670 -2657 0
-124 2671 -2657 0
2670 -127 -2658 0
-128 2671 -2658 0
-128 -2671 2661 2658 0
2669 -2661 -131 -2659 0
2671 -131 -2659 0
2671 -2660 -133 0
841 -2673 2663 1021 0
-2674 2664 1022 842 0
2677 -2667 845 1025 0
-1025 -2667 2677 0
-2668 2678 1026 846 0
-2678 2668 846 1026 0
-1026 -2668 2678 0
2679 -2669 847 1027 0
2679 -1027 -2669 0
-2670 2680 848 1028 0
-2680 848 2670 1028 0
-2670 2680 -1028 0
-2671 2681 849 1029 0
-2681 2671 1029 849 0
-2671 2681 -1029 0
1030 -2682 2672 850 0
-2677 -139 2667 2663 0
-2675 -153 2666 0
-2665 -154 2677 0
-2677 -154 2665 2667 0
-166 -2667 2678 0
2680 -168 -2667 0
-169 -2667 2681 0
-2668 -173 2681 0
2668 -173 -2681 2671 0
2679 -2671 -176 -2669 0
2681 -176 -2669 0
-2670 2681 -178 0
-178 -2681 2670 2671 0
851 -2683 2673 1031 0
-2684 2674 852 1032 0
-2677 2687 855 1035 0
-2687 2677 855 1035 0
-2677 2687 -1035 0
-2678 2688 856 1036 0
-2688 2678 856 1036 0
-2678 2688 -1036 0
2689 -2679 1037 857 0
2689 -1037 -2679 0
2690 -2680 858 1038 0
2680 -2690 1038 858 0
2690 -2680 -1038 0
2691 -2681 859 1039 0
-2691 2681 1039 859 0
2691 -2681 -1039 0
1040 -2692 2682 860 0
-211 -2677 2688 0
-2677 -213 2690 0
-2677 -214 2691 0
-2688 -218 2681 0
-218 -2678 2691 0
-220 2690 -2679 0
2681 -221 -2689 0
2689 -2681 -221 -2679 0
2691 -221 -2679 0
2691 -2680 -223 0
2680 -2691 -223 2681 0
861 -2693 2683 1041 0
-2694 2684 1042 862 0
-2687 2697 865 1045 0
2687 -2697 865 1045 0
-2687 2697 -1045 0
-2688 2698 866 1046 0
2688 -2698 866 1046 0
-2688 2698 -1046 0
2699 1047 -2689 867 0
2699 -1047 -2689 0
-2690 2700 868 1048 0
2690 -2700 1048 868 0
-868 -2700 2690 0
-2690 2700 -1048 0
-2691 2701 869 1049 0
2691 -2701 1049 869 0
2701 -2691 -1049 0
1050 -2702 2692 870 0
-2687 -256 2698 0
2700 -258 -2687 0
-2687 -259 2701 0
-2688 -263 2701 0
-265 2700 -2689 0
2699 -266 -2691 -2689 0
-2689 -266 2701 0
-2690 2701 -268 0
-2701 -270 2692 0
2691 -270 -2702 2692 0
871 -2703 2693 1051 0
-2704 2694 1052 872 0
-2697 2707 1055 875 0
2697 -2707 1055 875 0
-2697 -1055 2707 0
-2698 2708 876 1056 0
-2698 2708 -1056 0
2709 1057 -2699 877 0
2699 -2709 1057 877 0
2699 -2709 -877 0
2709 -1057 -2699 0
-2700 2710 878 1058 0
2700 -2710 1058 878 0
-2700 2710 -1058 0
2711 -2701 879 1059 0
2701 -2711 1059 879 0
2711 -2701 -1059 0
1060 -2712 2702 880 0
-2697 -301 2708 0
-2697 -303 2710 0
-304 -2701 2707 -2697 0
-2697 -304 2711 0
-306 -2698 2709 0
-2698 -308 2708 -2701 0
-2698 -308 2711 0
2698 -308 2701 -2711 0
-310 2710 -2699 0
-2701 -311 -2699 2709 0
2711 -311 -2699 0
-2700 2711 -313 0
2700 -2711 -313 2701 0
881 -2713 2703 1061 0
-2713 -881 2703 0
-2714 2704 1062 882 0
-2707 2717 1065 885 0
-2707 2717 -1065 0
-2708 2718 1066 886 0
-2718 2708 886 1066 0
-2708 -1066 2718 0
2719 1067 -2709 887 0
-2719 2709 1067 887 0
2719 -1067 -2709 0
-2710 2720 1068 888 0
-2720 2710 1068 888 0
-2710 2720 -1068 0
2721 -2711 889 1069 0
2711 -2721 1069 889 0
2721 -1069 -2711 0
1070 -2722 2712 890 0
-2715 -336 2709 0
-2716 -342 2709 0
-346 -2707 2718 0
-2717 2709 -347 0
2707 -347 -2719 2709 0
-2707 -348 2720 0
-349 -2707 2721 0
-2708 -352 2720 0
-2708 -353 2721 0
-355 -2719 2710 0
-355 2720 -2709 0
-356 2719 -2711 -2709 0
-356 2721 -2709 0
-2720 -358 2711 0
-2710 -358 -2711 2720 0
-2710 -358 2721 0
-2721 -360 2712 0
-2717 2727 895 1075 0
-2717 2727 -1075 0
-2718 2728 896 1076 0
-2718 -1076 2728 0
2729 -2719 897 1077 0
-2729 2719 1077 897 0
-2719 2729 -1077 0
-2720 2730 898 1078 0
-2730 2720 1078 898 0
-2720 2730 -1078 0
2731 -2721 899 1079 0
2721 -2731 1079 899 0
2731 -2721 -1079 0
1080 -2732 2722 900 0
-2724 -361 2713 2714 0
-2725 2715 -362 2713 0
-2726 -363 2713 2716 0
-2727 -364 2713 2717 0
-2717 -391 2728 0
-2717 -393 2730 0
-2717 -2721 -394 2727 0
-2717 2731 -394 0
-2718 -397 2730 0
-2718 -2721 -398 2728 0
-2718 2731 -398 0
-400 -2729 2720 0
-400 -2719 2730 0
-2729 2721 -401 0
-2719 -2721 -401 2729 0
2731 -2719 -401 0
2721 2719 -401 -2731 0
-2730 2721 -403 0
2730 -2721 -403 -2720 0
-2720 2731 -403 0
-2731 -405 2722 0
2721 -405 -2732 2722 0
-2735 2725 903 1083 0
-2736 2726 1084 904 0
-2727 2737 1085 905 0
-2737 2727 1085 905 0
-2727 2737 -1085 0
-2728 2738 906 1086 0
-2738 2728 -906 0
-2728 -1086 2738 0
2739 -2729 907 1087 0
2729 -2739 1087 907 0
-2739 2729 -907 0
-2729 2739 -1087 0
-2730 2740 908 1088 0
2730 -2740 908 1088 0
-2730 2740 -1088 0
-2731 2741 909 1089 0
-2741 2731 1089 909 0
2741 -2731 -1089 0
-2742 2732 1090 910 0
-436 -2727 2738 0
-438 -2727 2740 0
-2727 -439 -2731 2737 0
-2727 -439 2741 0
-2728 2741 -443 0
2730 -445 -2739 0
2740 -445 -2729 0
-446 -2739 2731 0
-446 2739 -2729 -2731 0
2741 -446 -2729 0
2729 -446 2731 -2741 0
-2740 2731 -448 0
-2730 -2731 -448 2740 0
2741 -2730 -448 0
-2741 -450 2732 0
-2737 2747 915 1095 0
-2737 2747 -1095 0
-2738 2748 916 1096 0
-2738 -1096 2748 0
2749 -2739 917 1097 0
2739 -2749 917 1097 0
2749 -2739 -1097 0
-2740 2750 1098 918 0
2740 -2750 1098 918 0
-2740 2750 -1098 0
-2741 2751 919 1099 0
-2751 2741 1099 919 0
-2751 2741 -919 0
-2741 2751 -1099 0
1100 -2742 2752 920 0
-2752 2742 1100 920 0
2740 -2750 2735 -472 0
-478 -2750 2736 2740 0
-2737 -481 2748 0
-2737 2750 -483 0
-2750 2737 -483 2740 0
-2737 -484 2751 0
-2738 -487 2750 0
-2748 2741 -488 0
-2738 -2741 -488 2748 0
-2738 -488 2751 0
-489 -2738 2752 0
2749 -2739 -490 -2740 0
2750 -2739 -490 0
2741 -2749 -491 0
-2741 -2739 -491 2749 0
2751 -2739 -491 0
2739 2741 -491 -2751 0
-2750 -493 2741 0
-2740 -493 -2741 2750 0
-2740 -493 2751 0
-493 2740 -2751 2741 0
-2751 -495 2742 0
-2747 2757 925 1105 0
-2747 -1105 2757 0
-2748 2758 926 1106 0
-2748 2758 -1106 0
2759 -2749 927 1107 0
-2759 2749 1107 927 0
2759 -1107 -2749 0
-2750 2760 928 1108 0
-2760 2750 1108 928 0
-2750 2760 -1108 0
2761 -2751 929 1109 0
-2761 2751 1109 929 0
-2761 2751 -929 0
2761 -2751 -1109 0
1110 -2752 2762 930 0
1110 -2762 2752 930 0
-2747 2758 -526 0
-2747 -528 2760 0
-2747 -529 -2751 2757 0
-2747 -529 2761 0
-2748 -532 2760 0
-2748 -533 -2751 2758 0
-2748 -533 2761 0
-2759 -536 2751 0
-2751 2759 -536 -2749 0
-2749 -536 2761 0
2749 -536 2751 -2761 0
-2760 -538 2751 0
-2750 -2751 -538 2760 0
-2750 2761 -538 0
2750 -2761 -538 2751 0
-2761 -540 2752 0
2751 -540 2752 -2762 0
-2757 2767 1115 935 0
-2758 2768 1116 936 0
2769 -2759 937 1117 0
2759 -2769 1117 937 0
2769 -2759 -1117 0
-2760 2770 938 1118 0
-2770 2760 1118 938 0
-2760 -1118 2770 0
-2761 2771 939 1119 0
-2771 2761 1119 939 0
1120 -2772 2762 940 0
2760 -580 -2769 0
-2760 -580 -2759 2769 0
2770 -580 -2759 0
-2769 -581 2761 0
-2761 2769 -2759 -581 0
2771 -581 -2759 0
2759 -581 2761 -2771 0
2760 2761 -583 -2771 0
-2771 -585 2762 0
-2767 2777 945 1125 0
-2768 2778 1126 946 0
2779 -2769 1127 947 0
-2779 2769 1127 947 0
2779 -2769 -1127 0
-2770 2780 948 1128 0
2770 -2780 1128 948 0
-2771 2781 949 1129 0
-2782 2772 1130 950 0
-2768 -622 2780 0
2771 2769 -626 -2781 0
2771 -628 -2781 2770 0
-630 -2781 2772 0
-2777 955 2787 1135 0
-2778 956 2788 1136 0
-2779 1137 2789 957 0
-2779 -1137 2789 0
-2780 1138 2790 958 0
-2780 -1138 2790 0
-2775 -648 2786 0
-2778 -666 2789 0
2781 2779 -671 -2791 0
2780 2781 -2791 -673 0
-2789 1147 2799 967 0
-2789 -1147 2799 0
-2790 1148 2800 968 0
-2799 1157 2809 977 0
-2800 1158 978 2810 0
-2809 -805 0
-2813 811 991 0
-2817 815 995 0
-2817 -815 0
2818 816 996 0
2818 -996 0
2819 817 997 0
-2820 818 998 0
-2820 -818 0
-2821 999 819 0
-2822 1000 820 0
-2815 -18 0
-2817 -33 0
-2821 -34 0
-2818 -37 0
2820 -37 0
2821 -38 0
-2823 821 1001 2813 0
-2825 2815 823 1003 0
-2827 825 1005 2817 0
2828 826 -2818 1006 0
2828 -1006 -2818 0
2829 827 -2819 1007 0
-2830 1008 2820 828 0
2831 -2821 829 1009 0
-2831 1009 829 2821 0
-1009 2831 -2821 0
1010 -2832 830 2822 0
-2825 -64 2817 0
-2826 -70 2817 0
-82 2830 -2818 0
-83 2831 -2818 0
-2830 -88 2821 0
-88 2831 -2820 0
831 -2833 2823 1011 0
-2835 -833 2825 0
-2836 2826 834 1014 0
-2837 2827 835 1015 0
2838 836 -2828 1016 0
2838 -1016 -2828 0
2839 -2829 837 1017 0
-2840 2830 1018 838 0
-2831 2841 839 1019 0
-2841 2831 839 1019 0
1020 -2842 2832 840 0
-2835 -108 2826 0
2840 -127 -2828 0
-2838 -128 2831 0
-128 2841 -2828 0
2839 -2831 -131 -2829 0
841 -2843 2833 1021 0
-2847 2837 845 1025 0
2848 -2838 1026 846 0
-1026 2848 -2838 0
2849 -2839 847 1027 0
2849 -1027 -2839 0
-2840 2850 848 1028 0
-2850 1028 2840 848 0
-2840 2850 -1028 0
-2841 2851 849 1029 0
-2851 2841 1029 849 0
-2841 2851 -1029 0
1030 -2852 2842 850 0
-2845 -153 2836 0
-2838 -173 2851 0
2849 -2841 -176 -2839 0
2851 -176 -2839 0
-2850 -178 2841 0
851 -2853 2843 1031 0
-2857 2847 1035 855 0
-2848 2858 856 1036 0
-2848 -1036 2858 0
2859 -2849 1037 857 0
2859 -1037 -2849 0
2860 -2850 858 1038 0
-2860 2850 1038 858 0
2860 -2850 -1038 0
2861 -2851 859 1039 0
-2861 2851 1039 859 0
2861 -2851 -1039 0
1040 -2862 2852 860 0
-214 -2861 2851 2847 0
-2848 -218 2861 0
2860 -220 -2849 0
2859 -2851 -221 -2849 0
2861 -221 -2849 0
861 -2863 2853 1041 0
-2867 2857 865 1045 0
-2867 2857 -865 0
-2858 2868 866 1046 0
-2858 2868 -1046 0
2869 1047 -2859 867 0
2869 -1047 -2859 0
-2860 2870 868 1048 0
2860 -2870 868 1048 0
2860 -868 -2870 0
2871 -2861 869 1049 0
2861 -2871 1049 869 0
2871 -2861 -1049 0
1050 -2872 2862 870 0
2860 -258 -2870 2857 0
-2858 -263 2871 0
-265 2870 -2859 0
2869 -266 -2861 -2859 0
-2859 -266 2871 0
-2860 -268 2871 0
-2871 -270 2862 0
871 -2873 2863 1051 0
-2868 2878 876 1056 0
-2868 2878 -1056 0
2879 1057 -2869 877 0
-2870 2880 878 1058 0
2870 -2880 1058 878 0
2881 -2871 879 1059 0
2871 -2881 1059 879 0
2881 -2871 -1059 0
1060 -2882 2872 880 0
2867 -304 2871 -2881 0
-2868 2880 -307 0
-2868 -308 2881 0
-310 2880 -2869 0
-2871 -311 -2869 2879 0
2881 -311 -2869 0
2870 -2881 -313 2871 0
881 -2883 2873 1061 0
-2878 2888 1066 886 0
2889 1067 -2879 887 0
2889 -1067 -2879 0
-2880 2890 1068 888 0
-2890 2880 1068 888 0
2891 -2881 889 1069 0
2881 -2891 1069 889 0
2891 -1069 -2881 0
1070 -2892 2882 890 0
-2888 -351 2879 0
-2878 -353 2891 0
-355 2890 -2879 0
-356 2889 -2881 -2879 0
-356 2891 -2879 0
-2880 -358 2891 0
-2891 -360 2882 0
2899 -2889 897 1077 0
-2899 2889 1077 897 0
-2890 2900 898 1078 0
-2900 2890 1078 898 0
-2891 2901 899 1079 0
2891 -2901 1079 899 0
2901 -2891 -1079 0
1080 -2902 2892 900 0
-2898 -365 2883 2888 0
-2888 2901 -398 0
-400 -2889 2900 0
-2889 -2891 -401 2899 0
2901 -2889 -401 0
-2901 -405 2892 0
-2908 2898 1086 906 0
2909 -2899 907 1087 0
-2899 2909 -1087 0
-2900 2910 908 1088 0
-2910 2900 908 1088 0
2911 -2901 1089 909 0
-2911 2901 1089 909 0
2911 -2901 -1089 0
1090 -2912 2902 910 0
2910 -445 -2899 0
-446 2909 -2899 -2901 0
2911 -446 -2899 0
2899 -446 2901 -2911 0
2900 2901 -448 -2911 0
2919 -2909 917 1097 0
-2909 2919 -1097 0
-2910 2920 1098 918 0
2921 -2911 919 1099 0
-2921 2911 1099 919 0
2921 -2911 -1099 0
1100 -2922 2912 920 0
-487 -2920 2910 2908 0
2920 -2909 -490 0
2911 -2919 -491 0
-2911 2919 -2909 -491 0
2929 -2919 927 1107 0
-2929 2919 1107 927 0
-2920 2930 928 1108 0
-2930 2920 1108 928 0
2931 -2921 929 1109 0
2921 -2931 1109 929 0
2931 -2921 -1109 0
1110 -2932 2922 930 0
2921 -536 -2929 0
-2921 2929 -2919 -536 0
-2931 -540 2922 0
2939 -2929 937 1117 0
2929 -2939 1117 937 0
-2930 2940 938 1118 0
1120 -2942 2932 940 0
2931 -581 -2939 0
-2931 2939 -2929 -581 0
2929 2931 -581 -2941 0
2931 2930 -583 -2941 0
-2941 -585 2932 0
2949 -2939 947 1127 0
-2949 2939 1127 947 0
2941 2939 -626 -2951 0
-630 -2951 2942 0
-2949 1137 2959 957 0
2951 -2961 959 1139 0
-2945 -648 2956 0
-2948 -666 2959 0
2949 2951 -671 -2961 0
-2959 1147 2969 967 0
-2969 1157 2979 977 0
2987 815 995 0
2988 816 996 0
2988 -996 0
2989 817 997 0
-2990 818 998 0
-2991 999 819 0
-2992 1000 820 0
-2985 -18 0
-2990 -22 0
-2990 -28 0
2988 -31 0
-2987 -33 0
-2987 -34 0
-2988 -37 0
-2990 -43 0
-2995 2985 823 1003 0
2997 825 -2987 1005 0
-2997 2987 1005 825 0
2998 826 -2988 1006 0
2999 827 -2989 1007 0
-3000 1008 2990 828 0
-3000 -828 2990 0
-3001 1009 829 2991 0
1010 -3002 830 2992 0
-2995 2987 -64 0
-2996 2987 -70 0
-2998 -82 2990 0
-82 3000 -2988 0
-83 3001 -2988 0
-3000 -88 2991 0
-3001 -88 2990 2991 0
-3005 -833 2995 0
-3006 2996 834 1014 0
3007 -2997 835 1015 0
3008 836 -2998 1016 0
3009 -2999 837 1017 0
-3010 3000 1018 838 0
-3011 3001 839 1019 0
1020 -3012 3002 840 0
-3005 -108 2996 0
-128 3011 -2998 0
3009 -3001 -131 -2999 0
3011 -131 -2999 0
-3011 3001 -133 3000 0
3017 -3007 845 1025 0
3018 -3008 1026 846 0
3019 -3009 847 1027 0
-3020 1028 3010 848 0
-3011 3021 849 1029 0
-3021 3011 1029 849 0
1030 -3022 3012 850 0
-3015 -153 3006 0
3021 -169 -3007 0
3020 -175 -3009 0
-3021 -178 3010 3011 0
3027 -3017 1035 855 0
3028 -3018 -1036 0
3029 -3019 1037 857 0
3030 -3020 858 1038 0
3020 -3030 1038 858 0
3031 -3021 859 1039 0
-3031 3021 1039 859 0
1040 -3032 3022 860 0
-3017 -211 3028 0
3020 -3031 -223 3021 0
3037 -3027 865 1045 0
3038 -3028 866 1046 0
3039 1047 -3029 867 0
3040 -3030 868 1048 0
3030 -3040 1048 868 0
-3031 3041 869 1049 0
3031 -3041 1049 869 0
1050 -3042 3032 870 0
3040 -258 -3027 0
-3027 -259 3041 0
3030 -268 -3041 3031 0
3047 -3037 875 1055 0
3048 -3038 876 1056 0
3049 1057 -3039 877 0
3050 -3040 878 1058 0
-3041 3051 879 1059 0
3041 -3051 1059 879 0
1060 -3052 3042 880 0
-3037 -303 3050 0
-3048 -308 3041 0
3040 3041 -313 -3051 0
-315 -3051 3042 0
3048 -3058 1066 886 0
3059 1067 -3049 887 0
-3050 3060 888 1068 0
3061 -3051 889 1069 0
3051 -3061 1069 889 0
3061 -1069 -3051 0
1070 -3062 3052 890 0
3057 -346 -3048 -3047 0
3057 -3050 -348 -3047 0
-3058 -353 3051 0
-3048 -353 3061 0
-3060 -358 3051 0
-3057 3067 895 1075 0
-3068 3058 896 1076 0
3069 -3059 897 1077 0
-3060 3070 898 1078 0
-3070 3060 1078 898 0
-3061 3071 899 1079 0
3061 -3071 1079 899 0
1080 -3072 3062 900 0
3069 -3061 -401 -3059 0
3071 -3059 -401 0
-3070 3061 -403 0
-3060 3071 -403 0
-3071 -405 3062 0
-3067 3077 905 1085 0
-3078 3068 906 1086 0
3079 -3069 907 1087 0
3079 -1087 -3069 0
-3070 3080 908 1088 0
3070 -3080 1088 908 0
-3071 3081 909 1089 0
-3081 3071 1089 909 0
1090 3082 -3072 910 0
1090 -3082 3072 910 0
-3080 3071 -448 0
-3070 3081 -448 0
-3081 -450 3072 0
-3077 3087 915 1095 0
-3088 3078 916 1096 0
3089 -3079 917 1097 0
-3080 3090 918 1098 0
3080 -3090 1098 918 0
-3081 3091 919 1099 0
-3091 3081 1099 919 0
-3081 3091 -1099 0
1100 3092 -3082 920 0
1100 -3092 3082 920 0
3081 -3089 -491 0
-3090 -493 3081 0
-3091 -495 3082 0
-3087 3097 925 1105 0
-3098 3088 926 1106 0
3099 -3089 927 1107 0
-3099 3089 1107 927 0
-3090 3100 928 1108 0
-3100 3090 1108 928 0
3101 -3091 929 1109 0
1110 -3092 3102 930 0
-3102 3092 1110 930 0
3088 3090 -532 -3100 0
-3099 -536 3091 0
-3100 -538 3091 0
-3090 3101 -538 0
-3101 -540 3092 0
-3097 3107 1115 935 0
-3109 3099 1117 937 0
-3100 3110 938 1118 0
-3110 3100 1118 938 0
-3101 3111 939 1119 0
-3102 3112 1120 940 0
-3112 3102 1120 940 0
-577 3098 -3110 3100 0
3099 3100 -580 -3110 0
3101 -581 -3109 0
-3101 -581 3109 -3099 0
3111 -581 -3099 0
3099 3101 -581 -3111 0
-3111 -585 3102 0
-3107 3117 1125 945 0
-3119 3109 1127 947 0
3110 -3120 1128 948 0
-3122 3112 1130 950 0
3110 3109 -625 -3120 0
-3119 3111 -626 0
3109 3111 -626 -3121 0
3110 3111 -3121 -628 0
-630 -3121 3112 0
3111 -630 -3122 3112 0
3120 1138 -3130 958 0
-3132 3122 1140 960 0
-3115 -648 3126 0
-3117 -661 3128 0
3120 3119 -3130 -670 0
-3129 3121 -671 0
3119 3121 -671 -3131 0
-675 -3131 3122 0
-3128 1146 3138 966 0
-3142 1150 3132 970 0
3130 3129 -715 -3140 0
-3138 976 3148 1156 0
-3152 1160 3142 980 0
-3146 984 1164 0
-3148 1166 986 0
-3148 -801 0
3152 -810 0
-3153 811 991 0
-3154 812 992 0
-3155 -813 0
-3156 814 994 0
-3157 815 995 0
-3157 -815 0
-3158 816 996 0
-3159 817 997 0
-3160 818 998 0
3161 999 819 0
3161 -999 0
-3162 1000 820 0
-3155 -18 0
-3157 -31 0
-3157 -33 0
-3158 -37 0
-3163 821 1001 3153 0
-3164 822 1002 3154 0
-3165 3155 1003 823 0
-3167 825 3157 1005 0
-3168 826 3158 1006 0
-3168 -826 3158 0
-3169 827 3159 1007 0
-3170 -828 3160 0
1009 3171 829 -3161 0
-1009 3171 -3161 0
1010 -3172 830 3162 0
-3166 -70 3157 0
-3167 -70 3156 3157 0
-3168 -82 3160 0
831 -3173 3163 1011 0
-3173 -831 3163 0
-3174 3164 1012 832 0
-3175 -833 3165 0
-3176 3166 834 1014 0
-3177 3167 835 1015 0
-3179 3169 837 1017 0
-3171 3181 1019 839 0
-3171 3181 -1019 0
1020 -3182 3172 840 0
841 -3183 3173 1021 0
-3184 3174 1022 842 0
-3187 3177 845 1025 0
-3189 3179 847 1027 0
-3181 1029 849 3191 0
-3181 -1029 3191 0
1030 -3192 3182 850 0
-3184 -136 3173 3174 0
-3185 -153 3176 0
-3175 -154 3187 0
-3187 -154 3175 3177 0
851 -3193 3183 1031 0
-3193 -851 3183 0
-3194 3184 852 1032 0
-3197 3187 1035 855 0
-3197 -855 3187 0
-3199 3189 1037 857 0
-3199 -857 3189 0
-3191 3201 859 1039 0
-3191 -1039 3201 0
1040 -3202 3192 860 0
3191 -225 -3202 3192 0
-3204 3194 1042 862 0
-3207 3197 865 1045 0
-3207 -865 3197 0
-3199 867 3209 1047 0
-3209 1047 3199 867 0
-3209 -867 3199 0
-3201 1049 869 3211 0
-3201 -1049 3211 0
1050 -3212 3202 870 0
-3217 3207 875 1055 0
-3217 -875 3207 0
-3209 3219 877 1057 0
-3219 1057 3209 877 0
-3211 1059 3221 879 0
-3211 -1059 3221 0
1060 -3222 3212 880 0
-3219 1067 3229 887 0
-3229 1067 3219 887 0
-3220 1068 3230 888 0
-3220 -1068 3230 0
-3221 1069 3231 889 0
-1069 -3221 3231 0
1070 -3232 3222 890 0
-3216 -343 3230 0
-3217 -348 3230 0
891 -3223 3233 1071 0
-3229 3239 897 1077 0
-3239 3229 897 1077 0
-3230 1078 3240 898 0
-3230 -1078 3240 0
-3231 1079 899 3241 0
-3231 -1079 3241 0
1080 -3242 3232 900 0
-3230 -3231 -403 3240 0
901 -3233 3243 1081 0
-3239 3249 1087 907 0
-3249 3239 907 1087 0
-3240 3250 1088 908 0
-3240 -1088 3250 0
-3241 909 1089 3251 0
-3241 -1089 3251 0
1090 3252 -3242 910 0
1090 -3252 3242 910 0
-3241 -448 3250 -3240 0
-3241 -450 3252 0
911 -3243 3253 1091 0
-3249 3259 917 1097 0
-3259 917 3249 1097 0
-3259 -917 3249 0
-3249 3259 -1097 0
-3250 1098 3260 918 0
-3250 -1098 3260 0
-3251 1099 3261 919 0
-3251 -1099 3261 0
1100 -3262 3252 920 0
-3249 -490 3260 0
-3255 923 3265 1103 0
-3260 1108 3270 928 0
-3261 3271 929 1109 0
-3261 3271 -1109 0
1110 -3272 3262 930 0
-3259 -3261 -536 3269 0
-3260 -3261 -538 3270 0
-3265 3275 933 1113 0
-3268 3278 936 1116 0
-1116 -3268 3278 0
-3269 3279 937 1117 0
-3269 -1117 3279 0
-3270 1118 3280 938 0
-1118 -3270 3280 0
-3271 1119 3281 939 0
-3271 -1119 3281 0
-3282 3272 1120 940 0
-576 -3268 3279 0
-577 -3268 3280 0
-3271 -585 -3272 3281 0
-3278 3288 946 1126 0
-3279 1127 3289 947 0
-3279 -1127 3289 0
-3280 1128 3290 948 0
-3281 1129 949 3291 0
-3292 3282 1130 950 0
-3279 -625 3290 0
3281 -630 3282 -3292 0
-3289 957 3299 1137 0
-3289 -1137 3299 0
-3290 1138 3300 958 0
-3290 -1138 3300 0
-3291 3301 959 1139 0
-3285 -648 3296 0
-3288 -666 3299 0
-3289 -670 3300 0
-3298 1146 3308 966 0
-3299 1147 3309 967 0
-3300 1148 3310 968 0
-3329 817 997 0
-3331 999 819 0
3332 1000 820 0
-3331 -43 0
-3339 827 3329 1007 0
-3341 1009 829 3331 0
1010 3342 830 -3332 0
-1010 3342 -3332 0
-3341 -88 3330 3331 0
-3349 3339 837 1017 0
-3351 3341 1019 839 0
1020 -3342 3352 840 0
-1020 3352 -3342 0
-3348 -121 3337 3338 0
-3358 3348 846 1026 0
-3359 3349 847 1027 0
-3361 3351 1029 849 0
1030 -3352 3362 850 0
-1030 3362 -3352 0
-3354 -136 3343 3344 0
-3358 -166 3347 3348 0
-3361 -169 3351 3347 0
-3364 3354 1032 852 0
-3368 3358 856 1036 0
-3369 3359 1037 857 0
-3371 3361 859 1039 0
1040 -3362 3372 860 0
3372 -1040 -3362 0
-3368 -211 3357 3358 0
-3371 -214 3357 3361 0
-3371 -218 3358 3361 0
-3371 3360 -223 3361 0
-3374 3364 1042 862 0
-3378 3368 866 1046 0
-3379 1047 3369 867 0
-3379 -867 3369 0
-3381 3371 869 1049 0
1050 -3372 3382 870 0
-1050 3382 -3372 0
-3381 -263 3368 3371 0
-3388 3378 1056 876 0
-3389 1057 3379 877 0
-3391 3381 1059 879 0
1060 -3382 3392 880 0
3392 -1060 -3382 0
-3387 -274 3373 3377 0
-3388 -301 3377 3378 0
-3391 -308 3381 3378 0
-3391 3380 -313 3381 0
-3397 3387 885 1065 0
-3398 3388 886 1066 0
-3399 1067 3389 887 0
-3401 3391 889 1069 0
1070 -3392 3402 890 0
-1070 3402 -3392 0
-3401 -353 3391 3388 0
-3401 -358 3391 3390 0
-3407 3397 1075 895 0
-3409 3399 897 1077 0
-3411 3401 899 1079 0
1080 -3402 3412 900 0
-1080 3412 -3402 0
-3411 3398 -398 3401 0
-3419 3409 907 1087 0
-3421 3411 1089 909 0
1090 -3412 3422 910 0
-1090 3422 -3412 0
-3414 -406 3403 3404 0
-3429 3419 917 1097 0
-3429 3419 -917 0
-3421 1099 3431 919 0
-3431 3421 1099 919 0
1100 -3422 3432 920 0
-1100 3432 -3422 0
-3431 -493 3420 3421 0
-3439 3429 927 1107 0
-3431 1109 929 3441 0
1110 -3432 3442 930 0
3442 -1110 -3432 0
-3439 -536 3431 0
-3441 -536 3431 3429 0
-3440 3431 -538 0
-3449 3439 -937 0
-3450 3440 938 1118 0
-3442 3452 1120 940 0
3452 -1120 -3442 0
-3450 1128 3460 948 0
-3452 3462 1130 950 0
3462 -1130 -3452 0
-3460 1138 3470 958 0
-3460 -1138 3470 0
-3462 3472 1140 960 0
-3470 1148 3480 968 0
-3472 3482 1150 970 0
3481 -765 -3492 3482 0
3492 1170 990 0
3491 3492 -810 0
3493 811 991 0
-3494 812 992 0
-3495 813 993 0
-3495 -813 0
-3496 814 994 0
-3496 -814 0
-3497 815 995 0
-3497 -815 0
-3498 816 996 0
-816 -3498 0
-3499 817 997 0
-3500 818 998 0
-3500 -818 0
-3501 999 819 0
3502 1000 820 0
-3496 -18 0
-3497 -19 0
-3498 -20 0
-3500 -22 0
-3501 -23 0
-3497 -25 0
-3498 -26 0
-3500 -28 0
-3501 -29 0
-3498 -31 0
-3500 -33 0
-3501 -34 0
-3498 -37 0
-3500 -37 0
-3498 -38 0
-3501 -38 0
-3501 -43 0
3503 821 1001 -3493 0
-3504 822 1002 3494 0
-3504 -822 3494 0
823 -3505 1003 3495 0
-823 -3505 3495 0
-3506 824 3496 1004 0
-824 -3506 3496 0
-3507 825 1005 3497 0
-3507 -825 3497 0
-3508 826 3498 1006 0
-826 -3508 3498 0
-3509 827 3499 1007 0
-3510 1008 3500 828 0
-828 -3510 3500 0
-3511 1009 829 3501 0
1010 3512 830 -3502 0
-63 -3506 3496 3495 0
-64 -3507 3495 3497 0
-65 -3508 3495 3498 0
-67 -3510 3495 3500 0
-68 -3511 3495 3501 0
-70 -3507 3496 3497 0
-71 -3508 3498 3496 0
-73 -3510 3496 3500 0
-74 -3511 3496 3501 0
-76 -3508 3498 3497 0
-78 -3510 3497 3500 0
-79 -3511 3501 3497 0
-82 -3510 3500 3498 0
-83 -3511 3501 3498 0
-88 -3511 3501 3500 0
831 3513 -3503 1011 0
-3514 3504 1012 832 0
-3514 -832 3504 0
-3515 3505 1013 833 0
-833 -3515 3505 0
-3516 3506 1014 834 0
-834 -3516 3506 0
-3517 3507 1015 835 0
-835 -3517 3507 0
-3518 3508 1016 836 0
-836 -3518 3508 0
-3519 3509 837 1017 0
-3519 -837 3509 0
-3520 3510 1018 838 0
-3520 -838 3510 0
-3521 3511 839 1019 0
1020 -3512 3522 840 0
-92 3505 -3513 0
3515 -92 -3503 0
3506 -93 -3513 0
3516 -93 -3503 0
-94 3507 -3513 0
3517 -94 -3503 0
-95 -3513 3508 0
3518 -95 -3503 0
-108 -3516 3505 3506 0
-109 -3515 3507 0
-109 -3517 3507 3505 0
-110 -3518 3508 3505 0
-112 -3520 3505 3510 0
-3521 -113 3511 3505 0
-115 -3517 3506 3507 0
-116 -3518 3506 3508 0
-118 -3520 3506 3510 0
-3521 -119 3506 3511 0
-121 -3517 3508 0
-121 -3518 3507 3508 0
-123 -3520 3507 3510 0
-3521 -124 3511 3507 0
-127 -3520 3510 3508 0
-3521 -128 3508 3511 0
-3519 -131 3511 0
-3521 -131 3511 3509 0
-3521 3511 3510 -133 0
841 -3513 3523 1021 0
-3524 3514 1022 842 0
-3515 3525 843 1023 0
-3525 3515 843 1023 0
-3525 3515 -843 0
-3516 3526 844 1024 0
-3526 3516 1024 844 0
-3526 -844 3516 0
-1024 -3516 3526 0
-3517 3527 845 1025 0
-3527 3517 845 1025 0
-3527 -845 3517 0
-1025 3527 -3517 0
3528 -3518 846 1026 0
-3528 3518 1026 846 0
-3528 -846 3518 0
-1026 3528 -3518 0
-3529 3519 847 1027 0
-3529 -847 3519 0
-3530 1028 3520 848 0
-3530 -848 3520 0
-3531 3521 1029 849 0
1030 -3522 3532 850 0
-3523 3514 -136 0
3524 -136 -3513 0
-3524 -136 3513 3514 0
3515 -137 -3523 0
-137 3525 -3513 0
-138 3516 -3523 0
-138 3526 -3513 0
-139 -3523 3517 0
-139 3527 -3513 0
3518 -140 -3523 0
-140 3528 -3513 0
-153 -3515 3526 0
-153 -3526 3515 3516 0
-154 -3515 3527 0
-3527 -154 3515 3517 0
-155 -3515 3528 0
-3528 -155 3515 3518 0
-3530 3515 3520 -157 0
-3531 3515 -158 3521 0
-160 -3516 3527 0
-160 -3527 3516 3517 0
-161 -3516 3528 0
-161 -3528 3516 3518 0
-3526 -162 3519 0
-3530 -163 3516 3520 0
-3531 -164 3516 3521 0
-166 3528 -3517 0
-3528 -166 3518 3517 0
-3527 -167 3519 0
-3530 -168 3520 3517 0
-169 -3527 3521 0
-169 -3531 3521 3517 0
-3528 -171 3519 0
-3528 -172 3520 0
-3530 -172 3518 3520 0
-3528 -173 3521 0
-3531 -173 3518 3521 0
-3530 -175 3520 3519 0
-3531 3521 -176 3519 0
-3531 3521 -178 3520 0
851 -3523 3533 1031 0
851 -3533 3523 1031 0
-851 -3533 3523 0
-3524 3534 852 1032 0
-3534 3524 852 1032 0
-852 -3534 3524 0
-3525 3535 853 1033 0
-3535 3525 853 1033 0
-3535 3525 -853 0
-3525 3535 -1033 0
-3526 3536 854 1034 0
-3536 3526 854 1034 0
-3536 -854 3526 0
-3526 3536 -1034 0
-3527 3537 855 1035 0
-3537 3527 855 1035 0
-3537 -855 3527 0
-3527 -1035 3537 0
-3528 3538 856 1036 0
-3538 3528 856 1036 0
-3538 3528 -856 0
-3528 -1036 3538 0
-3539 3529 1037 857 0
-3539 -857 3529 0
-3530 3540 858 1038 0
-3540 3530 1038 858 0
-3540 3530 -858 0
3531 -3541 859 1039 0
1040 -3532 3542 860 0
3524 -181 -3533 0
3534 -181 -3523 0
-3534 -181 3523 3524 0
3525 -182 -3533 0
3535 -182 -3523 0
3526 -183 -3533 0
3536 -183 -3523 0
-184 3527 -3533 0
-184 3537 -3523 0
-185 3528 -3533 0
3538 -185 -3523 0
-3538 -193 3524 3528 0
-3540 -195 3524 3530 0
-3536 -198 3525 3526 0
-3537 -199 3527 3525 0
-200 -3538 3528 3525 0
-202 -3540 3525 3530 0
-203 3531 -3541 3525 0
-205 -3526 3537 0
-205 -3537 3526 3527 0
-206 -3538 3528 3526 0
-3540 -208 3526 3530 0
-209 3531 -3541 3526 0
-211 -3527 3538 0
-211 -3538 3528 3527 0
-3540 -213 3530 3527 0
-214 3531 -3541 3527 0
-3538 -217 3530 0
-3540 -217 3528 3530 0
3531 -218 -3541 3528 0
-220 -3540 3530 3529 0
3531 -3541 -221 3529 0
-3540 3531 -223 0
3530 -3541 -223 3531 0
861 3543 -3533 1041 0
-3534 3544 862 1042 0
-3544 3534 1042 862 0
-3544 3534 -862 0
-3535 3545 863 1043 0
-3545 3535 863 1043 0
-3545 -863 3535 0
-3536 3546 864 1044 0
-3546 3536 864 1044 0
-3546 -864 3536 0
-1044 -3536 3546 0
-3537 3547 1045 865 0
-3547 3537 865 1045 0
-3547 -865 3537 0
-3537 3547 -1045 0
-3538 3548 1046 866 0
-3548 3538 1046 866 0
-3548 3538 -866 0
-3538 -1046 3548 0
-3549 1047 3539 867 0
-3549 -867 3539 0
-3540 3550 868 1048 0
-3550 3540 1048 868 0
-868 -3550 3540 0
3541 -3551 869 1049 0
1050 -3542 3552 870 0
3544 -226 -3533 0
-3544 -226 3533 3534 0
-227 3535 -3543 0
-227 3545 -3533 0
-228 3546 -3533 0
3547 -229 -3533 0
-230 3548 -3533 0
-236 -3546 3534 3536 0
-238 -3548 3534 3538 0
-3550 -240 3534 3540 0
-243 -3545 3536 0
-3548 -245 3535 3538 0
-247 -3535 3550 0
-247 -3550 3535 3540 0
-248 3541 3535 -3551 0
-250 -3536 3547 0
-251 -3548 3536 3538 0
-253 -3536 3550 0
-253 -3550 3536 3540 0
-254 -3551 3536 3541 0
-3548 -256 3538 3537 0
-258 -3550 3540 3537 0
-259 3541 3537 -3551 0
-3548 3540 -262 0
-3538 3550 -262 0
-3550 3538 -262 3540 0
-3548 -263 3541 0
-263 -3551 3538 3541 0
-265 -3550 3540 3539 0
-3549 3541 -266 0
3541 -266 3539 -3551 0
-268 -3550 3541 0
-268 -3551 3540 3541 0
871 -3543 3553 1051 0
871 -3553 3543 1051 0
-3544 3554 1052 872 0
-3554 3544 1052 872 0
-3544 3554 -1052 0
-3545 3555 873 1053 0
-3555 3545 1053 873 0
-3555 3545 -873 0
-3545 -1053 3555 0
-3546 3556 874 1054 0
-3546 -1054 3556 0
-3547 3557 875 1055 0
-3557 3547 875 1055 0
-3557 -875 3547 0
-3547 -1055 3557 0
-3548 3558 1056 876 0
-3558 3548 1056 876 0
-3558 3548 -876 0
-3548 3558 -1056 0
-3549 3559 1057 877 0
-3559 1057 3549 877 0
-3559 3549 -877 0
-3550 3560 878 1058 0
3550 -3560 878 1058 0
3550 -3560 -878 0
-3550 3560 -1058 0
-3551 3561 1059 879 0
3551 -3561 1059 879 0
1060 -3552 3562 880 0
3554 -271 -3543 0
-3543 3555 -272 0
-273 -3543 3556 0
-274 3557 -3543 0
-275 -3543 3558 0
-3544 -280 3555 0
-3544 -281 3556 0
-282 -3544 3557 0
-282 -3557 3547 3544 0
-283 -3544 3558 0
-283 -3558 3544 3548 0
-285 -3544 3560 0
-285 -3560 3544 3550 0
-286 3551 -3561 3544 0
-288 -3545 3556 0
-289 -3555 3547 0
-289 -3545 3557 0
-3545 3558 -290 0
-3558 3548 -290 3545 0
-292 -3545 3560 0
-3546 3558 -296 0
-3558 3546 -296 3548 0
-298 -3546 3560 0
-301 -3547 3558 0
-301 -3558 3548 3547 0
-303 -3547 3560 0
-303 -3560 3550 3547 0
3551 -304 3547 -3561 0
-3558 3550 -307 0
-3548 3560 -307 0
-3560 3550 -307 3548 0
-308 3551 -3558 0
-308 3551 -3561 3548 0
-310 -3560 3550 3549 0
3551 -311 3549 -3561 0
3551 3550 -313 -3561 0
881 3563 -3553 1061 0
-3554 3564 882 1062 0
-3564 3554 882 1062 0
-3555 3565 1063 883 0
-3565 3555 883 1063 0
-3565 -883 3555 0
-3555 3565 -1063 0
-3556 3566 884 1064 0
-1064 -3556 3566 0
-3557 3567 885 1065 0
-3567 3557 1065 885 0
-885 -3567 3557 0
-3557 3567 -1065 0
-3558 3568 886 1066 0
-3568 3558 886 1066 0
-886 -3568 3558 0
-1066 -3558 3568 0
-3559 3569 1067 887 0
-3569 1067 3559 887 0
-3569 -887 3559 0
-3560 3570 888 1068 0
-3570 3560 1068 888 0
-3570 3560 -888 0
-3560 3570 -1068 0
3561 -3571 889 1069 0
3561 -3571 -889 0
1070 -3562 3572 890 0
3564 -316 -3553 0
-317 3565 -3553 0
-318 3566 -3553 0
-319 3567 -3553 0
-320 3568 -3553 0
-333 -3555 3566 0
-3555 3567 -334 0
-335 -3555 3568 0
-336 -3555 3569 0
-3569 -336 3555 3559 0
-337 -3555 3570 0
-338 -3571 3555 3561 0
-340 -3556 3567 0
-341 -3556 3568 0
-342 -3556 3569 0
-343 -3556 3570 0
-346 -3557 3568 0
-346 -3568 3558 3557 0
-3557 -347 3569 0
-348 -3557 3570 0
-348 -3570 3560 3557 0
-3557 -349 3571 0
-349 -3571 3557 3561 0
-351 -3558 3569 0
-351 -3569 3558 3559 0
-352 -3558 3570 0
-352 -3570 3558 3560 0
-353 3561 -3568 0
-353 3571 -3558 0
-353 -3571 3558 3561 0
3561 -356 -3571 3559 0
-3570 -358 3561 0
-358 3561 3560 -3571 0
891 -3563 3573 1071 0
-3564 3574 892 1072 0
-3574 3564 1072 892 0
-3565 3575 893 1073 0
-3565 3575 -1073 0
-3566 3576 894 1074 0
-1074 -3566 3576 0
-3567 3577 895 1075 0
-3577 3567 1075 895 0
-3567 3577 -1075 0
-3568 3578 896 1076 0
-3578 3568 1076 896 0
-3578 -896 3568 0
-1076 -3568 3578 0
-3569 3579 897 1077 0
-3579 3569 897 1077 0
-3579 3569 -897 0
-3569 3579 -1077 0
-3570 3580 898 1078 0
-3580 3570 898 1078 0
-3580 3570 -898 0
-3570 3580 -1078 0
3571 -3581 899 1079 0
3571 -3581 -899 0
3581 -3571 -1079 0
1080 -3572 3582 900 0
-3563 3575 -362 0
-363 -3563 3576 0
-3563 -364 3577 0
-3563 -365 3578 0
-378 -3565 3576 0
-379 -3565 3577 0
-380 -3565 3578 0
-381 -3565 3579 0
-382 -3565 3580 0
-385 -3566 3577 0
-386 -3566 3578 0
-387 -3566 3579 0
-388 -3566 3580 0
-391 -3567 3578 0
-3567 -392 3579 0
-393 -3567 3580 0
-393 -3580 3567 3570 0
-396 -3568 3579 0
-397 -3568 3580 0
3571 -3578 -398 0
-3581 3568 -398 3571 0
-400 -3580 3570 3569 0
3571 -3581 -401 3569 0
3571 3570 -403 -3581 0
901 -3573 3583 1081 0
-3574 3584 902 1082 0
-3575 3585 903 1083 0
-3575 3585 -1083 0
-3576 3586 904 1084 0
-3576 -1084 3586 0
-3577 3587 905 1085 0
-3587 3577 905 1085 0
-3577 3587 -1085 0
-3578 3588 906 1086 0
-3588 3578 906 1086 0
-3588 3578 -906 0
-1086 -3578 3588 0
-3579 3589 1087 907 0
-3589 3579 1087 907 0
-3589 3579 -907 0
-3579 3589 -1087 0
-3580 3590 908 1088 0
-3590 3580 1088 908 0
-3590 3580 -908 0
-3580 3590 -1088 0
-3581 3591 909 1089 0
3581 -3591 1089 909 0
3581 -909 -3591 0
3591 -3581 -1089 0
1090 -3582 3592 910 0
-407 3585 -3573 0
-408 3586 -3573 0
3587 -409 -3573 0
-410 3588 -3573 0
-3574 3585 -415 0
-416 -3574 3586 0
-3574 -417 3587 0
-418 -3574 3588 0
-420 -3574 3590 0
-3575 3586 -423 0
-424 -3575 3587 0
-425 -3575 3588 0
-426 -3575 3589 0
-427 -3575 3590 0
-430 -3576 3587 0
-3576 -431 3588 0
-432 -3576 3589 0
-3576 -433 3590 0
-436 -3587 3578 0
-436 -3577 3588 0
-437 -3577 3589 0
-438 -3577 3590 0
-3578 -441 3589 0
-442 -3578 3590 0
3581 -3591 -443 3578 0
-3579 3590 -445 0
-3590 3580 -445 3579 0
3581 -446 3579 -3591 0
-3590 3581 -448 0
3581 3580 -448 -3591 0
-3581 3591 -450 -3582 0
911 -3583 3593 1091 0
-3584 3594 912 1092 0
-3585 3595 1093 913 0
-3585 3595 -1093 0
-3586 3596 1094 914 0
-3596 3586 914 1094 0
-3586 -1094 3596 0
-3587 3597 1095 915 0
-3597 3587 1095 915 0
-3587 3597 -1095 0
-3588 3598 1096 916 0
-3598 3588 1096 916 0
-1096 -3588 3598 0
-3589 3599 917 1097 0
-3599 3589 917 1097 0
-3599 3589 -917 0
-3589 3599 -1097 0
-3590 3600 1098 918 0
-3600 3590 1098 918 0
-3590 3600 -1098 0
3601 -3591 1099 919 0
3591 -3601 1099 919 0
3591 -3601 -919 0
1100 -3592 3602 920 0
-451 3594 -3583 0
3595 -452 -3583 0
-453 3596 -3583 0
3597 -454 -3583 0
-455 3598 -3583 0
-3584 3595 -460 0
-3585 -468 3596 0
-3585 -469 3597 0
-3585 -470 3598 0
-3585 -471 3599 0
-472 -3585 3600 0
-475 -3586 3597 0
-476 -3586 3598 0
-477 -3586 3599 0
-478 -3586 -3590 3596 0
-478 -3586 3600 0
-481 -3587 3598 0
-482 -3587 3599 0
-3587 3600 -483 0
-3600 3587 -483 3590 0
-3588 -486 3599 0
-487 -3598 3590 0
-487 -3588 3600 0
-487 -3600 3590 3588 0
3588 3591 -488 -3601 0
-3599 3590 -490 0
3591 3589 -491 -3601 0
-3590 -3591 -493 3600 0
3591 3590 -493 -3601 0
3601 -3591 -495 -3592 0
921 -3593 3603 1101 0
-3594 3604 922 1102 0
-3595 3605 1103 923 0
-3595 3605 -1103 0
-3596 3606 924 1104 0
-3596 3606 -1104 0
-3597 3607 1105 925 0
-1105 -3597 3607 0
-3598 3608 926 1106 0
-3608 3598 926 1106 0
-3598 -1106 3608 0
-3599 3609 927 1107 0
-3609 3599 927 1107 0
-3609 3599 -927 0
-3599 3609 -1107 0
-3600 3610 928 1108 0
-3610 3600 1108 928 0
-3600 3610 -1108 0
3601 -3611 1109 929 0
3601 -3611 -929 0
3611 -3601 -1109 0
1110 -3602 3612 930 0
-513 -3595 3606 0
-514 -3595 3607 0
-3595 -515 3608 0
-3595 -516 3609 0
-517 -3595 3610 0
-520 -3596 3607 0
-521 -3596 3608 0
-522 -3596 3609 0
-523 -3596 3610 0
-3597 3608 -526 0
-3597 -527 3609 0
-3597 -528 3610 0
3601 -529 3597 -3611 0
-531 -3598 3609 0
-3598 3610 -532 0
-533 3598 3601 -3611 0
3601 -3611 -536 3599 0
-3601 -3600 -538 3610 0
3600 3601 -538 -3611 0
3611 -3601 -540 -3602 0
-3604 3614 1112 932 0
-3605 3615 1113 933 0
-3605 -1113 3615 0
-3606 3616 934 1114 0
-3606 -1114 3616 0
-3607 3617 1115 935 0
-1115 -3607 3617 0
-3608 3618 1116 936 0
-3618 3608 1116 936 0
-1116 -3608 3618 0
-3609 3619 937 1117 0
-3619 3609 937 1117 0
-3619 3609 -937 0
-3609 3619 -1117 0
-3610 3620 938 1118 0
-3620 3610 938 1118 0
-3610 -1118 3620 0
3611 -3621 939 1119 0
3611 -3621 -939 0
-3612 3622 1120 940 0
-558 -3605 3616 0
-559 -3605 3617 0
-560 -3605 3618 0
-561 -3605 3619 0
-562 -3605 3620 0
-565 -3606 3617 0
-566 -3606 3618 0
-567 -3606 3619 0
-568 -3606 3620 0
-3607 -571 3618 0
-572 -3607 3619 0
-573 -3607 3620 0
-3608 -576 3619 0
-3619 -576 3608 3609 0
-577 -3608 3620 0
3611 -3621 -581 3609 0
-3610 -3611 -583 3620 0
3611 3610 -583 -3621 0
-3614 3624 942 1122 0
-3615 3625 1123 943 0
-3616 3626 1124 944 0
-3616 -1124 3626 0
-3617 3627 945 1125 0
-3627 3617 1125 945 0
-3617 -1125 3627 0
-3618 3628 946 1126 0
-3628 3618 1126 946 0
-3618 -1126 3628 0
-3619 3629 947 1127 0
-3629 3619 1127 947 0
-3629 3619 -947 0
-3619 3629 -1127 0
-3620 3630 948 1128 0
-3630 3620 1128 948 0
-3620 -1128 3630 0
3621 -949 -3631 0
-3615 -603 3626 0
-3615 -604 3627 0
-3615 -605 3628 0
-3615 -606 3629 0
-3616 -610 3627 0
-611 -3616 3628 0
-612 -3616 3629 0
-613 -3616 3630 0
-616 -3617 3628 0
-617 -3617 3629 0
-3617 -618 3630 0
-3618 3629 -621 0
-3618 -622 3630 0
3621 -3631 -626 3619 0
3621 -628 3620 -3631 0
-3625 953 3635 1133 0
-3626 954 3636 1134 0
-3627 955 3637 1135 0
-3627 -1135 3637 0
-3628 956 3638 1136 0
-3628 -1136 3638 0
-3629 1137 3639 957 0
-3629 -1137 3639 0
-3630 1138 3640 958 0
-3630 -1138 3640 0
3631 -3641 959 1139 0
-3625 -648 3636 0
-3626 -655 3637 0
-3627 -661 3638 0
-3628 -666 3639 0
-667 -3628 3640 0
-3629 -670 3640 0
3631 3629 -671 -3641 0
3631 -673 3630 -3641 0
-3638 1146 3648 966 0
-3639 1147 3649 967 0
-3640 1148 3650 968 0
-3649 1157 3659 977 0
-3650 1158 978 3660 0
3665 813 993 0
-3666 814 994 0
-3667 815 995 0
-3667 -815 0
-3668 816 996 0
-3669 817 997 0
-3670 818 998 0
-3670 -818 0
-3671 999 819 0
3672 1000 820 0
-3665 -18 0
3666 -18 0
-3665 -20 0
-3667 -25 0
-3668 -26 0
-3667 -31 0
-3668 -31 0
-3667 -33 0
-3670 -33 0
-3668 -37 0
-3671 -43 0
3675 823 -3665 1003 0
-3675 3665 1003 823 0
-3666 3676 824 1004 0
-3677 825 1005 3667 0
-3678 826 3668 1006 0
-3678 -826 3668 0
-3679 827 3669 1007 0
-3680 1008 3670 828 0
-3680 -828 3670 0
-3681 1009 829 3671 0
1010 3682 830 -3672 0
-3675 -64 3667 0
-64 3677 -3665 0
-67 3680 -3665 0
-3676 -70 3667 0
-3677 -70 3666 3667 0
-3678 -76 3668 3667 0
-3680 -78 3670 3667 0
-3678 -82 3670 0
-3681 -83 3668 3671 0
-3680 -88 3671 0
-3681 -88 3671 3670 0
3685 -3675 833 1013 0
-3685 -833 3675 0
3686 -3676 1014 834 0
-3677 3687 835 1015 0
-3687 3677 835 1015 0
-3688 836 3678 1016 0
-3689 3679 837 1017 0
-3689 -837 3679 0
-3680 3690 838 1018 0
-3690 3680 1018 838 0
-3691 3681 839 1019 0
1020 -3682 3692 840 0
-108 -3685 3676 0
3686 -108 -3675 0
-109 3687 -3675 0
-3691 -128 3681 3678 0
-3691 -131 3681 3679 0
-3685 3695 843 1023 0
-3687 3697 845 1025 0
-3697 3687 845 1025 0
-3699 3689 847 1027 0
-3700 1028 3690 848 0
-3701 3691 1029 849 0
1030 -3692 3702 850 0
-3695 -153 3686 0
-154 -3685 3697 0
-155 -3685 3698 0
-3700 -175 3690 3689 0
-3701 3691 -176 3689 0
-3695 3705 853 1033 0
-3697 3707 855 1035 0
-3707 3697 1035 855 0
-3698 3708 856 1036 0
-3709 3699 1037 857 0
-3710 3700 1038 858 0
3701 -3711 859 1039 0
1040 -3702 3712 860 0
3701 -3711 -221 3699 0
-3705 3715 863 1043 0
-1043 -3705 3715 0
-3707 3717 865 1045 0
-3717 3707 865 1045 0
-3708 3718 866 1046 0
-3719 1047 3709 867 0
-3720 3710 868 1048 0
3711 -3721 869 1049 0
1050 -3712 3722 870 0
-263 -3721 3708 3711 0
3711 -266 3709 -3721 0
-3715 3725 873 1053 0
-3715 -1053 3725 0
-3717 3727 875 1055 0
-3727 3717 875 1055 0
-3718 3728 876 1056 0
-3729 1057 3719 877 0
-3730 3720 878 1058 0
3721 -3731 1059 879 0
1060 -3722 3732 880 0
-3730 -303 3720 3717 0
3721 -3731 -311 3719 0
-3725 3735 1063 883 0
-3739 1067 3729 887 0
-3739 -887 3729 0
-3740 3730 1068 888 0
3731 -3741 1069 889 0
3731 -3741 -889 0
1070 -3732 3742 890 0
-348 -3740 3730 3727 0
-353 -3741 3728 3731 0
3731 -356 -3741 3729 0
-3735 3745 893 1073 0
-3749 3739 897 1077 0
3741 -3751 899 1079 0
3741 -3751 -899 0
1080 -3742 3752 900 0
3740 3741 -403 -3751 0
-3745 3755 1083 903 0
-3759 3749 1087 907 0
3751 -3761 1089 909 0
1090 -3752 3762 910 0
3751 -446 3749 -3761 0
-3769 3759 917 1097 0
-3769 3759 -917 0
3761 -3771 1099 919 0
1100 -3762 3772 920 0
3761 3759 -491 -3771 0
-3779 3769 927 1107 0
3771 -3781 929 1109 0
3771 -3781 -929 0
1110 -3772 3782 930 0
-3789 3779 -937 0
3781 -3791 939 1119 0
-3782 3792 1120 940 0
3781 -3791 -581 3779 0
-3799 3789 1127 947 0
3791 -3801 1129 949 0
-3801 3791 -949 0
-3795 -648 3806 0
-3798 -666 3809 0
3801 3799 -671 -3811 0
-3809 1147 3819 967 0
-3819 1157 3829 977 0
-3835 -813 0
3837 815 995 0
3837 -995 0
-3838 816 996 0
-3839 817 997 0
-3840 818 998 0
-3840 -818 0
-3841 999 819 0
3842 1000 820 0
-3835 -18 0
-3837 -31 0
-3837 -33 0
-3837 -34 0
3841 -34 0
-3838 -37 0
-3845 3835 1003 823 0
3847 825 -3837 1005 0
-3847 3837 1005 825 0
-3848 -826 3838 0
-3849 827 3839 1007 0
-3850 -828 3840 0
-3851 1009 829 3841 0
3851 -3841 -1009 0
1010 3852 830 -3842 0
-3845 -64 3837 0
-3846 -70 3837 0
3851 -79 -3837 0
-3848 -82 3840 0
-3850 -88 3841 0
-3855 -833 3845 0
-3856 3846 834 1014 0
3857 -3847 835 1015 0
-3859 3849 837 1017 0
3861 -3851 839 1019 0
-3861 3851 839 1019 0
3861 -3851 -1019 0
1020 -3852 3862 840 0
-3855 -108 3846 0
-3857 3867 845 1025 0
-3869 3859 847 1027 0
3871 -3861 849 1029 0
1030 -3862 3872 850 0
-3865 -153 3856 0
-3867 3877 855 1035 0
-3879 3869 1037 857 0
3881 -3871 859 1039 0
1040 -3872 3882 860 0
-3877 3887 865 1045 0
-3889 1047 3879 867 0
3891 -3881 869 1049 0
1050 -3882 3892 870 0
3890 -258 -3877 0
-3877 -259 3891 0
-3887 3897 875 1055 0
-3899 1057 3889 877 0
-3890 3900 878 1058 0
3901 -3891 879 1059 0
1060 -3892 3902 880 0
-3887 -301 3898 0
-3887 -303 3900 0
-3887 -304 3901 0
-3909 1067 3899 887 0
-3900 3910 1068 888 0
3911 -3901 889 1069 0
1070 -3902 3912 890 0
-3897 -346 3908 0
-3897 -348 3910 0
-3898 -353 3911 0
-3919 3909 897 1077 0
-3910 3920 898 1078 0
3921 -3911 899 1079 0
1080 -3912 3922 900 0
-3908 3921 -398 0
-3929 3919 907 1087 0
-3929 3919 -907 0
-3920 3930 908 1088 0
-3920 3930 -1088 0
3931 -3921 909 1089 0
3931 -3921 -1089 0
1090 -3922 3932 910 0
-3939 3929 917 1097 0
-3939 3929 -917 0
-3930 3940 1098 918 0
3941 -3931 919 1099 0
3941 -3931 -1099 0
1100 -3932 3942 920 0
3931 -3941 -491 3929 0
-3949 3939 927 1107 0
-3949 3939 -927 0
-3940 3950 928 1108 0
3951 -3941 929 1109 0
3941 -3951 -929 0
3951 -3941 -1109 0
1110 -3942 3952 930 0
3941 -3951 3939 -536 0
-3959 3949 937 1117 0
-3959 3949 -937 0
-3950 3960 938 1118 0
3951 -3961 939 1119 0
3951 -3961 -939 0
-3952 3962 1120 940 0
3951 -3961 -581 3949 0
3961 -3951 -585 -3952 0
-3969 3959 1127 947 0
3961 -949 -3971 0
3961 -3971 -626 3959 0
3971 -3981 959 1139 0
-3965 -648 3976 0
-3968 -666 3979 0
3971 3969 -671 -3981 0
-3979 1147 3989 967 0
-3989 1157 3999 977 0
4003 811 991 0
-4005 -813 0
4007 815 995 0
-4008 816 996 0
-4008 -816 0
-4009 817 997 0
-4010 818 998 0
-4010 -818 0
-4011 999 819 0
-4005 -18 0
-4008 -20 0
-4011 -23 0
-4008 -26 0
-4011 -29 0
-4007 -31 0
-4007 -33 0
-4007 -34 0
4011 -34 0
-4010 -37 0
-4011 -38 0
-4011 -43 0
4013 821 1001 -4003 0
-4015 4005 1003 823 0
4017 825 -4007 1005 0
-4017 4007 1005 825 0
-4018 826 4008 1006 0
-826 -4018 4008 0
-4019 827 4009 1007 0
-4020 1008 4010 828 0
-828 -4020 4010 0
-4021 1009 829 4011 0
4021 -4011 -1009 0
-64 -4015 4007 0
-70 4007 -4016 0
-82 -4018 4010 0
-88 -4020 4011 0
-88 -4021 4010 4011 0
4023 831 -4013 1011 0
-833 -4025 4015 0
4016 -4026 1014 834 0
4027 -4017 835 1015 0
-4028 4018 1016 836 0
-4029 4019 837 1017 0
-4030 4020 1018 838 0
-4031 4021 839 1019 0
4031 -4021 -1019 0
-108 4016 -4025 0
841 -4023 4033 1021 0
4037 -4027 845 1025 0
-4038 4028 1026 846 0
-4039 4029 847 1027 0
-4040 1028 4030 848 0
-4041 4031 1029 849 0
4035 -137 -4023 0
4036 -138 -4023 0
4038 -140 -4023 0
-4035 -153 4026 0
851 -4033 4043 1031 0
4045 -4035 853 1033 0
4046 -4036 854 1034 0
4047 -4037 1035 855 0
4048 -4038 856 1036 0
-4049 4039 1037 857 0
-4050 4040 858 1038 0
4041 -4051 859 1039 0
4045 -182 -4033 0
4046 -183 -4033 0
4048 -185 -4033 0
4038 -218 -4051 4041 0
4040 -4051 -223 4041 0
4055 -4045 863 1043 0
4055 -1043 -4045 0
4056 -4046 864 1044 0
4056 -1044 -4046 0
4057 -4047 865 1045 0
4058 -4048 866 1046 0
4058 -4048 -1046 0
-4059 1047 4049 867 0
-4060 4050 868 1048 0
4051 -4061 869 1049 0
4058 -230 -4043 0
-243 4056 -4045 0
4058 -4045 -245 0
4058 -4046 -251 0
4067 -4057 875 1055 0
4068 -4058 876 1056 0
-4058 4068 -1056 0
-4069 1057 4059 877 0
-4070 4060 1058 878 0
4061 -4071 1059 879 0
4068 -4055 -290 0
4068 -4056 -296 0
4067 -4058 -301 -4057 0
-4070 4061 -313 0
4076 -4066 884 1064 0
4077 -4067 885 1065 0
-4079 1067 4069 887 0
-4080 4070 888 1068 0
4071 -4081 1069 889 0
4077 -346 -4067 -4068 0
-4080 4071 -358 0
4070 4071 -4081 -358 0
-4076 4086 1074 894 0
-4077 4087 895 1075 0
-4089 4079 897 1077 0
-4089 4079 -897 0
4080 -4090 1078 898 0
4081 -4091 1079 899 0
-4088 4081 -398 0
-4090 4081 -403 0
-4086 4096 904 1084 0
4097 -4087 905 1085 0
-4099 4089 1087 907 0
-4099 4089 -907 0
4090 -4100 1088 908 0
4091 -4101 1089 909 0
4088 4090 -442 -4100 0
-4100 4091 -448 0
-4096 4106 914 1094 0
-4097 4107 915 1095 0
-4109 4099 917 1097 0
-4109 4099 -917 0
4100 -4110 1098 918 0
4101 -4111 1099 919 0
-4110 4101 -493 0
-4106 4116 924 1104 0
-4107 4117 925 1105 0
-4119 4109 927 1107 0
-4119 4109 -927 0
4110 -4120 928 1108 0
4110 -4120 -535 4109 0
-4120 4111 -538 0
-4116 4126 1114 934 0
-4117 4127 1115 935 0
-4129 4119 937 1117 0
-4129 4119 -937 0
4120 -4130 1118 938 0
-4130 -580 4119 4120 0
-4126 4136 1124 944 0
-4127 4137 1125 945 0
-4139 4129 1127 947 0
-4139 4129 -947 0
4130 -4140 1128 948 0
4130 -4140 4129 -625 0
-4149 4139 -957 0
4140 958 -4150 1138 0
-4135 -648 4146 0
-4137 -661 4148 0
4140 4139 -4150 -670 0
-4148 1146 4158 966 0
4150 -715 4149 -4160 0
-4158 976 4168 1156 0
-4166 984 1164 0
-4168 1166 986 0
-4168 -801 0
-4178 816 996 0
-4179 817 997 0
-4180 818 998 0
-4180 -818 0
-4181 999 819 0
-4175 -18 0
-4175 -20 0
-4177 -31 0
-4177 -33 0
-4177 -34 0
4181 -34 0
-4178 -37 0
-4181 -38 0
-4185 4175 1003 823 0
-4187 4177 1005 825 0
-4188 -826 4178 0
-4189 827 4179 1007 0
-4191 1009 829 4181 0
4191 -4181 -1009 0
-64 -4185 4177 0
-4186 -70 4177 0
-4188 -82 4180 0
-4190 -88 4181 0
-4195 -833 4185 0
-4196 4186 834 1014 0
-4199 4189 837 1017 0
-4201 4191 839 1019 0
4201 -4191 -1019 0
-4195 -108 4186 0
-4209 4199 847 1027 0
-4211 4201 1029 849 0
-4205 -153 4196 0
-4219 4209 1037 857 0
4211 -4221 859 1039 0
-4229 1047 4219 867 0
4221 -4231 869 1049 0
-4239 1057 4229 877 0
4231 -4241 1059 879 0
-4249 1067 4239 887 0
4241 -4251 1069 889 0
-4259 4249 897 1077 0
4251 -4261 1079 899 0
-4269 4259 907 1087 0
4261 -4271 1089 909 0
-4279 4269 917 1097 0
-4280 4271 -493 0
-4289 4279 -927 0
4280 -4290 1108 928 0
-4299 4289 937 1117 0
4290 -4300 938 1118 0
-4309 4299 -947 0
4300 -4310 1128 948 0
-4305 -648 4316 0
-4307 -661 4318 0
4310 4309 -4320 -670 0
-4318 1146 4328 966 0
-4328 976 4338 1156 0
-4336 984 1164 0
-4338 1166 986 0
-4338 -801 0
-4347 -815 0
4348 816 996 0
4348 -996 0
-4350 -818 0
-4351 999 819 0
-4345 -18 0
-4347 -33 0
-4351 -34 0
-4348 -37 0
-4355 4345 823 1003 0
-4357 4347 1005 825 0
4358 826 -4348 1006 0
-4355 -64 4347 0
-4356 -70 4347 0
-82 4360 -4348 0
-4360 -88 4351 0
-4365 -833 4355 0
-4366 4356 834 1014 0
-4365 -108 4356 0
4371 -128 -4358 0
-4375 -153 4366 0
-4475 -648 4486 0
-4478 -666 4489 0
-4489 1147 4499 967 0
-4499 1157 4509 977 0
-4513 811 991 0
-4514 812 992 0
-4517 815 995 0
-4518 816 996 0
4519 817 997 0
-4520 818 998 0
-4520 -818 0
-4521 999 819 0
4522 1000 820 0
-4515 -18 0
-4517 -31 0
-4517 -33 0
-4517 -34 0
-4518 -37 0
-4523 821 1001 4513 0
-4524 822 1002 4514 0
-4525 4515 823 1003 0
-4527 825 1005 4517 0
-4528 -826 4518 0
4529 827 -4519 1007 0
-4530 -828 4520 0
-4531 1009 829 4521 0
1010 4532 830 -4522 0
-4525 -64 4517 0
-4526 -70 4517 0
-4528 -82 4520 0
-4530 -88 4521 0
-4533 831 4523 1011 0
-4534 4524 1012 832 0
-4535 -833 4525 0
-4536 4526 834 1014 0
-4537 4527 835 1015 0
4539 -4529 837 1017 0
-4530 4540 838 1018 0
-4540 4530 1018 838 0
-4541 4531 839 1019 0
1020 -4532 4542 840 0
-4535 -108 4526 0
4541 -131 -4529 0
841 -4543 4533 1021 0
-4544 4534 1022 842 0
-4547 4537 845 1025 0
4549 -4539 847 1027 0
-4540 4550 848 1028 0
-4541 4551 1029 849 0
4541 -4551 1029 849 0
1030 -4542 4552 850 0
-4545 -153 4536 0
4551 -176 -4539 0
-4553 4543 851 1031 0
-4554 4544 852 1032 0
4559 -4549 1037 857 0
-4550 4560 858 1038 0
4561 -4551 859 1039 0
1040 -4552 4562 860 0
-214 4547 -4561 4551 0
4561 -221 -4549 0
861 -4563 4553 1041 0
-4564 4554 1042 862 0
4569 1047 -4559 867 0
-4560 4570 868 1048 0
4571 -4561 869 1049 0
4561 -4571 1049 869 0
1050 -4562 4572 870 0
4571 -266 -4559 0
4571 -4561 -270 -4562 0
871 -4573 4563 1051 0
-4574 4564 1052 872 0
4579 1057 -4569 877 0
4579 -1057 -4569 0
-4570 4580 878 1058 0
4581 -4571 879 1059 0
4571 -4581 1059 879 0
4581 -4571 -1059 0
1060 -4572 4582 880 0
4581 -311 -4569 0
4571 4569 -311 -4581 0
4581 -315 -4571 -4572 0
881 -4583 4573 1061 0
-4584 4574 1062 882 0
4589 1067 -4579 887 0
-4580 4590 1068 888 0
4591 -4581 889 1069 0
4581 -4591 1069 889 0
4591 -1069 -4581 0
1070 -4582 4592 890 0
4591 -356 -4579 0
4581 -4591 4579 -356 0
4591 -360 -4582 -4581 0
891 -4593 4583 1071 0
-4594 4584 1072 892 0
4599 -4589 897 1077 0
4601 -4591 899 1079 0
4591 -4601 899 1079 0
4601 -4591 -1079 0
1080 -4592 4602 900 0
4602 -1080 -4592 0
-4595 4585 -362 4583 0
4601 -4589 -401 0
4591 4589 -401 -4601 0
-4590 4601 -403 0
901 -4603 4593 1081 0
-4604 4594 1082 902 0
-4605 4595 903 1083 0
-4608 4598 -906 0
4609 -4599 907 1087 0
4611 -4601 1089 909 0
4601 -4611 1089 909 0
4601 -909 -4611 0
1090 -4602 4612 910 0
-446 4611 -4599 0
4601 4599 -446 -4611 0
4601 -4611 -448 4600 0
4611 -4601 -450 -4602 0
-4613 -911 4603 0
-4614 4604 1092 912 0
4619 -4609 917 1097 0
-4611 4621 1099 919 0
-4611 4621 -1099 0
1100 -4612 4622 920 0
-4618 -455 4603 4608 0
4619 -4609 -491 -4611 0
4621 -4609 -491 0
4611 4609 -491 -4621 0
4610 -493 4611 -4621 0
4621 -4611 -495 -4612 0
-4628 4618 1106 926 0
4629 -4619 927 1107 0
-4621 4631 929 1109 0
-1109 4631 -4621 0
1110 -4622 4632 930 0
-4624 -496 4613 4614 0
-4619 -536 -4621 4629 0
-4619 -536 4631 0
4619 -536 4621 -4631 0
-4620 -538 4631 0
4620 -538 4621 -4631 0
4631 -540 -4622 -4621 0
4639 -4629 937 1117 0
4639 -4629 -1117 0
-4631 4641 939 1119 0
-4641 4631 939 1119 0
-4632 4642 1120 940 0
4639 -581 -4629 -4631 0
4641 -581 -4629 0
4629 -581 4631 -4641 0
4630 4631 -583 -4641 0
-4631 -585 4641 -4632 0
-4645 -943 4635 0
4649 -4639 1127 947 0
4649 -4639 -1127 0
4651 -4641 949 1129 0
-4642 4652 1130 950 0
-4641 4649 -626 -4639 0
4641 4639 -626 -4651 0
4651 -4641 -630 -4642 0
-4649 1137 4659 957 0
-4649 -1137 4659 0
4661 -4651 959 1139 0
4651 -4661 959 1139 0
-4652 4662 1140 960 0
-4644 -640 4655 0
-4648 -666 4659 0
-4649 -670 4660 0
-4649 -4651 -671 4659 0
4661 -4651 -675 -4652 0
-4659 1147 4669 967 0
-4660 1148 4670 968 0
4671 -4661 -720 -4662 0
-4669 1157 4679 977 0
-4670 1158 978 4680 0
4671 1159 -4681 979 0
-4669 -761 -4671 4679 0
4671 -761 4669 -4681 0
-4670 -763 -4671 4680 0
4671 -763 4670 -4681 0
4681 989 1169 0
-4679 -805 0
4683 811 991 0
-4685 -813 0
-4688 816 996 0
-4690 818 998 0
-4690 -818 0
-4691 999 819 0
-4685 -18 0
-4687 -31 0
-4687 -33 0
-4687 -34 0
-4688 -37 0
4693 821 1001 -4683 0
-4695 4685 1003 823 0
-4697 4687 1005 825 0
-826 -4698 4688 0
-828 -4700 4690 0
-4701 1009 829 4691 0
-64 -4695 4687 0
-70 4687 -4696 0
-4698 -82 4690 0
-88 -4700 4691 0
-833 -4705 4695 0
4696 -4706 1014 834 0
-4710 4700 1018 838 0
-4711 4701 839 1019 0
4706 -93 -4693 0
4696 -108 -4705 0
-4715 -153 4706 0
-4815 -648 4826 0
-4817 -661 4828 0
-4828 1146 4838 966 0
-4838 976 4848 1156 0
-4846 984 1164 0
-4848 1166 986 0
-4848 -801 0
-4858 816 996 0
4859 817 997 0
-4860 818 998 0
-4860 -818 0
-4861 999 819 0
4862 1000 820 0
-4855 -18 0
-4855 -20 0
4858 -20 0
-4857 -31 0
-4857 -33 0
-4857 -34 0
-4858 -37 0
-4865 4855 1003 823 0
-4867 4857 1005 825 0
-4868 -826 4858 0
4868 -1006 -4858 0
4869 827 -4859 1007 0
-4870 -828 4860 0
1010 4872 830 -4862 0
-4865 -64 4857 0
-4866 -70 4857 0
-4868 -82 4860 0
-4870 -88 4861 0
-4875 -833 4865 0
-4876 4866 834 1014 0
4879 -4869 837 1017 0
-4880 4870 1018 838 0
1020 -4872 4882 840 0
-4875 -108 4866 0
4881 -128 -4868 0
4889 -4879 847 1027 0
4891 -4881 1029 849 0
1030 -4882 4892 850 0
-4885 -153 4876 0
4899 -4889 1037 857 0
4901 -4891 859 1039 0
1040 -4892 4902 860 0
4909 1047 -4899 867 0
4911 -4901 869 1049 0
4911 -4901 -1049 0
1050 -4902 4912 870 0
4909 -266 -4901 -4899 0
4911 -266 -4899 0
4919 1057 -4909 877 0
4921 -4911 879 1059 0
4921 -4911 -1059 0
1060 -4912 4922 880 0
4931 -4921 889 1069 0
4931 -1069 -4921 0
1070 -4922 4932 890 0
4929 -4921 -4919 -356 0
4931 -356 -4919 0
4941 -4931 899 1079 0
1080 -4932 4942 900 0
4951 -4941 1089 909 0
4951 -4941 -1089 0
1090 -4942 4952 910 0
4961 -4951 919 1099 0
1100 -4952 4962 920 0
4971 -4961 929 1109 0
1110 -4962 4972 930 0
4981 -4971 939 1119 0
-4972 4982 1120 940 0
4991 -4981 949 1129 0
-4982 4992 1130 950 0
4991 -4981 -630 -4982 0
5001 -4991 959 1139 0
-4992 5002 1140 960 0
-4985 -648 4996 0
-4987 -661 4998 0
5001 -4991 -675 -4992 0
-4998 1146 5008 966 0
5011 -5001 -720 -5002 0
-5008 976 5018 1156 0
-5016 984 1164 0
-5018 1166 986 0
-5018 -801 0
-5025 813 993 0
-5025 -813 0
5026 814 994 0
-994 5026 0
-5028 816 996 0
-5030 818 998 0
-5030 -818 0
5027 -25 0
-5027 -31 0
-5027 -33 0
-5027 -34 0
-5031 -34 0
-5028 -37 0
-5035 823 1003 5025 0
5036 824 -5026 1004 0
-5037 5027 1005 825 0
-5038 826 5028 1006 0
-5038 -826 5028 0
-5040 -828 5030 0
-5036 -70 5027 0
-70 5037 -5026 0
-5037 -78 5030 0
-5038 -82 5030 0
-5041 -88 5031 5030 0
-5046 5036 1014 834 0
5046 -1014 -5036 0
5047 -5037 835 1015 0
-5050 5040 1018 838 0
-5045 -109 5037 0
-5055 5046 -153 0
-5155 -648 5166 0
-5157 -661 5168 0
-5168 1146 5178 966 0
-5178 976 5188 1156 0
-5186 984 1164 0
-5188 1166 986 0
-5188 -801 0
5195 813 993 0
5196 814 994 0
-5198 816 996 0
-5200 818 998 0
-5200 -818 0
-5201 999 819 0
5195 -18 0
5196 -18 0
-5195 -20 0
-5197 -31 0
-5197 -33 0
-5197 -34 0
-5198 -37 0
5205 823 -5195 1003 0
5206 824 -5196 1004 0
-5207 5197 1005 825 0
-5208 -826 5198 0
-5210 -828 5200 0
-70 5207 -5196 0
-5208 -82 5200 0
-5210 -88 5201 0
5216 -1014 -5206 0
5217 -5207 835 1015 0
-5220 5210 1018 838 0
5215 -109 -5207 -5205 0
5217 -109 -5205 0
5226 -153 -5215 0
-5325 -648 5336 0
-5327 -661 5338 0
-5338 1146 5348 966 0
-5348 976 5358 1156 0
-5349 5359 -1157 0
5349 -5358 -756 0
-5358 1166 986 0
-5356 -790 0
5360 -805 0
-5365 -813 0
5367 815 995 0
5367 -995 0
-5368 816 996 0
-5368 -816 0
5369 817 997 0
-5370 818 998 0
-5370 -818 0
-5371 999 819 0
5372 1000 820 0
-5365 -18 0
-5368 -20 0
-5368 -26 0
-5367 -31 0
5368 -31 0
-5367 -33 0
5370 -33 0
-5367 -34 0
5371 -34 0
5377 825 -5367 1005 0
-5377 5367 1005 825 0
5377 -1005 -5367 0
5378 -5368 1006 826 0
-5378 -826 5368 0
5378 -5368 -1006 0
5379 827 -5369 1007 0
-5370 5380 828 1008 0
-5380 -828 5370 0
-5381 1009 829 5371 0
5381 -1009 -5371 0
1010 5382 830 -5372 0
-5376 -70 5367 0
5378 -76 -5367 0
-5377 -78 5370 0
-5378 -82 5370 0
-5378 -83 5371 0
5381 -83 -5368 0
-5380 -88 5371 0
-5386 5376 834 1014 0
5387 -5377 835 1015 0
5387 -5377 -1015 0
5388 1016 -5378 836 0
5388 -1016 -5378 0
5389 -5379 837 1017 0
5390 -5380 838 1018 0
5391 -5381 839 1019 0
-5391 5381 839 1019 0
5391 -5381 -1019 0
1020 -5382 5392 840 0
-5385 -108 5376 0
-5385 -109 5377 0
5388 -121 -5377 0
5390 -123 -5377 0
5391 -124 -5377 0
-128 5391 -5378 0
5389 -5381 -131 -5379 0
5391 -131 -5379 0
5397 -5387 845 1025 0
5397 -1025 -5387 0
5398 -5388 1026 846 0
5399 -5389 847 1027 0
5400 -5390 848 1028 0
5401 -5391 1029 849 0
5391 -5401 1029 849 0
1030 -5392 5402 850 0
-5395 -153 5386 0
5398 -166 -5387 0
5400 -168 -5387 0
5401 -169 -5387 0
5401 -5388 -173 0
5388 -173 -5401 5391 0
5400 -175 -5389 0
5399 -5391 -176 -5389 0
5401 -176 -5389 0
5407 -5397 1035 855 0
5407 -5397 -1035 0
5408 -5398 856 1036 0
5409 -5399 1037 857 0
5410 -5400 1038 858 0
5411 -5401 859 1039 0
5401 -5411 1039 859 0
1040 -5402 5412 860 0
-5397 -211 5408 0
5410 -5397 -213 0
-5397 5411 -214 0
5411 -5398 -218 0
5410 -220 -5399 0
5401 -221 -5409 0
5409 -5401 -221 -5399 0
5411 -221 -5399 0
5417 -5407 865 1045 0
5417 -5407 -1045 0
5418 -5408 866 1046 0
5419 1047 -5409 867 0
5420 -5410 868 1048 0
5421 -5411 869 1049 0
5411 -5421 1049 869 0
1050 -5412 5422 870 0
5418 -5407 -256 0
5420 -258 -5407 0
-5407 -259 5421 0
-5408 5421 -263 0
5411 -263 -5421 5408 0
5420 -265 -5409 0
5419 -266 -5411 -5409 0
5421 -266 -5409 0
-5410 -268 5421 0
5427 -5417 875 1055 0
5427 -5417 -1055 0
5428 -5418 876 1056 0
5429 1057 -5419 877 0
5430 -5420 878 1058 0
5431 -5421 879 1059 0
5431 -5421 -1059 0
1060 -5422 5432 880 0
5428 -5417 -301 0
-5417 5430 -303 0
-5417 -304 5431 0
-5418 5431 -308 0
5418 -308 -5431 5421 0
5430 -310 -5419 0
5429 -5421 -5419 -311 0
5431 -311 -5419 0
-5420 5431 -313 0
5437 -5427 885 1065 0
5437 -5427 -1065 0
5438 -5428 886 1066 0
5439 1067 -5429 887 0
5439 -1067 -5429 0
5440 -5430 888 1068 0
5441 -5431 889 1069 0
1070 -5432 5442 890 0
-346 5438 -5427 0
5440 -5427 -348 0
5441 -349 -5427 0
-5428 -353 5441 0
5440 -355 -5429 0
5439 -5431 -5429 -356 0
5441 -356 -5429 0
5448 -5438 896 1076 0
5449 -5439 897 1077 0
5450 -5440 898 1078 0
5450 -5440 -1078 0
5451 -5441 899 1079 0
1080 -5442 5452 900 0
5448 -391 -5437 0
-5437 -393 5450 0
5451 -5437 -394 0
-5438 5451 -398 0
5450 -400 -5439 0
5449 -5441 -401 -5439 0
5451 -5439 -401 0
5451 -5440 -403 0
5451 -5441 -405 -5442 0
-5448 5458 906 1086 0
5459 -5449 907 1087 0
5460 -5450 908 1088 0
5461 -5451 1089 909 0
5461 -5451 -1089 0
1090 -5452 5462 910 0
-5448 5461 -443 0
5460 -445 -5449 0
5459 -5449 -5451 -446 0
5461 -446 -5449 0
5460 -5450 -448 -5451 0
-5450 5461 -448 0
5461 -5451 -450 -5452 0
5469 -5459 917 1097 0
5470 -5460 918 1098 0
5471 -5461 919 1099 0
5471 -5461 -1099 0
1100 -5462 5472 920 0
-5458 5471 -488 0
5470 -5459 -490 0
5469 -5459 -5461 -491 0
5471 -5459 -491 0
5470 -5460 -493 -5461 0
-5460 5471 -493 0
5471 -5461 -495 -5462 0
5479 -5469 927 1107 0
5480 -5470 928 1108 0
5481 -5471 929 1109 0
1110 -5472 5482 930 0
5480 -535 -5469 0
5479 -5471 -536 -5469 0
5481 -536 -5469 0
5480 -5470 -538 -5471 0
5481 -5471 -540 -5472 0
5490 -5480 938 1118 0
5491 -5481 939 1119 0
-5482 5492 1120 940 0
5490 -580 -5479 0
5489 -5481 -5479 -581 0
5491 -581 -5479 0
5490 -5480 -583 -5481 0
5491 -5481 -585 -5482 0
5499 -5489 1127 947 0
5500 -5490 948 1128 0
5501 -5491 949 1129 0
5501 -5491 -1129 0
-5492 5502 1130 950 0
5500 -5490 -628 -5491 0
5501 -5491 -630 -5492 0
5510 -5500 958 1138 0
5511 -5501 959 1139 0
-5502 5512 1140 960 0
-5495 -648 5506 0
-5497 -661 5508 0
-5499 -671 5509 -5501 0
5510 -5500 -673 -5501 0
5511 -5501 -675 -5502 0
-5508 1146 5518 966 0
5520 -5510 968 1148 0
5520 -5510 -718 -5511 0
5521 -5511 -720 -5512 0
-5518 976 5528 1156 0
5530 -5520 978 1158 0
-5526 984 1164 0
-5528 1166 986 0
-5528 -801 0
5530 5529 -805 0
-5535 -813 0
-5538 816 996 0
-5540 818 998 0
-5540 -818 0
-5541 999 819 0
-5535 -18 0
-5537 -31 0
-5537 -33 0
-5537 -34 0
5541 -34 0
-5538 -37 0
-5545 5535 1003 823 0
-5547 5537 1005 825 0
-826 -5548 5538 0
-828 -5550 5540 0
5551 -1009 -5541 0
-64 -5545 5537 0
-70 5537 -5546 0
-5548 -82 5540 0
-88 -5550 5541 0
-833 -5555 5545 0
5546 -5556 1014 834 0
5561 -5551 -1019 0
5546 -108 -5555 0
-5565 -153 5556 0
-5665 -648 5676 0
-5667 -661 5678 0
-5678 1146 5688 966 0
-5688 976 5698 1156 0
-5689 5699 -1157 0
5689 -5698 -756 0
-5698 1166 986 0
-5696 -790 0
5700 -805 0
-5708 816 996 0
-5710 818 998 0
-5710 -818 0
-5711 999 819 0
-5705 -18 0
-5705 -20 0
-5707 -31 0
-5707 -33 0
-5707 -34 0
5711 -34 0
-5708 -37 0
-5715 5705 1003 823 0
-5717 5707 1005 825 0
-5718 -826 5708 0
5721 -1009 -5711 0
-64 -5715 5707 0
-5716 -70 5707 0
-5718 -82 5710 0
-5720 -88 5711 0
-5725 -833 5715 0
-5726 5716 834 1014 0
5731 -5721 -1019 0
-5725 -108 5716 0
-5735 -153 5726 0
-5835 -648 5846 0
-5837 -661 5848 0
-5848 1146 5858 966 0
-5858 976 5868 1156 0
-5859 5869 -1157 0
5859 -5868 -756 0
-5868 1166 986 0
-5866 -790 0
5870 -805 0
-5875 -813 0
5876 814 994 0
-5878 816 996 0
-5880 818 998 0
-5880 -818 0
-5881 999 819 0
-5877 -31 0
-5877 -33 0
-5877 -34 0
5881 -34 0
-5878 -37 0
-5885 5875 1003 823 0
-5887 5877 1005 825 0
-5888 -826 5878 0
-5890 -828 5880 0
5891 -1009 -5881 0
-5885 -64 5877 0
-5886 -70 5877 0
-70 5887 -5876 0
-5888 -82 5880 0
-5890 -88 5881 0
-5895 -833 5885 0
-5896 5886 1014 834 0
5897 -5887 835 1015 0
5901 -5891 -1019 0
-5905 5896 -153 0
-6005 -648 6016 0
-6007 -661 6018 0
-6018 1146 6028 966 0
-6028 976 6038 1156 0
-6029 6039 -1157 0
6029 -6038 -756 0
-6038 1166 986 0
-6036 -790 0
6040 -805 0
-6045 -813 0
6046 814 994 0
-6048 816 996 0
-6050 818 998 0
-6050 -818 0
-6051 999 819 0
-6047 -31 0
-6047 -33 0
-6047 -34 0
6051 -34 0
-6048 -37 0
-6055 6045 1003 823 0
-6057 6047 1005 825 0
-826 -6058 6048 0
-828 -6060 6050 0
6061 -1009 -6051 0
-64 -6055 6047 0
-70 6047 -6056 0
-70 6057 -6046 0
-6058 -82 6050 0
-88 -6060 6051 0
-833 -6065 6055 0
6056 -6066 1014 834 0
6067 -6057 835 1015 0
6071 -6061 -1019 0
6066 -6075 -153 0
-6175 -648 6186 0
6179 -666 -6188 0
-6206 -790 0
6215 813 993 0
6216 814 994 0
-6218 816 996 0
-6220 818 998 0
-6220 -818 0
6216 -18 0
-6215 -20 0
-6217 -31 0
-6217 -33 0
-6217 -34 0
6221 -34 0
-6218 -37 0
6225 823 -6215 1003 0
-6227 6217 1005 825 0
-6228 -826 6218 0
-6230 -828 6220 0
6231 -1009 -6221 0
-64 -6225 6217 0
-6226 -70 6217 0
-70 6227 -6216 0
-6227 -78 6220 0
-6228 -82 6220 0
-6235 6225 -833 0
6237 -6227 835 1015 0
6241 -6231 -1019 0
-6235 -109 6227 0
6235 -109 -6227 -6225 0
6246 -153 -6235 0
-6345 -648 6356 0
6349 -666 -6358 0
-6376 -790 0
-6387 -815 0
6388 816 996 0
6388 -996 0
-6390 -818 0
-6391 999 819 0
-6385 -18 0
-6387 -33 0
-6391 -34 0
-6388 -37 0
-6395 6385 823 1003 0
-6397 6387 1005 825 0
6398 826 -6388 1006 0
-6395 -64 6387 0
-6396 -70 6387 0
-82 6400 -6388 0
-6400 -88 6391 0
-6405 -833 6395 0
-6406 6396 834 1014 0
-6405 -108 6396 0
6411 -128 -6398 0
-6415 -153 6406 0
-6515 -648 6526 0
-6517 -661 6528 0
-6528 1146 6538 966 0
-6538 976 6548 1156 0
-6546 984 1164 0
-6548 1166 986 0
-6548 -801 0
-6557 -815 0
6558 816 996 0
6558 -996 0
-6560 -818 0
-6561 999 819 0
-6555 -18 0
-6557 -33 0
-6561 -34 0
-6558 -37 0
6555 823 1003 -6565 0
-6567 6557 1005 825 0
6568 826 -6558 1006 0
-64 -6565 6557 0
-70 6557 -6566 0
-82 6570 -6558 0
-88 -6570 6561 0
-833 6565 -6575 0
6566 -6576 1014 834 0
6566 -108 -6575 0
6581 -128 -6568 0
-6585 -153 6576 0
-6685 -648 6696 0
-6687 -661 6698 0
-6698 1146 6708 966 0
-6708 976 6718 1156 0
-6709 6719 -1157 0
6709 -6718 -756 0
-6718 1166 986 0
-6716 -790 0
6720 -805 0
-6727 -815 0
6728 816 996 0
6728 -996 0
-6730 -818 0
-6731 999 819 0
-6725 -18 0
-6727 -33 0
-6731 -34 0
-6728 -37 0
-6735 6725 823 1003 0
-6737 6727 1005 825 0
6738 826 -6728 1006 0
-6735 -64 6727 0
-6736 -70 6727 0
-82 6740 -6728 0
-6740 -88 6731 0
-6745 6735 -833 0
-6746 6736 834 1014 0
-6745 -108 6736 0
6751 -128 -6738 0
-6755 -153 6746 0
-6855 -648 6866 0
-6857 -661 6868 0
-6868 1146 6878 966 0
-6878 976 6888 1156 0
-6879 6889 -1157 0
6879 -6888 -756 0
-6888 1166 986 0
-6886 -790 0
6890 -805 0
-6895 -813 0
6896 814 994 0
-6897 -815 0
6898 816 996 0
6898 -996 0
-6900 818 998 0
-6900 -818 0
-6897 -33 0
-6898 -37 0
6906 824 -6896 1004 0
-6907 6897 1005 825 0
6908 826 -6898 1006 0
-6910 -828 6900 0
-6906 -70 6897 0
-70 6907 -6896 0
-6907 -78 6900 0
-6908 -82 6900 0
-82 6910 -6898 0
-6916 6906 1014 834 0
6916 -1014 -6906 0
6917 -6907 835 1015 0
-6915 -109 6907 0
6921 -128 -6908 0
-6925 6916 -153 0
-7025 -648 7036 0
-7027 -661 7038 0
-7038 1146 7048 966 0
-7048 976 7058 1156 0
-7049 7059 -1157 0
7049 -7058 -756 0
-7058 1166 986 0
-7056 -790 0
7060 -805 0
7065 813 993 0
7066 814 994 0
-7067 -815 0
7068 816 996 0
7068 -996 0
-7070 -818 0
-7071 999 819 0
7065 -18 0
7066 -18 0
-7067 -33 0
-7071 -34 0
-7068 -37 0
7075 823 -7065 1003 0
7076 824 -7066 1004 0
-7077 7067 1005 825 0
7078 826 -7068 1006 0
-70 7077 -7066 0
-82 7080 -7068 0
-7080 -88 7071 0
7086 -1014 -7076 0
7087 -7077 835 1015 0
7085 -109 -7077 -7075 0
7087 -109 -7075 0
7091 -128 -7078 0
7096 -153 -7085 0
-7195 -648 7206 0
7199 -666 -7208 0
-7226 -790 0
7238 816 996 0
7238 -996 0
-7240 818 998 0
-7240 -818 0
-7241 999 819 0
-7235 -18 0
7238 -31 0
-7237 -33 0
-7237 -34 0
-7238 -37 0
-7245 7235 823 1003 0
-7247 7237 1005 825 0
7248 826 -7238 1006 0
-7250 -828 7240 0
-7245 7237 -64 0
-7246 7237 -70 0
-82 7250 -7238 0
-7250 -88 7241 0
-7255 -833 7245 0
-7256 7246 834 1014 0
-7255 -108 7246 0
7261 -128 -7248 0
-7265 -153 7256 0
-7365 -648 7376 0
-7367 -661 7378 0
-7378 1146 7388 966 0
-7388 976 7398 1156 0
-7389 7399 -1157 0
7389 -7398 -756 0
-7398 1166 986 0
-7396 -790 0
7400 -805 0
7408 816 996 0
7408 -996 0
-7410 818 998 0
-7410 -818 0
-7411 999 819 0
-7405 -18 0
7408 -31 0
-7407 -33 0
-7407 -34 0
-7408 -37 0
7405 823 1003 -7415 0
7407 -7417 1005 825 0
7418 826 -7408 1006 0
-828 -7420 7410 0
7407 -64 -7415 0
7407 -70 -7416 0
-82 7420 -7408 0
-88 -7420 7411 0
-833 7415 -7425 0
7416 -7426 1014 834 0
7416 -108 -7425 0
7431 -128 -7418 0
-7435 -153 7426 0
-7535 -648 7546 0
7539 -666 -7548 0
-7566 -790 0
7578 816 996 0
7578 -996 0
-7580 -818 0
-7581 999 819 0
-7575 -18 0
7578 -31 0
-7577 -33 0
7581 -34 0
-7578 -37 0
-7585 7575 823 1003 0
7591 -1009 -7581 0
7577 -64 -7585 0
-7586 7577 -70 0
-82 7590 -7578 0
-7590 -88 7581 0
-7595 7585 -833 0
-7596 7586 834 1014 0
7601 -7591 -1019 0
-7595 -108 7586 0
-7605 -153 7596 0
-7705 -648 7716 0
7709 -666 -7718 0
-7736 -790 0
-7745 -813 0
7746 814 994 0
7748 816 996 0
7748 -996 0
-7750 818 998 0
-7750 -818 0
-7751 999 819 0
7748 -31 0
-7747 -33 0
-7747 -34 0
-7748 -37 0
-7755 7745 1003 823 0
7747 -7757 1005 825 0
7758 826 -7748 1006 0
-7760 -828 7750 0
-7755 7747 -64 0
7747 -70 -7756 0
7757 -70 -7746 0
-82 7760 -7748 0
-7760 -88 7751 0
-7765 -833 7755 0
-7766 7756 1014 834 0
7767 -7757 835 1015 0
7771 -128 -7758 0
-7775 7766 -153 0
-7875 -648 7886 0
7879 -666 -7888 0
-7906 -790 0
-7915 -813 0
7916 814 994 0
7918 816 996 0
7918 -996 0
-7920 818 998 0
-7920 -818 0
-7921 999 819 0
7918 -31 0
-7917 -33 0
-7917 -34 0
-7918 -37 0
-7921 -43 0
-7925 7915 1003 823 0
7917 -7927 1005 825 0
7928 826 -7918 1006 0
-7930 1008 7920 828 0
-828 -7930 7920 0
-7931 1009 829 7921 0
7917 -64 -7925 0
7917 -70 -7926 0
7927 -70 -7916 0
-7928 -82 7920 0
-82 7930 -7918 0
-88 -7930 7921 0
-88 -7931 7920 7921 0
-833 -7935 7925 0
7926 -7936 1014 834 0
7937 -7927 835 1015 0
-7940 7930 1018 838 0
-7941 7931 839 1019 0
-128 7941 -7928 0
-7941 7931 7930 -133 0
-7950 1028 7940 848 0
-7951 7941 1029 849 0
7936 -7945 -153 0
-7951 -178 7940 7941 0
-7960 7950 1038 858 0
7951 -7961 859 1039 0
7950 -7961 -223 7951 0
-7970 7960 868 1048 0
7961 -7971 1049 869 0
7960 -268 -7971 7961 0
-7980 7970 1058 878 0
7971 -7981 1059 879 0
7971 7970 -7981 -313 0
7981 -7991 1069 889 0
7980 7981 -7991 -358 0
7991 -8001 1079 899 0
8001 -8011 1089 909 0
8011 -8021 1099 919 0
-8017 -484 8011 0
8011 -8018 -488 0
-8020 8011 -493 0
-8027 8017 -925 0
8018 -8028 926 1106 0
8018 -8028 -926 0
8020 -8027 -528 0
-8027 8021 -529 0
-8028 -533 8021 0
-8030 8021 -538 0
-8045 -648 8056 0
8049 -666 -8058 0
8085 813 993 0
8086 814 994 0
8088 816 996 0
8088 -996 0
-8090 818 998 0
-8090 -818 0
-8091 999 819 0
8086 -18 0
8088 -31 0
-8087 -33 0
8091 -34 0
-8088 -37 0
8095 823 -8085 1003 0
-8100 1008 8090 828 0
-8101 1009 829 8091 0
8101 -1009 -8091 0
8087 -64 -8095 0
8087 -70 -8096 0
8097 -70 -8086 0
-8097 -78 8090 0
-8098 -82 8090 0
-82 8100 -8088 0
-8100 -88 8091 0
-8105 8095 -833 0
8107 -8097 835 1015 0
-8110 8100 1018 838 0
-8111 8101 839 1019 0
8111 -8101 -1019 0
8097 -109 -8105 0
8105 -109 -8097 -8095 0
-8120 1028 8110 848 0
-8121 8111 1029 849 0
8116 -153 -8105 0
-8130 8120 1038 858 0
8121 -8131 859 1039 0
8120 -8131 -223 8121 0
-8140 8130 868 1048 0
8131 -8141 1049 869 0
8141 -8151 1059 879 0
8141 8140 -8151 -313 0
8151 -8161 1069 889 0
8161 -8171 1079 899 0
8171 -8181 1089 909 0
8181 -8191 1099 919 0
-8188 8181 -488 0
8188 -8198 926 1106 0
8188 -8198 -926 0
-8200 8191 -538 0
8198 -8208 936 1116 0
8208 -8218 946 1126 0
8218 956 -8228 1136 0
-8215 -648 8226 0
8219 -666 -8228 0
8228 1146 -8238 966 0
-8255 -813 0
-8257 -815 0
-8258 816 996 0
-8258 -816 0
-8259 817 997 0
818 8260 998 0
-998 8260 0
-8261 999 819 0
8262 1000 820 0
-8255 -18 0
-8257 -31 0
-8261 -34 0
-8260 -43 0
-8265 8255 1003 823 0
-8267 8257 1005 825 0
-8268 -826 8258 0
-8269 827 8259 1007 0
1008 8270 -8260 828 0
8270 -1008 -8260 0
1010 8272 830 -8262 0
-8265 -64 8257 0
-8266 -70 8257 0
-8270 -88 8261 0
8271 -88 -8260 0
-8275 -833 8265 0
-8276 8266 834 1014 0
-8279 8269 837 1017 0
8280 -8270 1018 838 0
-8280 8270 1018 838 0
8281 -8271 839 1019 0
1020 -8272 8282 840 0
-8275 -108 8266 0
-8289 8279 847 1027 0
8290 -8280 1028 848 0
8291 -8281 849 1029 0
1030 -8282 8292 850 0
-8285 -153 8276 0
-8299 8289 1037 857 0
-8290 8300 858 1038 0
8301 -8291 859 1039 0
1040 -8292 8302 860 0
-8309 1047 8299 867 0
-8300 8310 868 1048 0
8311 -8301 869 1049 0
1050 -8302 8312 870 0
-8319 1057 8309 877 0
-8310 8320 878 1058 0
1060 -8312 8322 880 0
-8329 1067 8319 887 0
-8320 8330 -1068 0
1070 -8322 8332 890 0
-8339 8329 897 1077 0
1080 -8332 8342 900 0
-8349 8339 907 1087 0
1090 -8342 8352 910 0
-8359 8349 -917 0
1100 -8352 8362 920 0
8351 -8361 -491 8349 0
-8369 8359 927 1107 0
8361 -8371 -929 0
8371 -8381 -581 8369 0
-8385 -648 8396 0
-8388 -666 8399 0
-8399 1147 8409 967 0
-8409 1157 8419 977 0
-8427 815 995 0
-8427 -815 0
8428 816 996 0
8428 -996 0
-8429 817 997 0
8430 818 998 0
-8431 999 819 0
-8425 -18 0
-8427 -19 0
-8427 -25 0
-8431 -34 0
8430 -37 0
-8430 -43 0
-8435 8425 823 1003 0
-8437 825 1005 8427 0
8438 826 -8428 1006 0
8438 -1006 -8428 0
-8439 827 8429 1007 0
8440 1008 -8430 828 0
8440 -1008 -8430 0
1009 -8441 829 8431 0
-8435 -64 8427 0
-8436 -70 8427 0
-79 -8441 8431 8427 0
8440 -82 -8428 0
-8440 -88 8431 0
8441 -88 -8430 0
-8445 -833 8435 0
-8446 8436 834 1014 0
-8447 8437 835 1015 0
8448 1016 -8438 836 0
8448 -1016 -8438 0
-8449 8439 837 1017 0
8450 -8440 1018 838 0
8451 -8441 839 1019 0
-8451 8441 839 1019 0
8451 -8441 -1019 0
-8445 -108 8436 0
-124 8437 -8451 8441 0
-8457 8447 845 1025 0
8458 -8448 1026 846 0
8458 -1026 -8448 0
-8459 8449 847 1027 0
8460 -8450 1028 848 0
8461 849 -8451 1029 0
-8461 8451 1029 849 0
-8455 -153 8446 0
-169 -8461 8451 8447 0
-8460 8451 -178 0
8461 -8450 -178 0
-8467 8457 1035 855 0
8468 -8458 856 1036 0
8468 -8458 -1036 0
-8469 8459 1037 857 0
8470 -8460 858 1038 0
8471 -8461 859 1039 0
8461 -8471 859 1039 0
-8470 8460 -213 8457 0
-214 8461 -8471 8457 0
-8470 8461 -223 0
-8460 8471 -223 0
-8477 8467 865 1045 0
8478 -8468 866 1046 0
8478 -8468 -1046 0
-8479 1047 8469 867 0
8480 -8470 868 1048 0
-8480 8470 1048 868 0
8481 -8471 869 1049 0
8471 -8481 869 1049 0
-259 8471 -8481 8467 0
-8478 8470 -262 0
-268 -8480 8471 0
8481 -268 -8470 0
-8487 8477 875 1055 0
-8478 8488 876 1056 0
-8478 8488 -1056 0
-8489 1057 8479 877 0
8490 -8480 878 1058 0
-8490 8480 878 1058 0
8491 -8481 879 1059 0
8481 -8491 1059 879 0
-8490 8480 -303 8477 0
8481 -304 -8491 8477 0
8488 -8480 -307 -8478 0
-8490 8481 -313 0
8491 -8480 -313 0
-8497 8487 885 1065 0
-8488 8498 886 1066 0
-8488 8498 -1066 0
-8499 1067 8489 887 0
-8499 -887 8489 0
-8500 8490 888 1068 0
8501 -8491 889 1069 0
8491 -8501 1069 889 0
-8497 -349 8491 0
8487 -349 -8501 8491 0
-8488 -8490 -352 8498 0
-8500 8491 -358 0
-8490 8501 -358 0
-8507 8497 895 1075 0
-8498 8508 896 1076 0
-8498 8508 -1076 0
-8509 8499 897 1077 0
-8509 8499 -897 0
8500 -8510 898 1078 0
-8510 8500 -898 0
8511 -8501 899 1079 0
8501 -8511 1079 899 0
-8510 -393 8500 8497 0
-8498 -8501 -398 8508 0
-8510 8501 -403 0
-8508 8518 906 1086 0
-8508 8518 -1086 0
-8519 8509 1087 907 0
-8519 8509 -907 0
8510 -8520 1088 908 0
8510 -8520 -908 0
8521 -8511 1089 909 0
8511 -8521 1089 909 0
8510 -438 -8520 8507 0
-8508 8518 -443 -8511 0
-8520 8511 -448 0
-8518 8528 916 1096 0
-8529 8519 917 1097 0
-8529 8519 -917 0
8520 -8530 1098 918 0
8520 -8530 -918 0
8521 -8531 1099 919 0
-8518 -8521 -488 8528 0
8520 -8530 -490 8519 0
-8530 8521 -493 0
-8528 8538 926 1106 0
-8528 8538 -1106 0
-8539 8529 927 1107 0
-8539 8529 -927 0
8530 -8540 928 1108 0
8530 -8540 -928 0
8530 -8540 -535 8529 0
-8540 8531 -538 0
-8538 8548 1116 936 0
-8549 8539 937 1117 0
-8549 8539 -937 0
8540 -8550 1118 938 0
8540 -8550 -580 8539 0
-8548 8558 1126 946 0
-8559 8549 1127 947 0
-8559 8549 -947 0
8550 -8560 1128 948 0
8550 -8560 8549 -625 0
-8558 956 8568 1136 0
-8569 8559 -957 0
8560 958 -8570 1138 0
-8555 -648 8566 0
-8557 -661 8568 0
8560 8559 -8570 -670 0
-8568 1146 8578 966 0
8570 -715 8569 -8580 0
-8578 976 8588 1156 0
-8586 984 1164 0
-8588 1166 986 0
-8588 -801 0
-8593 811 991 0
-8594 812 992 0
-8595 813 993 0
-8595 -813 0
-8596 814 994 0
-8596 -814 0
-8597 815 995 0
-8597 -815 0
-8598 816 996 0
-8598 -816 0
8599 817 997 0
8600 818 998 0
8600 -998 0
-8601 999 819 0
8602 1000 820 0
-8596 -18 0
-8597 -19 0
-8598 -20 0
-8601 -23 0
-8597 -25 0
-8598 -26 0
-8601 -29 0
-8598 -31 0
-8601 -34 0
-8601 -38 0
-8600 -43 0
8601 -43 0
-8603 821 1001 8593 0
-8604 822 1002 8594 0
-8605 823 1003 8595 0
-8605 -823 8595 0
-8606 824 8596 1004 0
-8606 -824 8596 0
-8607 825 1005 8597 0
-8607 -825 8597 0
-8608 826 8598 1006 0
-8608 -826 8598 0
8609 827 -8599 1007 0
1008 8610 -8600 828 0
-8610 1008 8600 828 0
8610 -1008 -8600 0
8611 829 -8601 1009 0
-8611 1009 829 8601 0
8611 -1009 -8601 0
1010 8612 830 -8602 0
-8606 -63 8596 8595 0
-8607 -64 8595 8597 0
-8608 -65 8595 8598 0
-8610 -67 8600 8595 0
-8611 -68 8595 8601 0
-8607 -70 8596 8597 0
-8608 -71 8598 8596 0
-8610 -73 8600 8596 0
-8611 -74 8596 8601 0
-8608 -76 8598 8597 0
-8610 -78 8600 8597 0
-8611 -79 8601 8597 0
-8610 -82 8600 8598 0
-83 -8611 8601 8598 0
-8610 -88 8601 0
8611 -88 -8600 0
-8613 831 8603 1011 0
-8613 -831 8603 0
-8614 8604 1012 832 0
-8615 8605 833 1013 0
-8615 -833 8605 0
-8616 8606 1014 834 0
-8617 8607 835 1015 0
-8617 -835 8607 0
-8618 8608 836 1016 0
8619 -8609 837 1017 0
8620 -8610 1018 838 0
-8620 8610 1018 838 0
-8620 -838 8610 0
-1018 -8610 8620 0
8621 -8611 839 1019 0
-8621 8611 839 1019 0
8621 -8611 -1019 0
1020 -8612 8622 840 0
-8615 -92 8603 8605 0
-8616 -93 8603 8606 0
-112 -8620 8610 8605 0
-8621 -113 8611 8605 0
-8620 -118 8610 8606 0
-8621 -119 8611 8606 0
-8617 -121 8608 0
-8620 -123 8610 8607 0
-8621 -124 8611 8607 0
-8620 -127 8610 8608 0
-128 -8621 8608 8611 0
-8620 8611 -133 0
8621 -8610 -133 0
841 -8623 8613 1021 0
-8624 8614 1022 842 0
-8625 8615 843 1023 0
-8625 8615 -843 0
-8626 8616 1024 844 0
-8626 8616 -844 0
-8627 8617 845 1025 0
-8628 8618 1026 846 0
8629 -8619 847 1027 0
8630 -8620 1028 848 0
-8630 1028 8620 848 0
-8630 -848 8620 0
8630 -8620 -1028 0
8631 -8621 1029 849 0
8621 -8631 1029 849 0
8631 -8621 -1029 0
1030 -8622 8632 850 0
-8624 -136 8613 8614 0
-8625 -137 8615 8613 0
-8626 -138 8616 8613 0
-8626 -153 8615 8616 0
-8630 -157 8620 8615 0
-163 -8630 8620 8616 0
-8630 8617 8620 -168 0
-169 -8631 8617 8621 0
-172 -8630 8620 8618 0
8629 -8621 -176 -8619 0
8631 -176 -8619 0
-8630 8621 -178 0
8631 -8620 -178 0
-8633 8623 851 1031 0
-8634 8624 852 1032 0
-8637 8627 1035 855 0
-8637 -855 8627 0
8639 -8629 1037 857 0
8640 -8630 858 1038 0
-8640 8630 1038 858 0
-8640 8630 -858 0
8640 -8630 -1038 0
8641 -8631 859 1039 0
8631 -8641 1039 859 0
8641 -8631 -1039 0
1040 -8632 8642 860 0
-196 8631 -8641 8624 0
-202 8630 8625 -8640 0
-203 8625 -8641 8631 0
8630 -208 8626 -8640 0
-209 8626 -8641 8631 0
-8640 8630 -213 8627 0
-214 8627 -8641 8631 0
-8640 8630 -217 8628 0
-218 8631 -8641 8628 0
8639 -8631 -221 -8629 0
8641 -221 -8629 0
-8640 8631 -223 0
8640 -8631 -223 -8630 0
8641 -8630 -223 0
861 -8643 8633 1041 0
-8644 8634 1042 862 0
-8647 8637 865 1045 0
8649 1047 -8639 867 0
8650 -8640 868 1048 0
-8650 8640 1048 868 0
8650 -8640 -1048 0
8651 -8641 869 1049 0
8641 -8651 1049 869 0
8651 -8641 -1049 0
1050 -8642 8652 870 0
-8637 -258 8650 0
8640 -8650 8637 -258 0
-259 8641 -8651 8637 0
8649 -266 -8641 -8639 0
8651 -266 -8639 0
-8650 -268 8641 0
8651 -268 -8640 0
8640 -268 -8651 8641 0
-8653 -871 8643 0
-8654 8644 1052 872 0
-8657 8647 875 1055 0
8659 1057 -8649 877 0
8660 -8650 878 1058 0
-8660 8650 1058 878 0
8660 -8650 -1058 0
8661 -8651 879 1059 0
8651 -8661 1059 879 0
8661 -8651 -1059 0
1060 -8652 8662 880 0
-8660 8650 -303 8647 0
8647 -304 8651 -8661 0
8659 -8651 -8649 -311 0
8661 -311 -8649 0
8660 -8650 -313 -8651 0
8661 -8650 -313 0
8669 1067 -8659 887 0
8670 -8660 888 1068 0
-8670 8660 888 1068 0
-8670 8660 -888 0
8670 -8660 -1068 0
8671 -8661 889 1069 0
8661 -8671 1069 889 0
8671 -1069 -8661 0
1070 -8662 8672 890 0
-8664 -316 8653 8654 0
8657 8660 -8670 -348 0
8669 -8661 -8659 -356 0
8671 -356 -8659 0
-8670 8661 -358 0
8670 -358 -8661 -8660 0
8671 -358 -8660 0
-8674 8664 892 1072 0
8679 -8669 897 1077 0
8679 -8669 -1077 0
8680 -8670 898 1078 0
-8680 8670 898 1078 0
8680 -8670 -1078 0
8681 -8671 899 1079 0
8671 -8681 1079 899 0
8681 -8671 -1079 0
1080 -8672 8682 900 0
8682 -1080 -8672 0
8679 -8671 -401 -8669 0
8681 -8669 -401 0
-8680 8671 -403 0
8680 -8671 -403 -8670 0
8681 -8670 -403 0
8681 -8671 -405 -8672 0
8689 -8679 907 1087 0
8689 -8679 -1087 0
8690 -8680 908 1088 0
-8690 8680 1088 908 0
8690 -8680 -1088 0
8691 -8681 1089 909 0
8681 -8691 1089 909 0
8691 -8681 -1089 0
1090 -8682 8692 910 0
8677 8681 -439 -8691 0
8681 -446 -8689 0
8689 -8679 -8681 -446 0
8691 -446 -8679 0
8690 -8680 -448 -8681 0
-8680 8691 -448 0
8691 -8681 -450 -8682 0
8699 -8689 917 1097 0
8689 -8699 1097 917 0
8699 -8689 -1097 0
8700 -8690 918 1098 0
-8700 8690 1098 918 0
8700 -8690 -1098 0
8701 -8691 919 1099 0
8701 -8691 -1099 0
-8692 8702 1100 920 0
-8690 -8689 -490 8699 0
8700 -8689 -490 0
8699 -8691 -491 -8689 0
8701 -8689 -491 0
-8700 8691 -493 0
8700 -8690 -8691 -493 0
-8690 8701 -493 0
8701 -8691 -495 -8692 0
8709 -8699 927 1107 0
-8709 8699 -927 0
8709 -1107 -8699 0
8710 -8700 928 1108 0
8700 -8710 928 1108 0
8710 -8700 -1108 0
8711 -8701 929 1109 0
8711 -8701 -1109 0
1110 -8702 8712 930 0
-8700 -535 -8699 8709 0
8701 -536 -8709 0
8709 -8701 -536 -8699 0
8711 -536 -8699 0
8710 -8700 -538 -8701 0
8711 -8700 -538 0
8711 -8701 -540 -8702 0
8719 -8709 937 1117 0
8709 -8719 937 1117 0
8719 -8709 -1117 0
8720 -8710 938 1118 0
8720 -8710 -1118 0
8721 -8711 1119 939 0
-8712 8722 1120 940 0
-8710 -580 -8709 8719 0
8720 -580 -8709 0
8710 -8720 -580 8709 0
8719 -8711 -581 -8709 0
8721 -581 -8709 0
8721 -8711 -585 -8712 0
8729 -8719 1127 947 0
-8729 8719 -947 0
8730 -8720 1128 948 0
8731 -8721 1129 949 0
-8722 8732 1130 950 0
-8720 8729 -8719 -625 0
8720 8719 -625 -8730 0
8729 -8721 -626 -8719 0
8731 -8721 -630 -8722 0
-8729 1137 8739 957 0
8740 -8730 958 1138 0
8741 -8731 959 1139 0
-8732 8742 1140 960 0
-8725 -648 8736 0
-8727 -661 8738 0
-8729 -8730 -670 8739 0
8740 -8729 -670 0
8730 8729 -670 -8740 0
-8729 -671 8739 -8731 0
8740 -8730 -673 -8731 0
8741 -8731 -675 -8732 0
-8738 1146 8748 966 0
-8740 -8739 8749 -715 0
8740 8739 -8750 -715 0
8751 -8741 -720 -8742 0
-8748 976 8758 1156 0
-8745 -738 8756 0
8750 -757 8748 -8760 0
8749 8750 -8760 -760 0
-8756 984 1164 0
-8758 1166 986 0
-8758 -801 0
8760 8759 -805 0
-8767 -815 0
-8768 816 996 0
-8768 -816 0
8770 818 998 0
-8771 999 819 0
-8765 -18 0
-8765 -20 0
-8767 -31 0
-8770 -43 0
-8775 8765 1003 823 0
-8777 8767 1005 825 0
-8778 -826 8768 0
8780 -1008 -8770 0
-8775 -64 8767 0
-8776 -70 8767 0
-8780 -88 8771 0
8781 -88 -8770 0
-8785 -833 8775 0
-8786 8776 834 1014 0
8791 -8781 -1019 0
-8785 -108 8776 0
-8795 -153 8786 0
-8895 -648 8906 0
-8897 -661 8908 0
-8908 1146 8918 966 0
-8918 976 8928 1156 0
-8919 8929 -1157 0
8919 -8928 -756 0
-8928 1166 986 0
-8926 -790 0
8930 -805 0
-8935 -813 0
8936 814 994 0
-8937 815 995 0
-8937 -815 0
-8938 816 996 0
-8938 -816 0
8940 818 998 0
-8941 999 819 0
-8937 -31 0
-8941 -34 0
-8940 -43 0
8946 824 -8936 1004 0
-8947 825 1005 8937 0
-8947 -825 8937 0
-8948 -826 8938 0
8950 -1008 -8940 0
-8946 -70 8937 0
-70 8947 -8936 0
-8950 -88 8941 0
8951 -88 -8940 0
-8956 8946 1014 834 0
8956 -1014 -8946 0
8957 -8947 835 1015 0
8961 -8951 -1019 0
-8955 -109 8947 0
-8965 8956 -153 0
-9065 -648 9076 0
-9067 -661 9078 0
-9078 1146 9088 966 0
-9088 976 9098 1156 0
-9089 9099 -1157 0
9089 -9098 -756 0
-9098 1166 986 0
-9096 -790 0
9100 -805 0
9105 813 993 0
9106 814 994 0
-9107 -815 0
-9108 816 996 0
-9108 -816 0
9110 818 998 0
-9111 999 819 0
9105 -18 0
9106 -18 0
-9105 -20 0
-9107 -31 0
-9110 -43 0
9115 823 -9105 1003 0
9116 824 -9106 1004 0
-9117 9107 1005 825 0
-9118 -826 9108 0
9120 -1008 -9110 0
-70 9117 -9106 0
-9120 -88 9111 0
9121 -88 -9110 0
9126 -1014 -9116 0
9127 -9117 835 1015 0
9131 -9121 -1019 0
9125 -109 -9117 -9115 0
9127 -109 -9115 0
9136 -153 -9125 0
-9235 -648 9246 0
9239 -666 -9248 0
-9266 -790 0
9274 992 812 0
9275 813 993 0
9276 814 994 0
-9277 -815 0
-9278 816 996 0
-9278 -816 0
9280 818 998 0
-9281 999 819 0
9275 -18 0
9276 -18 0
-9275 -20 0
-9277 -31 0
-9278 -31 0
-9280 -43 0
9284 822 -9274 1002 0
9285 823 -9275 1003 0
9286 824 -9276 1004 0
-9287 9277 1005 825 0
-9288 -826 9278 0
9290 -1008 -9280 0
-9291 1009 829 9281 0
-70 9287 -9276 0
-83 -9291 9278 9281 0
-9290 -88 9281 0
9291 -88 -9280 0
9294 -9284 1012 832 0
9296 -1014 -9286 0
9297 -9287 835 1015 0
-9301 9291 839 1019 0
9301 -9291 -1019 0
9295 -109 -9287 -9285 0
9297 -109 -9285 0
9304 842 1022 -9294 0
9304 -1022 -9294 0
-9311 9301 1029 849 0
9306 -153 -9295 0
9314 -9304 852 1032 0
9304 -9314 852 1032 0
9314 -9304 -1032 0
9311 -9321 859 1039 0
9324 -9314 1042 862 0
9324 -9314 -1042 0
9321 -9331 1049 869 0
9334 -9324 1052 872 0
9334 -9324 -1052 0
9331 -9341 1059 879 0
9344 -9334 1062 882 0
9344 -9334 -1062 0
9341 -9351 1069 889 0
-9350 9341 -358 0
9354 -9344 1072 892 0
9354 -9344 -1072 0
-9360 9350 898 1078 0
9351 -9361 1079 899 0
9355 -9344 -370 0
-9354 9364 1082 902 0
-9354 -1082 9364 0
-9355 9365 903 1083 0
9361 -9371 1089 909 0
9365 -9354 -415 0
-9364 9374 1092 912 0
-9364 -1092 9374 0
9375 -9365 913 1093 0
9371 -9381 1099 919 0
9375 -9364 -460 0
-9374 9384 1102 922 0
-1102 -9374 9384 0
-9375 9385 1103 923 0
9385 -505 -9374 0
-513 9386 -9375 0
-9389 9381 -536 0
9394 -9384 932 1112 0
-9384 9394 -1112 0
-9385 9395 933 1113 0
9389 -9399 -937 0
-550 -9384 9395 0
-9394 9404 1122 942 0
-9394 -1122 9404 0
-9395 9405 1123 943 0
-595 -9394 9405 0
-596 -9394 9406 0
-9395 -603 9406 0
-9404 9414 952 1132 0
-1132 -9404 9414 0
-9405 9415 953 1133 0
-640 -9404 9415 0
-9405 -648 9416 0
9409 -666 -9418 0
-9414 962 9424 1142 0
-9414 -1142 9424 0
-9415 963 9425 1143 0
-685 -9414 9425 0
-686 -9414 9426 0
972 1152 9434 -9424 0
-1152 -9424 9434 0
-9426 -1154 9436 0
-9424 -730 9435 0
-731 -9424 9436 0
-9425 -738 9436 0
-9434 1162 982 0
-9436 1164 984 0
-9434 -775 0
-9435 -783 0
-9445 813 993 0
-9445 -813 0
-9446 814 994 0
-9448 816 996 0
-9448 -816 0
9450 818 998 0
-9451 999 819 0
-9445 -18 0
-9447 -31 0
9447 -33 0
-9447 -34 0
-9450 -43 0
-9455 823 1003 9445 0
-9455 -823 9445 0
-9456 -824 9446 0
-9457 9447 1005 825 0
9457 -9447 -1005 0
-9458 -826 9448 0
9460 -1008 -9450 0
-9460 -88 9451 0
9461 -88 -9450 0
-9465 -833 9455 0
-9466 9456 834 1014 0
9467 -9457 835 1015 0
9471 -9461 -1019 0
-9475 -153 9466 0
-9575 -648 9586 0
-9577 -661 9588 0
-9588 1146 9598 966 0
-9598 976 9608 1156 0
-9599 9609 -1157 0
9599 -9608 -756 0
-9608 1166 986 0
-9606 -790 0
9610 -805 0
9615 813 993 0
-9616 814 994 0
-9618 816 996 0
-9618 -816 0
9620 818 998 0
-9621 999 819 0
-9615 -18 0
-9615 -20 0
-9617 -31 0
9617 -33 0
-9617 -34 0
-9620 -43 0
9625 823 -9615 1003 0
-9625 9615 1003 823 0
-9626 824 9616 1004 0
-9626 -824 9616 0
-9627 9617 1005 825 0
9627 -9617 -1005 0
-9628 -826 9618 0
9630 -1008 -9620 0
-9630 -88 9621 0
9631 -88 -9620 0
-9635 -833 9625 0
9637 -9627 835 1015 0
9641 -9631 -1019 0
-9635 -108 9626 0
9635 -9627 -109 -9625 0
9646 -153 -9635 0
-9745 -648 9756 0
9749 -666 -9758 0
-9776 -790 0
-9785 813 993 0
-9785 -813 0
9786 814 994 0
-9788 816 996 0
-9788 -816 0
9790 818 998 0
-9791 999 819 0
-9787 -31 0
9787 -33 0
-9787 -34 0
-9790 -43 0
-9795 823 1003 9785 0
-9795 -823 9785 0
-9797 9787 1005 825 0
9797 -9787 -1005 0
-9798 -826 9788 0
9800 -1008 -9790 0
-9800 -88 9791 0
9801 -88 -9790 0
-9805 -833 9795 0
9807 -9797 835 1015 0
9811 -9801 -1019 0
-9815 9805 -843 0
-9915 -648 9926 0
9919 -666 -9928 0
-9946 -790 0
9955 813 993 0
9957 815 995 0
-9958 816 996 0
-9958 -816 0
9960 818 998 0
-9961 999 819 0
9956 -18 0
-9955 -20 0
-9957 -31 0
9957 -33 0
-9957 -34 0
-9960 -43 0
9965 823 -9955 1003 0
-9967 9957 1005 825 0
-1005 9967 -9957 0
-9968 -826 9958 0
9970 -1008 -9960 0
9965 -64 -9957 -9955 0
-78 9967 -9957 -9960 0
-9970 -88 9961 0
9971 -88 -9960 0
9977 -9967 1015 835 0
9977 -9967 -1015 0
9981 -9971 -1019 0
9976 -108 -9965 0
9975 -109 -9967 -9965 0
9986 -153 -9975 0
-10085 -648 10096 0
10089 -666 -10098 0
10124 992 812 0
10125 813 993 0
10127 815 995 0
10127 -995 0
-10128 816 996 0
-10128 -816 0
10130 818 998 0
-10131 999 819 0
10126 -18 0
-10125 -20 0
-10127 -31 0
10127 -33 0
-10127 -34 0
-10131 -38 0
-10130 -43 0
10134 822 -10124 1002 0
10135 823 -10125 1003 0
10137 825 -10127 1005 0
-10137 10127 1005 825 0
10137 -1005 -10127 0
-10138 -826 10128 0
10140 -1008 -10130 0
-10141 1009 829 10131 0
10135 -64 -10127 -10125 0
-78 10137 -10127 -10130 0
-10140 -88 10131 0
10141 -88 -10130 0
10144 -10134 1012 832 0
10147 -10137 835 1015 0
10147 -10137 -1015 0
-10151 10141 839 1019 0
10151 -10141 -1019 0
10146 -108 -10135 0
10145 -109 -10137 -10135 0
10154 842 1022 -10144 0
10154 -1022 -10144 0
-10161 10151 1029 849 0
10156 -153 -10145 0
10164 -10154 852 1032 0
10164 -10154 -1032 0
10161 -10171 859 1039 0
10174 -10164 1042 862 0
10174 -10164 -1042 0
10171 -10181 1049 869 0
10184 -10174 1052 872 0
10181 -10191 1059 879 0
10194 -10184 1062 882 0
10194 -10184 -1062 0
10191 -10201 1069 889 0
10204 -10194 1072 892 0
10201 -10211 1079 899 0
-10204 10214 1082 902 0
-10204 -1082 10214 0
10211 -10221 1089 909 0
10215 -10204 -415 0
10224 -10214 912 1092 0
-10215 10225 1093 913 0
10225 -10214 -460 0
10234 -10224 922 1102 0
-10225 10235 1103 923 0
-505 10235 -10224 0
10244 -10234 1112 932 0
-10235 10245 933 1113 0
-10244 10254 942 1122 0
-10245 10255 1123 943 0
-10254 10264 952 1132 0
-10255 10265 953 1133 0
-10297 -815 0
10298 816 996 0
10298 -996 0
10300 818 998 0
-10295 -18 0
-10301 -34 0
10300 -37 0
-10300 -43 0
-10305 10295 823 1003 0
10310 -1008 -10300 0
-10305 -64 10297 0
-10306 -70 10297 0
10310 -82 -10298 0
-10310 -88 10301 0
10311 -88 -10300 0
-10315 -833 10305 0
-10316 10306 834 1014 0
10321 -10311 -1019 0
-10315 -108 10306 0
-10325 -153 10316 0
-10425 -648 10436 0
-10427 -661 10438 0
-10438 1146 10448 966 0
-10448 976 10458 1156 0
-10449 10459 -1157 0
10449 -10458 -756 0
-10458 1166 986 0
-10456 -790 0
10460 -805 0
-10467 -815 0
10468 816 996 0
10468 -996 0
10470 818 998 0
-10465 -18 0
10470 -37 0
-10470 -43 0
-10475 10465 823 1003 0
10480 -1008 -10470 0
-10475 -64 10467 0
-10476 -70 10467 0
10480 -82 -10468 0
10481 -88 -10470 0
-10485 10475 -833 0
-10486 10476 834 1014 0
10491 -10481 -1019 0
-10485 -108 10476 0
-10495 -153 10486 0
-10595 -648 10606 0
10599 -666 -10608 0
-10626 -790 0
-10635 -813 0
10636 814 994 0
-10637 815 995 0
-10637 -815 0
10638 816 996 0
10638 -996 0
10640 818 998 0
-10641 -34 0
10640 -37 0
-10640 -43 0
10646 824 -10636 1004 0
-10647 -825 10637 0
10650 -1008 -10640 0
-10646 -70 10637 0
-70 10647 -10636 0
10650 -82 -10638 0
-10650 -88 10641 0
10651 -88 -10640 0
-10656 10646 1014 834 0
10656 -1014 -10646 0
10657 -10647 835 1015 0
10661 -10651 -1019 0
-10655 -109 10647 0
-10665 10656 -153 0
-10765 -648 10776 0
10769 -666 -10778 0
-10796 -790 0
10805 813 993 0
10806 814 994 0
-10807 -815 0
10808 816 996 0
10808 -996 0
10810 818 998 0
-10811 999 819 0
10805 -18 0
10806 -18 0
-10806 -29 0
10810 -37 0
-10810 -43 0
10815 823 -10805 1003 0
10816 824 -10806 1004 0
10820 -1008 -10810 0
1009 -10821 829 10811 0
10817 -70 -10806 0
10820 -82 -10808 0
10821 -88 -10810 0
10826 -1014 -10816 0
10827 -10817 835 1015 0
-10831 10821 839 1019 0
10831 -10821 -1019 0
10825 -109 -10817 -10815 0
10827 -109 -10815 0
-10841 10831 1029 849 0
10836 -153 -10825 0
10841 -10851 859 1039 0
10851 -10861 1049 869 0
10861 -10871 1059 879 0
-10935 -648 10946 0
10939 -666 -10948 0
10975 813 993 0
10976 814 994 0
-10977 815 995 0
-10977 -815 0
10978 816 996 0
10978 -996 0
10980 818 998 0
-10981 999 819 0
10975 -18 0
10976 -18 0
-10981 -34 0
10980 -37 0
-10980 -43 0
10985 823 -10975 1003 0
10986 824 -10976 1004 0
-10987 825 1005 10977 0
10990 -1008 -10980 0
1009 -10991 829 10981 0
-64 10987 -10975 0
-70 10987 -10976 0
-79 -10991 10981 10977 0
10990 -82 -10978 0
10991 -88 -10980 0
10996 -1014 -10986 0
10997 -10987 835 1015 0
-10997 10987 835 1015 0
-11001 10991 839 1019 0
11001 -10991 -1019 0
10995 -109 -10987 -10985 0
-109 10997 -10985 0
-124 10987 -11001 10991 0
-11007 10997 845 1025 0
-11011 11001 1029 849 0
11006 -153 -10995 0
-169 -11011 11001 10997 0
-11010 11001 -178 0
-11017 11007 1035 855 0
11011 -11021 859 1039 0
-11020 11010 -213 11007 0
-214 11011 -11021 11007 0
-11027 11017 865 1045 0
-11027 11017 -865 0
-11030 11020 1048 868 0
11021 -11031 1049 869 0
11021 -259 -11031 11017 0
-11037 11027 875 1055 0
-11040 11030 1058 878 0
11031 -11041 1059 879 0
-11040 11030 -303 11027 0
11031 11027 -11041 -304 0
-11040 11031 -313 0
-11047 11037 885 1065 0
-11050 11040 888 1068 0
11041 -11051 1069 889 0
-11050 11040 -348 11037 0
11037 -349 -11051 11041 0
-11048 -353 11041 0
-11050 11041 -358 0
-11057 11047 -895 0
-11060 11050 1078 898 0
11051 -11061 1079 899 0
11048 -11057 -391 0
-11060 -393 11050 11047 0
11047 -11061 -394 11051 0
-11067 11057 905 1085 0
-11067 11057 -905 0
-11070 11060 1088 908 0
11061 -11071 1089 909 0
-11070 11061 -448 0
11067 -11077 915 1095 0
11067 -11077 -915 0
11070 -11080 1098 918 0
11070 -11080 -918 0
11071 -11081 1099 919 0
11070 -11077 -483 0
-11078 -487 11070 0
11071 -11080 -493 0
11077 -11087 1105 925 0
11077 -11087 -925 0
11080 -11090 1108 928 0
-520 11077 -11086 0
11081 -11090 -538 0
11086 -11096 934 1114 0
11087 -11097 935 1115 0
11090 -11100 1118 938 0
11096 -11106 1124 944 0
11097 -11107 945 1125 0
11100 1128 -11110 948 0
11106 -11116 954 1134 0
11107 955 -11117 1135 0
11110 -11119 -670 0
-11145 813 993 0
-11146 814 994 0
11148 816 996 0
11148 -996 0
11150 818 998 0
-11145 -18 0
11148 -31 0
11147 -33 0
11150 -37 0
-11150 -43 0
-11155 823 11145 1003 0
-11155 -823 11145 0
-11156 -824 11146 0
11157 -1005 -11147 0
11160 -1008 -11150 0
11160 -82 -11148 0
11161 -88 -11150 0
-11165 -833 11155 0
-11166 11156 834 1014 0
11167 -11157 835 1015 0
11171 -11161 -1019 0
-11175 -153 11166 0
-11275 -648 11286 0
11279 -666 -11288 0
-11306 -790 0
11315 813 993 0
-11316 814 994 0
11318 816 996 0
11318 -996 0
11320 818 998 0
-11315 -18 0
11318 -31 0
11317 -33 0
11320 -37 0
-11320 -43 0
11325 823 -11315 1003 0
-11325 11315 823 1003 0
-11326 824 11316 1004 0
-11326 -824 11316 0
11327 -1005 -11317 0
11330 -1008 -11320 0
11330 -82 -11318 0
11331 -88 -11320 0
-11335 11325 -833 0
11337 -11327 835 1015 0
11341 -11331 -1019 0
-11335 -108 11326 0
11335 -109 -11325 -11327 0
11346 -153 -11335 0
-11445 -648 11456 0
11449 -666 -11458 0
-11485 813 993 0
-11485 -813 0
11486 814 994 0
11488 816 996 0
11488 -996 0
11490 818 998 0
11488 -31 0
11487 -33 0
11490 -37 0
-11490 -43 0
-11495 823 1003 11485 0
-11495 -823 11485 0
11497 -1005 -11487 0
11500 -1008 -11490 0
11500 -82 -11488 0
11501 -88 -11490 0
-11505 -833 11495 0
11507 -11497 835 1015 0
11511 -11501 -1019 0
-11515 11505 -843 0
-11615 -648 11626 0
11619 -666 -11628 0
-11653 811 991 0
-11654 812 992 0
11655 813 993 0
11657 815 995 0
11658 816 996 0
11658 -996 0
11660 818 998 0
-11661 999 819 0
11662 1000 820 0
11656 -18 0
11658 -31 0
11657 -33 0
11660 -37 0
-11660 -43 0
-11663 821 1001 11653 0
-11664 822 1002 11654 0
11665 823 -11655 1003 0
11667 -1005 -11657 0
11670 -1008 -11660 0
1009 -11671 829 11661 0
1010 11672 830 -11662 0
11665 -64 -11657 -11655 0
11667 -78 -11657 -11660 0
11670 -82 -11658 0
11671 -88 -11660 0
831 -11673 11663 1011 0
-11674 11664 1012 832 0
11677 -11667 1015 835 0
11677 -11667 -1015 0
-11681 11671 839 1019 0
11681 -11671 -1019 0
1020 -11672 11682 840 0
11676 -108 -11665 0
11675 -109 -11667 -11665 0
841 -11683 11673 1021 0
-11683 -841 11673 0
-11684 11674 1022 842 0
-11691 11681 1029 849 0
1030 -11682 11692 850 0
11686 -153 -11675 0
-11693 11683 851 1031 0
-11694 11684 852 1032 0
11691 -11701 859 1039 0
1040 -11692 11702 860 0
-11694 -181 11683 11684 0
861 -11703 11693 1041 0
-11704 11694 1042 862 0
11701 -11711 1049 869 0
1050 -11702 11712 870 0
871 -11713 11703 1051 0
-11714 11704 1052 872 0
11711 -11721 1059 879 0
1060 -11712 11722 880 0
-11723 -881 11713 0
-11724 11714 1062 882 0
11721 -11731 1069 889 0
1070 -11722 11732 890 0
-11728 -353 11721 0
11731 -11741 1079 899 0
1080 -11732 11742 900 0
-11734 -361 11723 11724 0
-11738 -373 11724 11728 0
-11744 11734 902 1082 0
-11748 11738 906 1086 0
11741 -11751 1089 909 0
1090 -11742 11752 910 0
11738 -11746 -431 0
-11746 -434 11741 0
-11747 -436 11738 0
-11747 11741 -439 0
-11748 11741 -443 0
-11750 11741 -448 0
11746 -11756 1094 914 0
11748 -11758 916 1096 0
11750 -11760 -918 0
-11752 11762 1100 920 0
11756 -11766 1104 924 0
11758 -11768 926 1106 0
11766 -11776 934 1114 0
11768 -11778 1116 936 0
11776 -11786 1124 944 0
11778 -11788 1126 946 0
11786 -11796 954 1134 0
11788 -11798 956 1136 0
11806 -974 -11816 0
-11805 -738 -11806 11815 0
11807 -745 -11816 0
11817 -985 0
-11814 -775 0
-11815 -11816 -783 0
11818 -796 0
-11823 811 991 0
11824 992 812 0
11825 813 993 0
11827 815 995 0
11828 816 996 0
11828 -996 0
11829 817 997 0
11830 818 998 0
11830 -998 0
-11831 999 819 0
11826 -18 0
11828 -31 0
11827 -33 0
-11827 -34 0
-11830 -43 0
11831 -43 0
-11833 821 1001 11823 0
11834 822 -11824 1002 0
11835 823 -11825 1003 0
11837 825 -11827 1005 0
11837 -1005 -11827 0
11839 827 -11829 1007 0
11840 1008 -11830 828 0
11840 -1008 -11830 0
11841 829 -11831 1009 0
1009 -11841 829 11831 0
11835 -64 -11827 -11825 0
11837 -78 -11827 -11830 0
-11838 -82 11830 0
11840 -82 -11828 0
-11840 -88 11831 0
11841 -88 -11830 0
831 -11843 11833 1011 0
11844 -11834 1012 832 0
11847 -11837 835 1015 0
11847 -11837 -1015 0
11849 -11839 837 1017 0
11850 -11840 1018 838 0
11850 -1018 -11840 0
11851 -11841 839 1019 0
-11851 11841 839 1019 0
11851 -11841 -1019 0
11846 -108 -11835 0
11845 -109 -11837 -11835 0
11838 -110 -11845 0
-112 -11845 11840 0
841 -11853 11843 1021 0
11854 842 1022 -11844 0
11857 -11847 845 1025 0
11859 -11849 847 1027 0
11860 -11850 1028 848 0
11861 1029 -11851 849 0
-11861 11851 1029 849 0
11845 -11855 11843 -137 0
11856 -153 -11845 0
11864 -11854 852 1032 0
11864 -11854 -1032 0
11855 -11865 1033 853 0
11867 -11857 1035 855 0
11869 -11859 1037 857 0
11870 -11860 858 1038 0
11871 -11861 859 1039 0
11861 -11871 859 1039 0
-11870 11861 -223 0
11874 -11864 1042 862 0
11874 -11864 -1042 0
-11875 11865 863 1043 0
11865 -11875 -863 0
11877 -11867 865 1045 0
11877 -11867 -1045 0
11879 1047 -11869 867 0
11880 -11870 868 1048 0
11881 -11871 869 1049 0
11871 -11881 1049 869 0
-11877 -259 11871 0
-11878 11870 -262 0
11884 -11874 1052 872 0
-11885 11875 873 1053 0
-11885 11875 -873 0
11887 -11877 875 1055 0
-11887 11877 1055 875 0
-11888 11878 1056 876 0
11889 1057 -11879 877 0
11890 -11880 878 1058 0
11891 -11881 879 1059 0
11881 -11891 1059 879 0
-289 11877 -11885 0
11890 -11875 -292 0
-11886 -295 11877 0
11894 -11884 1062 882 0
11894 -11884 -1062 0
11885 -11895 1063 883 0
11885 -11895 -883 0
11886 -11896 -884 0
11888 -11898 886 1066 0
11899 1067 -11889 887 0
11891 -11901 1069 889 0
-11895 -338 11891 0
-344 -11896 11891 0
11897 -11890 -348 -11887 0
-11897 -349 11891 0
-11898 -353 11891 0
-11900 11891 -358 0
11895 -11905 1073 893 0
11896 -11906 894 1074 0
11897 -11907 1075 895 0
-11908 11898 1076 896 0
11909 -11899 897 1077 0
-11910 11900 898 1078 0
11901 -11911 1079 899 0
-11897 -11894 -372 11904 0
-380 11898 -11905 0
-386 11898 -11906 0
-11908 11901 -398 0
-11910 11901 -403 0
11905 903 -11915 1083 0
11905 -903 -11915 0
11906 904 -11916 1084 0
11907 -11917 905 1085 0
11908 -11918 906 1086 0
11908 -906 -11918 0
11919 -11909 907 1087 0
11910 -11920 908 1088 0
11911 -11921 909 1089 0
-425 11908 -11915 0
-427 11910 -11915 0
11911 -428 -11915 0
11908 -431 -11916 0
11911 -439 -11917 0
11910 -442 -11918 0
11911 -443 -11918 0
11921 -446 -11909 0
11911 -448 -11920 0
11915 -11925 913 1093 0
11918 -11928 916 1096 0
11918 -11928 -916 0
11929 -11919 917 1097 0
11920 -11930 918 1098 0
11921 -11931 919 1099 0
11918 -11925 -470 0
11920 -11925 -472 0
11921 -473 -11925 0
-476 11918 -11926 0
11920 -478 -11926 0
11921 -479 -11926 0
-481 11918 -11927 0
11920 -11927 -483 0
11921 -484 -11927 0
-487 11920 -11928 0
11921 -11928 -488 0
11921 -493 -11930 0
11925 -11935 923 1103 0
11925 -11935 -923 0
11926 -11936 924 1104 0
11927 -11937 925 1105 0
11928 -11938 926 1106 0
11939 -11929 927 1107 0
11930 -11940 928 1108 0
11930 -517 -11935 0
11930 -523 -11936 0
11930 -528 -11937 0
11930 -11938 -532 0
-533 11931 -11938 0
11938 -533 -11931 -11928 0
11930 -535 -11939 0
11931 -11940 -538 0
11935 -11945 933 1113 0
11937 -11947 935 1115 0
11938 -11948 1116 936 0
11945 -11955 1123 943 0
11947 -11957 945 1125 0
11947 -945 -11957 0
11948 -11958 946 1126 0
11958 1136 956 -11968 0
11958 -956 -11968 0
11968 1146 -11978 966 0
11968 -966 -11978 0
11968 -695 -11975 0
11968 -701 -11976 0
11968 -706 -11977 0
11978 -746 -11986 0
-11999 817 997 0
12001 999 819 0
12001 -999 0
12002 1000 820 0
-12009 827 11999 1007 0
12011 1009 829 -12001 0
12011 -1009 -12001 0
1010 12012 830 -12002 0
-12019 12009 837 1017 0
12021 -12011 839 1019 0
1020 -12012 12022 840 0
-12029 12019 847 1027 0
12031 -12021 1029 849 0
1030 -12022 12032 850 0
-12039 12029 1037 857 0
12041 -12031 859 1039 0
1040 -12032 12042 860 0
-12049 1047 12039 867 0
12051 -12041 1049 869 0
12051 -12041 -1049 0
1050 -12042 12052 870 0
-12059 1057 12049 877 0
1060 -12052 12062 880 0
-12069 1067 12059 887 0
1070 -12062 12072 890 0
-12079 12069 897 1077 0
1080 -12072 12082 900 0
-12089 12079 907 1087 0
1090 -12082 12092 910 0
-12099 12089 -917 0
-12092 12102 1100 920 0
-12109 12099 927 1107 0
-12165 -813 0
-12167 815 995 0
-12167 -815 0
-12168 816 996 0
-12169 817 997 0
-12170 818 998 0
-12170 -818 0
12171 999 819 0
12171 -999 0
-12165 -18 0
-12167 -31 0
-12167 -33 0
-12170 -33 0
-12168 -37 0
-12175 12165 1003 823 0
-12177 825 1005 12167 0
-826 -12178 12168 0
-12179 827 12169 1007 0
-12180 1008 12170 828 0
-828 -12180 12170 0
12181 1009 829 -12171 0
12181 -1009 -12171 0
-64 -12175 12167 0
-70 -12176 12167 0
-78 -12180 12170 12167 0
-12178 -82 12170 0
-833 -12185 12175 0
12176 -12186 1014 834 0
-12187 12177 835 1015 0
-12189 12179 837 1017 0
12190 -12180 1018 838 0
-12190 12180 1018 838 0
12191 -12181 839 1019 0
12191 -12181 -1019 0
-108 12176 -12185 0
-12190 -123 12180 12177 0
-12197 12187 845 1025 0
-12199 12189 847 1027 0
-12190 12200 848 1028 0
-12200 1028 12190 848 0
12201 -12191 1029 849 0
-12195 -153 12186 0
-12200 -168 12190 12187 0
-12207 12197 1035 855 0
-12209 12199 1037 857 0
-12210 12200 858 1038 0
12211 -12201 859 1039 0
-12210 -213 12200 12197 0
-12217 12207 865 1045 0
-12219 1047 12209 867 0
-12220 12210 868 1048 0
12221 -12211 1049 869 0
-12220 -258 12210 12207 0
-12227 12217 875 1055 0
-12229 1057 12219 877 0
-12230 12220 878 1058 0
12231 -12221 879 1059 0
-12230 -303 12220 12217 0
-12237 12227 885 1065 0
-12239 1067 12229 887 0
-12239 -887 12229 0
12230 -12240 888 1068 0
12230 -12240 -888 0
12230 -12240 -348 12227 0
-12247 12237 895 1075 0
-12249 12239 897 1077 0
-12249 12239 -897 0
12240 -12250 1078 898 0
-12250 12240 -898 0
-12259 12249 1087 907 0
-12259 12249 -907 0
12250 -12260 1088 908 0
12250 -12260 -908 0
12250 -438 -12260 12247 0
-12269 12259 917 1097 0
-12269 12259 -917 0
12260 -12270 1098 918 0
12260 -12270 -918 0
-12279 12269 927 1107 0
-12279 12269 -927 0
12270 -12280 928 1108 0
12270 -12280 -928 0
12270 -535 12269 -12280 0
-12278 12288 936 1116 0
-12289 12279 937 1117 0
-12289 12279 -937 0
12280 -12290 1118 938 0
12280 -12290 -580 12279 0
-12288 12298 1126 946 0
-12299 12289 1127 947 0
-12299 12289 -947 0
12290 -12300 1128 948 0
12290 -12300 12289 -625 0
-12298 956 12308 1136 0
-12309 12299 -957 0
12300 958 -12310 1138 0
-12295 -648 12306 0
-12297 -661 12308 0
12300 12299 -12310 -670 0
-12308 1146 12318 966 0
12310 -715 12309 -12320 0
-12318 976 12328 1156 0
-12326 984 1164 0
-12328 1166 986 0
-12328 -801 0
-12337 815 995 0
-12337 -815 0
-12338 816 996 0
-12339 817 997 0
-12340 818 998 0
-12340 -818 0
12341 -999 0
-12335 -18 0
-12335 -20 0
-12337 -31 0
-12337 -33 0
-12338 -37 0
-12345 12335 1003 823 0
-12347 825 1005 12337 0
-12348 -826 12338 0
-12349 827 12339 1007 0
-12350 1008 12340 828 0
-12350 -828 12340 0
12351 -1009 -12341 0
-12345 -64 12337 0
-12346 -70 12337 0
-12348 -82 12340 0
-12355 -833 12345 0
-12356 12346 834 1014 0
-12357 12347 835 1015 0
-12359 12349 837 1017 0
-12360 12350 1018 838 0
12361 -12351 -1019 0
-12355 -108 12346 0
-12367 12357 845 1025 0
-12369 12359 847 1027 0
-12370 1028 12360 848 0
-12365 -153 12356 0
-12377 12367 1035 855 0
-12379 12369 1037 857 0
-12380 12370 858 1038 0
-12389 1047 12379 867 0
-12387 -258 12380 0
-12390 -258 12380 12377 0
-12399 1057 12389 877 0
-12400 12390 878 1058 0
-12395 -289 12387 0
-12405 12395 1063 883 0
-12409 1067 12399 887 0
-12410 12400 888 1068 0
-12415 12405 1073 893 0
-12419 12409 897 1077 0
-12420 12410 1078 898 0
-12425 12415 1083 903 0
-12429 12419 907 1087 0
-12430 12420 -908 0
-12439 12429 917 1097 0
12425 -12440 -472 12430 0
-12449 12439 -927 0
-12450 12440 1108 928 0
-12459 12449 937 1117 0
-12460 12450 1118 938 0
-12469 12459 -947 0
12460 -12470 1128 948 0
-12465 -648 12476 0
-12467 -661 12478 0
12470 12469 -12480 -670 0
-12478 1146 12488 966 0
-12488 976 12498 1156 0
-12496 984 1164 0
-12498 1166 986 0
-12498 -801 0
-12505 -813 0
-12506 814 994 0
12507 815 995 0
12507 -995 0
-12508 816 996 0
-12509 817 997 0
-12510 818 998 0
12511 999 819 0
12511 -999 0
-12505 -18 0
-12507 -31 0
12508 -31 0
-12507 -33 0
12507 -34 0
-12508 -37 0
-12515 12505 1003 823 0
12517 825 -12507 1005 0
12518 -12508 1006 826 0
-12518 -826 12508 0
-12519 827 12509 1007 0
-12520 -828 12510 0
12521 1009 829 -12511 0
12521 -1009 -12511 0
-12515 -64 12507 0
-12516 -70 12507 0
-70 -12517 12507 12506 0
-12518 -82 12510 0
-12525 -833 12515 0
-12526 12516 834 1014 0
12527 -12517 835 1015 0
-12527 12517 835 1015 0
12528 836 -12518 1016 0
-12529 12519 837 1017 0
12531 -12521 839 1019 0
12531 -12521 -1019 0
-12525 -108 12516 0
12528 -121 -12517 0
12537 -12527 845 1025 0
12538 -12528 1026 846 0
-12539 12529 847 1027 0
12541 -12531 1029 849 0
12541 -12531 -1029 0
-12535 -153 12526 0
12538 -166 -12527 0
12547 -12537 1035 855 0
12547 -12537 -1035 0
12548 -12538 856 1036 0
-12549 12539 1037 857 0
12551 -12541 1039 859 0
12551 -12541 -1039 0
12548 -211 -12537 0
12557 -12547 865 1045 0
12557 -12547 -1045 0
12558 -12548 866 1046 0
-12559 1047 12549 867 0
12561 -12551 1049 869 0
12561 -12551 -1049 0
12558 -12547 -256 0
12557 -12547 -259 -12551 0
12567 -12557 875 1055 0
12567 -12557 -1055 0
12568 -12558 1056 876 0
-12569 1057 12559 877 0
12571 -12561 879 1059 0
12571 -12561 -1059 0
12568 -12557 -301 0
12567 -12557 -304 -12561 0
-12558 12568 -308 -12561 0
-12567 12577 885 1065 0
-12567 12577 -1065 0
12578 -12568 886 1066 0
12578 -1066 -12568 0
-12579 1067 12569 887 0
12581 -12571 889 1069 0
12581 -1069 -12571 0
-12567 -346 12578 0
-12567 -349 12577 -12571 0
-12568 -353 -12571 12578 0
12587 -12577 895 1075 0
12587 -12577 -1075 0
-12578 12588 896 1076 0
-12578 12588 -1076 0
-12589 12579 897 1077 0
12591 -12581 899 1079 0
12591 -12581 -1079 0
-391 12588 -12577 0
-12577 -12581 -394 12587 0
12588 -12578 -398 -12581 0
-12587 12597 905 1085 0
-12587 12597 -1085 0
-12588 12598 1086 906 0
-12588 12598 -1086 0
-12599 12589 907 1087 0
12601 -12591 909 1089 0
12601 -12591 -1089 0
-12587 -436 12598 0
-12587 -439 -12591 12597 0
-12588 12598 -443 -12591 0
-12597 12607 1095 915 0
-12597 12607 -1095 0
-12598 12608 1096 916 0
-12598 12608 -1096 0
-12609 12599 917 1097 0
12611 -12601 919 1099 0
-12597 -481 12608 0
-12597 -484 12607 -12601 0
12608 -12598 -488 -12601 0
-12607 12617 925 1105 0
-12607 -1105 12617 0
-12608 12618 926 1106 0
-12608 12618 -1106 0
-12607 12618 -526 0
-12607 12617 -529 -12611 0
-12608 -533 -12611 12618 0
-12617 12627 1115 935 0
-12618 12628 1116 936 0
-12627 12637 1125 945 0
-12628 12638 1126 946 0
-12637 1135 12647 955 0
-12638 956 12648 1136 0
-12635 -648 12646 0
-12637 -661 12648 0
-12647 1145 12657 965 0
-12648 1146 12658 966 0
-12658 976 12668 1156 0
-12666 984 1164 0
-12668 1166 986 0
-12668 -801 0
12673 811 991 0
-12675 -813 0
12677 815 995 0
-12678 816 996 0
-12679 817 997 0
-12680 818 998 0
-12680 -818 0
12681 999 819 0
12681 -999 0
-12675 -18 0
-12677 -31 0
-12677 -33 0
-12678 -37 0
12683 821 1001 -12673 0
-12685 12675 1003 823 0
12687 825 -12677 1005 0
-826 -12688 12678 0
-12689 827 12679 1007 0
-828 -12690 12680 0
12691 1009 829 -12681 0
12691 -1009 -12681 0
-64 -12685 12677 0
-70 12677 -12686 0
-12688 -82 12680 0
12693 831 -12683 1011 0
-833 -12695 12685 0
12686 -12696 1014 834 0
12697 -12687 835 1015 0
-12699 12689 837 1017 0
12701 -12691 839 1019 0
12701 -12691 -1019 0
-108 12686 -12695 0
-12693 12703 841 1021 0
12707 -12697 845 1025 0
-12709 12699 847 1027 0
12711 -12701 1029 849 0
-12705 -153 12696 0
-12703 12713 851 1031 0
12717 -12707 1035 855 0
-12719 12709 1037 857 0
12721 -12711 859 1039 0
12718 -211 -12707 0
861 -12713 12723 1041 0
12728 -12718 866 1046 0
-12729 1047 12719 867 0
12731 -12721 1049 869 0
12728 -12717 -256 0
871 -12723 12733 1051 0
12738 -12728 876 1056 0
-12739 1057 12729 877 0
12741 -12731 879 1059 0
881 -12733 12743 1061 0
-12738 12748 886 1066 0
-12749 1067 12739 887 0
12751 -12741 889 1069 0
891 -12743 12753 1071 0
12758 -12748 896 1076 0
12759 -12749 1077 897 0
-12759 12749 897 1077 0
12761 -12751 899 1079 0
901 -12753 12763 1081 0
-12759 12769 1087 907 0
-12769 12759 907 1087 0
-12779 12769 917 1097 0
-12779 12769 -917 0
12778 -12763 -455 0
12788 -12778 926 1106 0
-12789 12779 927 1107 0
-12789 12779 -927 0
12789 -12799 937 1117 0
12789 -12799 -937 0
12799 -12809 947 1127 0
12799 -12809 -947 0
12809 957 -12819 1137 0
12809 -957 -12819 0
-12805 -648 12816 0
-12807 -661 12818 0
-12818 1146 12828 966 0
12819 1147 -12829 967 0
-12828 976 12838 1156 0
12828 -12838 -976 0
12829 1157 -12839 977 0
12829 -977 -12839 0
-12828 -756 12839 0
-12838 1166 986 0
-12836 -790 0
12840 -805 0
-12843 811 991 0
-12844 812 992 0
-12848 816 996 0
-12849 817 997 0
-12850 818 998 0
-12850 -818 0
12851 -999 0
-12845 -18 0
-12845 -20 0
-12847 -31 0
-12847 -33 0
-12848 -37 0
-12853 821 1001 12843 0
-12853 -821 12843 0
-12854 822 1002 12844 0
-12855 12845 1003 823 0
-12858 -826 12848 0
-12859 827 12849 1007 0
-12860 -828 12850 0
12861 -1009 -12851 0
-64 -12855 12847 0
-12856 -70 12847 0
-12858 -82 12850 0
-12863 831 12853 1011 0
-12864 12854 1012 832 0
-832 -12864 12854 0
-12865 -833 12855 0
-12866 12856 834 1014 0
-12869 12859 837 1017 0
12871 -12861 -1019 0
-12865 -108 12856 0
-12873 12863 841 1021 0
-12874 842 1022 12864 0
-12879 12869 847 1027 0
-12875 -153 12866 0
-12883 12873 851 1031 0
-12883 -851 12873 0
-12884 12874 852 1032 0
-12889 12879 1037 857 0
861 -12893 12883 1041 0
-12893 -861 12883 0
-12894 12884 1042 862 0
-12899 1047 12889 867 0
-12894 -226 12883 12884 0
871 -12903 12893 1051 0
-12903 -871 12893 0
-12904 12894 1052 872 0
-12909 1057 12899 877 0
-12904 -271 12893 12894 0
881 -12913 12903 1061 0
-12913 -881 12903 0
-12914 12904 1062 882 0
-12919 1067 12909 887 0
-12914 -316 12903 12904 0
-12923 -891 12913 0
-12924 12914 1072 892 0
-12929 12919 897 1077 0
-12924 -361 12913 12914 0
-12934 12924 1082 902 0
-12939 12929 907 1087 0
-12934 -406 12923 12924 0
-12944 12934 1092 912 0
-12949 12939 917 1097 0
-12954 12944 1102 922 0
-12959 12949 -927 0
-12964 12954 1112 932 0
12959 -12969 937 1117 0
12954 -554 -12969 12959 0
-12974 12964 1122 942 0
12969 -12979 947 1127 0
12969 -12979 -947 0
-12974 952 12984 1132 0
12979 957 -12989 1137 0
12979 -644 -12989 12974 0
-12975 -648 12986 0
-12977 -661 12988 0
-12988 1146 12998 966 0
-12998 976 13008 1156 0
-12999 13009 -1157 0
-13008 -756 12999 0
-13008 1166 986 0
-13006 -790 0
13010 -805 0
-13018 816 996 0
-13019 817 997 0
-13020 818 998 0
-13020 -818 0
13021 -999 0
-13015 -18 0
-13015 -20 0
-13017 -31 0
-13017 -33 0
-13018 -37 0
-13025 13015 1003 823 0
-826 -13028 13018 0
-13029 827 13019 1007 0
-828 -13030 13020 0
13031 -1009 -13021 0
-64 -13025 13017 0
-70 13017 -13026 0
-13028 -82 13020 0
-833 -13035 13025 0
13026 -13036 1014 834 0
-13039 13029 837 1017 0
13041 -13031 -1019 0
-108 13026 -13035 0
-13049 13039 847 1027 0
-13045 -153 13036 0
-13059 13049 1037 857 0
-13069 1047 13059 867 0
-13079 1057 13069 877 0
-13089 1067 13079 887 0
-887 -13089 13079 0
13089 -13099 897 1077 0
-13099 13089 -897 0
13099 -13109 1087 907 0
13109 1097 917 -13119 0
13109 -13119 -917 0
-13129 13119 927 1107 0
-13129 13119 -927 0
-13139 1117 937 13129 0
13129 -13139 -937 0
-576 -13138 13129 0
13138 -13148 1126 946 0
13139 -13149 947 1127 0
13139 -13149 -947 0
13148 956 -13158 1136 0
13149 957 -13159 1137 0
13149 -957 -13159 0
-13145 -648 13156 0
13149 -666 -13158 0
13158 1146 -13168 966 0
13159 1147 -13169 967 0
13159 -967 -13169 0
13159 -711 -13168 0
13168 976 -13178 1156 0
13169 1157 977 -13179 0
13169 -977 -13179 0
-756 13169 -13178 0
-13176 -790 0
13179 -801 0
-13187 815 995 0
-13187 -815 0
13188 816 996 0
13188 -996 0
-13189 817 997 0
-13190 818 998 0
-13190 -818 0
13191 -999 0
-13185 -18 0
-13187 -33 0
-13188 -37 0
-13195 13185 823 1003 0
-13197 825 1005 13187 0
-13199 827 13189 1007 0
-13200 1008 13190 828 0
-13200 -828 13190 0
13201 -1009 -13191 0
-13195 -64 13187 0
-13196 -70 13187 0
-13198 -82 13190 0
-82 13200 -13188 0
-13205 -833 13195 0
-13206 13196 834 1014 0
-13207 13197 835 1015 0
-13209 13199 837 1017 0
-13210 13200 1018 838 0
13211 -13201 -1019 0
-13205 -108 13196 0
-13210 -123 13200 13197 0
-13217 13207 845 1025 0
-13219 13209 847 1027 0
-13220 1028 13210 848 0
-13215 -153 13206 0
-13220 -168 13210 13207 0
-13227 13217 1035 855 0
-13229 13219 1037 857 0
-13230 13220 1038 858 0
-13230 -213 13220 13217 0
-13237 13227 865 1045 0
-13239 1047 13229 867 0
-13240 13230 868 1048 0
-13240 -258 13230 13227 0
-13247 13237 875 1055 0
-13249 1057 13239 877 0
-13250 13240 878 1058 0
-13250 13240 -878 0
-13250 -303 13240 13237 0
-13257 13247 885 1065 0
-13259 1067 13249 887 0
-13259 -887 13249 0
13250 -13260 888 1068 0
13250 -13260 -348 13247 0
-13269 13259 897 1077 0
13260 -13270 1078 898 0
-13270 13260 -898 0
-13270 -393 13260 13257 0
-13279 13269 907 1087 0
-13279 13269 -907 0
13270 -13280 908 1088 0
-13280 13270 -908 0
-13289 13279 917 1097 0
-13289 13279 -917 0
13280 -13290 1098 918 0
-13290 13280 -918 0
-13290 13280 -490 13279 0
-13299 13289 927 1107 0
-13299 13289 -927 0
13290 -13300 1108 928 0
13290 -13300 -928 0
-13309 13299 937 1117 0
-13309 13299 -937 0
13300 -13310 1118 938 0
13300 -13310 -580 13299 0
-13319 13309 1127 947 0
-13319 13309 -947 0
13310 -13320 1128 948 0
13310 -13320 13309 -625 0
-13329 13319 -957 0
13320 958 -13330 1138 0
-13315 -648 13326 0
-13317 -661 13328 0
13320 13319 -13330 -670 0
-13328 1146 13338 966 0
13330 -715 13329 -13340 0
-13338 976 13348 1156 0
-13346 984 1164 0
-13348 1166 986 0
-13348 -801 0
-13353 811 991 0
-13354 812 992 0
-13355 813 993 0
-13355 -813 0
-13356 814 994 0
-13357 815 995 0
-13357 -815 0
-13358 816 996 0
-13358 -816 0
13359 817 997 0
-13360 818 998 0
13361 999 819 0
13361 -999 0
13362 1000 820 0
-13357 -31 0
-13358 -37 0
-13360 -37 0
-13363 821 1001 13353 0
-13364 822 1002 13354 0
-13365 823 1003 13355 0
-13365 -823 13355 0
-13366 824 13356 1004 0
-13366 -824 13356 0
-13367 825 1005 13357 0
-13368 -826 13358 0
13369 827 -13359 1007 0
-13370 1008 13360 828 0
-13370 -828 13360 0
13371 1009 829 -13361 0
13371 -1009 -13361 0
1010 13372 830 -13362 0
-13367 -64 13355 13357 0
-13367 -76 13358 0
-13368 -76 13358 13357 0
-13367 -78 13360 0
-13368 -82 13360 0
-13373 831 13363 1011 0
-13373 -831 13363 0
-13374 13364 1012 832 0
-13375 13365 833 1013 0
-13375 -833 13365 0
-13376 13366 1014 834 0
-13377 13367 835 1015 0
-13378 13368 836 1016 0
13379 -13369 837 1017 0
-13380 13370 1018 838 0
13381 -13371 839 1019 0
13381 -13371 -1019 0
1020 -13372 13382 840 0
-13377 -94 13363 13367 0
13379 -131 -13369 -13371 0
-13383 13373 841 1021 0
-13384 13374 1022 842 0
-13386 13376 1024 844 0
-13387 13377 845 1025 0
-13388 13378 846 1026 0
13389 -13379 847 1027 0
13389 -1027 -13379 0
-13390 1028 13380 848 0
13391 -13381 1029 849 0
13391 -13381 -1029 0
1030 -13382 13392 850 0
-13384 -136 13373 13374 0
-13385 -153 13376 0
-175 -13389 13380 0
13390 -175 -13379 0
13389 -13381 -176 -13379 0
-13393 13383 851 1031 0
-13394 13384 852 1032 0
-13397 13387 1035 855 0
13399 -13389 1037 857 0
13399 -1037 -13389 0
-13390 13400 858 1038 0
-13400 13390 858 1038 0
-13390 13400 -1038 0
13401 -13391 1039 859 0
13401 -13391 -1039 0
1040 -13392 13402 860 0
-13387 13400 -213 0
-220 13400 -13389 0
13399 -13391 -221 -13389 0
861 -13403 13393 1041 0
-13404 13394 1042 862 0
-13407 13397 865 1045 0
-13407 13397 -865 0
13409 1047 -13399 867 0
13409 -1047 -13399 0
-13400 13410 1048 868 0
-13410 13400 1048 868 0
-13400 13410 -1048 0
13411 -13401 869 1049 0
13411 -13401 -1049 0
1050 -13402 13412 870 0
-13407 13397 13393 -229 0
13400 -265 -13409 0
-13400 -265 13409 -13399 0
13410 -265 -13399 0
13409 -266 -13401 -13399 0
-268 -13400 -13401 13410 0
13411 -13401 -270 -13402 0
871 -13413 13403 1051 0
-13414 13404 1052 872 0
-13407 13417 875 1055 0
-13417 13407 875 1055 0
-13417 13407 -875 0
13419 1057 -13409 877 0
13409 -13419 877 1057 0
13419 -1057 -13409 0
-13410 13420 878 1058 0
-13410 13420 -1058 0
13421 -13411 879 1059 0
13421 -13411 -1059 0
1060 -13412 13422 880 0
-13417 -274 13403 13407 0
13405 13409 -291 -13419 0
-13418 -301 13407 13408 0
-13417 -303 13410 0
-13407 13420 -303 0
13410 -310 -13419 0
13420 -310 -13409 0
13419 -13411 -13409 -311 0
-13410 13420 -313 -13411 0
13421 -315 -13411 -13412 0
-13423 13413 881 1061 0
-13424 13414 1062 882 0
-13427 13417 1065 885 0
13429 1067 -13419 887 0
-13429 13419 887 1067 0
13429 -1067 -13419 0
13430 -13420 888 1068 0
13430 -13420 -1068 0
13431 -13421 889 1069 0
13421 -13431 1069 889 0
13431 -1069 -13421 0
1070 -13422 13432 890 0
-1070 -13422 13432 0
-13424 -316 13413 13414 0
-13417 13430 -348 0
13420 -355 -13429 0
-355 -13420 -13419 13429 0
13430 -355 -13419 0
13429 -13421 -13419 -356 0
13431 -356 -13419 0
13430 -358 -13421 -13420 0
13431 -13421 -360 -13422 0
891 -13433 13423 1071 0
-13433 -891 13423 0
-13434 13424 1072 892 0
-13437 13427 895 1075 0
13439 -13429 897 1077 0
-13439 13429 897 1077 0
13439 -13429 -1077 0
13440 -13430 898 1078 0
-13440 13430 898 1078 0
13440 -13430 -1078 0
13441 -13431 899 1079 0
13441 -13431 -1079 0
1080 -13432 13442 900 0
-13442 1080 13432 900 0
13442 -1080 -13432 0
-13440 -375 13424 13430 0
13425 -13440 -382 13430 0
13426 -13440 -388 13430 0
13427 -393 -13440 13430 0
13428 -397 -13440 13430 0
13430 -400 -13439 0
-13430 -400 13439 -13429 0
13440 -400 -13429 0
-13440 13430 -400 13429 0
13431 -13439 -401 0
13439 -13431 -401 -13429 0
13441 -13429 -401 0
13440 -13430 -13431 -403 0
-13441 -405 13432 0
13441 -13431 -405 -13432 0
-13443 13433 901 1081 0
-13444 13434 1082 902 0
-13447 13437 905 1085 0
13449 -13439 907 1087 0
13439 -13449 -907 0
13449 -13439 -1087 0
13450 -13440 1088 908 0
-13440 13450 -1088 0
13451 -13441 909 1089 0
13451 -13441 -1089 0
1090 -13442 13452 910 0
13452 -1090 -13442 0
-438 13437 -13450 13440 0
13440 -445 -13449 0
-13440 -445 -13439 13449 0
13450 -445 -13439 0
13441 -446 -13449 0
13449 -446 -13439 -13441 0
13441 -13450 -448 0
13450 -13441 -448 -13440 0
13451 -13441 -450 -13442 0
-13453 -911 13443 0
-13454 13444 1092 912 0
13459 -13449 917 1097 0
13449 -13459 -917 0
13459 -13449 -1097 0
-13450 13460 918 1098 0
13450 -13460 1098 918 0
13460 -13450 -1098 0
13461 -13451 919 1099 0
13461 -13451 -1099 0
-13452 13462 1100 920 0
13462 -1100 -13452 0
-13457 -462 13444 13447 0
-13444 -465 13460 0
13450 -13459 -490 0
13459 -13449 -13450 -490 0
13460 -13449 -490 0
13450 13449 -13460 -490 0
13459 -13449 -13451 -491 0
13461 -13449 -491 0
13460 -493 -13451 -13450 0
13450 13451 -493 -13461 0
13461 -13451 -495 -13452 0
-13464 13454 1102 922 0
13469 -13459 927 1107 0
13459 -13469 927 1107 0
13469 -1107 -13459 0
-13460 13470 928 1108 0
-13460 13470 -1108 0
13471 -13461 929 1109 0
13471 -13461 -1109 0
1110 -13462 13472 930 0
13460 -535 -13469 0
-13460 -535 -13459 13469 0
13470 -535 -13459 0
-13470 13459 13460 -535 0
13461 -536 -13469 0
13469 -13461 -536 -13459 0
13470 -13460 -538 -13461 0
13471 -13461 -540 -13462 0
-13474 13464 1112 932 0
13479 -13469 937 1117 0
13469 -13479 1117 937 0
13479 -13469 -1117 0
-13470 13480 1118 938 0
-13470 13480 -1118 0
13481 -13471 1119 939 0
13481 -13471 -1119 0
-13472 13482 1120 940 0
13482 -1120 -13472 0
13469 -13479 13464 -554 0
13465 -562 -13480 13470 0
-13470 -580 -13469 13479 0
13480 -580 -13469 0
13479 -13471 -581 -13469 0
13481 -581 -13469 0
-13470 13480 -13471 -583 0
13481 -13471 -13472 -585 0
-13484 13474 1122 942 0
13489 -13479 1127 947 0
-13489 13479 947 1127 0
13489 -13479 -1127 0
-13480 13490 948 1128 0
13480 -13490 948 1128 0
-13480 13490 -1128 0
13491 -13481 949 1129 0
13491 -13481 -1129 0
-13482 13492 1130 950 0
-13486 -603 13475 13476 0
-13485 13478 -605 0
-13485 -607 13480 0
13475 -607 -13490 13480 0
-13480 13489 -13479 -625 0
13490 -13479 -625 0
13481 -13489 -626 0
-13481 13489 -626 -13479 0
-13480 13490 -628 -13481 0
13491 -13481 -630 -13482 0
-13481 -630 13492 0
-13489 1137 13499 957 0
-13489 -1137 13499 0
13500 -13490 958 1138 0
13500 -13490 -1138 0
13501 -13491 959 1139 0
-13492 13502 1140 960 0
-13488 -666 13499 0
-13489 -13490 -670 13499 0
-13489 13500 -670 0
-13491 -671 13499 -13489 0
13500 -13491 -13490 -673 0
13501 -13491 -675 -13492 0
-13494 962 13504 1142 0
-13496 -1144 13506 0
-13499 1147 13509 967 0
-13499 -1147 13509 0
13510 -13500 1148 968 0
13510 -13500 -1148 0
-13494 -685 13505 0
-13494 -686 13506 0
-13494 -687 13507 0
-13494 -688 13508 0
-13494 -689 13509 0
-13495 -693 13506 0
-13499 -715 -13500 13509 0
13510 -13499 -715 0
13500 -715 13499 -13510 0
-13499 -13501 13509 -716 0
13510 -13501 -718 -13500 0
13511 -13501 -720 -13502 0
-13507 -1155 13517 0
-13509 1157 13519 977 0
-13509 -1157 13519 0
13520 -13510 1158 978 0
13520 -13510 -1158 0
-13506 -745 13517 0
13510 13508 -13520 -757 0
-13510 -13509 -760 13519 0
13510 -760 13509 -13520 0
-13509 -761 -13511 13519 0
13520 -13510 -763 -13511 0
-13516 984 1164 0
-13515 -783 0
-13518 -801 0
-13520 -13519 -805 0
13520 13519 -805 0
13523 811 991 0
-13525 -813 0
-13527 -815 0
-13528 816 996 0
-13530 818 998 0
-13530 -818 0
13531 -999 0
-13525 -18 0
-13527 -31 0
-13527 -33 0
-13528 -37 0
13533 821 1001 -13523 0
-13535 13525 1003 823 0
-13537 13527 1005 825 0
-826 -13538 13528 0
-828 -13540 13530 0
13541 -1009 -13531 0
-64 -13535 13527 0
-70 13527 -13536 0
-13538 -82 13530 0
13543 831 -13533 1011 0
-833 -13545 13535 0
13536 -13546 1014 834 0
13551 -13541 -1019 0
-108 13536 -13545 0
-13543 13553 841 1021 0
-13555 -153 13546 0
-13553 13563 851 1031 0
861 -13563 13573 1041 0
13587 -274 -13573 0
13597 -13587 885 1065 0
13607 -13597 895 1075 0
-13655 -648 13666 0
-13657 -661 13668 0
-13668 1146 13678 966 0
-13678 976 13688 1156 0
-13679 13689 -1157 0
13679 -13688 -756 0
-13688 1166 986 0
-13686 -790 0
13690 -805 0
-13697 -815 0
-13698 816 996 0
-13700 818 998 0
-13700 -818 0
13701 -999 0
-13695 -18 0
-13695 -20 0
-13697 -31 0
-13697 -33 0
-13698 -37 0
-13705 13695 1003 823 0
-13707 13697 1005 825 0
-13708 -826 13698 0
-13710 -828 13700 0
13711 -1009 -13701 0
-13705 -64 13697 0
-13706 -70 13697 0
-13708 -82 13700 0
-13715 -833 13705 0
-13716 13706 834 1014 0
13721 -13711 -1019 0
-13715 -108 13706 0
-13725 -153 13716 0
-13825 -648 13836 0
-13827 -661 13838 0
-13838 1146 13848 966 0
-13848 976 13858 1156 0
-13849 13859 -1157 0
13849 -13858 -756 0
-13858 1166 986 0
-13856 -790 0
13860 -805 0
-13865 -813 0
13866 814 994 0
-13867 -815 0
-13868 816 996 0
-13870 818 998 0
-13870 -818 0
13871 -999 0
-13867 -31 0
-13867 -33 0
-13868 -37 0
13876 824 -13866 1004 0
-13877 13867 1005 825 0
-13878 -826 13868 0
-13880 -828 13870 0
13881 -1009 -13871 0
-13876 -70 13867 0
-70 13877 -13866 0
-13877 -78 13870 0
-13878 -82 13870 0
-13886 13876 1014 834 0
13886 -1014 -13876 0
13887 -13877 835 1015 0
13891 -13881 -1019 0
-13885 -109 13877 0
-13895 13886 -153 0
-13995 -648 14006 0
-13997 -661 14008 0
-14008 1146 14018 966 0
-14018 976 14028 1156 0
-14019 14029 -1157 0
14019 -14028 -756 0
-14028 1166 986 0
-14026 -790 0
14030 -805 0
14035 813 993 0
14036 814 994 0
-14037 -815 0
-14038 816 996 0
-14040 818 998 0
-14040 -818 0
14041 -999 0
14035 -18 0
14036 -18 0
-14035 -20 0
-14037 -31 0
-14037 -33 0
-14038 -37 0
14045 823 -14035 1003 0
14046 824 -14036 1004 0
-14047 14037 1005 825 0
-14048 -826 14038 0
-14050 -828 14040 0
14051 -1009 -14041 0
-70 14047 -14036 0
-14048 -82 14040 0
14056 -1014 -14046 0
14057 -14047 835 1015 0
14061 -14051 -1019 0
14055 -109 -14047 -14045 0
14057 -109 -14045 0
14066 -153 -14055 0
-14165 -648 14176 0
14169 -666 -14178 0
-14196 -790 0
-14205 -813 0
-14208 816 996 0
-14210 818 998 0
-14210 -818 0
14211 -999 0
-14205 -18 0
-14207 -31 0
-14207 -33 0
-14208 -37 0
-14215 14205 1003 823 0
-14218 -826 14208 0
-14220 -828 14210 0
14221 -1009 -14211 0
-14215 -64 14207 0
-14216 -70 14207 0
-14218 -82 14210 0
-14225 -833 14215 0
-14226 14216 834 1014 0
14231 -14221 -1019 0
-14225 -108 14216 0
-14235 -153 14226 0
-14335 -648 14346 0
-14337 -661 14348 0
-14348 1146 14358 966 0
-14358 976 14368 1156 0
-14359 14369 -1157 0
14359 -14368 -756 0
-14368 1166 986 0
-14366 -790 0
14370 -805 0
-14375 -813 0
-14378 816 996 0
-14380 818 998 0
-14380 -818 0
14381 -999 0
-14375 -18 0
-14377 -31 0
-14377 -33 0
-14378 -37 0
-14385 14375 1003 823 0
-826 -14388 14378 0
-828 -14390 14380 0
14391 -1009 -14381 0
-64 -14385 14377 0
-70 14377 -14386 0
-14388 -82 14380 0
-833 -14395 14385 0
14386 -14396 1014 834 0
14401 -14391 -1019 0
14386 -108 -14395 0
-14405 -153 14396 0
-14505 -648 14516 0
14509 -666 -14518 0
-14536 -790 0
-14548 816 996 0
-14550 818 998 0
-14550 -818 0
14551 -999 0
-14545 -18 0
-14545 -20 0
-14547 -31 0
-14547 -33 0
-14548 -37 0
-14555 14545 1003 823 0
-14558 -826 14548 0
-14560 -828 14550 0
14561 -1009 -14551 0
-64 -14555 14547 0
-14556 -70 14547 0
-14558 -82 14550 0
-14565 -833 14555 0
-14566 14556 834 1014 0
14571 -14561 -1019 0
-14565 -108 14556 0
-14575 -153 14566 0
-14675 -648 14686 0
14679 -666 -14688 0
-14706 -790 0
-14718 816 996 0
-14720 818 998 0
-14720 -818 0
14721 -999 0
-14715 -18 0
-14715 -20 0
-14717 -31 0
-14717 -33 0
-14718 -37 0
-14725 14715 1003 823 0
-826 -14728 14718 0
-828 -14730 14720 0
14731 -1009 -14721 0
-64 -14725 14717 0
-70 14717 -14726 0
-14728 -82 14720 0
-833 -14735 14725 0
14726 -14736 1014 834 0
14741 -14731 -1019 0
14726 -108 -14735 0
-14745 -153 14736 0
-14845 -648 14856 0
14849 -666 -14858 0
-14885 -813 0
14886 814 994 0
-14888 816 996 0
-14890 818 998 0
-14890 -818 0
14891 -999 0
-14887 -31 0
-14887 -33 0
-14888 -37 0
14896 824 -14886 1004 0
-14898 -826 14888 0
-14900 -828 14890 0
14901 -1009 -14891 0
-14896 -70 14887 0
14897 -70 -14886 0
-14897 -78 14890 0
-14898 -82 14890 0
-14906 14896 1014 834 0
14906 -1014 -14896 0
14907 -14897 1015 835 0
14911 -14901 -1019 0
-14905 -109 14897 0
-14915 14906 -153 0
-15015 -648 15026 0
15019 -666 -15028 0
-15046 -790 0
-15055 -813 0
15056 814 994 0
-15058 816 996 0
-15060 818 998 0
-15060 -818 0
15061 -999 0
-15057 -31 0
-15057 -33 0
-15058 -37 0
15066 824 -15056 1004 0
-826 -15068 15058 0
-828 -15070 15060 0
15071 -1009 -15061 0
-70 15057 -15066 0
15067 -70 -15056 0
-78 -15067 15060 0
-15068 -82 15060 0
15066 -15076 1014 834 0
15076 -1014 -15066 0
15077 -15067 1015 835 0
15081 -15071 -1019 0
-109 15067 -15075 0
15076 -15085 -153 0
-15185 -648 15196 0
15189 -666 -15198 0
15225 813 993 0
15226 814 994 0
-15228 816 996 0
-15230 818 998 0
-15230 -818 0
15231 -999 0
15226 -18 0
-15225 -20 0
-15227 -31 0
-15227 -33 0
-15228 -37 0
15235 823 -15225 1003 0
15236 824 -15226 1004 0
-15238 -826 15228 0
-15240 -828 15230 0
15241 -1009 -15231 0
-15236 -70 15227 0
15237 -70 -15226 0
-15237 -78 15230 0
-15238 -82 15230 0
15246 -1014 -15236 0
15247 -15237 1015 835 0
15251 -15241 -1019 0
-15245 -109 15237 0
15245 -109 -15235 -15237 0
15256 -153 -15245 0
-15355 -648 15366 0
15359 -666 -15368 0
15395 813 993 0
15396 814 994 0
-15398 816 996 0
-15400 818 998 0
-15400 -818 0
15401 -999 0
15396 -18 0
-15395 -20 0
-15397 -31 0
-15397 -33 0
-15398 -37 0
15405 823 -15395 1003 0
15406 824 -15396 1004 0
-826 -15408 15398 0
-828 -15410 15400 0
15411 -1009 -15401 0
-70 15397 -15406 0
15407 -70 -15396 0
-78 -15407 15400 0
-15408 -82 15400 0
15416 -1014 -15406 0
15417 -15407 1015 835 0
15421 -15411 -1019 0
-109 15407 -15415 0
15415 -109 -15405 -15407 0
15426 -153 -15415 0
-15567 -815 0
15568 816 996 0
15568 -996 0
-15570 818 998 0
-15570 -818 0
15571 -999 0
-15565 -18 0
-15567 -33 0
-15568 -37 0
-15575 15565 823 1003 0
-15580 -828 15570 0
15581 -1009 -15571 0
-15575 -64 15567 0
-15576 -70 15567 0
-15578 -82 15570 0
-82 15580 -15568 0
-15585 -833 15575 0
-15586 15576 834 1014 0
15591 -15581 -1019 0
-15585 -108 15576 0
-15595 -153 15586 0
-15695 -648 15706 0
-15697 -661 15708 0
-15708 1146 15718 966 0
-15718 976 15728 1156 0
-15719 15729 -1157 0
15719 -15728 -756 0
-15728 1166 986 0
-15726 -790 0
15730 -805 0
-15737 -815 0
15738 816 996 0
15738 -996 0
-15740 818 998 0
-15740 -818 0
15741 -999 0
-15735 -18 0
-15737 -33 0
-15738 -37 0
15735 823 1003 -15745 0
-15747 15737 1005 825 0
-828 -15750 15740 0
15751 -1009 -15741 0
-64 -15745 15737 0
-70 15737 -15746 0
-15748 -82 15740 0
-82 15750 -15738 0
-833 15745 -15755 0
15746 -15756 1014 834 0
15761 -15751 -1019 0
15746 -108 -15755 0
-15765 -153 15756 0
-15865 -648 15876 0
15869 -666 -15878 0
-15896 -790 0
-15907 -815 0
15908 816 996 0
15908 -996 0
-15910 818 998 0
-15910 -818 0
15911 -999 0
-15905 -18 0
-15907 -33 0
-15908 -37 0
-15915 15905 823 1003 0
-15920 -828 15910 0
15921 -1009 -15911 0
-15915 -64 15907 0
-15916 -70 15907 0
-15918 -82 15910 0
-82 15920 -15908 0
-15925 15915 -833 0
-15926 15916 834 1014 0
15931 -15921 -1019 0
-15925 -108 15916 0
-15935 -153 15926 0
-16035 -648 16046 0
16039 -666 -16048 0
-16066 -790 0
-16075 -813 0
16076 814 994 0
-16077 -815 0
16078 816 996 0
16078 -996 0
-16080 818 998 0
-16080 -818 0
16081 -999 0
-16077 -33 0
-16078 -37 0
16086 824 -16076 1004 0
-16090 -828 16080 0
16091 -1009 -16081 0
-16086 -70 16077 0
16087 -70 -16076 0
-16087 -78 16080 0
-16088 -82 16080 0
-82 16090 -16078 0
-16096 16086 1014 834 0
16096 -1014 -16086 0
16097 -16087 835 1015 0
16101 -16091 -1019 0
-16095 -109 16087 0
-16105 16096 -153 0
-16205 -648 16216 0
16209 -666 -16218 0
-16236 -790 0
16245 813 993 0
16246 814 994 0
-16247 815 995 0
-16247 -815 0
16248 816 996 0
16248 -996 0
-16250 818 998 0
-16250 -818 0
16251 -999 0
16245 -18 0
16246 -18 0
-16247 -33 0
-16248 -37 0
16255 823 -16245 1003 0
16256 824 -16246 1004 0
-16257 825 1005 16247 0
-16260 1008 16250 828 0
-16260 -828 16250 0
16261 -1009 -16251 0
-70 16257 -16246 0
-16258 -82 16250 0
-82 16260 -16248 0
16266 -1014 -16256 0
16267 -16257 835 1015 0
-16267 16257 835 1015 0
-16270 16260 1018 838 0
16271 -16261 -1019 0
16265 -109 -16257 -16255 0
-109 16267 -16255 0
-16277 16267 845 1025 0
-16280 1028 16270 848 0
16276 -153 -16265 0
-16287 16277 1035 855 0
-16290 16280 1038 858 0
-16297 16287 865 1045 0
-16300 16290 868 1048 0
-16300 16290 -258 16287 0
-16307 16297 875 1055 0
-16310 16300 878 1058 0
-16310 -303 16300 16297 0
-16317 16307 885 1065 0
-16320 16310 888 1068 0
-16320 16310 -348 16307 0
-16330 16320 898 1078 0
-16340 16330 908 1088 0
16340 -16350 1098 918 0
16350 -16360 -928 0
-16375 -648 16386 0
16379 -666 -16388 0
16418 816 996 0
16418 -996 0
-16420 818 998 0
-16420 -818 0
16421 -999 0
-16415 -18 0
16418 -31 0
-16417 -33 0
-16418 -37 0
-16425 16415 823 1003 0
-16430 -828 16420 0
16431 -1009 -16421 0
-16425 16417 -64 0
-16426 16417 -70 0
-16428 -82 16420 0
-82 16430 -16418 0
-16435 -833 16425 0
-16436 16426 834 1014 0
16441 -16431 -1019 0
-16435 -108 16426 0
-16445 -153 16436 0
-16545 -648 16556 0
16549 -666 -16558 0
-16576 -790 0
16588 816 996 0
16588 -996 0
-16590 818 998 0
-16590 -818 0
16591 -999 0
-16585 -18 0
16588 -31 0
-16587 -33 0
-16588 -37 0
16585 823 1003 -16595 0
-828 -16600 16590 0
16601 -1009 -16591 0
16587 -64 -16595 0
16587 -70 -16596 0
-16598 -82 16590 0
-82 16600 -16588 0
-833 16595 -16605 0
16596 -16606 1014 834 0
16611 -16601 -1019 0
16596 -108 -16605 0
-16615 -153 16606 0
-16715 -648 16726 0
16719 -666 -16728 0
16758 816 996 0
16758 -996 0
-16760 818 998 0
-16760 -818 0
16761 -999 0
-16755 -18 0
16758 -31 0
-16757 -33 0
-16758 -37 0
-16765 16755 823 1003 0
-16770 -828 16760 0
16771 -1009 -16761 0
16757 -64 -16765 0
-16766 16757 -70 0
-16768 -82 16760 0
-82 16770 -16758 0
-16775 16765 -833 0
-16776 16766 834 1014 0
16781 -16771 -1019 0
-16775 -108 16766 0
-16785 -153 16776 0
-16885 -648 16896 0
16889 -666 -16898 0
16928 816 996 0
16928 -996 0
-16930 818 998 0
-16930 -818 0
16931 -999 0
-16925 -18 0
16928 -31 0
-16927 -33 0
-16928 -37 0
16925 823 1003 -16935 0
-828 -16940 16930 0
16941 -1009 -16931 0
16927 -64 -16935 0
16927 -70 -16936 0
-16938 -82 16930 0
-82 16940 -16928 0
16935 -833 -16945 0
16936 -16946 1014 834 0
16951 -16941 -1019 0
16936 -108 -16945 0
-16955 -153 16946 0
-17095 -813 0
17096 814 994 0
17098 816 996 0
17098 -996 0
-17100 818 998 0
-17100 -818 0
17101 -999 0
17098 -31 0
-17097 -33 0
-17098 -37 0
-17105 17095 1003 823 0
-17110 -828 17100 0
17111 -1009 -17101 0
-17105 17097 -64 0
17097 -70 -17106 0
17107 -70 -17096 0
-17108 -82 17100 0
-82 17110 -17098 0
-17115 -833 17105 0
-17116 17106 1014 834 0
17117 -17107 835 1015 0
17121 -17111 -1019 0
-17125 17116 -153 0
-17225 -648 17236 0
17229 -666 -17238 0
-17265 -813 0
17266 814 994 0
17268 816 996 0
17268 -996 0
-17270 818 998 0
-17270 -818 0
17271 -999 0
17268 -31 0
-17267 -33 0
-17268 -37 0
17276 824 -17266 1004 0
-828 -17280 17270 0
17281 -1009 -17271 0
17267 -70 -17276 0
17277 -70 -17266 0
-78 -17277 17270 0
-17278 -82 17270 0
-82 17280 -17268 0
17276 -17286 1014 834 0
17286 -1014 -17276 0
17287 -17277 835 1015 0
17291 -17281 -1019 0
17277 -109 -17285 0
17286 -17295 -153 0
-17433 811 991 0
-17434 812 992 0
17435 813 993 0
17436 814 994 0
17438 816 996 0
17438 -996 0
-17440 818 998 0
-17440 -818 0
17441 -999 0
17436 -18 0
17438 -31 0
-17437 -33 0
-17438 -37 0
-17443 821 1001 17433 0
-17444 822 1002 17434 0
17445 823 -17435 1003 0
-17450 -828 17440 0
17451 -1009 -17441 0
17437 -64 -17445 0
17437 -70 -17446 0
17447 -70 -17436 0
-17447 -78 17440 0
-17448 -82 17440 0
-82 17450 -17438 0
-17453 -831 17443 0
-17454 17444 1012 832 0
-17455 17445 -833 0
17457 -17447 835 1015 0
17461 -17451 -1019 0
-17455 -109 17447 0
17455 -109 -17445 -17447 0
-17464 -136 17453 17454 0
17466 -153 -17455 0
17605 813 993 0
17606 814 994 0
17608 816 996 0
17608 -996 0
-17610 818 998 0
-17610 -818 0
17611 -999 0
17606 -18 0
-17606 -28 0
17608 -31 0
-17607 -33 0
-17608 -37 0
17615 823 -17605 1003 0
17616 824 -17606 1004 0
-17620 1008 17610 828 0
-828 -17620 17610 0
-1009 17621 -17611 0
17607 -70 -17616 0
17617 -70 -17606 0
-78 -17617 17610 0
-17618 -82 17610 0
-82 17620 -17608 0
17626 -1014 -17616 0
17627 -17617 835 1015 0
-17630 17620 1018 838 0
17631 -17621 -1019 0
17617 -109 -17625 0
17625 -109 -17615 -17617 0
-17640 17630 1028 848 0
17636 -153 -17625 0
-17650 17640 1038 858 0
-17660 17650 868 1048 0
17650 -258 -17657 0
-17670 17660 1058 878 0
-17666 -295 17657 0
17666 -17676 1064 884 0
17670 -17680 888 1068 0
17676 -17686 894 1074 0
17680 -17690 1078 898 0
17680 -397 -17688 0
17688 -17698 1086 906 0
17690 -17700 1088 908 0
17698 -17708 916 1096 0
17698 -916 -17708 0
17700 -17710 918 1098 0
17765 -983 0
17767 -985 0
-17764 -17765 -775 0
17766 -783 0
17768 -796 0
-17779 817 997 0
-17789 827 17779 1007 0
-17799 17789 837 1017 0
-17809 17799 847 1027 0
-17819 17809 1037 857 0
-17829 1047 17819 867 0
-17839 1057 17829 877 0
-17849 1067 17839 887 0
-17859 17849 897 1077 0
-17869 17859 907 1087 0
-17879 17869 917 1097 0
-17889 17879 927 1107 0
-17889 17879 -927 0
-17899 17889 937 1117 0
-17899 17889 -937 0
-17909 17899 1127 947 0
-17919 17909 957 1137 0
-17919 17909 -957 0
-17947 -815 0
17948 816 996 0
17948 -996 0
-17949 817 997 0
17951 999 819 0
17951 -999 0
-17945 -18 0
17950 -37 0
17951 -43 0
-17955 17945 823 1003 0
-17959 827 17949 1007 0
17961 -1009 -17951 0
-17955 -64 17947 0
-17956 -70 17947 0
17960 -82 -17948 0
-17965 -833 17955 0
-17966 17956 834 1014 0
-17969 17959 837 1017 0
17971 -17961 -1019 0
-17965 -108 17956 0
-17979 17969 847 1027 0
-17975 -153 17966 0
-17989 17979 1037 857 0
-17999 1047 17989 867 0
-18009 1057 17999 877 0
-18009 17999 -877 0
-18019 1067 18009 887 0
-18029 18019 897 1077 0
-18039 18029 907 1087 0
-18049 18039 917 1097 0
-18059 18049 -927 0
-18069 18059 937 1117 0
18069 -18079 -947 0
18079 -957 -18089 0
-18075 -648 18086 0
-18077 -661 18088 0
-18088 1146 18098 966 0
-18098 976 18108 1156 0
-18099 18109 -1157 0
-18108 -756 18099 0
-18108 1166 986 0
-18106 -790 0
18110 -805 0
18283 811 991 0
-18285 -813 0
-18287 -815 0
-18288 816 996 0
-18288 -816 0
18289 817 997 0
18290 818 998 0
18291 999 819 0
18291 -999 0
-18285 -18 0
-18287 -31 0
18291 -43 0
18293 821 1001 -18283 0
-18295 18285 1003 823 0
-18297 18287 1005 825 0
-826 -18298 18288 0
18299 827 -18289 1007 0
18300 -1008 -18290 0
18301 1009 829 -18291 0
18301 -1009 -18291 0
-64 -18295 18287 0
-70 18287 -18296 0
831 18303 -18293 1011 0
-833 -18305 18295 0
18296 -18306 1014 834 0
18309 -18299 837 1017 0
18311 -18301 839 1019 0
18311 -18301 -1019 0
18296 -108 -18305 0
-18303 18313 841 1021 0
18319 -18309 847 1027 0
18321 1029 -18311 849 0
-18315 -153 18306 0
-18313 18323 851 1031 0
18329 -18319 1037 857 0
18331 -18321 859 1039 0
-18323 18333 861 1041 0
18339 1047 -18329 867 0
18341 -18331 869 1049 0
18349 1057 -18339 877 0
18351 -18341 879 1059 0
18347 -274 -18333 0
18357 -18347 885 1065 0
18359 1067 -18349 887 0
18361 -18351 889 1069 0
18367 -18357 895 1075 0
18369 -18359 897 1077 0
18371 -18361 -1079 0
18377 -18367 905 1085 0
18379 -18369 907 1087 0
18381 -18371 909 1089 0
18387 -18377 915 1095 0
18389 -18379 917 1097 0
18391 -18381 919 1099 0
-18387 18397 1105 925 0
18399 -18391 -536 -18389 0
-18397 18407 935 1115 0
18410 -580 -18399 0
-18407 18417 1125 945 0
18420 -18410 948 1128 0
-18415 -648 18426 0
-663 -18417 -18420 18427 0
18419 -666 -18428 0
-18446 -790 0
-18457 -815 0
-18458 816 996 0
-18458 -816 0
18460 818 998 0
18461 999 819 0
18461 -999 0
-18455 -18 0
-18455 -20 0
-18457 -31 0
18461 -43 0
-18465 18455 1003 823 0
-18467 18457 1005 825 0
-18468 -826 18458 0
18470 -1008 -18460 0
18471 -1009 -18461 0
-18465 -64 18457 0
-18466 -70 18457 0
-18475 -833 18465 0
-18476 18466 834 1014 0
18481 -18471 -1019 0
-18475 -108 18466 0
-18485 -153 18476 0
-18585 -648 18596 0
18589 -666 -18598 0
-18616 -790 0
-18625 -813 0
18626 814 994 0
-18627 815 995 0
-18627 -815 0
-18628 816 996 0
-18628 -816 0
18630 818 998 0
18631 999 819 0
18631 -999 0
-18627 -31 0
18631 -43 0
18636 824 -18626 1004 0
-18637 825 1005 18627 0
-18637 -825 18627 0
-18638 -826 18628 0
18640 -1008 -18630 0
18641 -1009 -18631 0
-18636 -70 18627 0
-70 18637 -18626 0
-18646 18636 1014 834 0
18646 -1014 -18636 0
18647 -18637 835 1015 0
18651 -18641 -1019 0
-18645 -109 18637 0
-18655 18646 -153 0
-18755 -648 18766 0
18759 -666 -18768 0
-18786 -790 0
-18793 811 991 0
18795 813 993 0
18796 814 994 0
-18797 815 995 0
-18797 -815 0
-18798 816 996 0
-18798 -816 0
18800 818 998 0
18801 999 819 0
18801 -999 0
18795 -18 0
18796 -18 0
-18795 -20 0
-18797 -31 0
18801 -43 0
-18803 821 1001 18793 0
18805 823 -18795 1003 0
18806 824 -18796 1004 0
-18807 825 1005 18797 0
-18808 826 18798 1006 0
-18808 -826 18798 0
18810 -1008 -18800 0
18811 -1009 -18801 0
-70 18807 -18796 0
831 -18813 18803 1011 0
18816 -1014 -18806 0
18817 -18807 835 1015 0
-18817 18807 835 1015 0
-18818 18808 836 1016 0
18821 -18811 -1019 0
18815 -109 -18807 -18805 0
-109 18817 -18805 0
-18823 18813 841 1021 0
-18827 18817 845 1025 0
-18828 18818 846 1026 0
18826 -153 -18815 0
-18833 18823 851 1031 0
-18837 18827 1035 855 0
-18838 18828 856 1036 0
-18847 18837 865 1045 0
-18848 -230 18838 18833 0
-18857 18847 875 1055 0
-18858 18848 1056 876 0
-18868 18858 -346 18857 0
18868 -18878 896 1076 0
18878 -18888 906 1086 0
18888 -18898 -916 0
18898 -18908 -926 0
-18925 -648 18936 0
18929 -666 -18938 0
18964 992 812 0
18965 813 993 0
18966 814 994 0
-18967 815 995 0
-18967 -815 0
-18968 816 996 0
-18968 -816 0
18969 817 997 0
18970 818 998 0
18971 999 819 0
18971 -999 0
18965 -18 0
18966 -18 0
-18965 -20 0
-18967 -31 0
18974 822 -18964 1002 0
18975 823 -18965 1003 0
18976 824 -18966 1004 0
-18977 825 1005 18967 0
-18978 -826 18968 0
18979 827 -18969 1007 0
18980 -1008 -18970 0
18981 1009 829 -18971 0
18981 -1009 -18971 0
-70 18977 -18966 0
18984 -18974 1012 832 0
18986 -1014 -18976 0
18987 -18977 835 1015 0
-18987 18977 835 1015 0
18989 -18979 837 1017 0
18991 -18981 839 1019 0
18991 -18981 -1019 0
18985 -109 -18977 -18975 0
-109 18987 -18975 0
18994 842 1022 -18984 0
-18997 18987 845 1025 0
18999 -18989 847 1027 0
19001 1029 -18991 849 0
19001 -1029 -18991 0
18996 -153 -18985 0
19004 -18994 852 1032 0
19004 -18994 -1032 0
-19007 18997 1035 855 0
19009 -18999 1037 857 0
19011 -19001 1039 859 0
19011 -19001 -1039 0
19014 -19004 1042 862 0
-19017 19007 865 1045 0
19019 1047 -19009 867 0
19021 -19011 869 1049 0
19024 -19014 1052 872 0
-19018 19028 -1056 0
19029 1057 -19019 877 0
19031 -19021 879 1059 0
19018 -19026 -296 0
19018 -19027 -301 0
19034 -19024 1062 882 0
19034 -19024 -1062 0
19026 -19036 1064 884 0
-19037 19027 885 1065 0
19039 1067 -19029 887 0
19041 -1069 -19031 0
-19028 19038 -353 -19031 0
19044 -19034 1072 892 0
19044 -19034 -1072 0
19036 -19046 894 1074 0
-19047 19037 895 1075 0
19049 -19039 897 1077 0
-19038 -373 -19034 19044 0
19049 -19041 -401 -19039 0
19054 -19044 -1082 0
19046 -19056 904 1084 0
19047 -19057 905 1085 0
19059 -19049 907 1087 0
19049 -19059 907 1087 0
19056 -19066 1094 914 0
19057 -19067 915 1095 0
19069 -19059 917 1097 0
19059 -19069 1097 917 0
19079 -19069 927 1107 0
19077 -19087 935 1115 0
-19135 813 993 0
-19135 -813 0
-19136 814 994 0
-19138 816 996 0
-19138 -816 0
19140 818 998 0
19141 999 819 0
19141 -999 0
-19135 -18 0
-19137 -31 0
19137 -33 0
19141 -43 0
-19145 823 1003 19135 0
-19145 -823 19135 0
-19146 -824 19136 0
19147 -19137 -1005 0
-19148 -826 19138 0
19150 -1008 -19140 0
19151 -1009 -19141 0
-19155 -833 19145 0
-19156 19146 834 1014 0
19157 -19147 1015 835 0
19161 -19151 -1019 0
-19165 -153 19156 0
-19265 -648 19276 0
19269 -666 -19278 0
-19296 -790 0
-19305 813 993 0
-19305 -813 0
-19306 814 994 0
-19308 816 996 0
-19308 -816 0
19310 818 998 0
19311 999 819 0
19311 -999 0
-19305 -18 0
-19307 -31 0
19307 -33 0
19311 -43 0
-19315 823 1003 19305 0
-823 -19315 19305 0
-824 -19316 19306 0
19317 -19307 -1005 0
-826 -19318 19308 0
19320 -1008 -19310 0
19321 -1009 -19311 0
-833 -19325 19315 0
19316 -19326 1014 834 0
19327 -19317 1015 835 0
19331 -19321 -1019 0
-19335 -153 19326 0
-19435 -648 19446 0
19439 -666 -19448 0
19475 813 993 0
-19476 814 994 0
-19478 816 996 0
-19478 -816 0
19480 818 998 0
19481 999 819 0
19481 -999 0
-19475 -18 0
-19475 -20 0
-19477 -31 0
19477 -33 0
19481 -43 0
-19485 19475 1003 823 0
-19486 -824 19476 0
19487 -19477 -1005 0
-19488 -826 19478 0
19490 -1008 -19480 0
19491 -1009 -19481 0
19485 -64 -19477 -19475 0
-19495 -833 19485 0
-19496 19486 834 1014 0
19497 -19487 1015 835 0
19501 -19491 -1019 0
-19485 -108 19496 0
-19505 -153 19496 0
-19605 -648 19616 0
19609 -666 -19618 0
19645 813 993 0
-19646 814 994 0
-19648 816 996 0
-19648 -816 0
19650 818 998 0
19651 999 819 0
19651 -999 0
-19645 -18 0
-19645 -20 0
-19647 -31 0
19647 -33 0
19651 -43 0
19655 823 -19645 1003 0
-19655 19645 1003 823 0
-824 -19656 19646 0
19657 -19647 -1005 0
-826 -19658 19648 0
19660 -1008 -19650 0
19661 -1009 -19651 0
19655 -64 -19647 -19645 0
-833 -19665 19655 0
19667 -19657 1015 835 0
19671 -19661 -1019 0
19666 -108 -19655 0
19665 -109 -19657 -19655 0
19676 -153 -19665 0
-19815 813 993 0
-19815 -813 0
19816 814 994 0
-19818 816 996 0
-19818 -816 0
19820 818 998 0
19821 999 819 0
19821 -999 0
-19817 -31 0
19817 -33 0
19821 -43 0
-19825 823 1003 19815 0
19826 824 -19816 1004 0
19827 -19817 -1005 0
-19828 -826 19818 0
19830 -1008 -19820 0
19831 -1009 -19821 0
-19835 -833 19825 0
19836 -1014 -19826 0
19837 -19827 1015 835 0
19841 -19831 -1019 0
-19845 19835 -843 0
-19945 -648 19956 0
19949 -666 -19958 0
-19985 -813 0
19986 814 994 0
-19988 816 996 0
-19988 -816 0
19990 818 998 0
19991 999 819 0
19991 -999 0
-19986 -26 0
-19987 -31 0
19987 -33 0
19991 -43 0
-19995 19985 1003 823 0
19996 824 -19986 1004 0
19997 -19987 -1005 0
-826 -19998 19988 0
20000 -1008 -19990 0
20001 -1009 -19991 0
19996 -70 -19987 -19986 0
-833 -20005 19995 0
20006 -19996 1014 834 0
20006 -1014 -19996 0
20007 -19997 1015 835 0
20011 -20001 -1019 0
20016 -1024 -20006 0
20155 813 993 0
20157 815 995 0
-20158 816 996 0
-20158 -816 0
20160 818 998 0
20156 -18 0
-20155 -20 0
-20157 -31 0
20157 -33 0
20161 -43 0
20165 823 -20155 1003 0
-1005 20167 -20157 0
-20168 -826 20158 0
20170 -1008 -20160 0
20165 -64 -20157 -20155 0
-78 20167 -20157 -20160 0
20171 -88 -20160 0
20177 -20167 1015 835 0
20177 -20167 -1015 0
20181 -20171 -1019 0
20176 -108 -20165 0
20175 -109 -20167 -20165 0
20186 -153 -20175 0
20325 813 993 0
20327 815 995 0
-20328 816 996 0
-20328 -816 0
20330 818 998 0
20326 -18 0
-20325 -20 0
-20327 -31 0
20327 -33 0
20331 -43 0
20335 823 -20325 1003 0
20337 -1005 -20327 0
-826 -20338 20328 0
20340 -1008 -20330 0
20335 -64 -20327 -20325 0
20337 -78 -20327 -20330 0
20341 -88 -20330 0
20347 -20337 1015 835 0
20347 -20337 -1015 0
20351 -20341 -1019 0
20346 -108 -20335 0
20345 -109 -20337 -20335 0
20356 -153 -20345 0
-20493 811 991 0
20494 992 812 0
20495 813 993 0
20497 815 995 0
-20498 816 996 0
-20498 -816 0
20499 817 997 0
20500 818 998 0
20501 999 819 0
20496 -18 0
-20495 -20 0
-20497 -31 0
20497 -33 0
20501 -43 0
-20503 821 1001 20493 0
20504 822 -20494 1002 0
20505 823 -20495 1003 0
-1005 20507 -20497 0
-20508 -826 20498 0
20509 827 -20499 1007 0
20510 -1008 -20500 0
20511 1009 829 -20501 0
20505 -64 -20497 -20495 0
-78 20507 -20497 -20500 0
20511 -88 -20500 0
831 -20513 20503 1011 0
20514 -20504 1012 832 0
20517 -20507 1015 835 0
20517 -20507 -1015 0
20519 -20509 837 1017 0
20521 -20511 839 1019 0
20521 -20511 -1019 0
20516 -108 -20505 0
20515 -109 -20507 -20505 0
20524 842 1022 -20514 0
20529 -20519 847 1027 0
20531 1029 -20521 849 0
20526 -153 -20515 0
20534 -20524 -1032 0
20539 -20529 1037 857 0
20541 -20531 859 1039 0
20544 -20534 862 1042 0
20549 1047 -20539 867 0
20551 -20541 869 1049 0
20551 -20541 -1049 0
20554 -20544 1052 872 0
20558 -20548 -1056 0
20559 1057 -20549 877 0
20561 -20551 879 1059 0
20548 -20555 -290 0
20564 -20554 1062 882 0
20555 -20565 883 1063 0
20568 -20558 -353 -20561 0
20565 -20575 893 1073 0
-373 20574 -20564 -20568 0
20584 -20574 902 1082 0
20594 -20584 912 1092 0
20604 -20594 1102 922 0
20614 -20604 1112 932 0
-20614 20624 1122 942 0
20663 811 991 0
20664 992 812 0
20665 813 993 0
20666 814 994 0
-994 20666 0
20667 815 995 0
20667 -995 0
-20668 816 996 0
-20668 -816 0
20670 818 998 0
20670 -998 0
20671 999 819 0
20671 -999 0
20672 1000 820 0
-20665 -20 0
20668 -20 0
20666 -25 0
-20666 -26 0
20668 -26 0
20666 -28 0
20666 -29 0
-20667 -31 0
20668 -31 0
20667 -33 0
20667 -34 0
20670 -43 0
20673 821 1001 -20663 0
20674 822 -20664 1002 0
20675 823 -20665 1003 0
-20675 20665 1003 823 0
-823 -20675 20665 0
20676 824 1004 -20666 0
-20676 20666 1004 824 0
20676 -1004 -20666 0
20677 825 -20667 1005 0
20677 -1005 -20667 0
20678 826 -20668 1006 0
-20678 826 20668 1006 0
-826 -20678 20668 0
20680 1008 -20670 828 0
20680 -1008 -20670 0
20681 1009 829 -20671 0
20681 -1009 -20671 0
1010 20682 830 -20672 0
-54 20673 -20672 -20663 0
20676 -63 -20665 0
-64 -20675 20667 0
20675 -65 -20665 -20668 0
20678 -65 -20665 0
20676 -70 -20666 -20667 0
20676 -71 -20668 -20666 0
20676 -73 -20670 -20666 0
20676 -74 -20671 -20666 0
-76 -20677 20668 0
20678 -76 -20667 0
-78 20677 -20667 -20670 0
-79 20677 -20671 -20667 0
20680 -88 -20671 -20670 0
20683 831 -20673 1011 0
20684 -20674 1012 832 0
20675 -20685 833 1013 0
-833 -20685 20675 0
20686 -20676 1014 834 0
20676 -20686 834 1014 0
-834 20676 -20686 0
20686 -1014 -20676 0
20687 -20677 1015 835 0
20687 -20677 -1015 0
20678 -20688 1016 836 0
20690 -20680 1018 838 0
20690 -1018 -20680 0
20691 -20681 839 1019 0
20691 -20681 -1019 0
1020 -20682 20692 840 0
-91 -20674 -20673 20683 0
-92 -20675 -20673 20683 0
-93 -20676 -20673 20683 0
-94 -20677 -20673 20683 0
-95 -20678 -20673 20683 0
20676 -108 -20685 0
20685 -108 -20676 -20675 0
-109 20677 -20685 0
20685 -109 -20677 -20675 0
-110 -20685 20678 0
20688 -110 -20675 0
20685 -112 -20680 -20675 0
-115 20677 -20686 0
20686 -115 -20677 -20676 0
-118 20686 -20680 -20676 0
20686 -119 -20681 -20676 0
20688 -121 -20677 0
-123 20687 -20677 -20680 0
-124 20687 -20681 -20677 0
20688 -127 -20678 -20680 0
20690 -20681 -20680 -133 0
-20683 20693 841 1021 0
20694 842 1022 -20684 0
20685 843 -20695 1023 0
20686 1024 -20696 844 0
20686 -844 -20696 0
20697 -20687 845 1025 0
20698 -20688 846 1026 0
20688 1026 -20698 846 0
20698 -1026 -20688 0
20700 -20690 1028 848 0
20700 -20690 -1028 0
20701 1029 -20691 849 0
20701 -1029 -20691 0
1030 -20692 20702 850 0
20693 -136 -20683 -20684 0
20693 -137 -20685 -20683 0
20693 -138 -20686 -20683 0
20693 -139 -20687 -20683 0
20693 -140 -20688 -20683 0
20696 -153 -20685 0
20688 -155 -20695 0
-166 20698 -20687 0
20697 -168 -20687 -20690 0
20697 -169 -20691 -20687 0
20698 -20688 -20691 -173 0
20700 -20690 -178 -20691 0
-20693 20703 851 1031 0
20704 -20694 852 1032 0
20695 853 -20705 1033 0
20696 854 -20706 1034 0
-20698 20708 856 1036 0
20698 856 -20708 1036 0
20708 -20698 -1036 0
20710 -20700 -1038 0
20711 -20701 1039 859 0
20711 -20701 -1039 0
1040 -20702 20712 860 0
-181 -20694 20703 -20693 0
20703 -184 -20697 -20693 0
-20698 -185 20703 -20693 0
-200 20698 -20705 0
-206 20698 -20706 0
-211 20698 -20707 0
20707 -213 -20697 -20700 0
20707 -214 -20697 -20701 0
-217 20708 -20700 -20698 0
-20703 20713 861 1041 0
20714 -20704 1042 862 0
20705 -20715 1043 863 0
20706 864 -20716 1044 0
20707 865 -20717 1045 0
20717 -20707 -1045 0
20708 1046 -20718 866 0
20720 -20710 1048 868 0
20720 -20710 -1048 0
20721 -20711 869 1049 0
1050 -20712 20722 870 0
-20703 20713 -226 -20704 0
-20707 -229 20713 -20703 0
-20708 -230 20713 -20703 0
-244 20707 -20715 0
-250 20707 -20716 0
20718 -263 -20711 -20708 0
20720 -268 -20711 -20710 0
871 -20713 20723 1051 0
20724 -20714 1052 872 0
20715 1053 -20725 873 0
20716 874 -20726 1054 0
20717 1055 -20727 875 0
20718 -876 -20728 0
20730 -20720 878 1058 0
20731 -20721 1059 879 0
1060 -20722 20732 880 0
20723 -271 -20713 -20714 0
-20717 -274 20723 -20713 0
-20718 -275 20723 -20713 0
-20723 20733 881 1061 0
20734 -20724 1062 882 0
20725 883 -20735 1063 0
20726 884 -20736 1064 0
20727 1065 -20737 885 0
20740 -20730 1068 888 0
1070 -20732 20742 890 0
-20724 -316 20733 -20723 0
891 -20733 20743 1071 0
20744 -20734 1072 892 0
-20733 -20734 20743 -361 0
-369 20743 -20742 -20733 0
-20743 20753 901 1081 0
-20744 -406 -20743 20753 0
20826 -783 0
21003 811 991 0
-21007 -815 0
21008 816 996 0
21008 -996 0
21011 999 819 0
21011 -999 0
-21005 -18 0
21010 -37 0
21011 -43 0
21013 821 1001 -21003 0
21005 823 1003 -21015 0
-21017 21007 1005 825 0
21021 -1009 -21011 0
-64 -21015 21007 0
-70 21007 -21016 0
21020 -82 -21008 0
21023 831 -21013 1011 0
-833 21015 -21025 0
21016 -21026 1014 834 0
21031 -21021 -1019 0
-108 21016 -21025 0
-21023 21033 841 1021 0
-21035 -153 21026 0
-21033 21043 851 1031 0
-21043 21053 861 1041 0
871 -21053 21063 1051 0
-21063 21073 881 1061 0
891 -21073 21083 1071 0
-21083 21093 901 1081 0
-21093 21105 -452 0
-21105 21115 1103 923 0
-21115 21125 933 1113 0
-603 -21125 21136 0
-21135 -648 21146 0
21139 -666 -21148 0
-21177 -815 0
21178 816 996 0
21178 -996 0
21181 999 819 0
21181 -999 0
-21175 -18 0
21180 -37 0
21181 -43 0
-21185 21175 823 1003 0
21191 -1009 -21181 0
-21185 -64 21177 0
-21186 -70 21177 0
21190 -82 -21178 0
-21195 21185 -833 0
-21196 21186 834 1014 0
21201 -21191 -1019 0
-21195 -108 21186 0
-21205 -153 21196 0
-21305 -648 21316 0
21309 -666 -21318 0
-21345 -813 0
21346 814 994 0
-21347 -815 0
21348 816 996 0
21348 -996 0
21351 999 819 0
21351 -999 0
21350 -37 0
21351 -43 0
-21355 21345 1003 823 0
21361 -1009 -21351 0
-21355 -64 21347 0
-21356 -70 21347 0
21357 -70 -21346 0
21360 -82 -21348 0
-21365 -833 21355 0
-21366 21356 1014 834 0
21367 -21357 835 1015 0
21371 -21361 -1019 0
-21375 21366 -153 0
-21475 -648 21486 0
21479 -666 -21488 0
-21513 811 991 0
-21514 812 992 0
21515 813 993 0
21516 814 994 0
-21517 815 995 0
-21517 -815 0
21518 816 996 0
21518 -996 0
21521 999 819 0
21521 -999 0
21515 -18 0
21516 -18 0
21520 -37 0
21521 -43 0
-21523 821 1001 21513 0
-21524 822 1002 21514 0
21525 823 -21515 1003 0
21526 824 -21516 1004 0
-21527 825 1005 21517 0
21531 -1009 -21521 0
-21526 -70 21517 0
-70 21527 -21516 0
21530 -82 -21518 0
-21533 831 21523 1011 0
-21534 21524 1012 832 0
21536 -1014 -21526 0
21537 -21527 835 1015 0
-21537 21527 835 1015 0
21541 -21531 -1019 0
21535 -109 -21527 -21525 0
-109 21537 -21525 0
-21543 21533 841 1021 0
-21543 -841 21533 0
-21544 21534 1022 842 0
-21547 21537 845 1025 0
21546 -153 -21535 0
-21553 21543 851 1031 0
-21553 -851 21543 0
-21554 21544 852 1032 0
-21557 21547 1035 855 0
-21554 -181 21543 21544 0
-21563 -861 21553 0
-21564 21554 1042 862 0
-21567 21557 865 1045 0
-21564 -226 21553 21554 0
-21574 21564 1052 872 0
-21577 21567 875 1055 0
-21574 -271 21563 21564 0
-21584 21574 1062 882 0
-21587 21577 -885 0
-21597 21584 -372 21587 0
21597 -21607 905 1085 0
-21606 -430 21597 0
21606 -21616 1094 914 0
21607 -21617 915 1095 0
21616 -21626 1104 924 0
21617 -21627 1105 925 0
21626 -21636 934 1114 0
21627 -21637 935 1115 0
21636 -21646 1124 944 0
21637 -21647 945 1125 0
21646 -21656 954 1134 0
21647 955 -21657 1135 0
-21644 -640 21655 0
21685 813 993 0
21686 814 994 0
-21687 815 995 0
-21687 -815 0
21688 816 996 0
21688 -996 0
21691 999 819 0
21691 -999 0
21686 -18 0
21687 -19 0
-21686 -25 0
21690 -37 0
21691 -43 0
21695 823 -21685 1003 0
-21697 825 1005 21687 0
-21697 -825 21687 0
21701 -1009 -21691 0
-21695 -64 21687 0
-70 21697 -21686 0
21700 -82 -21688 0
-21705 21695 -833 0
21707 -21697 835 1015 0
-21707 21697 835 1015 0
21711 -21701 -1019 0
-21705 -109 21697 0
21705 -109 -21697 -21695 0
-21717 21707 845 1025 0
21716 -153 -21705 0
-21727 21717 1035 855 0
-21727 -855 21717 0
-21737 21727 865 1045 0
-21737 21727 -865 0
-21747 21737 875 1055 0
-21747 21737 -875 0
-21745 -289 21737 0
-21746 -295 21737 0
21745 -21755 1063 883 0
21746 -21756 1064 884 0
-21757 21747 1065 885 0
-21757 21747 -885 0
21746 -333 -21755 0
-21755 21747 -334 0
-340 -21756 21747 0
21755 -21765 893 1073 0
21756 -21766 894 1074 0
21757 -21767 895 1075 0
21757 -21767 -895 0
-21765 21757 -379 0
-385 -21766 21757 0
21765 903 -21775 1083 0
21765 -903 -21775 0
21766 904 -21776 1084 0
21767 -21777 905 1085 0
21767 -905 -21777 0
-424 21767 -21775 0
-430 21767 -21776 0
21777 -21787 915 1095 0
21777 -21787 -915 0
21777 -469 -21785 0
21777 -475 -21786 0
21787 -21797 1105 925 0
21797 -21807 935 1115 0
21807 -21817 945 1125 0
21817 955 -21827 1135 0
21827 1145 -21837 965 0
21827 -965 -21837 0
-22025 813 993 0
-22026 814 994 0
22028 816 996 0
22028 -996 0
22031 999 819 0
22031 -999 0
-22025 -18 0
22028 -31 0
22027 -33 0
22030 -37 0
22031 -43 0
823 -22035 1003 22025 0
-823 -22035 22025 0
-824 -22036 22026 0
22037 -1005 -22027 0
22041 -1009 -22031 0
22040 -82 -22028 0
-833 -22045 22035 0
22036 -22046 1014 834 0
22047 -22037 835 1015 0
22051 -22041 -1019 0
-22055 -153 22046 0
-22193 811 991 0
22195 813 993 0
-22196 814 994 0
-22196 -814 0
22197 815 995 0
22198 816 996 0
22198 -996 0
22199 817 997 0
22201 999 819 0
22201 -999 0
-22195 -18 0
22198 -31 0
22197 -33 0
22200 -37 0
22201 -43 0
-22203 821 1001 22193 0
22205 823 -22195 1003 0
-22205 22195 823 1003 0
-22206 824 22196 1004 0
-22206 -824 22196 0
22207 825 -22197 1005 0
22207 -1005 -22197 0
22209 827 -22199 1007 0
22211 -1009 -22201 0
22210 -82 -22198 0
-22213 831 22203 1011 0
-22215 -833 22205 0
-22216 22206 1014 834 0
-22216 -834 22206 0
22217 -22207 835 1015 0
22219 -22209 837 1017 0
22221 -22211 -1019 0
-22215 -108 22206 0
-22223 22213 841 1021 0
22229 -22219 847 1027 0
-22225 -153 22216 0
22230 -168 -22217 0
-22233 22223 851 1031 0
22239 -22229 1037 857 0
22241 -22230 -223 0
-22243 22233 861 1041 0
22249 1047 -22239 867 0
22251 -22241 869 1049 0
22297 -22307 -925 0
22300 -22307 -528 0
22365 813 993 0
-22366 814 994 0
-22366 -814 0
22368 816 996 0
22368 -996 0
22371 999 819 0
22371 -999 0
-22365 -18 0
22368 -31 0
22367 -33 0
22370 -37 0
22371 -43 0
22375 823 -22365 1003 0
22365 823 1003 -22375 0
22365 -823 -22375 0
-22376 824 22366 1004 0
-824 -22376 22366 0
22377 -1005 -22367 0
22381 -1009 -22371 0
-63 -22375 22366 0
22380 -82 -22368 0
-22385 22375 1013 833 0
-833 -22385 22375 0
-22386 22376 1014 834 0
22387 -22377 835 1015 0
22391 -22381 -1019 0
-108 -22385 22376 0
22385 -109 -22375 -22377 0
-22396 22386 1024 844 0
-22396 22386 -844 0
-22395 -153 22386 0
-22406 22396 854 1034 0
-854 -22406 22396 0
-22405 -198 22396 0
22405 -22415 1043 863 0
-863 22405 -22415 0
-22416 22406 1044 864 0
-864 -22416 22406 0
-243 -22415 22406 0
-22425 22415 1053 873 0
-22425 22415 -873 0
-22426 22416 1054 874 0
-22426 22416 -874 0
22416 -288 -22425 0
-22435 22425 883 1063 0
22425 -22435 -883 0
22426 -22436 1064 884 0
-884 22426 -22436 0
-333 22426 -22435 0
22435 -22445 893 1073 0
-22446 22436 1074 894 0
-894 22436 -22446 0
22630 -22640 -918 0
22631 -22640 -493 0
22703 811 991 0
-22704 812 992 0
-22705 813 993 0
-22705 -813 0
22706 814 994 0
22708 816 996 0
22708 -996 0
22709 817 997 0
22710 818 998 0
22711 999 819 0
22711 -999 0
22708 -31 0
22707 -33 0
22707 -34 0
22710 -37 0
22711 -43 0
22713 821 1001 -22703 0
-22714 822 1002 22704 0
-22714 -822 22704 0
-22715 823 1003 22705 0
-823 -22715 22705 0
22716 824 -22706 1004 0
22717 -22707 1005 825 0
22717 -1005 -22707 0
22719 827 -22709 1007 0
22721 1009 829 -22711 0
22721 -1009 -22711 0
22716 -70 -22707 -22706 0
22720 -82 -22708 0
22720 -88 -22710 -22711 0
22723 831 -22713 1011 0
-22724 22714 1012 832 0
-22725 22715 1013 833 0
-833 -22725 22715 0
22729 -22719 837 1017 0
22731 -22721 839 1019 0
22731 -22721 -1019 0
-22723 22733 841 1021 0
-22734 22724 1022 842 0
-22735 22725 843 1023 0
-22735 22725 -843 0
22739 -22729 847 1027 0
22741 1029 -22731 849 0
-22733 22743 851 1031 0
-22744 22734 852 1032 0
-22745 22735 1033 853 0
-22745 22735 -853 0
22749 -22739 1037 857 0
22751 -22741 859 1039 0
22745 -182 -22733 0
-22745 -182 22733 22735 0
-190 -22745 22734 22735 0
-22743 22753 861 1041 0
-22754 22744 1042 862 0
-22755 22745 1043 863 0
-22755 22745 -863 0
22759 1047 -22749 867 0
22761 -22751 869 1049 0
871 -22753 22763 1051 0
22755 -22765 1053 873 0
-22765 22755 -873 0
22769 1057 -22759 877 0
22771 -22761 879 1059 0
22767 -274 -22753 0
-22763 22773 881 1061 0
-22775 22765 1063 883 0
-22775 22765 -883 0
22777 -22767 885 1065 0
22779 1067 -22769 887 0
22781 -22771 889 1069 0
891 -22773 22783 1071 0
-22785 22775 893 1073 0
-22785 22775 -893 0
22787 -22777 895 1075 0
22789 -22779 897 1077 0
22791 -22781 -1079 0
-22783 22793 901 1081 0
22785 903 -22795 1083 0
22785 -903 -22795 0
22799 -22789 907 1087 0
22801 -22791 909 1089 0
22795 -22805 1093 913 0
22795 -913 -22805 0
22809 -22799 917 1097 0
22811 -22801 919 1099 0
22808 -22793 -455 0
22805 -22815 1103 923 0
22805 -22815 -923 0
22818 -22808 1106 926 0
22815 -22825 933 1113 0
-933 22815 -22825 0
22825 -22835 1123 943 0
-943 22825 -22835 0
22835 -22845 953 1133 0
22835 -953 -22845 0
22845 963 -22855 1143 0
22845 -22855 -963 0
-22873 811 991 0
-22874 812 992 0
22877 815 995 0
22879 817 997 0
22880 818 998 0
22881 999 819 0
22882 1000 820 0
22881 -41 0
22881 -43 0
-22883 821 1001 22873 0
-22884 822 1002 22874 0
22887 825 -22877 1005 0
22889 827 -22879 1007 0
22890 1008 -22880 828 0
22891 1009 829 -22881 0
22891 -1009 -22881 0
1010 22892 830 -22882 0
-22893 831 22883 1011 0
-22893 -831 22883 0
-22894 22884 1012 832 0
22897 -22887 835 1015 0
22899 -22889 837 1017 0
22900 -22890 1018 838 0
22901 -22891 839 1019 0
22901 -22891 -1019 0
1020 -22892 22902 840 0
22898 -121 -22887 0
22901 -131 -22889 0
-22903 22893 841 1021 0
-22903 -841 22893 0
-22904 22894 1022 842 0
22907 -22897 845 1025 0
22908 -22898 846 1026 0
22909 -22899 847 1027 0
22910 -22900 1028 848 0
22911 -22901 1029 849 0
1030 -22902 22912 850 0
-22904 -136 22893 22894 0
22908 -166 -22897 0
22910 -168 -22897 0
22911 -176 -22899 0
-22913 22903 851 1031 0
22903 -851 -22913 0
22904 -22914 1032 852 0
-852 -22914 22904 0
22917 -22907 1035 855 0
22918 -22908 856 1036 0
22919 -22909 1037 857 0
22920 -22910 858 1038 0
22921 -22911 859 1039 0
22921 -22911 -1039 0
1040 -22912 22922 860 0
-22914 -181 22903 22904 0
22918 -211 -22907 0
22920 -22907 -213 0
22921 -221 -22909 0
22921 -22910 -223 0
-22923 22913 861 1041 0
-22923 -861 22913 0
-22924 22914 1042 862 0
-22924 22914 -862 0
22927 -22917 865 1045 0
22928 -22918 1046 866 0
22929 1047 -22919 867 0
22930 -22920 868 1048 0
22931 -22921 869 1049 0
22931 -22921 -1049 0
1050 -22922 22932 870 0
-22924 -226 22913 22914 0
22927 -258 -22920 -22917 0
22930 -258 -22917 0
22931 -266 -22919 0
871 -22933 22923 1051 0
-22933 -871 22923 0
22924 -22934 1052 872 0
-22934 22924 -872 0
22937 -22927 875 1055 0
-22928 22938 1056 876 0
-22928 22938 -1056 0
22939 1057 -22929 877 0
22940 -22930 878 1058 0
22941 -22931 879 1059 0
22941 -22931 -1059 0
1060 -22932 22942 880 0
-22934 -271 22923 22924 0
-22927 -301 22938 0
22940 -22927 -303 0
22941 -22930 -313 0
-22943 22933 881 1061 0
-22943 -881 22933 0
-22944 22934 882 1062 0
-22944 22934 -882 0
22947 -22937 885 1065 0
22948 -22938 886 1066 0
22949 1067 -22939 887 0
22951 -22941 889 1069 0
22951 -1069 -22941 0
1070 -22942 22952 890 0
-22944 -316 22933 22934 0
22951 -356 -22939 0
22951 -22940 -358 0
891 -22953 22943 1071 0
-891 -22953 22943 0
-22954 22944 1072 892 0
-22954 22944 -892 0
22957 -22947 895 1075 0
22959 -22949 897 1077 0
22961 -22951 899 1079 0
22961 -22951 -1079 0
1080 -22952 22962 900 0
-22954 -361 22943 22944 0
22958 -22947 -391 0
22960 -22947 -393 0
22961 -22948 -398 0
22961 -22949 -401 0
-22963 22953 901 1081 0
-22963 22953 -901 0
-22964 22954 902 1082 0
-22964 22954 -902 0
22968 -22958 906 1086 0
22969 -22959 907 1087 0
22970 -22960 908 1088 0
22960 -908 -22970 0
22971 -22961 1089 909 0
1090 -22962 22972 910 0
-22964 -406 22953 22954 0
22968 -436 -22957 0
22961 -448 -22970 0
911 -22973 22963 1091 0
-22973 -911 22963 0
-22974 22964 912 1092 0
-22974 22964 -912 0
22965 -913 -22975 0
22968 -916 -22978 0
22979 -22969 917 1097 0
22970 -22980 -918 0
22981 -22971 919 1099 0
22971 -22981 919 1099 0
22981 -22971 -1099 0
-22972 22982 1100 920 0
-22974 22964 22963 -451 0
22966 -468 -22975 0
22967 -469 -22975 0
22968 -470 -22975 0
22969 -471 -22975 0
22970 -472 -22975 0
22971 -473 -22975 0
22971 -488 -22978 0
22981 -22968 -488 0
22981 -22969 -491 0
22971 -493 -22980 0
921 -22983 22973 1101 0
-22983 -921 22973 0
-22984 22974 1102 922 0
-22984 22974 -922 0
22989 -22979 927 1107 0
22991 -22981 929 1109 0
-22982 1110 22992 930 0
-22984 22974 22973 -496 0
22991 -536 -22979 0
931 -22993 22983 1111 0
-22993 -931 22983 0
-22994 22984 1112 932 0
-22994 22984 -932 0
22987 -22997 935 1115 0
23001 -22991 939 1119 0
-22992 23002 1120 940 0
-22994 22984 22983 -541 0
23001 -581 -22989 0
941 -23003 22993 1121 0
-23003 22993 -941 0
-23004 22994 1122 942 0
-23004 -942 22994 0
23011 -23001 949 1129 0
-23002 23012 1130 950 0
-23004 -586 22993 22994 0
951 -23013 23003 1131 0
-23014 23004 952 1132 0
-952 -23014 23004 0
23008 -23018 -956 0
-23014 -631 23003 23004 0
-23005 -23004 -640 23014 0
23009 -666 -23018 0
-23024 23014 1142 962 0
-23024 23014 -962 0
23015 963 -23025 1143 0
23015 -23025 -963 0
23016 -964 -23026 0
23018 -966 -23028 0
23019 -967 -23029 0
-685 -23015 -23014 23024 0
-23016 -23014 -686 23024 0
-23017 -23014 -687 23024 0
-23018 -688 -23014 23024 0
-23014 -689 -23019 23024 0
23019 -696 -23025 0
23019 -702 -23026 0
23019 -711 -23028 0
23020 -715 -23029 0
-23034 23024 1152 972 0
23043 811 991 0
-23044 812 992 0
23045 813 993 0
23047 815 995 0
23048 816 996 0
23048 -996 0
23049 817 997 0
23050 818 998 0
23051 999 819 0
23052 1000 820 0
23047 -33 0
23048 -37 0
23050 -37 0
-38 23048 0
23053 821 1001 -23043 0
822 -23054 1002 23044 0
-822 -23054 23044 0
23055 823 -23045 1003 0
23057 825 -23047 1005 0
23057 -1005 -23047 0
23059 827 -23049 1007 0
23060 1008 -23050 828 0
23061 1009 829 -23051 0
23061 -1009 -23051 0
1010 23062 830 -23052 0
23057 -78 -23047 -23050 0
23061 -88 -23050 0
23063 831 -23053 1011 0
832 1012 -23064 23054 0
-832 -23064 23054 0
23066 -1014 -23056 0
23067 -23057 835 1015 0
23067 -23057 -1015 0
23069 -23059 837 1017 0
23070 -23060 1018 838 0
23071 -23061 839 1019 0
23071 -23061 -1019 0
1020 -23062 23072 840 0
-23063 -91 23054 0
-91 23064 -23053 0
23065 -109 -23057 -23055 0
-23063 23073 841 1021 0
-23073 23063 841 1021 0
842 23064 1022 -23074 0
-842 23064 -23074 0
23077 -23067 845 1025 0
23079 -23069 847 1027 0
23080 -23070 1028 848 0
23081 849 -23071 1029 0
1030 -23072 23082 850 0
-136 23064 -23073 0
23076 -153 -23065 0
23081 -169 -23067 0
23081 -173 -23068 0
23081 -176 -23069 0
-23083 23073 851 1031 0
-23083 -851 23073 0
852 23074 -23084 1032 0
-852 23074 -23084 0
23087 -23077 1035 855 0
23089 -23079 1037 857 0
23090 -23080 1038 858 0
23091 -23081 859 1039 0
23091 -23081 -1039 0
1040 -23082 23092 860 0
-181 23074 -23083 0
-23078 -185 23083 -23073 0
23087 -213 -23077 -23080 0
23090 -213 -23077 0
23091 -221 -23079 0
23093 -23083 861 1041 0
-23093 23083 861 1041 0
-23093 -861 23083 0
862 23084 1042 -23094 0
-862 23084 -23094 0
23097 865 -23087 1045 0
23099 1047 -23089 867 0
23100 1048 -23090 868 0
23101 -23091 869 1049 0
23101 -23091 -1049 0
1050 -23092 23102 870 0
-226 23084 -23093 0
-226 23083 -23094 23084 0
23101 -266 -23089 0
871 23103 -23093 1051 0
871 -23103 23093 1051 0
-23103 -871 23093 0
-23094 23104 1052 872 0
872 23094 -23104 1052 0
-872 23094 -23104 0
23107 -23097 875 1055 0
23109 1057 -23099 877 0
23111 -23101 879 1059 0
23101 1059 -23111 879 0
23111 -23101 -1059 0
1060 -23102 23112 880 0
-23103 -271 23094 0
23103 -271 -23093 -23094 0
23107 -303 -23100 -23097 0
23111 -311 -23099 0
23113 -23103 881 1061 0
-23113 23103 881 1061 0
-881 23103 -23113 0
882 23104 1062 -23114 0
-882 23104 -23114 0
23119 1067 -23109 887 0
23121 -23111 889 1069 0
23111 1069 -23121 889 0
23121 -1069 -23111 0
1070 -23112 23122 890 0
-23113 -316 23104 0
-23103 -316 23114 0
23110 -348 -23117 0
23111 -353 -23118 0
23121 -356 -23109 0
891 23123 -23113 1071 0
-23123 891 23113 1071 0
23114 892 1072 -23124 0
-892 23114 -23124 0
23129 -23119 897 1077 0
23120 -898 -23130 0
23131 -23121 899 1079 0
23131 -23121 -1079 0
1080 -23122 23132 900 0
-361 23114 -23123 0
23120 -393 -23127 0
23121 -403 -23130 0
-23123 23133 901 1081 0
-23133 23123 901 1081 0
23123 -901 -23133 0
23124 902 1082 -23134 0
-902 23124 -23134 0
23139 -23129 907 1087 0
23141 -23131 1089 909 0
1090 -23132 23142 910 0
-406 23124 -23133 0
23141 -446 -23129 0
23140 -23130 -448 -23131 0
23141 -23130 -448 0
-23143 911 23133 1091 0
-911 -23143 23133 0
23144 -23134 912 1092 0
23134 -23144 1092 912 0
-912 23134 -23144 0
23149 -23139 917 1097 0
23150 -23140 1098 918 0
23151 -23141 919 1099 0
23141 1099 -23151 919 0
23151 -23141 -1099 0
-23142 23152 1100 920 0
-451 23134 -23143 0
-23135 -452 23143 -23133 0
23149 -23141 -491 -23139 0
921 -23143 23153 1101 0
921 -23153 23143 1101 0
-23153 -921 23143 0
922 23154 -23144 1102 0
23144 922 1102 -23154 0
23144 -922 -23154 0
23149 1107 -23159 927 0
23150 1108 -23160 928 0
-496 23144 -23153 0
-496 23153 -23144 -23143 0
-23145 -497 -23143 23153 0
-23146 -498 -23143 23153 0
-23147 -499 -23143 23153 0
-23148 -500 -23143 23153 0
-23150 -502 -23143 23153 0
23159 -23151 -536 -23149 0
931 23163 -23153 1111 0
931 -23163 23153 1111 0
-931 23153 -23163 0
932 23154 1112 -23164 0
-932 23154 -23164 0
23154 -541 -23163 0
-23154 23163 -23153 -541 0
23169 -23160 -580 -23159 0
23170 -580 -23159 0
23169 -23161 -581 -23159 0
941 23173 -23163 1121 0
941 -23173 23163 1121 0
-941 -23173 23163 0
23174 -23164 942 1122 0
23164 1122 942 -23174 0
-942 23164 -23174 0
-586 23164 -23173 0
-586 -23163 -23164 23173 0
-586 -23174 23163 23164 0
-23183 23173 951 1131 0
952 23174 1132 -23184 0
-952 23174 -23184 0
-631 -23174 -23173 23183 0
-631 23174 23173 -23184 0
961 -23193 23183 1141 0
23184 1142 962 -23194 0
-962 23184 -23194 0
-23183 -23184 -676 23193 0
971 -23193 23203 1151 0
972 23194 1152 -23204 0
23194 -972 -23204 0
-721 -23194 -23193 23203 0
-23203 981 1161 0
-23204 -766 -23203 0
23206 -783 0
-23213 811 991 0
23214 992 812 0
-23223 821 1001 23213 0
23224 822 -23214 1002 0
-23233 831 23223 1011 0
-23233 -831 23223 0
23234 -23224 1012 832 0
-23243 23233 841 1021 0
-23243 23233 -841 0
23244 842 1022 -23234 0
-23253 23243 851 1031 0
23254 -23244 852 1032 0
-23263 23253 861 1041 0
23264 -23254 1042 862 0
23274 -23264 1052 872 0
-23273 -23274 23283 -316 0
23344 -952 -23354 0
23345 -640 -23354 0
23354 -23364 962 1142 0
23364 972 1152 -23374 0
23374 1162 982 0
23383 811 991 0
23384 992 812 0
23385 813 993 0
23386 814 994 0
23386 -994 0
23387 815 995 0
23388 816 996 0
23389 817 997 0
23390 818 998 0
23390 -998 0
23391 999 819 0
23391 -999 0
23392 1000 820 0
23385 -18 0
23385 -19 0
23385 -20 0
23385 -22 0
-23 23385 0
23386 -25 0
23386 -26 0
23386 -28 0
23386 -29 0
23387 -33 0
23387 -34 0
23388 -38 0
23390 -43 0
23393 821 1001 -23383 0
23394 822 -23384 1002 0
23395 823 -23385 1003 0
23395 -1003 -23385 0
23396 824 1004 -23386 0
23396 -1004 -23386 0
23397 825 -23387 1005 0
23397 -1005 -23387 0
23398 826 -23388 1006 0
23399 827 -23389 1007 0
23400 1008 -23390 828 0
23401 1009 829 -23391 0
1010 23402 830 -23392 0
23395 -63 -23385 -23386 0
23395 -64 -23385 -23387 0
23395 -65 -23388 -23385 0
23395 -67 -23385 -23390 0
23395 -68 -23385 -23391 0
23396 -70 -23386 -23387 0
23396 -71 -23386 -23388 0
23396 -73 -23390 -23386 0
23396 -74 -23391 -23386 0
23397 -78 -23387 -23390 0
23400 -88 -23391 -23390 0
23403 831 -23393 1011 0
23404 -23394 1012 832 0
23406 -23396 1014 834 0
23406 -1014 -23396 0
23407 -23397 835 1015 0
23408 -23398 836 1016 0
23409 -23399 837 1017 0
23410 -23400 1018 838 0
23411 -23401 839 1019 0
23411 -23401 -1019 0
1020 -23402 23412 840 0
23405 -108 -23395 -23396 0
23406 -115 -23397 -23396 0
23406 -116 -23396 -23398 0
23406 -118 -23396 -23400 0
23406 -119 -23396 -23401 0
23407 -121 -23398 -23397 0
23407 -123 -23400 -23397 0
-23403 23413 841 1021 0
23414 842 1022 -23404 0
23416 -23406 844 1024 0
23416 -1024 -23406 0
23417 -23407 845 1025 0
23407 845 -23417 1025 0
23419 -23409 847 1027 0
23420 -23410 1028 848 0
23421 -23411 1029 849 0
-23412 1030 23422 850 0
-136 -23404 -23403 23413 0
23414 -136 -23403 0
23421 -173 -23408 0
-23413 23423 851 1031 0
23424 -23414 852 1032 0
23424 -23414 -1032 0
23415 853 -23425 1033 0
23415 -853 -23425 0
23427 -23417 1035 855 0
23417 1035 -23427 855 0
23429 -23419 1037 857 0
23430 -23420 1038 858 0
23431 -23421 1039 859 0
23431 -23421 -1039 0
-23422 1040 23432 860 0
-185 -23418 -23413 23423 0
23427 -211 -23417 -23418 0
23431 -218 -23418 0
23430 -23420 -223 -23421 0
-23423 23433 861 1041 0
-861 -23433 23423 0
23434 -23424 1042 862 0
23425 863 -23435 1043 0
23437 -23427 1045 865 0
23427 865 -23437 1045 0
23439 1047 -23429 867 0
23441 -23431 869 1049 0
23431 869 -23441 1049 0
23441 -23431 -1049 0
-23432 1050 23442 870 0
23434 -23423 -226 0
23437 -258 -23430 -23427 0
-871 -23443 23433 0
23444 -23434 1052 872 0
23447 -23437 1055 875 0
23437 875 -23447 1055 0
23449 1057 -23439 877 0
23440 1058 -23450 878 0
23451 879 -23441 1059 0
23441 -23451 1059 879 0
-23442 1060 23452 880 0
23437 -274 -23443 0
23447 -301 -23437 -23438 0
23448 -301 -23437 0
23447 -303 -23440 -23437 0
23451 -308 -23438 0
-23453 23443 881 1061 0
23443 -881 -23453 0
23454 -23444 1062 882 0
23458 -23448 -1066 0
23459 1067 -23449 887 0
23449 1067 -23459 887 0
23461 -23451 889 1069 0
23451 1069 -23461 889 0
23461 -1069 -23451 0
-23452 1070 23462 890 0
23451 -349 -23457 0
23461 -356 -23449 0
891 -23463 23453 1071 0
-23463 -891 23453 0
23464 -23454 1072 892 0
23469 -23459 897 1077 0
23459 1077 -23469 897 0
23460 1078 -23470 898 0
23471 1079 899 -23461 0
23461 1079 -23471 899 0
23461 -899 -23471 0
-23462 1080 23472 900 0
23461 -394 -23467 0
23471 -23458 -398 0
23471 -23459 -401 0
-23460 23470 -403 -23461 0
23471 -23460 -403 0
-23473 23463 901 1081 0
-23473 -901 23463 0
23474 -23464 1082 902 0
23479 -23469 907 1087 0
23469 -23479 1087 907 0
23480 -23470 908 1088 0
23470 -23480 1088 908 0
23481 -23471 909 1089 0
23471 -23481 1089 909 0
23471 -909 -23481 0
23481 -23471 -1089 0
-23472 1090 23482 910 0
23464 -406 -23473 0
23477 -436 -23467 -23468 0
23479 -446 -23469 -23471 0
23481 -446 -23469 0
-23483 23473 911 1091 0
-23483 -911 23473 0
23484 -23474 912 1092 0
23474 -23484 1092 912 0
23475 -23485 913 1093 0
23476 -23486 1094 914 0
23489 -23479 917 1097 0
23479 1097 -23489 917 0
23480 918 -23490 1098 0
23491 -23481 919 1099 0
23481 1099 -23491 919 0
23491 -23481 -1099 0
23489 -23479 -491 -23481 0
23490 -493 -23481 -23480 0
23491 -493 -23480 0
921 -23493 23483 1101 0
-23493 -921 23483 0
23484 922 1102 -23494 0
23485 923 -23495 1103 0
23486 1104 -23496 924 0
23488 926 -23498 1106 0
23499 -23489 927 1107 0
23489 -927 -23499 0
23490 1108 -23500 928 0
23501 929 -23491 1109 0
23501 -1109 -23491 0
23499 -536 -23491 -23489 0
23500 -23491 -538 -23490 0
931 -23503 23493 1111 0
-23503 -931 23493 0
23494 -23504 932 1112 0
23495 -23505 933 1113 0
23496 -23506 934 1114 0
23498 -23508 936 1116 0
23509 -23499 1117 937 0
23499 1117 -23509 937 0
-23500 23510 938 1118 0
23500 -23510 938 1118 0
23510 -580 -23499 0
23509 -581 -23501 -23499 0
941 -23513 23503 1121 0
-23513 -941 23503 0
23504 1122 942 -23514 0
-942 23504 -23514 0
23505 1123 -23515 943 0
-943 23505 -23515 0
23506 -23516 1124 944 0
-944 23506 -23516 0
23508 -23518 1126 946 0
23509 -23519 947 1127 0
23520 -23510 948 1128 0
23510 1128 -23520 948 0
-586 23504 -23513 0
23505 -587 -23513 0
-588 23506 -23513 0
-595 23505 -23514 0
-596 23506 -23514 0
-603 23506 -23515 0
23520 -23509 -625 0
-23523 23513 951 1131 0
-23523 -951 23513 0
23514 952 -23524 1132 0
-952 23514 -23524 0
23515 1133 -23525 953 0
-953 23515 -23525 0
23516 -23526 954 1134 0
23516 -954 -23526 0
23518 1136 956 -23528 0
23518 -956 -23528 0
23519 1137 957 -23529 0
23519 -957 -23529 0
23520 1138 -23530 958 0
23520 -958 -23530 0
-631 23514 -23523 0
23515 -632 -23523 0
-633 23516 -23523 0
23518 -635 -23523 0
-636 23519 -23523 0
-640 23515 -23524 0
-641 23516 -23524 0
-643 23518 -23524 0
23520 -645 -23524 0
-648 23516 -23525 0
-650 23518 -23525 0
-652 23520 -23525 0
-656 23518 -23526 0
-658 23520 -23526 0
-661 23518 -23527 0
23521 -671 -23529 0
-23533 961 23523 1141 0
23523 -961 -23533 0
23524 962 -23534 1142 0
23524 -962 -23534 0
23525 963 1143 -23535 0
23525 -963 -23535 0
23526 964 -23536 1144 0
23526 -964 -23536 0
23527 1145 -23537 965 0
-965 23527 -23537 0
23528 1146 -23538 966 0
23528 -966 -23538 0
23529 1147 -23539 967 0
23529 -967 -23539 0
23530 1148 -23540 968 0
23524 -676 -23533 0
23525 -677 -23533 0
-678 23526 -23533 0
-679 23527 -23533 0
23528 -680 -23533 0
-685 23525 -23534 0
23526 -686 -23534 0
23527 -687 -23534 0
-688 23528 -23534 0
-690 23530 -23534 0
-693 23526 -23535 0
-694 23527 -23535 0
-695 23528 -23535 0
23530 -697 -23535 0
-700 23527 -23536 0
-701 23528 -23536 0
-703 23530 -23536 0
-706 23528 -23537 0
-707 23529 -23537 0
-715 23530 -23539 0
971 23533 -23543 1151 0
23533 -971 -23543 0
23534 972 -23544 1152 0
23534 -972 -23544 0
23535 973 1153 -23545 0
-973 23535 -23545 0
23536 974 -23546 1154 0
23536 -974 -23546 0
-721 23534 -23543 0
23535 -722 -23543 0
-723 23536 -23543 0
23535 -730 -23544 0
-731 23536 -23544 0
23536 -738 -23545 0
23543 981 1161 0
23543 -981 0
23544 -766 0
23548 -796 0
-23553 -18 0
23553 -19 0
-23553 -20 0
-23553 -22 0
-23553 -23 0
23553 -25 0
-23553 -26 0
-23553 -28 0
23553 -31 0
23553 -33 0
23553 -34 0
-23553 -37 0
-23553 -38 0
-23554 -63 2136 2135 -23385 -23386 0
-64 23554 -2137 0
-23554 -64 2137 -23387 2135 -23385 0
-65 23554 -2138 0
-23554 -67 -23385 2140 -23390 2135 0
-70 23554 -2137 0
-71 23554 -2138 0
-76 23554 -2137 0
-78 23554 -2137 0
-79 23554 -2137 0
-82 23554 -2138 0
-82 -2140 23554 0
-83 23554 -2138 0
-83 -2141 23554 0
-88 -2140 23554 0
-88 -2141 23554 0
-88 -23554 -23391 2141 2140 -23390 0
-23555 -92 -23393 2145 2143 -23395 0
-23555 -93 -23393 2146 2143 -23396 0
23555 -2147 -94 0
23555 -95 -2148 0
-100 -23555 -23395 -23394 2144 2145 0
-101 -23555 -23394 -23396 2144 2146 0
-108 -23555 -23396 -23395 2145 2146 0
-109 23555 -2147 0
-110 23555 -2148 0
-112 23555 -2150 0
-112 -23555 2150 -23400 2145 -23395 0
23555 -113 -2151 0
23555 -115 -2147 0
-115 -23397 2147 -23396 2146 -23555 0
-116 23555 -2148 0
-118 23555 -2150 0
23555 -119 -2151 0
-121 23555 -2147 0
-121 23555 -2148 0
-123 23555 -2147 0
-123 23555 -2150 0
23555 -124 -2147 0
23555 -124 -2151 0
-127 23555 -2148 0
-127 23555 -2150 0
23555 -128 -2148 0
23555 -128 -2151 0
23555 -2150 -133 0
-23556 -136 -23403 2153 -23404 2154 0
-2153 -138 23556 0
-139 23556 -2157 0
23556 -140 -2158 0
-140 -23556 2158 -23403 2153 -23408 0
-147 23556 -2157 0
23556 -154 -2157 0
23556 -155 -2158 0
-2160 23556 -157 0
23556 -158 -2161 0
-160 23556 -2157 0
-161 23556 -2158 0
-161 -23556 -23406 -23408 2156 2158 0
-163 -2160 23556 0
23556 -164 -2161 0
-166 -2157 23556 0
-166 23556 -2158 0
23556 -168 -2157 0
-2160 23556 -168 0
-169 -2157 23556 0
-169 23556 -2161 0
-172 23556 -2158 0
-2160 -172 23556 0
23556 -173 -2158 0
23556 -173 -2161 0
23556 -2161 -176 0
-2160 23556 -178 0
23556 -2161 -178 0
-23557 -181 2163 -23413 -23414 2164 0
-2167 -184 23557 0
-2168 -185 23557 0
23557 -2171 -188 0
-192 -2167 23557 0
-2168 -193 23557 0
-195 23557 -2170 0
-196 23557 -2171 0
-199 -2167 23557 0
-200 -2165 23557 0
-200 -2168 23557 0
-202 23557 -2170 0
-203 23557 -2171 0
-203 -23557 -23415 -23421 2165 2171 0
-205 -2167 23557 0
-206 -2168 23557 0
-208 23557 -2170 0
-209 23557 -2171 0
-209 -23557 -23421 -23416 2166 2171 0
-211 -2167 23557 0
-211 -2168 23557 0
-212 -2167 23557 0
-213 -2167 23557 0
-213 23557 -2170 0
-214 -2167 23557 0
-214 23557 -2171 0
-217 -2168 23557 0
-217 23557 -2170 0
-217 -23557 2168 -23420 -23418 2170 0
-218 -2168 23557 0
-218 23557 -2171 0
-218 -23557 2168 -23421 -23418 2171 0
23557 -2171 -221 0
23557 -2170 -223 0
23557 -2171 -223 0
-23557 2170 -23421 -223 -23420 2171 0
23557 -2171 -225 0
23558 -226 23423 0
23424 23558 -226 0
-23558 -226 2173 -23423 -23424 2174 0
-2177 23558 -229 0
-2178 -230 23558 0
23558 -2181 -233 0
-235 2174 -23425 -23424 -23558 2175 0
-236 2174 -23426 -23424 -23558 2176 0
-237 -2177 23558 0
-237 -23558 2177 -23427 2174 -23424 0
-238 -2178 23558 0
-238 -23558 2178 -23428 2174 -23424 0
-2180 -240 23558 0
-240 -23558 2174 2180 -23430 -23424 0
-241 23558 -2181 0
-241 2181 -23424 -23558 2174 -23431 0
-242 -23558 -23424 -23432 2174 2182 0
-244 -2177 23558 0
-2178 23558 -245 0
-245 2178 -23425 -23558 2175 -23428 0
-247 -2180 23558 0
-248 23558 -2181 0
-248 -23558 2175 -23431 -23425 2181 0
-250 -2177 23558 0
-2178 -251 23558 0
-253 -2180 23558 0
-254 23558 -2181 0
-254 2181 -23426 -23558 2176 -23431 0
-2177 23558 -256 0
-2178 23558 -256 0
-256 2178 -23427 -23558 2177 -23428 0
-258 -2177 23558 0
-258 -2180 23558 0
-259 -2177 23558 0
-259 23558 -2181 0
-2178 23558 -262 0
-2180 23558 -262 0
-2178 -263 23558 0
-263 23558 -2181 0
-23558 -263 2178 2181 -23428 -23431 0
-2179 23558 -266 0
23558 -2181 -266 0
-2180 23558 -268 0
23558 -2181 -268 0
-23558 -268 2180 -23430 2181 -23431 0
23558 -2181 -270 0
-2183 23559 -271 0
23434 23559 -271 0
-23559 -271 2183 -23433 -23434 2184 0
-2187 -274 23559 0
-274 -23559 2183 -23437 2187 -23433 0
-275 -2188 23559 0
-2190 23559 -277 0
-23559 -280 2185 -23434 -23435 2184 0
-281 -23559 -23436 -23434 2184 2186 0
-282 -2187 23559 0
-283 -2188 23559 0
-285 -2190 23559 0
-285 -23559 -23440 2190 -23434 2184 0
-286 -2191 23559 0
-23559 -286 2191 -23434 2184 -23441 0
-288 -23559 -23435 -23436 2185 2186 0
-289 -2187 23559 0
-2188 23559 -290 0
-292 -2190 23559 0
-292 -23559 2185 2190 -23440 -23435 0
-293 -2191 23559 0
-293 -23559 -23435 2191 2185 -23441 0
-295 -2187 23559 0
-2188 23559 -296 0
-23559 -296 -23436 2188 2186 -23438 0
-298 -2190 23559 0
-298 2190 -23436 -23559 2186 -23440 0
-2186 -299 23559 0
-299 -2191 23559 0
-299 -23559 -23436 -23441 2186 2191 0
-301 -2187 23559 0
-301 -2188 23559 0
-2187 -303 23559 0
-303 -2190 23559 0
-2187 -304 23559 0
-304 -2191 23559 0
-304 -23559 2187 -23437 -23441 2191 0
-306 -2188 23559 0
-2188 23559 -307 0
-2190 23559 -307 0
-308 -2188 23559 0
-308 -2191 23559 0
-308 -23559 -23438 2188 -23441 2191 0
-2191 23559 -311 0
-2190 23559 -313 0
23559 -2191 -313 0
-23559 -313 2191 -23441 2190 -23440 0
23559 -2191 -315 0
-2197 -319 23560 0
-320 -2198 23560 0
-2201 23560 -323 0
-23560 -325 -23445 2194 2195 -23444 0
-326 -23560 2194 -23444 -23446 2196 0
-2197 23560 -327 0
-328 -2194 23560 0
-328 -2198 23560 0
-328 2198 -23448 2194 -23560 -23444 0
-2194 -330 23560 0
-330 -2200 23560 0
-330 -23560 2200 -23444 2194 -23450 0
-2194 -331 23560 0
-331 -2201 23560 0
-333 -23560 2196 2195 -23445 -23446 0
-2197 23560 -334 0
-335 -2195 23560 0
-335 -2198 23560 0
-335 -23560 2195 2198 -23445 -23448 0
-2195 23560 -337 0
-2200 23560 -337 0
-23560 -337 2195 2200 -23445 -23450 0
-2195 -338 23560 0
-338 -2201 23560 0
-340 -2197 23560 0
-2196 -341 23560 0
-341 -2198 23560 0
-341 2196 -23446 -23560 2198 -23448 0
-2196 -343 23560 0
-343 -2200 23560 0
-343 -23560 2200 2196 -23446 -23450 0
-2196 -344 23560 0
-344 -2201 23560 0
-346 -2197 23560 0
-346 -2198 23560 0
-346 2198 -23448 2197 -23447 -23560 0
-348 -2197 23560 0
-348 -2200 23560 0
-349 -2197 23560 0
-349 -2201 23560 0
-352 -2198 23560 0
-352 -2200 23560 0
-352 -23560 -23448 2198 2200 -23450 0
-353 -2198 23560 0
-353 -2201 23560 0
-356 -2201 23560 0
-358 -2200 23560 0
-358 -2201 23560 0
-358 2200 -23450 -23560 2201 -23451 0
-2201 23560 -360 0
-23561 -361 -23453 2203 -23454 2204 0
-2207 -364 23561 0
-2208 -365 23561 0
-23561 -370 2204 -23454 -23455 2205 0
-371 -23561 2204 -23454 -23456 2206 0
-2207 23561 -372 0
-23561 -372 2204 -23454 2207 -23457 0
-373 -2208 23561 0
-373 -23561 2204 -23454 2208 -23458 0
-2204 23561 -375 0
-2210 23561 -375 0
-2204 -376 23561 0
-376 -2211 23561 0
-2207 -379 23561 0
-379 -23561 2205 -23455 2207 -23457 0
-380 -2208 23561 0
-382 -2210 23561 0
-2205 23561 -383 0
-383 -2211 23561 0
-385 -2207 23561 0
-385 -23561 -23456 2206 2207 -23457 0
-386 -2208 23561 0
-388 -2210 23561 0
-2206 23561 -389 0
-2211 23561 -389 0
-391 -2207 23561 0
-391 -2208 23561 0
-393 -2207 23561 0
-393 -2210 23561 0
-2207 23561 -394 0
-2211 23561 -394 0
-396 -2208 23561 0
-397 -2208 23561 0
-397 -2210 23561 0
-2208 23561 -398 0
-2211 23561 -398 0
-2211 23561 -401 0
-2210 23561 -403 0
-2211 23561 -403 0
23561 -2211 -405 0
-23562 -406 -23463 2213 -23464 2214 0
-407 -23465 -23463 -23562 2213 2215 0
-408 -23466 -23463 -23562 2213 2216 0
-2217 23562 -409 0
-410 23562 -2218 0
-410 -23468 -23463 2218 2213 -23562 0
-23562 -415 2214 -23465 -23464 2215 0
-416 -23562 -23464 -23466 2214 2216 0
-417 -2217 23562 0
-417 -23562 2214 2217 -23467 -23464 0
-418 23562 -2218 0
-418 -23562 -23468 2214 2218 -23464 0
-420 -2220 23562 0
-421 -2221 23562 0
-23562 -423 2215 2216 -23465 -23466 0
-424 -2217 23562 0
-424 -23562 2215 2217 -23467 -23465 0
-425 23562 -2218 0
-425 -23562 -23468 2215 2218 -23465 0
-427 -2220 23562 0
-427 -23562 -23465 2220 2215 -23470 0
-2221 23562 -428 0
-23562 -428 2215 2221 -23471 -23465 0
-430 -2217 23562 0
-430 -23562 -23467 2216 2217 -23466 0
-431 23562 -2218 0
-23562 -431 2216 -23468 2218 -23466 0
-433 -2220 23562 0
-433 -23562 -23470 2220 2216 -23466 0
-434 -2221 23562 0
-434 2221 -23471 2216 -23466 -23562 0
-436 -2217 23562 0
-436 23562 -2218 0
-436 -23562 2217 -23467 2218 -23468 0
-438 -2217 23562 0
-438 -2220 23562 0
-438 -23562 2217 -23467 -23470 2220 0
-2217 23562 -439 0
-439 -2221 23562 0
-441 23562 -2218 0
-442 23562 -2218 0
-442 -2220 23562 0
-442 -23562 -23468 2220 2218 -23470 0
23562 -2218 -443 0
-2221 23562 -443 0
-446 -2221 23562 0
-2220 23562 -448 0
-2221 23562 -448 0
-23562 -448 -23470 2220 2221 -23471 0
-2221 23562 -450 0
23562 -450 -2222 0
-454 -23563 -23473 2223 -23477 2227 0
-455 23563 -2228 0
23563 -458 -2231 0
-462 -2227 23563 0
-463 23563 -2228 0
-465 -2230 23563 0
-465 -23563 -23474 -23480 2224 2230 0
-466 -2231 23563 0
-2227 -469 23563 0
-470 23563 -2228 0
-472 -2230 23563 0
-472 -23563 -23475 2230 2225 -23480 0
-473 -2231 23563 0
-475 -2227 23563 0
-476 23563 -2228 0
-478 -2230 23563 0
-478 -23563 2226 -23480 -23476 2230 0
-479 -2231 23563 0
-481 -2227 23563 0
-481 23563 -2228 0
-2227 23563 -483 0
-2230 23563 -483 0
-484 -2227 23563 0
-484 -2231 23563 0
23563 -486 -2228 0
-487 -2228 23563 0
-487 -2230 23563 0
-487 -23563 -23478 2230 2228 -23480 0
-2228 23563 -488 0
23563 -488 -2231 0
-23563 -490 -23480 2230 -23479 2229 0
23563 -2231 -491 0
-2230 -493 23563 0
-2231 -493 23563 0
23563 -2231 -495 0
-500 -2238 23564 0
-2238 23564 -508 0
-511 -2241 23564 0
-2238 -515 23564 0
-2241 23564 -518 0
-521 -2238 23564 0
-2236 -524 23564 0
-524 -2241 23564 0
-2238 23564 -526 0
-527 -23564 -23487 2239 -23489 2237 0
-2237 -529 23564 0
-529 -2241 23564 0
-531 -2238 23564 0
-531 -23564 2239 2238 -23489 -23488 0
-2238 23564 -532 0
-533 -2238 23564 0
-533 -2241 23564 0
-2239 -535 23564 0
-2241 23564 -536 0
-2240 23564 -538 0
-2241 23564 -538 0
23564 -2241 -540 0
23564 -540 -2242 0
-545 -2248 23565 0
-23565 -571 2247 -23498 -23497 2248 0
-573 -23565 2247 -23500 -23497 2250 0
-576 -2248 23565 0
-577 -23565 2248 2250 -23498 -23500 0
-23565 -580 -23500 2249 2250 -23499 0
-2251 23565 -581 0
-2251 23565 -585 0
23565 -585 -2252 0
-622 -2258 23566 0
23566 -630 -2261 0
23567 -2271 -675 0
23567 -675 -2272 0
-693 -23568 -23525 -23526 2276 2275 0
23568 -2281 -720 0
23568 -720 -2282 0
23571 -23553 0
23575 -23554 0
23575 -23571 0
23576 -23554 -23571 0
23579 -23555 0
23579 -23575 0
-23576 23580 0
23580 -23555 -23575 0
-23576 -23555 23581 0
23583 -23556 0
23583 -23579 0
23584 -23580 0
-23581 23585 0
23584 -23556 -23579 0
-23580 -23556 23585 0
-23581 -23556 23586 0
23587 -23557 0
23587 -23583 0
23588 -23584 0
-23585 23589 0
-23586 23590 0
23588 -23557 -23583 0
-23584 -23557 23589 0
-23585 -23557 23590 0
23591 -23558 0
23591 -23587 0
23592 -23588 0
-23589 23593 0
-23590 23594 0
23592 -23558 -23587 0
-23558 -23588 23593 0
-23589 -23558 23594 0
23595 -23559 0
23595 -23591 0
23596 -23592 0
-23593 23597 0
-23594 23598 0
23596 -23559 -23591 0
-23559 -23592 23597 0
-23593 -23559 23598 0
23599 -23560 0
23599 -23595 0
23600 -23596 0
-23597 23601 0
-23598 23602 0
23600 -23560 -23595 0
-23560 -23596 23601 0
-23560 -23597 23602 0
23603 -23561 0
23603 -23599 0
23604 -23600 0
-23601 23605 0
-23602 23606 0
23604 -23561 -23599 0
-23561 -23600 23605 0
-23601 -23561 23606 0
23607 -23562 0
23607 -23603 0
23608 -23604 0
-23605 23609 0
-23606 23610 0
23608 -23562 -23603 0
-23562 -23604 23609 0
-23562 -23605 23610 0
23611 -23607 0
23612 -23608 0
-23609 23613 0
-23610 23614 0
23612 -23563 -23607 0
-23608 23613 -23563 0
-23609 -23563 23614 0
-23613 23617 0
-23614 23618 0
23616 -23564 -23611 0
-23564 -23612 23617 0
-23613 -23564 23618 0
23620 -23616 0
-23617 23621 0
-23618 23622 0
-23565 -23617 23622 0
-23622 23626 0
-23621 -23566 23626 0
-23626 23630 0
-23586 -23557 0
-23590 -23558 0
-23594 -23559 0
-23560 -23598 0
-23602 -23561 0
-23562 -23606 0
-23610 -23563 0
-23614 -23564 0
-23565 -23618 0
-23622 -23566 0
-23626 -23567 0
-23630 -23568 0
23639 -20 0
23639 -26 0
23639 -31 0
23639 -37 0
23639 -38 0
-23639 -43 0
23640 -65 -2308 0
-23640 -67 -23385 2310 2305 -23390 0
23640 -71 -2308 0
23640 -76 -2308 0
-79 -23640 -23387 2311 2307 -23391 0
23640 -82 -2308 0
-83 23640 -2308 0
23640 -88 -2310 0
-23640 -88 -23391 2310 2311 -23390 0
23641 -110 -2318 0
-113 -23641 -23395 -23401 2315 2321 0
23641 -116 -2318 0
23641 -121 -2318 0
23641 -127 -2318 0
-23642 -136 -23403 2323 -23404 2324 0
23642 -140 -2328 0
23642 -155 -2328 0
23642 -161 -2328 0
23642 -166 -2328 0
23642 -172 -2328 0
23642 -2330 -178 0
-2338 -185 23643 0
-2338 -193 23643 0
23643 -200 -2338 0
-202 23643 -2340 0
-206 23643 -2338 0
23643 -2340 -208 0
23643 -211 -2338 0
-2338 -217 23643 0
-2338 -218 23643 0
-23643 -223 2340 -23421 2341 -23420 0
-23644 -226 2343 -23423 2344 -23424 0
-2348 23644 -230 0
-238 -2348 23644 0
23644 -2350 -240 0
23644 -2348 -245 0
-247 23644 -2350 0
-2348 -251 23644 0
-253 23644 -2350 0
23644 -2348 -256 0
-2348 23644 -262 0
23644 -2350 -262 0
-2348 23644 -263 0
-268 -23644 2350 2351 -23431 -23430 0
-23645 2355 -23434 -23435 2354 -280 0
-2358 -283 23645 0
-285 23645 -2360 0
-2358 23645 -290 0
23645 -292 -2360 0
-2358 23645 -296 0
-298 23645 -2360 0
-2358 -301 23645 0
23645 -303 -2360 0
-2358 23645 -307 0
23645 -2360 -307 0
-2358 -308 23645 0
-2370 -330 23646 0
-2370 23646 -337 0
23646 -343 -2370 0
23646 -346 -2368 0
-2370 23646 -348 0
-2368 -352 23646 0
-2370 -352 23646 0
-2368 -353 23646 0
-2370 23646 -358 0
23646 -358 -2371 0
-2380 23647 -375 0
-2380 23647 -382 0
-2380 23647 -388 0
-2380 -393 23647 0
-2380 -397 23647 0
-2378 23647 -398 0
23647 -2381 -401 0
-2380 23647 -403 0
23647 -2381 -403 0
-2388 23648 -443 0
23648 -2391 -446 0
23648 -2390 -448 0
23648 -2391 -448 0
23648 -2391 -450 0
-2398 23649 -488 0
23649 -2401 -491 0
23649 -2400 -493 0
23649 -493 -2401 0
23649 -2401 -495 0
23650 -2411 -536 0
23650 -2411 -540 0
23651 -2421 -581 0
23651 -2421 -585 0
23652 -630 -2431 0
23653 -2441 -675 0
23654 -2451 -720 0
23657 -23639 0
23662 -23640 0
23662 -23657 0
23663 -23640 -23657 0
23667 -23641 0
23667 -23662 0
23668 -23663 0
23668 -23641 -23662 0
23672 -23642 0
23672 -23667 0
23673 -23668 0
23673 -23642 -23667 0
23677 -23643 0
23677 -23672 0
23678 -23673 0
23678 -23643 -23672 0
23679 -23643 -23673 0
23682 -23644 0
23682 -23677 0
23683 -23678 0
23684 -23679 0
23683 -23644 -23677 0
23684 -23644 -23678 0
23688 -23683 0
23689 -23684 0
23688 -23645 -23682 0
23689 -23645 -23683 0
23693 -23688 0
23694 -23689 0
23694 -23646 -23688 0
-23646 -23689 23695 0
23699 -23694 0
-23695 23700 0
23699 -23647 -23693 0
-23694 23700 -23647 0
-23695 -23647 23701 0
23704 -23699 0
-23700 23705 0
-23699 23705 -23648 0
-23700 -23648 23706 0
-23705 23710 0
-23706 23711 0
-23704 23710 -23649 0
-23705 -23649 23711 0
-23710 23715 0
-23711 23716 0
-23710 -23650 23716 0
-23715 -23651 23721 0
-23721 23726 0
-23726 23731 0
-23701 -23648 0
-23706 -23649 0
-23711 -23650 0
-23716 -23651 0
-23721 -23652 0
-23726 -23653 0
-23731 -23654 0
23742 -41 0
-2475 -63 23743 0
-2475 -65 23743 0
-86 23743 -2479 0
-2480 -88 23743 0
-96 23744 -2489 0
-104 23744 -2489 0
-111 23744 -2489 0
-117 23744 -2489 0
-122 23744 -2489 0
-126 23744 -2489 0
-2488 -128 23744 0
23401 -128 23744 0
-130 23744 -2489 0
-131 23744 -2489 0
-2490 -133 23744 0
-23745 -136 -23403 -23404 2493 2494 0
-141 -2499 23745 0
-149 -2499 23745 0
-151 -2501 23745 0
23407 -154 23745 0
-156 -2499 23745 0
-158 -2501 23745 0
23407 -160 23745 0
-162 -2499 23745 0
-164 -2501 23745 0
-167 -2499 23745 0
-169 -2501 23745 0
-171 -2499 23745 0
-173 -2501 23745 0
-175 -2499 23745 0
-176 -2499 23745 0
-176 -2501 23745 0
-178 -2501 23745 0
-180 -2501 23745 0
-186 -2509 23746 0
-188 -2511 23746 0
-194 -2509 23746 0
-196 -2511 23746 0
-201 -2509 23746 0
-203 -2511 23746 0
-207 -2509 23746 0
-209 -2511 23746 0
-212 -2509 23746 0
-2507 -213 23746 0
-214 -2511 23746 0
-216 -2509 23746 0
-218 -2511 23746 0
-220 -2509 23746 0
-2509 -221 23746 0
-2511 -221 23746 0
-223 -2511 23746 0
-225 -2511 23746 0
-231 -2519 23747 0
-239 -2519 23747 0
-246 -2519 23747 0
-252 -2519 23747 0
-257 -2519 23747 0
-2517 -258 23747 0
-2520 -258 23747 0
-2517 -259 23747 0
-259 -2521 23747 0
23431 -259 23747 0
-261 -2519 23747 0
-265 -2519 23747 0
-266 -2519 23747 0
-270 -2521 23747 0
-2523 -271 23748 0
-271 23748 23433 0
-2527 -274 23748 0
-274 23748 23433 0
-276 -2529 23748 0
-284 -2529 23748 0
-291 -2529 23748 0
-297 -2529 23748 0
-302 -2529 23748 0
-2527 -303 23748 0
-2530 -303 23748 0
-306 -2529 23748 0
-2528 -308 23748 0
-308 -2531 23748 0
-310 -2529 23748 0
-2529 -311 23748 0
-2531 -311 23748 0
-2530 -313 23748 0
-315 -2531 23748 0
-321 -2539 23749 0
-329 -2539 23749 0
-336 -2539 23749 0
-342 -2539 23749 0
-347 -2539 23749 0
23447 -348 23749 0
23450 -348 23749 0
-351 -2539 23749 0
-355 -2539 23749 0
-356 -2539 23749 0
-357 -2539 23749 0
-360 -2541 23749 0
-2543 -361 23750 0
-2544 -361 23750 0
-366 23750 -2549 0
-374 23750 -2549 0
-2544 -376 23750 0
-376 -2551 23750 0
-381 23750 -2549 0
-2545 -383 23750 0
-383 -2551 23750 0
-387 23750 -2549 0
-2546 -389 23750 0
-389 -2551 23750 0
-392 23750 -2549 0
-2547 -393 23750 0
-393 -2550 23750 0
-2547 -394 23750 0
-394 -2551 23750 0
-396 23750 -2549 0
-2548 -398 23750 0
-398 -2551 23750 0
-400 23750 -2549 0
-2549 -401 23750 0
-401 -2551 23750 0
-2550 -403 23750 0
-403 -2551 23750 0
23460 -403 23750 0
23461 -403 23750 0
-405 -2551 23750 0
-411 -2559 23751 0
-419 -2559 23751 0
-421 23751 -2561 0
-426 -2559 23751 0
-432 -2559 23751 0
-434 23751 -2561 0
-437 -2559 23751 0
-441 -2559 23751 0
-445 -2559 23751 0
-446 -2559 23751 0
-446 23751 -2561 0
23471 -446 23751 0
-448 -2560 23751 0
23471 -448 23751 0
-449 -2560 23751 0
-450 23751 -2561 0
-456 23752 -2569 0
-2564 -460 23752 0
-464 23752 -2569 0
-465 -2570 23752 0
-471 23752 -2569 0
-2565 -472 23752 0
-2570 -472 23752 0
-477 23752 -2569 0
-478 -2570 23752 0
-2567 -481 23752 0
-482 23752 -2569 0
-2570 -483 23752 0
23481 -484 23752 0
-486 23752 -2569 0
-487 -2570 23752 0
-490 23752 -2569 0
-2570 -490 23752 0
-491 23752 -2569 0
-2571 -491 23752 0
-493 -2571 23752 0
-495 -2571 23752 0
-501 23753 -2579 0
-509 23753 -2579 0
-511 -2581 23753 0
-516 23753 -2579 0
-518 -2581 23753 0
-522 23753 -2579 0
-524 -2581 23753 0
-527 23753 -2579 0
-531 23753 -2579 0
-533 -2581 23753 0
-535 23753 -2579 0
-536 23753 -2579 0
-2580 -538 23753 0
-2581 -540 23753 0
-546 23754 -2589 0
-554 -2589 23754 0
-561 -2589 23754 0
-567 -2589 23754 0
-572 -2589 23754 0
-576 -2589 23754 0
-580 -2589 23754 0
-23754 -580 -23500 -23499 2589 2590 0
-581 -2589 23754 0
-583 -2590 23754 0
-585 -2591 23754 0
-585 23754 -2592 0
-2595 -605 23755 0
-618 -23755 -23510 -23507 2597 2600 0
-625 -2599 23755 0
-626 -2599 23755 0
-2601 -626 23755 0
-627 -2599 23755 0
-2600 -628 23755 0
-630 -2601 23755 0
-644 23519 23756 0
23520 -645 23756 0
-651 23519 23756 0
-652 23520 23756 0
23519 -657 23756 0
-658 23520 23756 0
23519 -662 23756 0
-663 23520 23756 0
23519 -666 23756 0
-667 23520 23756 0
-670 -2609 23756 0
23520 -670 23756 0
-671 -2609 23756 0
-2611 -671 23756 0
-671 2611 -23519 -23756 2609 -23521 0
-672 23756 -2609 0
-2611 -675 23756 0
-675 23756 -2612 0
23529 -689 23757 0
-696 23529 23757 0
23530 -697 23757 0
23529 -702 23757 0
-703 23530 23757 0
-708 23530 23757 0
-711 23529 23757 0
-712 23530 23757 0
-715 23530 23757 0
-715 -23757 -23530 -23529 2619 2620 0
23530 -718 23757 0
-2621 23757 -720 0
23757 -720 -2622 0
-23757 -720 2622 2621 -23531 -23532 0
-23759 -796 2637 -23548 -23547 2638 0
23760 -23742 0
-23743 23762 0
23762 -23760 0
-23744 23764 0
23764 -23762 0
-23745 23766 0
23766 -23764 0
-23745 23767 -23764 0
-23746 23768 0
23768 -23766 0
-23767 23769 0
-23746 23769 -23766 0
-23747 23770 0
23770 -23768 0
-23769 23771 0
-23748 23772 0
23772 -23770 0
-23771 23773 0
-23748 23773 -23770 0
-23749 23774 0
23774 -23772 0
-23773 23775 0
-23749 23775 -23772 0
-23750 23776 0
23776 -23774 0
-23775 23777 0
-23750 23777 -23774 0
-23751 23778 0
23778 -23776 0
-23777 23779 0
-23751 23779 -23776 0
23780 -23752 0
23780 -23778 0
-23779 23781 0
23781 -23752 -23778 0
-23753 23782 0
23782 -23780 0
-23781 23783 0
-23753 23783 -23780 0
-23754 23784 0
23784 -23782 0
-23783 23785 0
-23754 23785 -23782 0
23786 -23755 0
23786 -23784 0
-23785 23787 0
23787 -23755 -23784 0
-23787 23789 0
-23756 23789 -23786 0
23791 -23789 0
23793 -23791 0
-23769 -23747 0
-23748 -23771 0
-23749 -23773 0
-23775 -23750 0
-23777 -23751 0
-23779 -23752 0
-23753 -23781 0
-23783 -23754 0
-23785 -23755 0
-23787 -23756 0
-23789 -23757 0
-23759 -23793 0
23794 -23 0
23794 -29 0
-23794 -31 0
-23794 -33 0
23794 -34 0
23794 -38 0
23794 -43 0
-61 23795 -3161 0
-3155 23795 -63 0
23795 -68 -3161 0
23795 -74 -3161 0
23795 -79 -3161 0
23795 -83 -3161 0
23795 -88 -3161 0
-106 23796 -3171 0
-3165 -108 23796 0
23796 -113 -3171 0
23796 -119 -3171 0
-123 -23796 3167 -23400 -23397 3170 0
23796 -124 -3171 0
23796 -128 -3171 0
23796 -3171 -133 0
-23797 -136 -23403 3173 3174 -23404 0
23797 -151 -3181 0
23797 -3181 -158 0
23797 -164 -3181 0
-169 23797 -3181 0
23797 -173 -3181 0
23797 -3181 -178 0
23798 -3191 -188 0
-196 23798 -3191 0
-203 23798 -3191 0
-209 23798 -3191 0
-214 23798 -3191 0
-218 23798 -3191 0
23798 -3191 -221 0
23798 -3191 -223 0
-23799 -226 3193 3194 -23423 -23424 0
-241 -3201 23799 0
-248 -3201 23799 0
23799 -254 -3201 0
-3197 -258 23799 0
-259 -3201 23799 0
-263 -3201 23799 0
23799 -266 -3201 0
-3201 23799 -268 0
23800 -286 -3211 0
-293 23800 -3211 0
-299 23800 -3211 0
-304 23800 -3211 0
-308 23800 -3211 0
23800 -3211 -311 0
23800 -3211 -313 0
-3221 -331 23801 0
-338 23801 -3221 0
-343 -23801 3216 -23446 -23450 3220 0
-344 23801 -3221 0
-348 -3220 23801 0
-348 -23801 3217 -23447 -23450 3220 0
-349 23801 -3221 0
-353 23801 -3221 0
23801 -356 -3221 0
-358 23801 -3221 0
23801 -3221 -360 0
-376 23802 -3231 0
23802 -3231 -383 0
23802 -3231 -389 0
23802 -3231 -394 0
23802 -3231 -398 0
23802 -3231 -401 0
23802 -3231 -403 0
23802 -3231 -405 0
-421 -3241 23803 0
-3241 23803 -428 0
-434 -3241 23803 0
-3241 23803 -439 0
-3241 23803 -443 0
-446 -3241 23803 0
-3241 23803 -448 0
-3241 23803 -450 0
-3251 23804 -458 0
-466 -3251 23804 0
-472 -3250 23804 0
-473 -3251 23804 0
-479 -3251 23804 0
-484 -3251 23804 0
-3251 23804 -488 0
-3251 23804 -491 0
-493 -3251 23804 0
-3251 23804 -495 0
-511 -3261 23805 0
-3261 23805 -518 0
-524 -3261 23805 0
-529 -3261 23805 0
-533 -3261 23805 0
-3261 23805 -536 0
-3261 23805 -538 0
23805 -3261 -540 0
-3271 23806 -581 0
-3271 23806 -585 0
23807 -630 -3281 0
23808 -3291 -675 0
-3301 23809 -720 0
23812 -23794 0
23816 -23795 0
23816 -23812 0
23817 -23795 -23812 0
23820 -23796 0
23820 -23816 0
23821 -23817 0
23821 -23796 -23816 0
-23817 -23796 23822 0
23824 -23797 0
23824 -23820 0
23825 -23821 0
-23822 23826 0
23825 -23797 -23820 0
-23821 23826 -23797 0
23828 -23798 0
23828 -23824 0
23829 -23825 0
23830 -23826 0
23829 -23798 -23824 0
23830 -23798 -23825 0
-23826 -23798 23831 0
23832 -23799 0
23832 -23828 0
23833 -23829 0
23834 -23830 0
-23831 23835 0
23833 -23799 -23828 0
23834 -23799 -23829 0
-23830 -23799 23835 0
23836 -23800 0
23836 -23832 0
23837 -23833 0
23838 -23834 0
-23835 23839 0
23837 -23800 -23832 0
23838 -23800 -23833 0
-23800 -23834 23839 0
23840 -23801 0
23840 -23836 0
23841 -23837 0
23842 -23838 0
-23839 23843 0
23841 -23801 -23836 0
23842 -23801 -23837 0
-23801 -23838 23843 0
23844 -23802 0
23844 -23840 0
23845 -23841 0
23846 -23842 0
-23843 23847 0
23845 -23802 -23840 0
23846 -23802 -23841 0
-23802 -23842 23847 0
23848 -23803 0
23848 -23844 0
23849 -23845 0
23850 -23846 0
-23847 23851 0
23849 -23803 -23844 0
23850 -23803 -23845 0
-23803 -23846 23851 0
23853 -23849 0
23854 -23850 0
-23851 23855 0
23853 -23804 -23848 0
23854 -23804 -23849 0
-23804 -23850 23855 0
23858 -23854 0
-23855 23859 0
23858 -23805 -23853 0
-23854 -23805 23859 0
-23859 23863 0
-23806 -23858 23863 0
-23863 23867 0
23871 -23867 0
-23800 -23835 0
-23801 -23839 0
-23802 -23843 0
-23803 -23847 0
-23804 -23851 0
-23855 -23805 0
-23806 -23859 0
-23863 -23807 0
-23867 -23808 0
-23809 -23871 0
-54 23881 -3332 0
-62 23881 -3332 0
23387 -64 23881 0
23388 -65 23881 0
23390 -67 23881 0
23391 -68 23881 0
-69 23881 -3332 0
23387 -70 23881 0
23388 -71 23881 0
23391 -74 23881 0
-75 23881 -3332 0
23387 -78 23881 0
23387 -79 23881 0
23391 -79 23881 0
-80 23881 -3332 0
23388 -83 23881 0
23391 -83 23881 0
-84 23881 -3332 0
-87 23881 -3332 0
-3330 -88 23881 0
-3331 -88 23881 0
23391 -88 23881 0
-89 23881 -3332 0
-90 23881 -3332 0
-99 23882 -3342 0
-107 23882 -3342 0
23401 -113 23882 0
-114 23882 -3342 0
23397 -115 23882 0
23398 -116 23882 0
23400 -118 23882 0
23401 -119 23882 0
-120 23882 -3342 0
-3337 -121 23882 0
-3338 -121 23882 0
23397 -121 23882 0
23398 -121 23882 0
-125 23882 -3342 0
-129 23882 -3342 0
-132 23882 -3342 0
23401 23882 -133 0
-134 23882 -3342 0
-135 23882 -3342 0
-3343 -136 23883 0
-3344 -136 23883 0
-136 23883 23403 0
23408 -140 23883 0
-144 -3352 23883 0
-152 23883 -3352 0
-159 23883 -3352 0
23406 -161 23883 0
23408 -161 23883 0
-165 23883 -3352 0
-3347 -166 23883 0
-3348 -166 23883 0
-3347 -169 23883 0
-3351 -169 23883 0
23407 -169 23883 0
-170 23883 -3352 0
23408 -173 23883 0
-174 23883 -3352 0
-177 23883 -3352 0
-179 23883 -3352 0
-180 23883 -3352 0
-181 23884 23413 0
23415 -182 23884 0
23418 -185 23884 0
-3362 23884 -189 0
-190 23415 23884 0
-197 -3362 23884 0
-204 -3362 23884 0
-210 -3362 23884 0
-3357 -211 23884 0
-3358 -211 23884 0
23417 -211 23884 0
23418 -211 23884 0
23417 -213 23884 0
-3357 -214 23884 0
-3361 -214 23884 0
23417 -214 23884 0
23421 -214 23884 0
-215 -3362 23884 0
23418 -217 23884 0
23420 -217 23884 0
23418 -218 23884 0
-219 -3362 23884 0
23421 -221 23884 0
-222 -3362 23884 0
-3360 -223 23884 0
-3361 -223 23884 0
23420 -223 23884 0
23421 -223 23884 0
-224 23884 -3362 0
-225 -3362 23884 0
-226 23885 23423 0
23424 -226 23885 0
-234 -3372 23885 0
-235 23425 23885 0
-242 -3372 23885 0
-243 23425 23885 0
-244 23425 23885 0
23425 -245 23885 0
23425 -246 23885 0
-247 23425 23885 0
23425 -248 23885 0
-249 -3372 23885 0
-255 -3372 23885 0
23427 -258 23885 0
23430 -258 23885 0
-3371 -259 23885 0
-260 -3372 23885 0
-3371 -263 23885 0
23431 -263 23885 0
-264 -3372 23885 0
-267 -3372 23885 0
23430 -268 23885 0
23431 -268 23885 0
-269 -3372 23885 0
-270 -3372 23885 0
-3373 -274 23886 0
-3377 -274 23886 0
-279 -3382 23886 0
-284 -23886 3374 -23434 -23439 3379 0
23434 -286 23886 0
-287 -3382 23886 0
23435 -293 23886 0
-294 -3382 23886 0
23436 -299 23886 0
-300 -3382 23886 0
-3377 -301 23886 0
-3378 -301 23886 0
23438 -301 23886 0
23437 -303 23886 0
23440 -303 23886 0
23441 -304 23886 0
-305 -3382 23886 0
-3378 -308 23886 0
23438 -308 23886 0
23441 -308 23886 0
-309 -3382 23886 0
-312 -3382 23886 0
-3380 -313 23886 0
-3381 -313 23886 0
23440 -313 23886 0
23441 -313 23886 0
-314 -3382 23886 0
-315 -3382 23886 0
-324 -3392 23887 0
-332 -3392 23887 0
-339 -3392 23887 0
-345 -3392 23887 0
23448 -346 23887 0
23447 -348 23887 0
23450 -348 23887 0
-350 -3392 23887 0
-3388 -353 23887 0
-3391 -353 23887 0
23451 -353 23887 0
-354 -3392 23887 0
-357 -3392 23887 0
-3390 -358 23887 0
-3391 -358 23887 0
23450 -358 23887 0
23451 -358 23887 0
-359 -3392 23887 0
-360 -3392 23887 0
-369 -3402 23888 0
-377 -3402 23888 0
-384 23888 -3402 0
-390 -3402 23888 0
23461 -394 23888 0
-395 -3402 23888 0
-3398 -398 23888 0
-3401 -398 23888 0
-399 -3402 23888 0
3401 -23888 -401 3399 -23461 -23459 0
-402 -3402 23888 0
-404 -3402 23888 0
-405 -3402 23888 0
-3403 -406 23889 0
-3404 -406 23889 0
23470 -412 23889 0
-414 -3412 23889 0
-420 23470 23889 0
-422 -3412 23889 0
-427 23470 23889 0
-429 -3412 23889 0
-433 23470 23889 0
-435 -3412 23889 0
-438 23470 23889 0
-440 -3412 23889 0
-442 23470 23889 0
-444 -3412 23889 0
23470 -445 23889 0
23471 -446 23889 0
-447 -3412 23889 0
23470 -448 23889 0
23471 -448 23889 0
-449 -3412 23889 0
-450 -3412 23889 0
-459 -3422 23890 0
-467 -3422 23890 0
-474 -3422 23890 0
-480 -3422 23890 0
-485 -3422 23890 0
-3418 -488 23890 0
-3421 -488 23890 0
23481 -488 23890 0
-489 -3422 23890 0
23481 -491 23890 0
-492 -3422 23890 0
-3420 -493 23890 0
-3421 -493 23890 0
23480 -493 23890 0
23481 -493 23890 0
-494 -3422 23890 0
-495 23890 -3422 0
-512 -3432 23891 0
-519 -3432 23891 0
-525 -3432 23891 0
-3427 -528 23891 0
-3430 -528 23891 0
-530 -3432 23891 0
-534 -3432 23891 0
-3429 -536 23891 0
23489 -536 23891 0
23491 -536 23891 0
-537 -3432 23891 0
-3431 -538 23891 0
23490 -538 23891 0
23491 -538 23891 0
-539 -3432 23891 0
-540 23891 -3432 0
-557 -3442 23892 0
-564 -3442 23892 0
-570 -3442 23892 0
-575 23892 -3442 0
-579 -3442 23892 0
-3441 -581 23892 0
23499 -581 23892 0
23501 -581 23892 0
-582 -3442 23892 0
23500 -583 23892 0
-584 -3442 23892 0
-585 -3442 23892 0
23510 -592 23893 0
-594 -3452 23893 0
-595 -23893 -23504 -23505 3444 3445 0
-600 23510 23893 0
-602 -3452 23893 0
-607 23510 23893 0
-609 -3452 23893 0
-613 23510 23893 0
-615 -3452 23893 0
23507 -618 23893 0
23510 -618 23893 0
-620 -3452 23893 0
-622 23510 23893 0
-624 -3452 23893 0
23510 -625 23893 0
23511 -626 23893 0
-627 -3452 23893 0
23510 -628 23893 0
-629 -3452 23893 0
-630 -3452 23893 0
-639 -3462 23894 0
-647 -3462 23894 0
-654 -3462 23894 0
-660 -3462 23894 0
-663 23520 23894 0
-665 -3462 23894 0
-667 23520 23894 0
-669 -3462 23894 0
-670 23520 23894 0
-672 -3462 23894 0
-674 -3462 23894 0
-675 -3462 23894 0
-684 -3472 23895 0
-692 -3472 23895 0
-699 -3472 23895 0
-705 -3472 23895 0
-708 23530 23895 0
-710 -3472 23895 0
-712 23530 23895 0
-714 -3472 23895 0
-715 23530 23895 0
-717 -3472 23895 0
-719 -3472 23895 0
-720 -3472 23895 0
-737 -3482 23896 0
-744 -3482 23896 0
-755 -3482 23896 0
23540 -757 23896 0
-759 -3482 23896 0
23540 -760 23896 0
-762 -3482 23896 0
-764 -3482 23896 0
-3481 -765 23896 0
-765 -3482 23896 0
-3491 23897 -810 0
23897 -810 -3492 0
-23881 23899 0
-23882 23900 0
-23899 23900 0
-23883 23901 0
-23900 23901 0
-23884 23902 0
-23901 23902 0
-23885 23903 0
-23902 23903 0
-23886 23904 0
-23903 23904 0
-23887 23905 0
-23904 23905 0
-23888 23906 0
-23905 23906 0
-23889 23907 0
-23906 23907 0
-23890 23908 0
-23907 23908 0
-23891 23909 0
-23908 23909 0
-23892 23910 0
-23909 23910 0
-23893 23911 0
23911 -23910 0
-23894 23912 0
23912 -23911 0
-23895 23913 0
23913 -23912 0
23914 -23896 0
23914 -23913 0
-23882 -23899 0
-23883 -23900 0
-23884 -23901 0
-23885 -23902 0
-23886 -23903 0
-23887 -23904 0
-23888 -23905 0
-23889 -23906 0
-23890 -23907 0
-23891 -23908 0
-23892 -23909 0
-23893 -23910 0
-23894 -23911 0
-23895 -23912 0
-23896 -23913 0
-23897 -23914 0
-23929 -640 2095 -23345 2094 -23344 0
-2097 -655 23929 0
-55 23985 23044 0
-56 23985 23044 0
-57 23985 23044 0
-58 23985 23044 0
-59 23985 23044 0
-60 23985 23044 0
-61 23985 23044 0
-62 23985 23044 0
23046 -63 23985 0
-1970 -88 23985 0
23051 -88 23985 0
23986 -91 23054 0
-100 23986 23054 0
-101 23986 23054 0
-102 23986 23054 0
-103 23986 23054 0
-104 23986 23054 0
-105 23986 23054 0
-106 23986 23054 0
-107 23986 23054 0
23056 -108 23986 0
23060 -127 23986 0
-1978 -128 23986 0
-1981 -128 23986 0
-1981 -131 23986 0
-136 23987 23063 0
-136 23987 23064 0
-137 23987 23063 0
-138 23987 23063 0
-139 23987 23063 0
-140 23987 23063 0
-141 23987 23063 0
-142 23987 23063 0
-143 23987 23063 0
-144 23987 23063 0
-145 23064 23987 0
-146 23064 23987 0
-147 23064 23987 0
-148 23064 23987 0
-149 23064 23987 0
-150 23064 23987 0
-151 23064 23987 0
-152 23064 23987 0
-1987 -166 23987 0
-1988 -166 23987 0
-1987 -169 23987 0
-1991 -169 23987 0
23067 -169 23987 0
23068 -173 23987 0
-1991 -176 23987 0
-1990 -178 23987 0
-1991 -178 23987 0
-181 23988 23073 0
-181 23074 23988 0
-182 23988 23073 0
-183 23988 23073 0
-184 23988 23073 0
-185 23988 23073 0
23078 -185 23988 0
-186 23988 23073 0
-187 23988 23073 0
-188 23988 23073 0
-189 23988 23073 0
-190 23074 23988 0
-191 23074 23988 0
-192 23074 23988 0
-193 23074 23988 0
-194 23074 23988 0
-195 23074 23988 0
-196 23074 23988 0
-197 23074 23988 0
-1997 -213 23988 0
-2000 -213 23988 0
23080 -213 23988 0
-1999 -221 23988 0
-2001 -221 23988 0
23081 -221 23988 0
-2000 -223 23988 0
-2001 -223 23988 0
23081 -223 23988 0
-226 23083 23989 0
-226 23084 23989 0
-227 23083 23989 0
-228 23083 23989 0
-229 23083 23989 0
-230 23083 23989 0
-231 23083 23989 0
-232 23083 23989 0
-233 23083 23989 0
-234 23083 23989 0
-235 23084 23989 0
-236 23084 23989 0
-237 23084 23989 0
-238 23084 23989 0
-239 23084 23989 0
-240 23084 23989 0
-2011 -241 23989 0
-241 23084 23989 0
-242 23084 23989 0
-2011 -248 23989 0
-2011 -254 23989 0
-2011 -259 23989 0
-2011 -263 23989 0
23091 -263 23989 0
-2011 -266 23989 0
-2011 -268 23989 0
-271 23093 23990 0
-271 23094 23990 0
-272 23093 23990 0
-273 23093 23990 0
-274 23093 23990 0
-275 23093 23990 0
-276 23093 23990 0
-277 23093 23990 0
-278 23093 23990 0
-279 23093 23990 0
-280 23094 23990 0
-281 23094 23990 0
-282 23094 23990 0
-283 23094 23990 0
-284 23094 23990 0
-285 23094 23990 0
-286 23094 23990 0
-2021 -311 23990 0
-316 23103 23991 0
-316 23104 23991 0
-317 23103 23991 0
-318 23103 23991 0
-319 23103 23991 0
-320 23103 23991 0
-321 23103 23991 0
-322 23103 23991 0
-323 23103 23991 0
-324 23103 23991 0
-325 23104 23991 0
-326 23104 23991 0
-327 23104 23991 0
-328 23104 23991 0
-329 23104 23991 0
-330 23104 23991 0
-331 23104 23991 0
-332 23104 23991 0
-2030 -348 23991 0
-348 -23991 2027 -23110 -23107 2030 0
-2031 -356 23991 0
-23991 -360 2031 -23111 -23112 2032 0
-361 23992 23113 0
-361 23114 23992 0
-362 23992 23113 0
-363 23992 23113 0
-364 23992 23113 0
-365 23992 23113 0
-366 23992 23113 0
-367 23992 23113 0
-368 23992 23113 0
-369 23992 23113 0
-370 23114 23992 0
-371 23114 23992 0
-372 23114 23992 0
-373 23114 23992 0
-374 23114 23992 0
-375 23114 23992 0
-376 23114 23992 0
-2041 -401 23992 0
-2040 -403 23992 0
-2041 -403 23992 0
23121 -403 23992 0
-23120 -23992 -403 2040 -23121 2041 0
-2041 -405 23992 0
-406 23123 23993 0
-406 23124 23993 0
-407 23123 23993 0
-408 23123 23993 0
23123 23993 -409 0
-410 23123 23993 0
-411 23123 23993 0
-412 23123 23993 0
23123 23993 -413 0
-414 23123 23993 0
-415 23124 23993 0
-416 23124 23993 0
-417 23124 23993 0
-418 23124 23993 0
-419 23124 23993 0
-420 23124 23993 0
-421 23124 23993 0
23128 -443 23993 0
-2051 -446 23993 0
-2050 -448 23993 0
-2051 -448 23993 0
23130 -448 23993 0
23131 -448 23993 0
23131 -450 23993 0
-450 23993 23132 0
-450 -23993 -23131 2051 -23132 2052 0
-451 23994 23133 0
-451 23134 23994 0
-452 23994 23133 0
23135 -452 23994 0
-453 23994 23133 0
-454 23994 23133 0
-455 23994 23133 0
-456 23994 23133 0
-457 23994 23133 0
-458 23994 23133 0
-459 23994 23133 0
-460 23134 23994 0
-461 23134 23994 0
-462 23134 23994 0
-463 23134 23994 0
-464 23134 23994 0
-465 23134 23994 0
-466 23134 23994 0
-467 23134 23994 0
-2058 -488 23994 0
-2061 -488 23994 0
-2061 -491 23994 0
-2061 -493 23994 0
23141 -493 23994 0
-2061 -495 23994 0
-23994 -23141 -495 2061 -23142 2062 0
-496 23143 23995 0
-496 23144 23995 0
-497 23143 23995 0
23145 -497 23995 0
-498 23143 23995 0
23146 -498 23995 0
-499 23143 23995 0
23147 -499 23995 0
-500 23143 23995 0
23148 -500 23995 0
-501 23143 23995 0
-502 23143 23995 0
23150 -502 23995 0
-503 23143 23995 0
-504 23143 23995 0
-505 23144 23995 0
-506 23144 23995 0
-507 23144 23995 0
-508 23144 23995 0
-509 23144 23995 0
-510 23144 23995 0
-511 23144 23995 0
-2068 -532 23995 0
-2070 -532 23995 0
-2071 -536 23995 0
23149 -536 23995 0
-2071 -540 23995 0
-23995 -23151 -540 2071 -23152 2072 0
-541 23153 23996 0
-541 23154 23996 0
-542 23153 23996 0
-543 23153 23996 0
-544 23153 23996 0
-545 23153 23996 0
-546 23153 23996 0
-547 23153 23996 0
-548 23153 23996 0
-549 23153 23996 0
-550 23154 23996 0
-551 23154 23996 0
-552 23154 23996 0
-553 23154 23996 0
-554 23154 23996 0
-555 23154 23996 0
-556 23154 23996 0
-557 23154 23996 0
23159 -580 23996 0
23160 -580 23996 0
-2081 -581 23996 0
23159 -581 23996 0
23161 -581 23996 0
23161 -585 23996 0
-586 23997 23163 0
-586 23164 23997 0
23997 -587 23163 0
-588 23997 23163 0
-589 23997 23163 0
-590 23997 23163 0
-591 23997 23163 0
-592 23997 23163 0
-593 23997 23163 0
-594 23997 23163 0
-595 23164 23997 0
-596 23164 23997 0
-597 23164 23997 0
-598 23164 23997 0
-599 23164 23997 0
-600 23164 23997 0
-601 23164 23997 0
-602 23164 23997 0
-2089 -626 23997 0
-2091 -626 23997 0
-2091 -630 23997 0
-631 23173 23998 0
-631 23174 23998 0
23173 23998 -632 0
-633 23173 23998 0
-634 23173 23998 0
-635 23173 23998 0
-636 23173 23998 0
-637 23173 23998 0
-638 23173 23998 0
-639 23173 23998 0
-640 23174 23998 0
-641 23174 23998 0
-642 23174 23998 0
-643 23174 23998 0
-644 23174 23998 0
-645 23174 23998 0
-646 23174 23998 0
-647 23174 23998 0
-676 23183 23999 0
-676 23184 23999 0
-677 23183 23999 0
-678 23183 23999 0
-679 23183 23999 0
-680 23183 23999 0
-681 23183 23999 0
-682 23183 23999 0
-683 23183 23999 0
-684 23183 23999 0
-721 23193 24000 0
-721 23194 24000 0
-722 23193 24000 0
-723 23193 24000 0
-724 23193 24000 0
-725 23193 24000 0
-726 23193 24000 0
-727 23193 24000 0
-728 23193 24000 0
24001 -766 23203 0
23204 24001 -766 0
-4515 24243 -65 0
24245 -136 23064 0
24246 -181 23074 0
24247 -226 23084 0
24248 -271 23094 0
24249 -316 23104 0
24249 -356 -4579 0
24250 -361 23114 0
-4585 24250 -362 0
24250 -4589 -401 0
24251 -406 23124 0
24251 -446 -4599 0
24251 -450 -4602 0
-451 23134 24252 0
-4605 -468 24252 0
-4606 -468 24252 0
-4607 -469 24252 0
-4608 -470 24252 0
-4605 -471 24252 0
-471 -4609 24252 0
-4610 -472 24252 0
-4609 24252 -490 0
24252 -4609 -491 0
-4611 24252 -491 0
24252 -495 -4612 0
24253 -496 23144 0
24253 -536 -4619 0
24253 -536 -4621 0
24253 -540 -4622 0
-567 24254 -4629 0
24254 -581 -4629 0
24254 -4631 -581 0
24254 -585 -4632 0
-4635 -605 24255 0
-4635 -607 24255 0
24255 -4641 -626 0
24255 -4641 -628 0
24255 -4641 -630 0
-24256 -640 -23174 4644 -23175 4645 0
24256 -4651 -671 0
24256 -4651 -673 0
24257 -720 -4662 0
24258 -761 -4671 0
24258 -763 -4671 0
24264 -24243 0
24268 -24264 0
24272 -24245 0
24273 -24245 -24268 0
24276 -24246 0
24276 -24272 0
-24273 24277 0
24280 -24247 0
24280 -24276 0
24281 -24277 0
24284 -24248 0
24284 -24280 0
24285 -24281 0
24288 -24249 0
24288 -24284 0
24289 -24285 0
24292 -24250 0
24292 -24288 0
24293 -24289 0
24293 -24250 -24288 0
-24289 -24250 24294 0
24296 -24251 0
24296 -24292 0
24297 -24293 0
-24294 24298 0
24297 -24251 -24292 0
-24251 -24293 24298 0
-24251 -24294 24299 0
24300 -24252 0
24300 -24296 0
24301 -24297 0
-24298 24302 0
24301 -24252 -24296 0
-24297 24302 -24252 0
-24298 24303 -24252 0
24304 -24300 0
24305 -24301 0
-24302 24306 0
24305 -24253 -24300 0
-24253 -24301 24306 0
-24253 -24302 24307 0
24309 -24305 0
-24306 24310 0
24309 -24254 -24304 0
-24254 -24305 24310 0
-24254 -24306 24311 0
24313 -24309 0
24314 -24310 0
24314 -24309 -24255 0
-24310 -24255 24315 0
24318 -24314 0
24318 -24313 -24256 0
-24318 -24257 24323 0
-24299 -24252 0
-24303 -24253 0
-24307 -24254 0
-24311 -24255 0
-24315 -24256 0
-24258 -24323 0
24334 -273 23263 0
24335 -316 23273 0
24376 -24334 0
24382 -24335 -24376 0
24387 -24382 0
24392 -24387 0
24397 -24392 0
24438 -319 22933 0
24438 -327 22934 0
-22938 -353 -24438 3388 -22941 3391 0
24441 -451 22963 0
24441 -452 22963 0
24441 -453 22963 0
24441 -454 22963 0
24441 -455 22963 0
24441 22964 -460 0
24441 22964 -461 0
24441 -462 22964 0
24441 -465 22964 0
24441 -466 22964 0
-22968 -488 -24441 -22971 3418 3421 0
-493 -24441 3420 -22970 -22971 3421 0
24535 -47 22873 0
24535 -48 22873 0
24535 -49 22873 0
24535 -51 22873 0
-53 24535 22873 0
24536 -92 22883 0
24536 -93 22883 0
24536 -94 22883 0
-95 24536 22883 0
-96 24536 22883 0
24536 -99 -4532 0
24536 -131 -4529 0
24537 22894 -136 0
-137 24537 22893 0
-138 24537 22893 0
-139 24537 22893 0
-140 24537 22893 0
-141 24537 22893 0
24537 -176 -4539 0
24538 -181 22903 0
24538 -182 22903 0
24538 -183 22903 0
-184 24538 22903 0
-185 24538 22903 0
-190 24538 22904 0
-191 24538 22904 0
-192 24538 22904 0
-193 24538 22904 0
-195 24538 22904 0
-196 24538 22904 0
24538 -221 -4549 0
24539 -226 22913 0
-227 24539 22913 0
-228 24539 22913 0
24539 -229 22913 0
-230 24539 22913 0
24539 -233 22913 0
-235 24539 22914 0
-236 24539 22914 0
-237 24539 22914 0
-238 24539 22914 0
24539 -240 22914 0
-241 24539 22914 0
22920 -258 24539 0
24539 -266 -4559 0
24539 -4561 -270 0
24540 -271 22923 0
24540 -272 22923 0
-273 24540 22923 0
-274 24540 22923 0
-275 24540 22923 0
24540 -277 22923 0
24540 -280 22924 0
-281 24540 22924 0
-282 24540 22924 0
-283 24540 22924 0
-285 24540 22924 0
-286 24540 22924 0
24540 -311 -4569 0
24540 -4571 -311 0
24540 -315 -4572 0
24541 22934 -316 0
24541 -317 22933 0
-318 24541 22933 0
-319 24541 22933 0
-320 24541 22933 0
24541 -321 22933 0
24541 -323 22933 0
24541 22934 -325 0
-326 24541 22934 0
24541 -327 22934 0
-328 24541 22934 0
-330 24541 22934 0
24541 -331 22934 0
-332 24541 22934 0
-356 24541 -4579 0
-356 24541 -4581 0
-358 24541 -4581 0
24541 -360 -4582 0
24542 22944 -361 0
24542 -362 22943 0
-363 24542 22943 0
-364 24542 22943 0
-365 24542 22943 0
22944 24542 -370 0
-371 22944 24542 0
22944 24542 -372 0
-373 22944 24542 0
-374 22944 24542 0
24542 -375 22944 0
22944 -376 24542 0
24542 -4589 -401 0
24542 -4591 -401 0
24542 -4591 -403 0
24542 -405 -4592 0
24543 22954 -406 0
24543 -407 22953 0
24543 -408 22953 0
24543 22953 -409 0
-410 24543 22953 0
24543 22954 -415 0
-416 24543 22954 0
-417 24543 22954 0
-418 24543 22954 0
-419 24543 22954 0
-420 24543 22954 0
-421 24543 22954 0
-429 24543 -4602 0
-440 24543 -4602 0
-4598 -441 24543 0
-446 24543 -4599 0
-446 24543 -4601 0
-4600 24543 -448 0
24543 -4601 -448 0
24543 -450 -4602 0
24544 -451 22963 0
24544 -451 22964 0
24544 -452 22963 0
-453 24544 22963 0
24544 -454 22963 0
-455 24544 22963 0
24544 22964 -460 0
24544 22964 -461 0
-462 24544 22964 0
-463 24544 22964 0
-464 24544 -4609 0
-464 24544 22964 0
-465 24544 22964 0
-466 24544 22964 0
-22966 -468 -24544 -22965 4605 4606 0
-22967 -22965 -24544 4607 4605 -469 0
-22968 -22965 -24544 4608 4605 -470 0
-4609 -471 24544 0
-22965 -22969 -24544 4605 -471 4609 0
-472 -24544 -22970 4605 -22965 4610 0
-473 -22971 -24544 -22965 4605 4611 0
-477 24544 -4609 0
-482 24544 -4609 0
24544 -486 -4609 0
24544 -4609 -490 0
24544 -4609 -491 0
24544 -4611 -491 0
-4610 -493 24544 0
-493 24544 -4611 0
24544 -495 -4612 0
24545 22974 -496 0
24545 -497 22973 0
24545 -498 22973 0
24545 -499 22973 0
24545 -500 22973 0
-505 22974 24545 0
-506 22974 24545 0
-507 22974 24545 0
24545 -508 22974 0
-509 22974 24545 0
-510 22974 24545 0
-511 24545 22974 0
24545 -536 -4619 0
24545 -536 -4621 0
-4620 24545 -538 0
24545 -538 -4621 0
4620 -24545 4621 -538 -22981 -22980 0
24545 -540 -4622 0
24546 -541 22983 0
24546 -542 22983 0
-543 24546 22983 0
-544 24546 22983 0
-545 24546 22983 0
-547 24546 22983 0
-550 24546 22984 0
24546 -551 22984 0
-552 24546 22984 0
-553 24546 22984 0
24546 22984 -554 0
-555 24546 22984 0
24546 -580 -4629 0
24546 -581 -4629 0
24546 -4631 -581 0
-4630 24546 -583 0
24546 -4631 -583 0
24546 -4631 -585 0
24546 -585 -4632 0
24547 -586 22993 0
24547 22993 -587 0
-588 24547 22993 0
-589 24547 22993 0
-590 24547 22993 0
24547 -594 22993 0
24547 -595 22994 0
24547 -596 22994 0
24547 -597 22994 0
-598 24547 22994 0
24547 22994 -599 0
-600 24547 22994 0
24547 -4639 -626 0
24547 -4641 -626 0
24547 -4641 -628 0
24547 -630 -4642 0
-631 24548 23003 0
-640 23004 24548 0
23005 -640 24548 0
-641 23004 24548 0
-642 23004 24548 0
-643 23004 24548 0
-644 23004 24548 0
23004 24548 -645 0
-24548 4649 -666 -23008 4648 -23009 0
24548 -4651 -671 0
24548 -4651 -673 0
24548 -675 -4652 0
-678 24549 23013 0
-679 24549 23013 0
24549 -680 23013 0
-685 24549 23014 0
23015 -685 24549 0
24549 -686 23014 0
23016 24549 -686 0
24549 23014 -687 0
23017 24549 -687 0
24549 -688 23014 0
23018 -688 24549 0
24549 -689 23014 0
23019 24549 -689 0
24549 -690 23014 0
-696 -23015 -24549 -23019 4655 4659 0
-23016 -702 -24549 -23019 4656 4659 0
-711 -23018 -24549 -23019 4658 4659 0
-715 -24549 4659 -23020 -23019 4660 0
24549 -716 -4661 0
24549 -718 -4661 0
24549 -720 -4662 0
24550 23024 -730 0
-731 23024 24550 0
24550 -732 23024 0
24550 -733 23024 0
-734 23024 24550 0
24550 -4669 -761 0
24550 -761 -4671 0
24550 -4670 -763 0
24550 -763 -4671 0
24551 23034 -775 0
24558 -24535 0
24564 -24536 0
24564 -24558 0
24570 -24537 0
24570 -24564 0
24571 -24537 -24564 0
24576 -24538 0
24576 -24570 0
24577 -24571 0
24577 -24538 -24570 0
24578 -24538 -24571 0
24582 -24539 0
24582 -24576 0
24583 -24577 0
-24578 24584 0
24583 -24539 -24576 0
24584 -24539 -24577 0
-24578 -24539 24585 0
24588 -24540 0
24588 -24582 0
24589 -24583 0
-24584 24590 0
-24585 24591 0
24589 -24540 -24582 0
24590 -24540 -24583 0
-24584 -24540 24591 0
24594 -24541 0
24594 -24588 0
24595 -24589 0
24596 -24590 0
-24591 24597 0
24595 -24541 -24588 0
24596 -24541 -24589 0
-24541 -24590 24597 0
24600 -24542 0
24600 -24594 0
24601 -24595 0
24602 -24596 0
-24597 24603 0
24601 -24542 -24594 0
24602 -24542 -24595 0
-24596 -24542 24603 0
24606 -24543 0
24606 -24600 0
24607 -24601 0
24608 -24602 0
-24603 24609 0
24607 -24543 -24600 0
24608 -24543 -24601 0
-24543 -24602 24609 0
24613 -24607 0
24614 -24608 0
-24609 24615 0
24613 -24544 -24606 0
24614 -24607 -24544 0
-24608 24615 -24544 0
24616 -24609 -24544 0
24620 -24614 0
-24615 24621 0
24620 -24545 -24613 0
-24545 -24614 24621 0
-24545 -24615 24622 0
-24616 -24545 24623 0
-24621 24627 0
-24622 24628 0
-24546 -24620 24627 0
-24546 -24621 24628 0
-24622 -24546 24629 0
24633 -24627 0
24634 -24628 0
-24629 24635 0
-24627 24634 -24547 0
-24628 -24547 24635 0
24640 -24634 0
-24635 24641 0
24640 -24633 -24548 0
-24634 -24548 24641 0
-24641 24647 0
-24640 -24549 24647 0
-24647 24653 0
-24623 -24546 0
-24629 -24547 0
-24635 -24548 0
-24641 -24549 0
-24647 -24550 0
-24653 -24551 0
24661 -3897 -346 0
-3908 24662 -398 0
24664 -3931 -491 0
24665 -540 -3942 0
24666 -3951 -581 0
24716 -24661 -24709 0
24723 -24716 -24662 0
-24723 24729 0
-24729 24736 -24664 0
-24736 24743 -24665 0
-24743 -24666 0
25271 -18 0
25274 -137 23233 0
25275 -181 23243 0
-3708 25276 -263 0
25279 -3741 -403 0
25281 -3761 -491 0
25282 -540 -3772 0
25283 -3781 -581 0
25289 -25271 0
25296 -25289 0
25303 -25296 0
25311 -25274 -25303 0
25319 -25311 -25275 0
-25319 25327 -25276 0
25334 -25327 0
25341 -25334 0
-25341 25349 -25279 0
-25349 25356 0
-25356 25364 -25281 0
-25364 25372 -25282 0
-25372 -25283 0
25545 -22 0
25545 -28 0
25545 -37 0
25546 -67 -8260 0
25546 -73 -8260 0
25546 -82 -8260 0
25546 -88 -8260 0
25547 -92 23223 0
25548 -136 23233 0
25548 -137 23233 0
25548 -140 23233 0
25549 -181 23243 0
25552 -8320 -348 0
25553 -8330 -403 0
25555 -8351 -491 0
25556 -540 -8362 0
25557 -8371 -581 0
25563 -25545 0
25570 -25546 0
25570 -25563 0
25571 -25546 -25563 0
25577 -25570 0
25578 -25571 0
25578 -25547 -25570 0
25585 -25548 -25577 0
25586 -25578 -25548 0
25593 -25586 0
25593 -25585 -25549 0
25594 -25586 -25549 0
25600 -25593 0
-25594 25601 0
25607 -25600 0
25615 -25552 -25607 0
-25615 25623 -25553 0
-25623 25630 0
-25630 25638 -25555 0
-25638 25646 -25556 0
-25646 -25557 0
-356 -25689 -20559 3391 3389 -20561 0
26234 -181 23074 0
26235 -5408 -263 0
26241 -540 -5472 0
26504 -38 0
26505 -68 -13361 0
26505 -79 -13361 0
26505 -83 -13361 0
26507 -136 23064 0
26509 -226 23084 0
26509 -266 -13401 0
26510 -310 -13409 0
26511 -331 -13421 0
-338 26511 -13421 0
-344 26511 -13421 0
-348 -26511 13417 13420 -23110 -23107 0
-349 26511 -13421 0
-353 26511 -13421 0
26511 -358 -13421 0
26513 -13441 -443 0
26514 -13451 -495 0
26515 -13461 -536 0
26515 -540 -13462 0
26516 -13471 -581 0
26516 -13470 -583 0
26516 -585 -13472 0
26517 -13480 -600 0
26517 -607 -13480 0
-613 26517 -13480 0
26517 -13480 -618 0
26517 -622 -13480 0
26517 -13480 -625 0
26517 -13479 -626 0
26517 -13481 -630 0
-13489 26518 -670 0
-13489 26518 -671 0
-26519 -693 13495 -23185 13496 -23186 0
26519 -13499 -715 0
-26520 -745 13506 -23197 -23196 13507 0
-13509 26520 -760 0
26522 -26504 0
26529 -26505 0
26529 -26522 0
26536 -26529 0
26543 -26507 0
26544 -26507 -26536 0
26551 -26544 0
26557 -26509 0
26558 -26551 0
26560 -26552 -26509 0
-26560 26568 -26510 0
-26568 26575 0
26580 -26573 0
-26575 26582 0
-26582 26589 0
26588 -26513 -26580 0
-26588 26595 0
-26589 26596 0
-26595 26602 0
-26595 -26515 26603 0
-26596 -26515 26604 0
-26602 -26516 26610 0
-26603 -26516 26611 0
-26604 -26516 26612 0
-26610 -26517 26618 0
-26611 -26517 26619 0
-26618 -26518 26626 0
-26612 -26517 0
-26619 -26518 0
-26626 -26519 0
26949 -20 0
26949 -26 0
26949 -31 0
26949 -33 0
26949 -34 0
26949 -37 0
26949 -38 0
26950 -63 20665 0
26950 -63 20666 0
26950 -65 20665 0
26950 -70 -3837 0
26950 -71 20666 0
26950 -71 20668 0
26950 -79 -3837 0
26950 -82 20668 0
26950 -83 20668 0
26951 20675 -92 0
26951 20676 -93 0
26951 -109 20675 0
26951 -110 20678 0
26951 -115 20676 0
26951 -127 20678 0
26952 -136 20683 0
26952 20685 -137 0
26952 -138 20686 0
26952 20688 -140 0
26953 -181 20693 0
26953 -217 20698 0
26954 -230 20708 0
26954 -258 -3877 0
26954 -3877 -259 0
26955 -271 20713 0
26955 -285 -3890 0
26955 -3890 -292 0
26955 -298 -3890 0
26955 -3887 -301 0
26955 -3887 -303 0
26955 -3890 -303 0
26955 -304 -3887 0
26955 -3890 -307 0
26955 -3890 -313 0
26956 -3900 -330 0
26956 -3900 -337 0
26956 -3900 -343 0
26956 -3897 -346 0
26956 -3897 -348 0
26956 -3900 -348 0
26956 -3900 -352 0
26956 -3898 -353 0
26957 -3910 -375 0
26957 -3910 -382 0
26957 -3910 -388 0
26957 -3910 -393 0
26957 -3910 -397 0
26957 -3908 -398 0
26957 -3910 -403 0
26957 -3911 -403 0
26958 -446 -3921 0
26958 -3920 -448 0
26958 -3921 -448 0
26959 -3931 -491 0
-3930 26959 -493 0
26959 -495 -3932 0
26960 -3941 -536 0
26960 -3941 -540 0
26960 -540 -3942 0
26961 -3951 -581 0
26961 -585 -3952 0
26962 -3961 -626 0
26962 -630 -3962 0
26963 -3971 -671 0
26967 -26949 0
26975 -26950 0
26975 -26967 0
26976 -26950 -26967 0
26983 -26951 0
26983 -26975 0
26984 -26976 0
26984 -26951 -26975 0
26985 -26976 -26951 0
26991 -26983 0
26993 -26952 -26984 0
26994 -26985 -26952 0
27002 -26994 0
27000 -26953 -26991 0
27002 -26993 -26953 0
27003 -26994 -26953 0
27010 -27002 0
-27003 27011 0
27009 -27000 -26954 0
27011 -27002 -26954 0
27018 -27010 0
-27011 27019 0
27018 -27009 -26955 0
27019 -27010 -26955 0
-27011 27020 -26955 0
-27019 27027 0
-27020 27028 0
27027 -27018 -26956 0
-27019 27028 -26956 0
-27027 27035 0
-27028 27036 0
-27027 27036 -26957 0
-27035 27043 0
-27036 27044 0
-27035 27044 -26958 0
-27036 27045 -26958 0
-27044 27052 0
-27043 27052 -26959 0
-27044 27053 -26959 0
-27045 27054 -26959 0
-27052 27060 0
-27052 27061 -26960 0
-27053 -26960 27062 0
-27060 27069 -26961 0
-27061 -26961 27070 0
-27069 -26962 27078 0
-27054 -26960 0
-27062 -26961 0
-27070 -26962 0
-27078 -26963 0
27468 -27411 0
27469 -27468 0
-27413 -27469 0
27470 -27414 0
27471 -27470 0
-27416 -27471 0
27417 27419 27418 0
27472 -27417 0
27473 -27472 0
-27418 -27472 0
-27419 -27473 0
27422 27421 27420 0
-27420 27474 0
-27421 27475 0
-27474 27475 0
-27421 -27474 0
-27475 -27422 0
27425 27424 27423 0
-27423 27476 0
-27424 27477 0
-27476 27477 0
-27424 -27476 0
-27477 -27425 0
27426 27427 27428 0
-27426 27478 0
-27427 27479 0
-27478 27479 0
-27427 -27478 0
-27479 -27428 0
27431 27430 27429 0
27480 -27429 0
27481 -27430 0
-27480 27481 0
-27430 -27480 0
-27481 -27431 0
27434 27433 27432 0
-27432 27482 0
-27433 27483 0
-27482 27483 0
-27482 -27433 0
-27483 -27434 0
27435 27437 27436 0
27484 -27435 0
-27436 27485 0
27485 -27484 0
-27436 -27484 0
-27485 -27437 0
27438 27440 27439 0
27486 -27438 0
27487 -27439 0
-27486 27487 0
-27439 -27486 0
-27487 -27440 0
27443 27442 27441 0
27488 -27441 0
27489 -27442 0
-27488 27489 0
-27488 -27442 0
-27489 -27443 0
27446 27445 27444 0
-27444 27490 0
-27445 27491 0
-27490 27491 0
-27490 -27445 0
-27491 -27446 0
27449 27448 27447 0
-27447 27492 0
-27448 27493 0
-27492 27493 0
-27492 -27448 0
-27493 -27449 0
27452 27451 27450 0
27494 -27450 0
27495 -27451 0
-27494 -27451 0
-27495 -27452 0
27455 27454 27453 0
-27453 27496 0
27497 -27454 0
-27496 27497 0
-27497 -27455 0
27458 27456 27457 0
27499 -27457 0
-27499 -27458 0
27461 27460 27459 0
27463 27464 27462 0
-27465 27504 0
-27466 27505 0
-27504 27505 0
-27505 -27467 0
27411 0
27467 0
-6 -27411 0
-9 -27411 0
-14 -27411 0
-17 -27411 0
27414 -18 -27411 0
27414 -19 -27411 0
27414 -20 -27411 0
-21 -27411 0
27414 -22 -27411 0
27414 -23 -27411 0
-24 -27411 0
27414 -25 -27411 0
27414 -26 -27411 0
-27 -27411 0
27414 -28 -27411 0
27414 -29 -27411 0
-30 -27411 0
27414 -31 -27411 0
-32 -27411 0
27414 -33 -27411 0
27414 -34 -27411 0
-35 -27411 0
-36 -27411 0
27414 -37 -27411 0
27414 -38 -27411 0
-39 -27411 0
-40 -27411 0
-41 27415 -27411 0
-42 -27411 0
-43 27414 -27411 0
-44 -27411 0
-45 -27411 0
27417 -47 -27414 0
27417 -48 -27414 0
27417 -49 -27414 0
27417 -50 -27414 0
-51 -27414 0
-53 27417 -27414 0
-55 -27414 27417 0
-56 -27414 27417 0
-57 -27414 27417 0
-58 -27414 27417 0
-59 -27414 0
-60 -27414 27417 0
-61 27417 -27414 0
-63 27417 -27414 0
-64 27417 -27414 0
-65 27417 -27414 0
-66 -27414 0
-67 27417 -27414 0
-68 27417 -27414 0
-70 27417 -27414 0
-71 27417 -27414 0
-72 -27414 0
-73 27417 -27414 0
-74 27417 -27414 0
-76 27417 -27414 0
-77 -27414 0
-78 27417 -27414 0
-79 27417 -27414 0
-81 -27414 0
-82 27417 -27414 0
-83 27417 -27414 0
-85 -27414 0
-86 27418 -27414 0
-88 27417 -27414 0
-66 -27415 27418 0
-68 -27415 0
-72 -27415 27418 0
-74 -27415 0
-77 -27415 27418 0
-79 -27415 0
-81 -27415 27418 0
-83 -27415 0
-85 -27415 27418 0
-86 -27415 0
-88 -27415 0
27420 -91 -27417 0
-92 27420 -27417 0
-93 27420 -27417 0
-94 27420 -27417 0
-95 27420 -27417 0
-96 -27417 0
-97 27420 -27417 0
-99 -27417 0
-100 27420 -27417 0
-101 27420 -27417 0
-103 27420 -27417 0
-104 -27417 0
-105 27420 -27417 0
-106 27420 -27417 0
-107 -27417 0
-108 27420 -27417 0
-109 27420 -27417 0
-110 27420 -27417 0
-111 -27417 0
-112 27420 -27417 0
-113 27420 -27417 0
-114 -27417 0
-115 27420 -27417 0
-116 27420 -27417 0
-117 -27417 0
-118 27420 -27417 0
-119 27420 -27417 0
-120 -27417 0
-121 27420 -27417 0
-122 -27417 0
-123 27420 -27417 0
-124 27420 -27417 0
-125 -27417 0
-126 -27417 0
-127 27420 -27417 0
-128 27420 -27417 0
-129 -27417 0
-130 -27417 0
-131 27421 -27417 0
-132 -27417 0
27420 -133 -27417 0
-134 -27417 0
-135 -27417 0
-92 27421 -27418 0
-93 27421 -27418 0
-94 27421 -27418 0
-95 27421 -27418 0
-96 27421 -27418 0
-97 27421 -27418 0
-27418 -99 0
-101 27421 -27418 0
-102 27421 -27418 0
-103 27421 -27418 0
-104 27421 -27418 0
-105 27421 -27418 0
-106 -27418 0
-107 -27418 0
-108 27421 -27418 0
-109 27421 -27418 0
-110 27421 -27418 0
-111 27421 -27418 0
-112 27421 -27418 0
-113 -27418 0
-114 -27418 0
-115 27421 -27418 0
-116 27421 -27418 0
-117 27421 -27418 0
-118 27421 -27418 0
-119 -27418 0
-120 -27418 0
-121 27421 -27418 0
-122 27421 -27418 0
-123 27421 -27418 0
-124 -27418 0
-125 -27418 0
-126 27421 -27418 0
-127 27421 -27418 0
-128 -27418 0
-129 -27418 0
-130 27421 -27418 0
-131 -27418 0
-132 -27418 0
-27418 -133 0
-134 -27418 0
27422 -27418 -135 0
-27419 -135 0
-27420 -136 27423 0
-137 -27420 27423 0
-138 -27420 27423 0
-139 -27420 27423 0
-140 -27420 27423 0
-141 -27420 0
-143 -27420 27423 0
-144 -27420 0
-145 -27420 27423 0
-146 -27420 27423 0
-147 -27420 27423 0
-148 -27420 27423 0
-149 -27420 0
-150 -27420 27423 0
-151 -27420 27423 0
-152 -27420 0
-153 -27420 27423 0
-154 -27420 27423 0
-155 -27420 27423 0
-156 -27420 0
-157 -27420 27423 0
-158 -27420 27423 0
-159 -27420 0
-160 -27420 27423 0
-161 -27420 27423 0
-162 -27420 0
-163 -27420 27423 0
-164 -27420 27423 0
-165 -27420 0
-166 -27420 27423 0
-167 -27420 0
-168 -27420 27423 0
-169 -27420 27423 0
-170 -27420 0
-171 -27420 0
-172 -27420 27423 0
-173 -27420 27423 0
-27420 -174 0
-175 -27420 0
-176 -27420 27424 0
-177 -27420 0
-178 -27420 27423 0
-179 -27420 0
-180 -27420 0
-27421 -136 27424 0
-137 -27421 27424 0
-138 -27421 27424 0
-139 -27421 27424 0
-140 -27421 27424 0
-141 -27421 27424 0
-143 -27421 0
-144 -27421 0
-27421 -145 27424 0
-146 -27421 27424 0
-147 -27421 27424 0
-148 -27421 27424 0
-149 -27421 27424 0
-150 -27421 27424 0
-151 -27421 0
-152 -27421 0
-153 -27421 27424 0
-154 -27421 27424 0
-155 -27421 27424 0
-156 -27421 27424 0
-27421 -157 27424 0
-158 -27421 0
-159 -27421 0
-160 -27421 27424 0
-161 -27421 27424 0
-162 -27421 27424 0
-163 -27421 27424 0
-164 -27421 0
-165 -27421 0
-166 -27421 27424 0
-167 -27421 27424 0
-168 -27421 27424 0
-169 -27421 0
-170 -27421 0
-171 -27421 27424 0
-172 -27421 27424 0
-173 -27421 0
-27421 -174 0
-175 -27421 27424 0
-176 -27421 0
-177 -27421 0
-178 -27421 0
-179 -27421 0
-180 -27421 27425 0
-144 -27422 0
-152 -27422 0
-159 -27422 0
-165 -27422 0
-170 -27422 0
-174 -27422 0
-27422 -175 27425 0
-176 27425 -27422 0
-177 -27422 0
-179 -27422 0
-180 -27422 0
27426 -27423 -181 0
-182 27426 -27423 0
27426 -27423 -183 0
-184 27426 -27423 0
-185 27426 -27423 0
-186 -27423 0
-188 27426 -27423 0
-27423 -189 0
-190 27426 -27423 0
-191 27426 -27423 0
-192 27426 -27423 0
-193 27426 -27423 0
-194 -27423 0
-195 27426 -27423 0
-196 27426 -27423 0
-197 -27423 0
-198 27426 -27423 0
-199 27426 -27423 0
-200 27426 -27423 0
-201 -27423 0
-202 27426 -27423 0
-203 27426 -27423 0
-27423 -204 0
-205 27426 -27423 0
-206 27426 -27423 0
-207 -27423 0
-208 27426 -27423 0
-209 27426 -27423 0
-210 -27423 0
-211 27426 -27423 0
-212 -27423 0
-213 27426 -27423 0
-214 27426 -27423 0
-215 -27423 0
-216 -27423 0
-217 27426 -27423 0
-218 27426 -27423 0
-219 -27423 0
-220 -27423 0
-27423 -221 27427 0
-222 -27423 0
-223 27426 -27423 0
-224 -27423 0
-225 -27423 0
-27424 27427 -181 0
-27424 -182 27427 0
-27424 27427 -183 0
-184 -27424 27427 0
-185 -27424 27427 0
-188 -27424 0
-27424 -189 0
-190 -27424 27427 0
-191 -27424 27427 0
-192 -27424 27427 0
-193 -27424 27427 0
-194 -27424 27427 0
-195 -27424 27427 0
-196 -27424 0
-197 -27424 0
-198 -27424 27427 0
-199 -27424 27427 0
-200 -27424 27427 0
-201 -27424 27427 0
-202 -27424 27427 0
-203 -27424 0
-27424 -204 0
-205 -27424 27427 0
-206 -27424 27427 0
-207 -27424 27427 0
-208 -27424 27427 0
-209 -27424 0
-210 -27424 0
-211 -27424 27427 0
-212 -27424 27427 0
-213 -27424 27427 0
-214 -27424 0
-215 -27424 0
-216 -27424 27427 0
-217 -27424 27427 0
-218 -27424 0
-219 -27424 0
-220 -27424 27427 0
-27424 -221 0
-222 -27424 0
-223 -27424 0
-224 -27424 0
-225 -27424 27428 0
-181 27428 -27425 0
-182 27428 -27425 0
-183 27428 -27425 0
-184 27428 -27425 0
-185 27428 -27425 0
-27425 -189 0
-190 27428 -27425 0
-191 27428 -27425 0
-192 27428 -27425 0
-193 27428 -27425 0
-194 27428 -27425 0
-195 27428 -27425 0
-197 -27425 0
-198 27428 -27425 0
-199 27428 -27425 0
-200 27428 -27425 0
-201 27428 -27425 0
-202 27428 -27425 0
-204 -27425 0
-205 27428 -27425 0
-206 27428 -27425 0
-207 27428 -27425 0
-208 27428 -27425 0
-210 -27425 0
-211 27428 -27425 0
-212 27428 -27425 0
-213 27428 -27425 0
-215 -27425 0
-216 27428 -27425 0
-217 27428 -27425 0
-219 -27425 0
-220 27428 -27425 0
-221 27428 -27425 0
-222 -27425 0
-223 27428 -27425 0
-224 -27425 0
-225 -27425 0
-226 -27426 27429 0
-227 -27426 27429 0
-228 -27426 27429 0
-229 -27426 27429 0
-230 -27426 27429 0
-231 -27426 0
-234 -27426 0
-235 -27426 27429 0
-236 -27426 27429 0
-237 -27426 27429 0
-238 -27426 27429 0
-239 -27426 0
-240 -27426 27429 0
-241 -27426 27429 0
-242 -27426 0
-243 -27426 27429 0
-244 -27426 27429 0
-245 -27426 27429 0
-246 -27426 0
-247 -27426 27429 0
-248 -27426 27429 0
-249 -27426 0
-250 -27426 27429 0
-251 -27426 27429 0
-252 -27426 0
-253 -27426 27429 0
-254 -27426 27429 0
-255 -27426 0
-256 -27426 27429 0
-257 -27426 0
-258 -27426 27429 0
-259 -27426 27429 0
-260 -27426 0
-261 -27426 0
-262 -27426 27429 0
-263 -27426 27429 0
-264 -27426 0
-265 -27426 0
-266 -27426 27430 0
-267 -27426 0
-268 -27426 27429 0
-269 -27426 0
-270 -27426 0
-27427 -226 27430 0
-227 -27427 27430 0
-228 -27427 27430 0
-27427 -229 27430 0
-230 -27427 27430 0
-27427 -231 27430 0
-232 -27427 27430 0
-234 -27427 0
-235 -27427 27430 0
-236 -27427 27430 0
-237 -27427 27430 0
-238 -27427 27430 0
-239 -27427 27430 0
-240 -27427 27430 0
-241 -27427 0
-242 -27427 0
-243 -27427 27430 0
-244 -27427 27430 0
-245 -27427 27430 0
-246 -27427 27430 0
-247 -27427 27430 0
-248 -27427 0
-249 -27427 0
-250 -27427 27430 0
-251 -27427 27430 0
-252 -27427 27430 0
-253 -27427 27430 0
-254 -27427 0
-255 -27427 0
-256 -27427 27430 0
-257 -27427 27430 0
-258 -27427 27430 0
-259 -27427 0
-260 -27427 0
-27427 -261 27430 0
-27427 -262 27430 0
-263 -27427 0
-264 -27427 0
-265 -27427 27430 0
-266 -27427 0
-267 -27427 0
-27427 -268 0
-269 -27427 0
-27427 -270 27431 0
-27428 -226 27431 0
-227 -27428 27431 0
-228 -27428 27431 0
-27428 -229 27431 0
-230 -27428 27431 0
-231 27431 -27428 0
27431 -232 -27428 0
-27428 -233 27431 0
-234 -27428 0
-235 -27428 27431 0
-236 -27428 27431 0
-237 -27428 27431 0
-238 -27428 27431 0
-239 27431 -27428 0
-240 -27428 27431 0
-242 -27428 0
-243 -27428 27431 0
-244 -27428 27431 0
-245 -27428 27431 0
-246 27431 -27428 0
-247 -27428 27431 0
-249 -27428 0
-250 -27428 27431 0
-251 -27428 27431 0
-252 27431 -27428 0
-253 -27428 27431 0
-255 -27428 0
-256 -27428 27431 0
-257 27431 -27428 0
-258 -27428 27431 0
-260 -27428 0
-261 27431 -27428 0
27431 -262 -27428 0
-264 -27428 0
-265 27431 -27428 0
-266 27431 -27428 0
-267 -27428 0
-268 27431 -27428 0
-269 -27428 0
-270 -27428 0
-27429 -271 27432 0
-272 -27429 27432 0
-273 -27429 27432 0
-274 -27429 27432 0
-275 -27429 27432 0
-276 -27429 0
-279 -27429 0
-280 -27429 27432 0
-281 -27429 27432 0
-282 -27429 27432 0
-283 -27429 27432 0
-284 -27429 0
-285 -27429 27432 0
-286 -27429 27432 0
-27429 -287 0
-288 -27429 27432 0
-289 -27429 27432 0
-290 -27429 27432 0
-27429 -291 0
-292 -27429 27432 0
-293 -27429 27432 0
-294 -27429 0
-295 -27429 27432 0
-296 -27429 27432 0
-27429 -297 0
-298 -27429 27432 0
-299 -27429 27432 0
-300 -27429 0
-301 -27429 27432 0
-302 -27429 0
-303 -27429 27432 0
-304 -27429 27432 0
-305 -27429 0
-306 -27429 0
-27429 -307 27432 0
-308 -27429 27432 0
-309 -27429 0
-310 -27429 0
-27429 27433 -311 0
-27429 -312 0
-313 -27429 27432 0
-314 -27429 0
-315 -27429 0
-27430 -271 27433 0
-272 -27430 27433 0
-273 -27430 27433 0
-274 -27430 27433 0
-275 -27430 27433 0
-276 -27430 27433 0
-277 -27430 27433 0
-279 -27430 0
-280 -27430 27433 0
-281 -27430 27433 0
-282 -27430 27433 0
-283 -27430 27433 0
-284 -27430 27433 0
-285 -27430 27433 0
-286 -27430 0
-27430 -287 0
-288 -27430 27433 0
-289 -27430 27433 0
-27430 -290 27433 0
-27430 -291 27433 0
-292 -27430 27433 0
-293 -27430 0
-294 -27430 0
-295 -27430 27433 0
-27430 -296 27433 0
-27430 -297 27433 0
-298 -27430 27433 0
-299 -27430 0
-300 -27430 0
-301 -27430 27433 0
-302 -27430 27433 0
-303 -27430 27433 0
-304 -27430 0
-305 -27430 0
-306 -27430 27433 0
-27430 -307 27433 0
-308 -27430 0
-27430 -309 0
-310 -27430 27433 0
-27430 -311 0
-27430 -312 0
-27430 -313 0
-314 -27430 0
-315 -27430 27434 0
27434 -271 -27431 0
-272 27434 -27431 0
-273 27434 -27431 0
-274 27434 -27431 0
-275 27434 -27431 0
-276 27434 -27431 0
-277 27434 -27431 0
-279 -27431 0
-280 27434 -27431 0
-281 27434 -27431 0
-282 27434 -27431 0
-283 27434 -27431 0
-284 27434 -27431 0
-285 27434 -27431 0
-287 -27431 0
-288 27434 -27431 0
-289 27434 -27431 0
27434 -290 -27431 0
27434 -291 -27431 0
-292 27434 -27431 0
-294 -27431 0
-295 27434 -27431 0
27434 -296 -27431 0
27434 -297 -27431 0
-298 27434 -27431 0
-300 -27431 0
-301 27434 -27431 0
-302 27434 -27431 0
-303 27434 -27431 0
-305 -27431 0
-306 27434 -27431 0
27434 -307 -27431 0
-309 -27431 0
-310 27434 -27431 0
27434 -311 -27431 0
-27431 -312 0
27434 -313 -27431 0
-314 -27431 0
-315 -27431 0
-27432 -316 27435 0
-317 -27432 27435 0
-318 -27432 27435 0
-319 -27432 27435 0
-320 -27432 27435 0
-321 -27432 0
-324 -27432 0
-27432 -325 27435 0
-326 -27432 27435 0
-327 -27432 27435 0
-328 -27432 27435 0
-329 -27432 0
-330 -27432 27435 0
-331 -27432 27435 0
-332 -27432 0
-333 -27432 27435 0
-334 -27432 27435 0
-335 -27432 27435 0
-336 -27432 0
-337 -27432 27435 0
-338 -27432 27435 0
-339 -27432 0
-340 -27432 27435 0
-341 -27432 27435 0
-342 -27432 0
-343 -27432 27435 0
-344 -27432 27435 0
-345 -27432 0
-346 -27432 27435 0
-27432 -347 0
-348 -27432 27435 0
-349 -27432 27435 0
-350 -27432 0
-351 -27432 0
-352 -27432 27435 0
-353 -27432 27435 0
-27432 -354 0
-355 -27432 0
-356 -27432 27436 0
-27432 -357 0
-358 -27432 27435 0
-27432 -359 0
-27432 -360 0
-316 -27433 27436 0
-317 -27433 27436 0
-318 -27433 27436 0
-319 -27433 27436 0
-320 -27433 27436 0
-321 -27433 27436 0
-323 -27433 0
-324 -27433 0
-325 -27433 27436 0
-326 -27433 27436 0
-327 -27433 27436 0
-328 -27433 27436 0
-329 -27433 27436 0
-330 -27433 27436 0
-331 -27433 0
-332 -27433 0
-333 -27433 27436 0
-334 -27433 27436 0
-335 -27433 27436 0
-336 -27433 27436 0
-337 -27433 27436 0
-338 -27433 0
-339 -27433 0
-340 -27433 27436 0
-341 -27433 27436 0
-342 -27433 27436 0
-343 -27433 27436 0
-344 -27433 0
-345 -27433 0
-346 -27433 27436 0
-27433 -347 27436 0
-348 -27433 27436 0
-349 -27433 0
-350 -27433 0
-351 -27433 27436 0
-352 -27433 27436 0
-353 -27433 0
-354 -27433 0
-355 -27433 27436 0
-356 -27433 0
-27433 -357 0
-358 -27433 0
-27433 -359 0
-360 -27433 27437 0
-316 -27434 27437 0
-317 -27434 27437 0
-318 -27434 27437 0
-319 -27434 27437 0
-320 -27434 27437 0
-321 -27434 27437 0
-322 -27434 27437 0
-324 -27434 0
-325 -27434 27437 0
-326 -27434 27437 0
-327 -27434 27437 0
-328 -27434 27437 0
-329 -27434 27437 0
-330 -27434 27437 0
-332 -27434 0
-333 -27434 27437 0
-334 -27434 27437 0
-335 -27434 27437 0
-336 -27434 27437 0
-337 -27434 27437 0
-339 -27434 0
-340 -27434 27437 0
-341 -27434 27437 0
-342 -27434 27437 0
-343 -27434 27437 0
-345 -27434 0
-346 -27434 27437 0
-27434 -347 27437 0
-348 -27434 27437 0
-350 -27434 0
-351 -27434 27437 0
-352 27437 -27434 0
-27434 -354 0
-355 -27434 27437 0
-356 -27434 27437 0
-27434 -357 0
-358 -27434 27437 0
-27434 -359 0
-27434 -360 0
-361 -27435 27438 0
-362 -27435 27438 0
-363 -27435 27438 0
-364 -27435 27438 0
-365 -27435 27438 0
-366 -27435 0
-369 -27435 0
-370 -27435 27438 0
-371 -27435 27438 0
-372 -27435 27438 0
-373 -27435 27438 0
-374 -27435 0
-375 -27435 27438 0
-376 -27435 27438 0
-377 -27435 0
-378 -27435 27438 0
-379 -27435 27438 0
-380 -27435 27438 0
-381 -27435 0
-382 -27435 27438 0
-383 -27435 27438 0
-384 -27435 0
-385 -27435 27438 0
-386 -27435 27438 0
-387 -27435 0
-388 -27435 27438 0
-27435 -389 27438 0
-390 -27435 0
-391 27438 -27435 0
-27435 -392 0
-393 -27435 27438 0
-27435 -394 27438 0
-395 -27435 0
-396 -27435 0
-397 27438 -27435 0
-27435 -398 27438 0
-399 -27435 0
-400 -27435 0
-401 -27435 27439 0
-402 -27435 0
-27435 -403 27438 0
-404 -27435 0
-405 -27435 0
-27436 -361 27439 0
-27436 -362 27439 0
-363 -27436 27439 0
-364 -27436 27439 0
-365 -27436 27439 0
-366 -27436 27439 0
-369 -27436 0
-27436 -370 27439 0
-371 -27436 27439 0
-27436 -372 27439 0
-373 -27436 27439 0
-374 -27436 27439 0
-375 -27436 27439 0
-376 -27436 0
-27436 -377 0
-378 -27436 27439 0
-379 -27436 27439 0
-380 -27436 27439 0
-381 -27436 27439 0
-382 -27436 27439 0
-27436 -383 0
-384 -27436 0
-385 -27436 27439 0
-386 -27436 27439 0
-387 -27436 27439 0
-388 -27436 27439 0
-27436 -389 0
-390 -27436 0
-391 -27436 27439 0
-27436 -392 27439 0
-393 -27436 27439 0
-27436 -394 0
-395 -27436 0
-396 -27436 27439 0
-397 -27436 27439 0
-27436 -398 0
-399 -27436 0
-400 -27436 27439 0
-27436 -401 0
-27436 -402 0
-27436 -403 0
-27436 -404 0
-27436 -405 27440 0
-361 -27437 27440 0
-362 -27437 27440 0
-363 -27437 27440 0
-364 -27437 27440 0
-365 -27437 27440 0
-366 -27437 27440 0
-369 -27437 0
-370 -27437 27440 0
-371 -27437 27440 0
-372 -27437 27440 0
-373 -27437 27440 0
-374 -27437 27440 0
-375 -27437 27440 0
-377 -27437 0
-378 -27437 27440 0
-379 -27437 27440 0
-380 -27437 27440 0
-381 -27437 27440 0
-382 -27437 27440 0
-384 -27437 0
-385 -27437 27440 0
-386 -27437 27440 0
-387 -27437 27440 0
-388 -27437 27440 0
-390 -27437 0
-391 -27437 27440 0
-392 -27437 27440 0
-393 -27437 27440 0
-395 -27437 0
-396 -27437 27440 0
-397 -27437 27440 0
-399 -27437 0
-400 -27437 27440 0
-402 -27437 0
-27437 -404 0
-405 -27437 0
-27438 -406 27441 0
-407 -27438 27441 0
-408 -27438 27441 0
-27438 -409 27441 0
-410 -27438 27441 0
-411 -27438 0
-414 -27438 0
-27438 -415 27441 0
-416 -27438 27441 0
-417 -27438 27441 0
-418 -27438 27441 0
-419 -27438 0
-420 -27438 27441 0
-421 -27438 27441 0
-422 -27438 0
-423 -27438 27441 0
-424 -27438 27441 0
-425 -27438 27441 0
-426 -27438 0
-427 -27438 27441 0
-428 -27438 27441 0
-429 -27438 0
-430 -27438 27441 0
-431 -27438 27441 0
-432 -27438 0
-433 -27438 27441 0
-434 -27438 27441 0
-27438 -435 0
-436 -27438 27441 0
-437 -27438 0
-438 -27438 27441 0
-439 -27438 27441 0
-440 -27438 0
-441 -27438 0
-442 -27438 27441 0
-443 -27438 27441 0
-444 -27438 0
-445 -27438 0
-446 27442 -27438 0
-447 -27438 0
-448 -27438 27441 0
-449 -27438 0
-450 -27438 0
-27439 -406 27442 0
-407 -27439 27442 0
-408 -27439 27442 0
-27439 27442 -409 0
-410 -27439 27442 0
-412 -27439 27442 0
-27439 -413 0
-414 -27439 0
-27439 -415 27442 0
-416 -27439 27442 0
-417 -27439 27442 0
-418 -27439 27442 0
-419 -27439 27442 0
-420 -27439 27442 0
-421 -27439 0
-27439 -422 0
-27439 -423 27442 0
-424 -27439 27442 0
-425 -27439 27442 0
-426 -27439 27442 0
-427 -27439 27442 0
-27439 -428 0
-429 -27439 0
-430 -27439 27442 0
-431 -27439 27442 0
-432 -27439 27442 0
-433 -27439 27442 0
-434 -27439 0
-27439 -435 0
-436 -27439 27442 0
-437 -27439 27442 0
-438 -27439 27442 0
-439 -27439 0
-440 -27439 0
-441 -27439 27442 0
-442 -27439 27442 0
-27439 -443 0
-444 -27439 0
-27439 -445 27442 0
-446 -27439 0
-27439 -447 0
-27439 -448 0
-449 -27439 0
-27439 -450 27443 0
-406 -27440 27443 0
-407 -27440 27443 0
-408 -27440 27443 0
27443 -27440 -409 0
-410 -27440 27443 0
-412 27443 -27440 0
-414 -27440 0
-415 -27440 27443 0
-416 -27440 27443 0
-417 -27440 27443 0
-418 -27440 27443 0
-419 -27440 27443 0
-420 -27440 27443 0
-422 -27440 0
-423 -27440 27443 0
-424 -27440 27443 0
-425 -27440 27443 0
-426 27443 -27440 0
-427 -27440 27443 0
-429 -27440 0
-430 -27440 27443 0
-431 -27440 27443 0
-432 27443 -27440 0
-433 -27440 27443 0
-27440 -435 0
-436 -27440 27443 0
-437 -27440 27443 0
-438 -27440 27443 0
-440 -27440 0
-441 27443 -27440 0
-442 -27440 27443 0
-444 -27440 0
-27440 -445 27443 0
-446 -27440 27443 0
-447 -27440 0
27443 -448 -27440 0
-449 -27440 0
-450 -27440 0
-451 -27441 27444 0
-27441 -452 27444 0
-453 -27441 27444 0
-27441 -454 27444 0
-455 -27441 27444 0
-458 -27441 27444 0
-27441 -459 0
-27441 -460 27444 0
-461 -27441 27444 0
-462 -27441 27444 0
-463 -27441 27444 0
-464 -27441 0
-465 -27441 27444 0
-466 -27441 27444 0
-467 -27441 0
-468 -27441 27444 0
-469 -27441 27444 0
-470 -27441 27444 0
-471 -27441 0
-472 -27441 27444 0
-473 -27441 27444 0
-474 -27441 0
-475 -27441 27444 0
-476 -27441 27444 0
-477 -27441 0
-478 -27441 27444 0
-479 -27441 27444 0
-480 -27441 0
-481 -27441 27444 0
-482 -27441 0
-27441 -483 27444 0
-484 -27441 27444 0
-485 -27441 0
-486 -27441 0
-487 -27441 27444 0
-488 -27441 27444 0
-489 -27441 0
-27441 -490 0
-27441 -491 27445 0
-27441 -492 0
-493 -27441 27444 0
-27441 -494 0
-27441 -495 0
-451 -27442 27445 0
-452 -27442 27445 0
-453 -27442 27445 0
-454 -27442 27445 0
-455 -27442 27445 0
-458 -27442 0
-459 -27442 0
-460 -27442 27445 0
-461 -27442 27445 0
-462 -27442 27445 0
-463 -27442 27445 0
-464 -27442 27445 0
-465 -27442 27445 0
-466 -27442 0
-467 -27442 0
-468 -27442 27445 0
-469 -27442 27445 0
-470 -27442 27445 0
-471 -27442 27445 0
-472 -27442 27445 0
-473 -27442 0
-474 -27442 0
-475 -27442 27445 0
-476 -27442 27445 0
-477 -27442 27445 0
-478 -27442 27445 0
-479 -27442 0
-480 -27442 0
-481 -27442 27445 0
-482 -27442 27445 0
-483 -27442 27445 0
-484 -27442 0
-485 -27442 0
-486 -27442 27445 0
-487 -27442 27445 0
-488 -27442 0
-489 -27442 0
-27442 -490 27445 0
-27442 -491 0
-27442 -492 0
-493 -27442 0
-494 -27442 0
-27442 -495 27446 0
-451 -27443 27446 0
-452 -27443 27446 0
-453 -27443 27446 0
-454 -27443 27446 0
-455 -27443 27446 0
-459 -27443 0
-460 -27443 27446 0
-461 -27443 27446 0
-462 -27443 27446 0
-463 -27443 27446 0
-464 -27443 27446 0
-465 -27443 27446 0
-467 -27443 0
-468 -27443 27446 0
-469 -27443 27446 0
-470 -27443 27446 0
-471 -27443 27446 0
-472 -27443 27446 0
-474 -27443 0
-475 -27443 27446 0
-476 -27443 27446 0
-477 27446 -27443 0
-478 -27443 27446 0
-480 -27443 0
-481 -27443 27446 0
-482 -27443 27446 0
-483 -27443 27446 0
-485 -27443 0
-486 -27443 27446 0
-487 -27443 27446 0
-489 -27443 0
-27443 -490 27446 0
-27443 -491 27446 0
-27443 -492 0
-493 -27443 27446 0
-494 -27443 0
-495 -27443 0
-496 -27444 27447 0
-497 -27444 27447 0
-498 -27444 27447 0
-499 -27444 27447 0
-500 -27444 27447 0
-501 -27444 0
-502 -27444 27447 0
-27444 -504 0
-505 -27444 27447 0
-506 -27444 27447 0
-507 -27444 27447 0
-508 -27444 27447 0
-509 -27444 0
-510 -27444 27447 0
-511 -27444 27447 0
-27444 -512 0
-513 -27444 27447 0
-514 -27444 27447 0
-515 -27444 27447 0
-516 -27444 0
-517 -27444 27447 0
-518 -27444 27447 0
-27444 -519 0
-520 -27444 27447 0
-521 -27444 27447 0
-522 -27444 0
-523 -27444 27447 0
-524 -27444 27447 0
-27444 -525 0
-27444 -526 27447 0
-527 -27444 0
-528 -27444 27447 0
-529 -27444 27447 0
-530 -27444 0
-531 -27444 0
-532 -27444 27447 0
-533 -27444 27447 0
-27444 -534 0
-535 -27444 0
-536 -27444 27448 0
-27444 -537 0
-538 -27444 27447 0
-539 -27444 0
-27444 -540 0
-496 -27445 27448 0
-497 -27445 27448 0
-498 -27445 27448 0
-499 -27445 27448 0
-500 -27445 27448 0
-27445 -504 0
-505 -27445 27448 0
-506 -27445 27448 0
-507 -27445 27448 0
-508 -27445 27448 0
-509 -27445 27448 0
-510 -27445 27448 0
-511 -27445 0
-512 -27445 0
-513 -27445 27448 0
-514 -27445 27448 0
-515 -27445 27448 0
-516 -27445 27448 0
-517 -27445 27448 0
-518 -27445 0
-27445 -519 0
-520 -27445 27448 0
-521 -27445 27448 0
-522 -27445 27448 0
-523 -27445 27448 0
-524 -27445 0
-27445 -525 0
-27445 -526 27448 0
-527 -27445 27448 0
-528 -27445 27448 0
-529 -27445 0
-530 -27445 0
-531 -27445 27448 0
-532 -27445 27448 0
-533 -27445 0
-27445 -534 0
-535 -27445 27448 0
-536 -27445 0
-27445 -537 0
-538 -27445 0
-539 -27445 0
-27445 -540 27449 0
-496 27449 -27446 0
-497 27449 -27446 0
-498 27449 -27446 0
-499 27449 -27446 0
-500 27449 -27446 0
-501 27449 -27446 0
-502 27449 -27446 0
-503 27449 -27446 0
-27446 -504 0
-505 27449 -27446 0
-506 27449 -27446 0
-507 27449 -27446 0
-508 27449 -27446 0
-509 27449 -27446 0
-510 27449 -27446 0
-512 -27446 0
-513 27449 -27446 0
-514 27449 -27446 0
-515 27449 -27446 0
-516 27449 -27446 0
-517 27449 -27446 0
-519 -27446 0
-520 27449 -27446 0
-521 27449 -27446 0
-522 27449 -27446 0
-523 27449 -27446 0
-27446 -525 0
-526 -27446 27449 0
-527 27449 -27446 0
-528 27449 -27446 0
-530 -27446 0
-531 27449 -27446 0
-532 27449 -27446 0
-27446 -534 0
-535 27449 -27446 0
-536 -27446 27449 0
-27446 -537 0
-538 27449 -27446 0
-539 -27446 0
-540 -27446 0
-541 -27447 27450 0
-542 -27447 27450 0
-543 -27447 27450 0
-544 -27447 27450 0
-545 -27447 27450 0
-547 -27447 27450 0
-548 -27447 27450 0
-27447 -549 0
-550 -27447 27450 0
-551 -27447 27450 0
-552 -27447 27450 0
-553 -27447 27450 0
-554 -27447 0
-555 -27447 27450 0
-556 -27447 27450 0
-557 -27447 0
-558 -27447 27450 0
-559 -27447 27450 0
-560 -27447 27450 0
-561 -27447 0
-562 -27447 27450 0
-563 -27447 27450 0
-27447 -564 0
-565 -27447 27450 0
-566 -27447 27450 0
-567 -27447 0
-568 -27447 27450 0
-569 -27447 27450 0
-570 -27447 0
-571 -27447 27450 0
-572 -27447 0
-573 -27447 27450 0
-574 -27447 27450 0
-27447 -575 0
-576 -27447 0
-577 -27447 27450 0
-578 -27447 27450 0
-579 -27447 0
-580 -27447 0
-581 -27447 27451 0
-27447 -582 0
-27447 -583 27450 0
-27447 -584 0
-585 -27447 0
-541 -27448 27451 0
-542 -27448 27451 0
-543 -27448 27451 0
-544 -27448 27451 0
-545 -27448 27451 0
-546 -27448 27451 0
-547 -27448 27451 0
-548 -27448 0
-27448 -549 0
-550 -27448 27451 0
-551 -27448 27451 0
-552 -27448 27451 0
-553 -27448 27451 0
-554 -27448 27451 0
-555 -27448 27451 0
-556 -27448 0
-557 -27448 0
-558 -27448 27451 0
-559 -27448 27451 0
-560 -27448 27451 0
-561 -27448 27451 0
-562 -27448 27451 0
-563 -27448 0
-27448 -564 0
-565 -27448 27451 0
-566 -27448 27451 0
-567 -27448 27451 0
-568 -27448 27451 0
-569 -27448 0
-570 -27448 0
-571 -27448 27451 0
-572 -27448 27451 0
-573 -27448 27451 0
-574 -27448 0
-27448 -575 0
-576 -27448 27451 0
-577 -27448 27451 0
-578 -27448 0
-579 -27448 0
-580 -27448 27451 0
-581 -27448 0
-27448 -582 0
-583 -27448 0
-27448 -584 0
-585 27452 -27448 0
-541 27452 -27449 0
-542 27452 -27449 0
-543 27452 -27449 0
-544 27452 -27449 0
-545 27452 -27449 0
27452 -546 -27449 0
-547 27452 -27449 0
-27449 -549 0
-550 27452 -27449 0
-551 27452 -27449 0
-552 27452 -27449 0
-553 27452 -27449 0
-554 27452 -27449 0
-555 27452 -27449 0
-557 -27449 0
-558 27452 -27449 0
-559 27452 -27449 0
-560 27452 -27449 0
-561 27452 -27449 0
-562 27452 -27449 0
-564 -27449 0
-565 27452 -27449 0
-566 27452 -27449 0
-567 27452 -27449 0
-568 27452 -27449 0
-570 -27449 0
-571 27452 -27449 0
-572 27452 -27449 0
-573 27452 -27449 0
-575 -27449 0
-576 27452 -27449 0
-577 27452 -27449 0
-579 -27449 0
-580 27452 -27449 0
-581 27452 -27449 0
-582 -27449 0
27452 -583 -27449 0
-584 -27449 0
-585 -27449 0
-586 -27450 27453 0
-27450 27453 -587 0
-588 -27450 27453 0
-589 -27450 27453 0
-590 -27450 27453 0
-592 -27450 27453 0
-593 -27450 27453 0
-594 -27450 0
-595 -27450 27453 0
-596 -27450 27453 0
-597 -27450 27453 0
-598 -27450 27453 0
-27450 -599 0
-600 -27450 27453 0
-601 -27450 27453 0
-602 -27450 0
-603 -27450 27453 0
-604 -27450 27453 0
-605 -27450 27453 0
-606 -27450 0
-607 -27450 27453 0
-608 -27450 27453 0
-609 -27450 0
-610 -27450 27453 0
-611 -27450 27453 0
-612 -27450 0
-613 -27450 27453 0
-614 -27450 27453 0
-615 -27450 0
-616 -27450 27453 0
-617 -27450 0
-27450 -618 27453 0
-619 -27450 27453 0
-620 -27450 0
-27450 -621 0
-622 -27450 27453 0
-27450 -623 27453 0
-27450 -624 0
-27450 -625 0
-27450 -626 27454 0
-27450 -627 0
-27450 -628 27453 0
-629 -27450 0
-27450 -630 0
-586 -27451 27454 0
-27451 27454 -587 0
-588 -27451 27454 0
-589 -27451 27454 0
-590 -27451 27454 0
-593 -27451 0
-594 -27451 0
-595 -27451 27454 0
-596 -27451 27454 0
-597 -27451 27454 0
-598 -27451 27454 0
-599 -27451 27454 0
-600 -27451 27454 0
-601 -27451 0
-602 -27451 0
-603 -27451 27454 0
-604 -27451 27454 0
-605 -27451 27454 0
-606 -27451 27454 0
-607 -27451 27454 0
-608 -27451 0
-609 -27451 0
-610 -27451 27454 0
-611 -27451 27454 0
-612 -27451 27454 0
-613 -27451 27454 0
-614 -27451 0
-615 -27451 0
-616 -27451 27454 0
-617 -27451 27454 0
-618 -27451 27454 0
-619 -27451 0
-620 -27451 0
-27451 -621 27454 0
-622 -27451 27454 0
-623 -27451 0
-27451 -624 0
-27451 -625 27454 0
-27451 -626 0
-27451 -627 0
-628 -27451 0
-629 -27451 0
-27451 -630 27455 0
-594 -27452 0
-602 -27452 0
-609 -27452 0
-615 -27452 0
-620 -27452 0
-621 27455 -27452 0
-624 -27452 0
-27452 -626 27455 0
-27452 -627 0
-629 -27452 0
-630 -27452 0
-631 -27453 27456 0
-27453 -632 27456 0
-633 -27453 27456 0
-634 -27453 27456 0
-635 -27453 27456 0
-636 -27453 0
-637 -27453 27456 0
-638 -27453 27456 0
-639 -27453 0
-640 -27453 27456 0
-641 -27453 27456 0
-642 -27453 27456 0
-643 -27453 27456 0
-644 -27453 0
-645 -27453 27456 0
-646 -27453 27456 0
-647 -27453 0
-648 -27453 27456 0
-649 -27453 27456 0
-650 -27453 27456 0
-651 -27453 0
-652 -27453 27456 0
-653 -27453 27456 0
-654 -27453 0
-655 -27453 27456 0
-656 -27453 27456 0
-657 -27453 0
-658 -27453 27456 0
-659 -27453 27456 0
-660 -27453 0
-661 -27453 27456 0
-27453 -662 0
-663 -27453 27456 0
-664 -27453 27456 0
-665 -27453 0
-27453 -666 0
-667 -27453 27456 0
-668 -27453 27456 0
-27453 -669 0
-27453 -670 0
-27453 -671 27457 0
-672 -27453 0
-673 -27453 27456 0
-674 -27453 0
-27453 -675 0
-631 -27454 27457 0
-27454 -632 27457 0
-633 -27454 27457 0
-634 -27454 27457 0
-635 -27454 27457 0
-636 -27454 27457 0
-637 -27454 27457 0
-638 -27454 0
-639 -27454 0
-640 -27454 27457 0
-641 -27454 27457 0
-642 -27454 27457 0
-643 -27454 27457 0
-644 -27454 27457 0
-645 -27454 27457 0
-646 -27454 0
-647 -27454 0
-648 -27454 27457 0
-649 -27454 27457 0
-650 -27454 27457 0
-651 -27454 27457 0
-652 -27454 27457 0
-653 -27454 0
-654 -27454 0
-655 -27454 27457 0
-656 -27454 27457 0
-657 -27454 27457 0
-658 -27454 27457 0
-659 -27454 0
-660 -27454 0
-661 -27454 27457 0
-662 -27454 27457 0
-663 -27454 27457 0
-664 -27454 0
-665 -27454 0
-666 -27454 27457 0
-667 -27454 27457 0
-668 -27454 0
-27454 -669 0
-27454 -670 27457 0
-671 -27454 0
-672 -27454 0
-673 -27454 0
-674 -27454 0
-675 -27454 27458 0
-631 27458 -27455 0
-637 27458 -27455 0
-639 -27455 0
-640 -27455 27458 0
-647 -27455 0
-648 -27455 27458 0
-654 -27455 0
-655 -27455 27458 0
-660 -27455 0
-661 -27455 27458 0
-665 -27455 0
-27455 -666 27458 0
-667 27458 -27455 0
-27455 -669 0
27458 -670 -27455 0
-672 -27455 0
-673 -27455 27458 0
-674 -27455 0
-675 -27455 0
-27456 -676 27459 0
-677 -27456 27459 0
-678 -27456 27459 0
-679 -27456 27459 0
-27456 -680 27459 0
-681 -27456 0
-683 -27456 27459 0
-684 -27456 0
-685 -27456 27459 0
-686 -27456 27459 0
-27456 -687 27459 0
-688 -27456 27459 0
-689 -27456 0
-690 -27456 27459 0
-691 -27456 27459 0
-692 -27456 0
-693 -27456 27459 0
-694 -27456 27459 0
-695 -27456 27459 0
-696 -27456 0
-27456 -697 27459 0
-27456 -698 27459 0
-699 -27456 0
-700 -27456 27459 0
-701 -27456 27459 0
-702 -27456 0
-703 -27456 27459 0
-704 -27456 27459 0
-705 -27456 0
-706 -27456 27459 0
-707 -27456 0
-708 -27456 27459 0
-709 -27456 27459 0
-27456 -710 0
-711 -27456 0
-712 -27456 27459 0
-713 -27456 27459 0
-714 -27456 0
-715 -27456 0
-716 -27456 27460 0
-27456 -717 0
-718 -27456 27459 0
-27456 -719 0
-27456 -720 0
-27457 -676 27460 0
-677 -27457 27460 0
-678 -27457 27460 0
-679 -27457 27460 0
-27457 -680 27460 0
-681 -27457 27460 0
-683 -27457 0
-684 -27457 0
-685 -27457 27460 0
-686 -27457 27460 0
-27457 -687 27460 0
-688 -27457 27460 0
-689 -27457 27460 0
-690 -27457 27460 0
-691 -27457 0
-692 -27457 0
-693 -27457 27460 0
-694 -27457 27460 0
-695 -27457 27460 0
-696 -27457 27460 0
-697 -27457 27460 0
-27457 -698 0
-699 -27457 0
-700 -27457 27460 0
-701 -27457 27460 0
-702 -27457 27460 0
-703 -27457 27460 0
-704 -27457 0
-705 -27457 0
-706 -27457 27460 0
-707 -27457 27460 0
-708 -27457 27460 0
-709 -27457 0
-27457 -710 0
-711 -27457 27460 0
-712 -27457 27460 0
-713 -27457 0
-714 -27457 0
-715 -27457 27460 0
-716 -27457 0
-27457 -717 0
-718 -27457 0
-719 -27457 0
-27457 27461 -720 0
-684 -27458 0
-692 -27458 0
-699 -27458 0
-705 -27458 0
-710 -27458 0
-714 -27458 0
-717 -27458 0
-719 -27458 0
-720 -27458 0
-721 -27459 27462 0
-722 -27459 27462 0
-723 -27459 27462 0
-724 -27459 27462 0
-725 -27459 27462 0
-726 -27459 0
-727 -27459 27462 0
-728 -27459 27462 0
-27459 -729 0
-27459 -730 27462 0
-731 -27459 27462 0
-732 -27459 27462 0
-733 -27459 27462 0
-734 -27459 0
-735 -27459 27462 0
-736 -27459 27462 0
-27459 -738 27462 0
-739 -27459 27462 0
-740 -27459 27462 0
-741 -27459 0
-742 -27459 27462 0
-743 -27459 27462 0
-745 -27459 27462 0
-746 -27459 27462 0
-747 -27459 0
-27459 -748 27462 0
-749 -27459 27462 0
-27459 -750 0
-751 -27459 27462 0
-752 -27459 0
-753 -27459 27462 0
-754 -27459 27462 0
-756 -27459 0
-757 -27459 27462 0
-758 -27459 27462 0
-27459 -759 0
-760 -27459 0
-761 -27459 27463 0
-763 -27459 27462 0
-27459 -764 0
-27459 -765 0
-721 -27460 27463 0
-722 -27460 27463 0
-723 -27460 27463 0
-724 -27460 27463 0
-725 -27460 27463 0
-726 -27460 27463 0
-727 -27460 27463 0
-728 -27460 0
-27460 -729 0
-27460 -730 27463 0
-731 -27460 27463 0
-732 -27460 27463 0
-733 -27460 27463 0
-734 -27460 27463 0
-735 -27460 27463 0
-736 -27460 0
-27460 -737 0
-27460 -738 27463 0
-739 -27460 27463 0
-740 -27460 27463 0
-741 -27460 27463 0
-742 -27460 27463 0
-743 -27460 0
-744 -27460 0
-745 -27460 27463 0
-746 -27460 27463 0
-747 -27460 27463 0
-748 -27460 27463 0
-749 -27460 0
-27460 -750 0
-751 -27460 27463 0
-752 -27460 27463 0
-753 -27460 27463 0
-754 -27460 0
-27460 -755 0
-756 -27460 27463 0
-757 -27460 27463 0
-758 -27460 0
-27460 -759 0
-760 -27460 27463 0
-761 -27460 0
-762 -27460 0
-763 -27460 0
-27460 -764 0
-765 -27460 27464 0
-27461 -729 0
-750 -27461 0
-759 -27461 0
-764 -27461 0
-765 -27461 0
-27462 -766 27465 0
-775 -27462 27465 0
-783 -27462 27465 0
-790 -27462 27465 0
-796 -27462 27465 0
-801 -27462 0
-805 -27462 0
-808 -27462 27465 0
-27462 -810 0
-766 -27463 27466 0
-775 -27463 27466 0
-783 -27463 27466 0
-790 -27463 27466 0
-796 -27463 27466 0
-801 -27463 27466 0
-805 -27463 27466 0
-808 -27463 0
-27464 -810 0
-27746 27413 0
-27748 27416 0
-27750 27419 0
27751 -176 0
-178 27751 0
-27752 27422 0
-27751 -27422 27752 0
-27753 221 223 196 188 218 203 214 209 0
27753 -221 0
27753 -223 0
-27754 27425 0
-27754 27753 0
-27753 -27425 27754 0
-266 27755 0
-268 27755 0
-27756 27428 0
-27755 -27428 27756 0
-27757 311 278 304 313 308 286 299 293 0
27757 -311 0
27757 -313 0
-27758 27431 0
-27758 27757 0
-27757 -27431 27758 0
-27759 356 323 344 358 331 338 353 349 0
-353 27759 0
-356 27759 0
-358 27759 0
-27760 27434 0
-27760 27759 0
-27759 -27434 27760 0
-27761 394 383 401 403 389 376 368 398 0
27761 -401 0
27761 -403 0
-27762 27437 0
-27762 27761 0
-27437 -27761 27762 0
-27763 446 413 448 443 439 434 421 428 0
-421 27763 0
-434 27763 0
27763 -439 0
-446 27763 0
27763 -448 0
-27764 27440 0
-27764 27763 0
-27763 -27440 27764 0
-27765 491 458 493 479 488 484 466 473 0
27765 -491 0
-493 27765 0
-27766 27443 0
-27766 27765 0
-27765 -27443 27766 0
-27767 538 503 536 524 529 533 511 518 0
-536 27767 0
27767 -538 0
-27768 27446 0
-27768 27767 0
-27767 -27446 27768 0
-27769 548 583 556 581 578 563 574 569 0
-581 27769 0
-583 27769 0
-27770 27449 0
-27770 27769 0
-27769 -27449 27770 0
-27771 593 628 626 614 623 601 608 619 0
27771 -626 0
27771 -628 0
-27772 27771 0
-27771 -27452 27772 0
-27773 646 673 671 659 668 638 653 664 0
27773 -671 0
-673 27773 0
-27774 27773 0
-27773 -27455 27774 0
-27775 683 698 691 716 713 718 709 704 0
27775 -716 0
27775 -718 0
-27776 27458 0
-27776 27775 0
-27775 -27458 27776 0
-27777 728 743 736 761 754 758 749 763 0
27777 -761 0
27777 -763 0
-27778 27777 0
-27777 -27461 27778 0
-27779 808 781 788 794 799 803 806 773 0
27779 -808 0
-27780 27779 0
-27464 -27779 27780 0
-23985 27782 0
27783 -23986 0
-27782 27783 0
27784 -23987 0
27784 -27783 0
-23988 27785 0
27785 -27784 0
-23989 27786 0
27786 -27785 0
-23990 27787 0
27787 -27786 0
-23991 27788 0
27788 -27787 0
27789 -23992 0
27789 -27788 0
27790 -23993 0
27790 -27789 0
-23994 27791 0
27791 -27790 0
-23995 27792 0
27792 -27791 0
-23996 27793 0
27793 -27792 0
27794 -23997 0
27794 -27793 0
-23998 27795 0
27795 -27794 0
27796 -27795 0
27797 -27796 0
-27782 -23986 0
-23987 -27783 0
-23988 -27784 0
-23989 -27785 0
-23990 -27786 0
-23991 -27787 0
-23992 -27788 0
-23993 -27789 0
-23994 -27790 0
-23995 -27791 0
-23996 -27792 0
-23997 -27793 0
-23998 -27794 0
-23999 -27795 0
-24000 -27796 0
-24001 -27797 0
27750 27748 27752 27754 27756 27758 27760 27762 27764 27766 27768 27770 27772 27774 27776 27778 27780 27746 0
-27752 27801 0
-27754 27802 0
-27801 27802 0
-27756 27803 0
-27802 27803 0
-27756 -27802 0
-27758 27804 0
-27803 27804 0
-27803 -27758 0
-27760 27805 0
-27804 27805 0
-27760 -27804 0
-27762 27806 0
-27805 27806 0
-27762 -27805 0
-27764 27807 0
-27806 27807 0
-27764 -27806 0
-27766 27808 0
-27807 27808 0
-27766 -27807 0
-27768 27809 0
-27808 27809 0
-27768 -27808 0
-27770 27810 0
-27809 27810 0
-27770 -27809 0
-27772 27811 0
-27810 27811 0
-27810 -27772 0
-27774 27812 0
-27811 27812 0
-27774 -27811 0
-27776 27813 0
-27812 27813 0
-27812 -27776 0
-27778 27814 0
-27813 27814 0
-27778 -27813 0
-27814 -27780 0
-143 -27422 0
-151 -27422 0
-158 -27422 0
-164 -27422 0
-169 -27422 0
-173 -27422 0
-188 -27425 0
-196 -27425 0
-203 -27425 0
-209 -27425 0
-214 -27425 0
-218 -27425 0
-27428 -233 0
-241 -27428 0
-248 -27428 0
-254 -27428 0
-259 -27428 0
-263 -27428 0
-278 -27431 0
-286 -27431 0
-293 -27431 0
-299 -27431 0
-304 -27431 0
-308 -27431 0
-323 -27434 0
-331 -27434 0
-338 -27434 0
-344 -27434 0
-349 -27434 0
-353 -27434 0
-376 -27437 0
-27437 -383 0
-27437 -389 0
-27437 -394 0
-27437 -398 0
-27440 -413 0
-421 -27440 0
-428 -27440 0
-434 -27440 0
-439 -27440 0
-27440 -443 0
-458 -27443 0
-466 -27443 0
-473 -27443 0
-479 -27443 0
-484 -27443 0
-488 -27443 0
-511 -27446 0
-518 -27446 0
-524 -27446 0
-529 -27446 0
-533 -27446 0
-548 -27449 0
-556 -27449 0
-563 -27449 0
-569 -27449 0
-574 -27449 0
-578 -27449 0
-593 -27452 0
-601 -27452 0
-608 -27452 0
-614 -27452 0
-619 -27452 0
-623 -27452 0
-638 -27455 0
-646 -27455 0
-653 -27455 0
-659 -27455 0
-664 -27455 0
-668 -27455 0
-683 -27458 0
-691 -27458 0
-27458 -698 0
-704 -27458 0
-709 -27458 0
-713 -27458 0
-728 -27461 0
-736 -27461 0
-743 -27461 0
-749 -27461 0
-754 -27461 0
-758 -27461 0
-27815 43 0
27815 -43 -27411 0
-27816 88 0
-88 -27414 27816 0
-27817 133 0
27817 -133 -27417 0
-27818 178 0
-178 27818 -27420 0
-27819 223 0
-223 -27423 27819 0
-27820 27426 0
-27820 268 0
-268 -27426 27820 0
-27821 27429 0
-27821 313 0
-313 -27429 27821 0
-27822 27432 0
-27822 358 0
-358 -27432 27822 0
-27823 27435 0
-27823 403 0
-27435 -403 27823 0
-27824 27438 0
-27824 448 0
-448 27824 -27438 0
-27825 27441 0
-27825 493 0
-493 -27441 27825 0
-27826 27444 0
-27826 538 0
-538 -27444 27826 0
-27827 27447 0
-27827 583 0
-27447 -583 27827 0
-27828 27450 0
-27828 628 0
-27829 27453 0
-27830 27456 0
-27831 27459 0
-27832 27462 0
27821 27820 27816 27815 27818 27826 27824 27823 -27833 27817 27825 27827 27822 27819 27828 27829 27830 27831 27832 0
27833 -27815 0
-27816 27833 0
-27817 27833 0
-27818 27833 0
-27819 27833 0
-27820 27833 0
-27821 27833 0
-27822 27833 0
-27823 27833 0
-27824 27833 0
-27825 27833 0
-27826 27833 0
-27827 27833 0
27833 -176 -27422 0
27833 -311 -27431 0
-356 27833 -27434 0
27833 -27437 -401 0
-446 -27440 27833 0
27833 -491 -27443 0
-536 27833 -27446 0
27833 -581 -27449 0
27833 -626 -27452 0
27833 -671 -27455 0
27833 -716 -27458 0
27833 -761 -27461 0
27842 27843 0
-27844 27877 0
-27877 -27845 0
27846 27847 0
27848 27849 0
27850 27851 0
27852 27853 0
27855 27854 0
27882 -27854 0
-27882 -27855 0
27856 27857 0
27858 27859 0
27860 27861 0
27885 -27860 0
-27885 -27861 0
27862 27863 0
27886 -27862 0
-27886 -27863 0
27865 27864 0
27867 27866 0
-27866 27888 0
-27888 -27867 0
27868 27869 0
-27870 27890 0
-27890 -27871 0
27834 0
27871 0
-10 -27834 0
-11 -27834 0
-12 -27834 0
-13 -27834 0
-15 -27834 0
-16 -27834 0
27836 -18 -27834 0
27836 -19 -27834 0
27836 -20 -27834 0
27836 -22 -27834 0
27836 -23 -27834 0
27836 -25 -27834 0
27836 -26 -27834 0
27836 -28 -27834 0
27836 -29 -27834 0
27836 -31 -27834 0
27836 -33 -27834 0
27836 -34 -27834 0
27836 -37 -27834 0
27836 -38 -27834 0
27836 -43 -27834 0
-55 -27836 0
-56 -27836 0
-57 -27836 0
-58 -27836 0
-60 -27836 0
27838 -63 -27836 0
27838 -64 -27836 0
-65 27838 -27836 0
27838 -67 -27836 0
27838 -68 -27836 0
27838 -70 -27836 0
27838 -71 -27836 0
-73 27838 -27836 0
27838 -74 -27836 0
27838 -76 -27836 0
27838 -78 -27836 0
27838 -79 -27836 0
27838 -82 -27836 0
27838 -83 -27836 0
27838 -88 -27836 0
-100 -27838 0
-101 -27838 0
-103 -27838 0
-105 -27838 0
-112 27840 -27838 0
27840 -113 -27838 0
27840 -118 -27838 0
27840 -123 -27838 0
27840 -127 -27838 0
27840 -128 -27838 0
27840 -133 -27838 0
-27839 -92 0
-27840 -151 0
-153 27842 -27840 0
-154 27842 -27840 0
-155 27842 -27840 0
-156 27842 -27840 0
-157 -27840 27842 0
-158 27842 -27840 0
-160 27842 -27840 0
-161 27842 -27840 0
-162 27842 -27840 0
-163 27842 -27840 0
-164 27842 -27840 0
-168 27842 -27840 0
-172 27842 -27840 0
-175 27842 -27840 0
-27840 27842 -176 0
-178 27842 -27840 0
-181 -27842 27845 0
-190 -27842 0
-191 -27842 0
-192 -27842 0
-193 -27842 0
-194 -27842 0
-195 -27842 0
-196 -27842 0
-202 27844 -27842 0
-208 27844 -27842 0
-27843 -181 0
-185 -27843 0
-194 -27843 27845 0
27846 -27844 -266 0
-226 -27845 0
-227 -27845 0
-228 -27845 0
-229 -27845 0
-230 -27845 0
-27845 -232 0
-27845 -233 0
-234 -27845 0
-27846 -281 0
27848 -310 -27846 0
-27847 -281 27849 0
-27848 -316 27851 0
-351 -27848 27850 0
-27849 -316 0
-27850 -361 27853 0
-27850 -362 27852 0
-363 -27850 27852 0
-370 -27850 0
-371 -27850 0
-27850 -372 0
-373 -27850 0
-374 -27850 0
-375 -27850 0
-376 -27850 0
-396 -27850 27852 0
-27851 -361 0
-27851 -362 0
-363 -27851 0
-370 -27851 27853 0
-371 -27851 27853 0
-27851 -372 27853 0
-373 -27851 27853 0
-374 -27851 27853 0
-375 -27851 27853 0
-376 -27851 27853 0
-378 -27851 27853 0
-379 -27851 27853 0
-380 -27851 27853 0
-381 -27851 27853 0
-382 -27851 27853 0
-27851 -383 27853 0
-384 -27851 27853 0
-385 -27851 27853 0
-386 -27851 27853 0
-387 -27851 27853 0
-388 -27851 27853 0
-27851 -389 27853 0
-390 -27851 27853 0
-391 -27851 27853 0
-392 -27851 27853 0
-393 -27851 27853 0
-27851 -394 27853 0
-395 -27851 27853 0
-396 -27851 27853 0
-397 -27851 27853 0
-27851 -398 27853 0
-399 -27851 27853 0
-400 -27851 27853 0
-27851 -401 27853 0
-27851 -403 27853 0
-405 -27851 27853 0
-406 27855 -27852 0
-407 -27852 27854 0
-408 -27852 27854 0
27854 -409 -27852 0
-410 -27852 27854 0
-411 -27852 27854 0
-412 -27852 27854 0
-27852 27854 -413 0
-415 -27852 0
-416 -27852 0
-417 -27852 0
-418 -27852 0
-419 -27852 0
-420 -27852 0
-421 -27852 0
-423 -27852 27854 0
-424 -27852 27854 0
-425 -27852 27854 0
-426 -27852 27854 0
-427 -27852 27854 0
-428 -27852 27854 0
-430 -27852 27854 0
-431 -27852 27854 0
-432 -27852 27854 0
-433 -27852 27854 0
-434 -27852 27854 0
-436 -27852 27854 0
-437 -27852 27854 0
-438 -27852 27854 0
-439 -27852 27854 0
-441 -27852 27854 0
-442 -27852 27854 0
-443 -27852 27854 0
-445 -27852 27854 0
-446 -27852 27854 0
-448 -27852 27854 0
-406 -27853 0
-407 -27853 0
-408 -27853 0
-27853 -409 0
-410 -27853 0
-411 -27853 0
-412 -27853 0
-27853 -413 0
-414 -27853 0
-415 -27853 27855 0
-416 -27853 27855 0
-417 -27853 27855 0
-418 -27853 27855 0
-419 -27853 27855 0
-420 -27853 27855 0
-421 -27853 27855 0
-423 -27853 27855 0
-424 -27853 27855 0
-425 -27853 27855 0
-426 -27853 27855 0
-427 -27853 27855 0
-428 -27853 27855 0
-429 -27853 27855 0
-430 -27853 27855 0
-431 -27853 27855 0
-432 -27853 27855 0
-433 -27853 27855 0
-434 -27853 27855 0
-436 -27853 27855 0
-437 -27853 27855 0
-438 -27853 27855 0
-439 -27853 27855 0
-440 -27853 27855 0
-441 -27853 27855 0
-442 -27853 27855 0
-443 -27853 27855 0
-444 -27853 27855 0
-445 -27853 27855 0
-446 -27853 27855 0
-27853 27855 -448 0
-449 -27853 27855 0
-450 -27853 27855 0
-451 -27854 27857 0
-452 -27854 27856 0
-453 -27854 27856 0
27856 -454 -27854 0
-455 -27854 27856 0
-27854 -460 0
-461 -27854 0
-462 -27854 0
-463 -27854 0
-464 -27854 0
-465 -27854 0
-466 -27854 0
-467 -27854 0
-468 -27854 27856 0
-469 -27854 27856 0
-470 -27854 27856 0
-471 -27854 27856 0
-472 -27854 27856 0
-473 -27854 27856 0
-475 -27854 27856 0
-476 -27854 27856 0
-477 -27854 27856 0
-478 -27854 27856 0
-479 -27854 27856 0
-481 -27854 27856 0
-482 -27854 27856 0
-483 -27854 27856 0
-484 -27854 27856 0
-486 -27854 27856 0
-487 -27854 27856 0
-488 -27854 27856 0
27856 -27854 -490 0
-27854 27856 -491 0
-493 -27854 27856 0
-451 -27855 0
-452 -27855 0
-453 -27855 0
-454 -27855 0
-455 -27855 0
-458 -27855 0
27857 -460 -27855 0
-461 27857 -27855 0
-462 27857 -27855 0
-463 27857 -27855 0
-464 27857 -27855 0
-465 27857 -27855 0
-466 27857 -27855 0
-467 27857 -27855 0
-468 27857 -27855 0
-469 27857 -27855 0
-470 27857 -27855 0
-471 27857 -27855 0
-472 27857 -27855 0
-473 27857 -27855 0
-474 27857 -27855 0
-475 27857 -27855 0
-476 27857 -27855 0
-477 27857 -27855 0
-478 27857 -27855 0
-479 27857 -27855 0
-480 27857 -27855 0
-481 27857 -27855 0
-482 27857 -27855 0
-483 27857 -27855 0
-484 27857 -27855 0
-485 27857 -27855 0
-486 27857 -27855 0
-487 27857 -27855 0
-488 27857 -27855 0
-489 27857 -27855 0
27857 -490 -27855 0
27857 -491 -27855 0
-493 27857 -27855 0
27857 -495 -27855 0
-496 -27856 27859 0
-497 -27856 27858 0
-498 -27856 27858 0
-505 -27856 0
-506 -27856 0
-507 -27856 0
-508 -27856 0
-509 -27856 0
-510 -27856 0
-511 -27856 0
-513 -27856 27858 0
-514 -27856 27858 0
-515 -27856 27858 0
-517 -27856 27858 0
-520 -27856 27858 0
-521 -27856 27858 0
-522 -27856 27858 0
-523 -27856 27858 0
-524 -27856 27858 0
-27856 27858 -526 0
-527 -27856 27858 0
-528 -27856 27858 0
-529 -27856 27858 0
-530 -27856 27858 0
-531 -27856 27858 0
-532 -27856 27858 0
-533 -27856 27858 0
-535 -27856 27858 0
-536 -27856 27858 0
-27856 27858 -537 0
-538 -27856 27858 0
-27856 27858 -540 0
-496 -27857 0
-27857 -497 0
-27857 -498 0
-499 -27857 0
-500 -27857 0
-501 -27857 0
-502 -27857 0
-505 -27857 27859 0
-506 -27857 27859 0
-507 -27857 27859 0
-508 -27857 27859 0
-509 -27857 27859 0
-510 -27857 27859 0
-511 -27857 27859 0
-513 -27857 27859 0
-514 -27857 27859 0
-515 -27857 27859 0
-517 -27857 27859 0
-518 -27857 27859 0
-520 -27857 27859 0
-521 -27857 27859 0
-523 -27857 27859 0
-524 -27857 27859 0
-27857 27859 -526 0
-528 -27857 27859 0
-529 -27857 27859 0
-532 -27857 27859 0
-533 -27857 27859 0
-535 -27857 27859 0
-536 -27857 27859 0
-27857 -538 27859 0
27859 -27857 -540 0
-27858 -541 27861 0
-542 27860 -27858 0
-554 -27858 0
-27858 -556 0
-561 27860 -27858 0
-567 27860 -27858 0
-572 27860 -27858 0
-576 27860 -27858 0
-580 27860 -27858 0
-581 -27858 27860 0
27860 -27858 -583 0
27860 -585 -27858 0
-27859 -541 0
-542 -27859 0
-543 -27859 0
-544 -27859 0
-545 -27859 0
-27859 -546 0
-550 -27859 27861 0
-551 -27859 27861 0
-552 -27859 27861 0
-553 -27859 27861 0
-554 -27859 27861 0
-555 -27859 27861 0
-27859 -556 27861 0
-558 -27859 27861 0
-559 -27859 27861 0
-560 -27859 27861 0
-561 -27859 27861 0
-562 -27859 27861 0
-563 -27859 27861 0
-565 -27859 27861 0
-566 -27859 27861 0
-567 -27859 27861 0
-568 -27859 27861 0
-569 -27859 27861 0
-571 -27859 27861 0
-572 -27859 27861 0
-573 -27859 27861 0
-574 -27859 27861 0
-576 -27859 27861 0
-577 -27859 27861 0
-578 -27859 27861 0
-580 -27859 27861 0
-581 27861 -27859 0
-27859 -583 27861 0
-586 -27860 27863 0
27862 -587 -27860 0
-588 -27860 27862 0
-589 -27860 27862 0
-590 -27860 27862 0
-595 -27860 0
-596 -27860 0
-597 -27860 0
-598 -27860 0
-599 -27860 0
-600 -27860 0
-601 -27860 0
-602 -27860 0
-603 -27860 27862 0
-604 -27860 27862 0
-605 -27860 27862 0
-606 -27860 27862 0
-607 -27860 27862 0
-610 -27860 27862 0
-611 -27860 27862 0
-612 -27860 27862 0
-613 -27860 27862 0
-616 -27860 27862 0
-617 -27860 27862 0
-618 -27860 27862 0
-621 -27860 27862 0
-622 -27860 27862 0
-625 -27860 27862 0
-626 -27860 27862 0
-628 -27860 27862 0
-630 -27860 27862 0
-586 -27861 0
-27861 -587 0
-588 -27861 0
-589 -27861 0
-590 -27861 0
-592 -27861 0
-593 -27861 0
-594 -27861 0
-595 -27861 27863 0
-596 -27861 27863 0
-597 -27861 27863 0
-598 -27861 27863 0
-599 -27861 27863 0
-600 -27861 27863 0
-601 -27861 27863 0
-602 -27861 27863 0
-603 -27861 27863 0
-604 -27861 27863 0
-605 -27861 27863 0
-606 -27861 27863 0
-607 -27861 27863 0
-608 -27861 27863 0
-609 -27861 27863 0
-610 -27861 27863 0
-611 -27861 27863 0
-612 -27861 27863 0
-613 -27861 27863 0
-614 -27861 27863 0
-615 -27861 27863 0
-616 -27861 27863 0
-617 -27861 27863 0
-618 -27861 27863 0
-619 -27861 27863 0
-620 -27861 27863 0
-27861 -621 27863 0
-622 -27861 27863 0
-623 -27861 27863 0
-27861 -624 27863 0
-27861 -625 27863 0
-27861 -626 27863 0
27863 -628 -27861 0
-27861 -630 27863 0
-631 27865 -27862 0
27864 -632 -27862 0
-633 -27862 27864 0
-634 -27862 27864 0
-638 -27862 27864 0
-639 -27862 27864 0
-640 -27862 0
-641 -27862 0
-642 -27862 0
-643 -27862 0
-644 -27862 0
-645 -27862 0
-647 -27862 0
-648 -27862 27864 0
-649 -27862 27864 0
-650 -27862 27864 0
-651 -27862 27864 0
-652 -27862 27864 0
-653 -27862 27864 0
-654 -27862 27864 0
-655 -27862 27864 0
-656 -27862 27864 0
-657 -27862 27864 0
-658 -27862 27864 0
-659 -27862 27864 0
-660 -27862 27864 0
-661 -27862 27864 0
-662 -27862 27864 0
-663 -27862 27864 0
-664 -27862 27864 0
-666 -27862 27864 0
-667 -27862 27864 0
-668 -27862 27864 0
-670 -27862 27864 0
-671 -27862 27864 0
-673 -27862 27864 0
-675 -27862 27864 0
-631 -27863 0
-27863 -632 0
-633 -27863 0
-634 -27863 0
-635 -27863 0
-636 -27863 0
-638 -27863 0
-639 -27863 0
-640 27865 -27863 0
-641 27865 -27863 0
-642 27865 -27863 0
-643 27865 -27863 0
-644 27865 -27863 0
-645 27865 -27863 0
-646 27865 -27863 0
-647 27865 -27863 0
-648 27865 -27863 0
-649 27865 -27863 0
-650 27865 -27863 0
-651 27865 -27863 0
-652 27865 -27863 0
-653 27865 -27863 0
-654 27865 -27863 0
-655 27865 -27863 0
-656 27865 -27863 0
-657 27865 -27863 0
-658 27865 -27863 0
-659 27865 -27863 0
-660 27865 -27863 0
-661 27865 -27863 0
-662 27865 -27863 0
-663 27865 -27863 0
-664 27865 -27863 0
-666 27865 -27863 0
-667 27865 -27863 0
-668 27865 -27863 0
-670 27865 -27863 0
27865 -671 -27863 0
-673 27865 -27863 0
-675 27865 -27863 0
27867 -27864 -676 0
-677 -27864 27866 0
-678 -27864 27866 0
-679 -27864 27866 0
-680 -27864 27866 0
-685 -27864 0
-686 -27864 0
-27864 -687 0
-688 -27864 0
-689 -27864 0
-690 -27864 0
-691 -27864 0
-692 -27864 0
-693 -27864 27866 0
-694 27866 -27864 0
-695 27866 -27864 0
-696 27866 -27864 0
-697 27866 -27864 0
-700 27866 -27864 0
-701 27866 -27864 0
-702 27866 -27864 0
-703 27866 -27864 0
-706 27866 -27864 0
-707 27866 -27864 0
-708 27866 -27864 0
-711 27866 -27864 0
-712 27866 -27864 0
-715 27866 -27864 0
-716 27866 -27864 0
-718 27866 -27864 0
-720 27866 -27864 0
-676 -27865 0
-677 -27865 0
-678 -27865 0
-679 -27865 0
-680 -27865 0
-683 -27865 0
-685 27867 -27865 0
-686 27867 -27865 0
27867 -687 -27865 0
-688 27867 -27865 0
-689 27867 -27865 0
-690 27867 -27865 0
-692 27867 -27865 0
-693 27867 -27865 0
-694 27867 -27865 0
-695 27867 -27865 0
-696 27867 -27865 0
-697 27867 -27865 0
-700 27867 -27865 0
-701 27867 -27865 0
-702 27867 -27865 0
-703 27867 -27865 0
-704 27867 -27865 0
-705 27867 -27865 0
-706 27867 -27865 0
-707 27867 -27865 0
-708 27867 -27865 0
-709 27867 -27865 0
27867 -710 -27865 0
-711 27867 -27865 0
-712 27867 -27865 0
-713 27867 -27865 0
-715 27867 -27865 0
-716 27867 -27865 0
-718 27867 -27865 0
27867 -720 -27865 0
-723 -27866 27868 0
-724 -27866 27868 0
-725 -27866 27868 0
-726 -27866 27868 0
-727 -27866 27868 0
-27866 -730 0
-731 -27866 0
-732 -27866 0
-733 -27866 0
-734 -27866 0
-735 -27866 0
-738 -27866 27868 0
-739 -27866 27868 0
-740 -27866 27868 0
-741 -27866 27868 0
-742 -27866 27868 0
-745 -27866 27868 0
-746 -27866 27868 0
-747 -27866 27868 0
-751 -27866 27868 0
-752 -27866 27868 0
-753 -27866 27868 0
-756 -27866 27868 0
-757 -27866 27868 0
-760 -27866 27868 0
-761 -27866 27868 0
-763 -27866 27868 0
-721 -27867 0
-722 -27867 0
-723 -27867 0
-724 -27867 0
-725 -27867 0
-726 -27867 0
-727 -27867 0
-27867 -730 27869 0
-27868 -775 0
-27868 -783 27870 0
-27868 -790 27870 0
-27868 -796 27870 0
-27868 -801 27870 0
-27868 -805 27870 0
-27868 -808 27870 0
-27869 -766 0
27907 -738 11805 0
11806 27907 -738 0
-27907 -745 -11806 -11807 2116 2117 0
-27907 -751 -11807 -11808 2117 2118 0
-27907 -756 -11809 -11808 2118 2119 0
-27907 -757 -11808 -11810 2118 2120 0
-27907 -760 -11809 -11810 2119 2120 0
27908 -775 11814 0
27908 -783 11815 0
11816 27908 -783 0
-27908 -790 2126 -11817 -11816 2127 0
-27908 -796 2127 -11818 -11817 2128 0
2128 -801 -27908 -11819 -11818 2129 0
2129 -805 -27908 -11820 -11819 2130 0
-27908 -808 -11820 -11821 2130 2131 0
28781 -775 17764 0
17765 28781 -775 0
-28781 -783 2126 -17766 -17765 2125 0
-28781 -796 2127 -17768 -17767 2128 0
29446 -640 21644 0
-655 -29446 2096 -21647 -21646 2097 0
29736 22145 -595 0
-29736 -22149 -626 -22151 2089 2091 0
22625 30093 -460 0
-30093 -22630 -493 2060 -22631 2061 0
30094 22635 -505 0
-30094 -22638 -532 2070 -22640 2068 0
30220 -18 0
30220 -19 0
30220 -20 0
30220 -22 0
30220 -23 0
-30220 -25 0
-30220 -28 0
-30220 -29 0
-30220 -31 0
-30220 -33 0
-30220 -43 0
30222 -112 22715 0
-123 -22720 -30222 -22717 1977 1980 0
30332 -421 22954 0
-22960 -30332 -448 2050 -22961 2051 0
30333 22964 -460 0
30333 22964 -461 0
-462 30333 22964 0
30333 -465 22964 0
30333 -466 22964 0
-30333 -22968 -488 2058 -22971 2061 0
-30333 -22971 -495 2061 -22972 2062 0
30337 -632 23003 0
30337 -633 23003 0
30337 -634 23003 0
-635 30337 23003 0
-30337 -23011 -675 2101 -23012 2102 0
-528 -17710 2240 -30437 2237 -17707 0
30437 -533 -2238 0
-513 -30591 2236 -22466 -22465 2235 0
30591 -2240 -538 0
-286 -30740 -23094 2184 -23101 2191 0
-293 -30740 -23101 2191 2185 -23095 0
-299 -30740 -23096 -23101 2186 2191 0
30740 -2187 -303 0
-308 -30740 -23098 2188 -23101 2191 0
-373 -30742 2208 2204 -23118 -23114 0
-380 -30742 -23115 2208 2205 -23118 0
-386 -30742 -23116 2208 2206 -23118 0
30742 -2211 -403 0
-30743 -417 -23127 2214 2217 -23124 0
-420 -30743 -23130 2214 2220 -23124 0
-424 -30743 2215 2217 -23127 -23125 0
-430 -30743 -23127 2216 2217 -23126 0
-436 -30743 2217 -23127 2218 -23128 0
30743 -2218 -443 0
30743 -2220 -448 0
30743 -2221 -448 0
-238 30876 -2348 0
30876 -2348 -245 0
30876 -2348 -251 0
-268 -30876 2350 -23090 2351 -23091 0
31771 -451 22794 0
-472 -31771 -22800 -22795 2565 2570 0
-391 -32129 2718 2717 -23457 -23458 0
32129 -2721 -403 0
-32577 -505 3254 -23144 -23145 3255 0
32577 -533 -3261 0
33028 -775 17764 0
-33028 -783 3486 -17766 -17765 3485 0
33570 22295 -505 0
-22300 -528 -33570 -22297 3427 3430 0
-581 -34119 -23159 3441 3439 -23161 0
34119 -585 -3442 0
34296 -18 0
34297 -64 -3665 0
34297 -67 -3665 0
34298 -108 -3675 0
34298 -109 -3675 0
34298 -3677 -109 0
-3680 34298 -112 0
34298 -115 -3676 0
34298 -3677 -115 0
-3680 34298 -118 0
-3680 34298 -127 0
-3686 34299 -153 0
-3687 34299 -154 0
-3686 34299 -160 0
34299 -160 -3687 0
-3690 34299 -172 0
-3697 34300 -199 0
-3697 -205 34300 0
-3720 34302 -303 0
-3728 -353 34303 0
34304 -3740 -403 0
34304 -3741 -403 0
34306 -3761 -491 0
34307 -540 -3772 0
34308 -3781 -581 0
34309 -630 -3792 0
34310 -3801 -671 0
34314 -34296 0
34320 -34297 0
34320 -34314 0
34326 -34298 0
34326 -34320 0
34327 -34298 -34320 0
34332 -34326 0
34333 -34327 0
34333 -34299 -34326 0
34339 -34333 0
34339 -34300 -34332 0
34345 -34339 0
34351 -34345 0
34352 -34345 -34302 0
34358 -34352 0
34358 -34303 -34351 0
34365 -34304 -34358 0
-34365 34371 0
-34371 34377 0
-34371 34378 -34306 0
-34377 34383 0
-34378 -34307 34385 0
-34383 34390 -34308 0
-34390 -34309 34397 0
-34385 -34308 0
-34397 -34310 0
35837 -20 0
35838 -76 -4858 0
35839 -128 -4868 0
35842 -266 -4899 0
-284 35843 -4909 0
35843 -291 -4909 0
35843 -297 -4909 0
35843 -302 -4909 0
35843 -306 -4909 0
35844 -356 -4919 0
35845 -400 -4929 0
35850 -630 -4982 0
35851 -4991 -673 0
35851 -4991 -675 0
35852 -5001 -718 0
35852 -5001 -720 0
35853 -763 -5011 0
35855 -35837 0
35862 -35838 -35855 0
35869 -35862 -35839 0
35875 -35869 0
35881 -35875 0
35887 -35881 0
-35881 35888 -35842 0
35893 -35887 0
-35888 -35843 35895 0
-35895 35901 0
35900 -35844 -35893 0
-35901 35907 0
-35900 -35845 35907 0
-35907 35913 0
-35913 35919 0
-35919 35925 0
-35925 35931 0
-35931 35937 0
-35931 -35850 35938 0
-35937 35943 0
-35937 -35851 35944 0
-35943 -35852 35950 0
-35938 -35851 0
-35944 -35852 0
-35950 -35853 0
-112 -36267 -23395 -23400 5035 5040 0
36267 -118 -5036 0
36385 -31 0
36385 -33 0
36386 -64 -5367 0
36386 -70 -5367 0
36386 -76 -5367 0
36386 -78 -5367 0
36386 -83 -5368 0
36387 -5377 -94 0
-5376 36387 -108 0
36387 -121 -5377 0
36387 -123 -5377 0
36387 -128 -5378 0
36387 -131 -5379 0
-5385 36388 -154 0
36388 -166 -5387 0
36388 -168 -5387 0
36388 -5388 -173 0
36388 -175 -5389 0
36388 -176 -5389 0
36389 -201 -5399 0
-202 36389 -5400 0
36389 -207 -5399 0
36389 -208 -5400 0
-5397 -211 36389 0
36389 -212 -5399 0
-5397 36389 -213 0
36389 -213 -5400 0
-5397 36389 -214 0
-216 36389 -5399 0
36389 -217 -5400 0
36389 -5398 -218 0
36389 -220 -5399 0
36389 -220 -5400 0
36389 -221 -5399 0
-247 -5410 36390 0
-253 -5410 36390 0
-5407 36390 -256 0
-258 -5407 36390 0
-258 -5410 36390 0
-5410 36390 -262 0
-5408 36390 -263 0
36390 -265 -5409 0
-5410 36390 -265 0
36390 -266 -5409 0
36390 -268 -5410 0
-282 -5417 36391 0
-285 -5420 36391 0
-289 -5417 36391 0
-5420 36391 -292 0
-295 -5417 36391 0
-298 -5420 36391 0
-5417 36391 -301 0
-5417 36391 -303 0
-5420 36391 -303 0
36391 -5417 -304 0
-5420 36391 -307 0
-5418 36391 -308 0
36391 -310 -5419 0
36391 -5420 -310 0
36391 -311 -5419 0
36391 -5420 -313 0
-5427 36392 -327 0
36392 -329 -5429 0
-330 36392 -5430 0
-5427 36392 -334 0
36392 -336 -5429 0
36392 -5430 -337 0
-340 -5427 36392 0
36392 -342 -5429 0
-343 36392 -5430 0
-346 -5427 36392 0
36392 -347 -5429 0
-5427 36392 -348 0
36392 -348 -5430 0
36392 -349 -5427 0
36392 -351 -5429 0
36392 -352 -5430 0
-5428 -353 36392 0
36392 -355 -5429 0
36392 -355 -5430 0
36392 -356 -5429 0
-391 -5437 36393 0
-393 -5437 36393 0
36393 -5437 -394 0
-5438 36393 -398 0
36393 -400 -5439 0
36393 -5439 -401 0
36393 -5440 -403 0
36393 -405 -5442 0
-420 36394 -5450 0
-427 36394 -5450 0
36394 -5450 -433 0
-438 36394 -5450 0
36394 -5450 -442 0
-5448 36394 -443 0
36394 -445 -5449 0
36394 -5450 -445 0
36394 -446 -5449 0
36394 -5450 -448 0
36394 -5451 -448 0
36394 -450 -5452 0
36395 -465 -5460 0
36395 -5460 -472 0
-478 36395 -5460 0
36395 -5460 -483 0
36395 -487 -5460 0
-5458 36395 -488 0
36395 -5459 -490 0
36395 -5460 -490 0
36395 -5459 -491 0
36395 -5461 -491 0
36395 -493 -5461 0
36395 -5461 -495 0
36395 -495 -5462 0
-510 -5470 36396 0
-5470 36396 -517 0
-5470 36396 -523 0
-5470 36396 -528 0
-5470 36396 -532 0
36396 -535 -5469 0
-5470 36396 -535 0
36396 -536 -5469 0
36396 -5471 -536 0
36396 -5471 -538 0
36396 -540 -5472 0
-5480 36397 -547 0
-555 -5480 36397 0
-562 -5480 36397 0
-5480 36397 -568 0
-5480 36397 -573 0
-577 -5480 36397 0
36397 -580 -5479 0
-5480 36397 -580 0
36397 -5481 -581 0
36397 -5480 -583 0
36397 -5481 -583 0
36397 -5481 -585 0
36397 -585 -5482 0
-5490 36398 -600 0
-607 -5490 36398 0
-613 -5490 36398 0
-617 -5489 36398 0
-5490 36398 -618 0
-5489 36398 -621 0
-622 -5490 36398 0
36398 -5489 -625 0
-5490 36398 -625 0
36398 -5491 -628 0
36398 -630 -5492 0
-5500 36399 -645 0
-5500 -652 36399 0
-658 -5500 36399 0
-663 -5500 36399 0
-667 -5500 36399 0
-5500 36399 -670 0
36399 -5501 -673 0
36399 -675 -5502 0
36400 -5510 -697 0
-703 -5510 36400 0
36400 -708 -5510 0
-712 -5510 36400 0
36400 -715 -5510 0
36400 -718 -5510 0
36400 -5511 -720 0
36401 -757 -5520 0
36401 -760 -5520 0
36401 -763 -5521 0
-5529 36402 -805 0
36402 -5530 -805 0
36403 -36385 0
36409 -36386 0
36409 -36403 0
36410 -36386 -36403 0
36415 -36387 0
36415 -36409 0
36416 -36410 0
36416 -36387 -36409 0
36417 -36410 -36387 0
36421 -36388 0
36421 -36415 0
36422 -36416 0
36422 -36388 -36415 0
36423 -36416 -36388 0
-36417 -36388 36424 0
36427 -36389 0
36427 -36421 0
36428 -36422 0
-36424 36430 0
36428 -36389 -36421 0
36429 -36422 -36389 0
-36423 -36389 36430 0
-36424 36431 -36389 0
36433 -36390 0
36433 -36427 0
36434 -36428 0
-36430 36436 0
-36431 36437 0
36434 -36390 -36427 0
36435 -36428 -36390 0
-36429 -36390 36436 0
-36430 36437 -36390 0
36439 -36391 0
36439 -36433 0
36440 -36434 0
-36436 36442 0
-36437 36443 0
36440 -36391 -36433 0
36441 -36391 -36434 0
-36435 -36391 36442 0
-36436 36443 -36391 0
36445 -36392 0
36445 -36439 0
36446 -36440 0
36447 -36441 0
-36442 36448 0
-36443 36449 0
36446 -36392 -36439 0
36447 -36392 -36440 0
-36392 -36441 36448 0
36449 -36392 -36442 0
36451 -36393 0
36451 -36445 0
36452 -36446 0
-36448 36454 0
-36449 36455 0
36452 -36393 -36445 0
36453 -36446 -36393 0
-36447 -36393 36454 0
36455 -36448 -36393 0
36457 -36451 0
36458 -36452 0
36459 -36453 0
-36454 36460 0
36458 -36394 -36451 0
36459 -36394 -36452 0
-36394 -36453 36460 0
36461 -36454 -36394 0
-36455 -36394 36462 0
36464 -36458 0
36465 -36459 0
-36460 36466 0
36464 -36395 -36457 0
36465 -36458 -36395 0
-36459 36466 -36395 0
-36460 36467 -36395 0
-36461 -36395 36468 0
36471 -36465 0
-36466 36472 0
36471 -36396 -36464 0
-36396 -36465 36472 0
-36466 -36396 36473 0
-36467 -36396 36474 0
36477 -36471 0
-36472 36478 0
-36397 -36471 36478 0
-36472 -36397 36479 0
-36473 -36397 36480 0
36484 -36478 0
-36480 36486 0
-36478 -36398 36485 0
-36479 -36398 36486 0
36490 -36484 0
-36486 36492 0
-36484 -36399 36491 0
-36485 -36399 36492 0
-36492 36498 0
-36490 -36400 36497 0
-36491 -36400 36498 0
-36498 36504 0
-36497 -36401 36504 0
-36462 -36395 0
-36468 -36396 0
-36474 -36397 0
-36480 -36398 0
-36486 -36399 0
-36492 -36400 0
-36498 -36401 0
-36504 -36402 0
-648 -37084 8726 -23346 -23345 8725 0
-667 -8730 37084 0
37224 -22 0
-37224 -25 0
37224 -28 0
-37224 -31 0
37224 -33 0
-37224 -34 0
37224 -37 0
-37224 -38 0
-41 37224 0
37224 -43 0
-67 37225 -8600 0
-73 37225 -8600 0
-37225 -74 -23391 8596 -23386 8601 0
37225 -78 -8600 0
-79 -37225 -23387 8601 -23391 8597 0
37225 -82 -8600 0
-83 -37225 8601 -23388 8598 -23391 0
37225 -88 -8600 0
37226 -105 -8610 0
-108 -37226 -23395 -23396 8606 8605 0
37226 -112 -8610 0
37226 -118 -8610 0
-119 -37226 -23396 -23401 8606 8611 0
37226 -123 -8610 0
37226 -127 -8610 0
37226 -8610 -133 0
-37227 -136 -23403 8613 8614 -23404 0
37227 -150 -8620 0
37227 -8620 -157 0
37227 -163 -8620 0
37227 -168 -8620 0
-169 8617 -37227 8621 -23407 -23411 0
37227 -172 -8620 0
37227 -173 -8621 0
37227 -176 -8619 0
37227 -8620 -178 0
-195 37228 -8630 0
-196 8631 -37228 -23414 -23421 8624 0
37228 -201 -8629 0
-202 37228 -8630 0
-207 37228 -8629 0
37228 -208 -8630 0
37228 -212 -8629 0
-8627 37228 -213 0
37228 -213 -8630 0
37228 -214 -8631 0
-214 8627 -37228 8631 -23417 -23421 0
-216 37228 -8629 0
-8628 37228 -217 0
37228 -217 -8630 0
37228 -218 -8631 0
37228 -220 -8629 0
37228 -221 -8629 0
37228 -8630 -223 0
37228 -8631 -223 0
-8640 37229 -240 0
37229 -246 -8639 0
-247 -8640 37229 0
37229 -252 -8639 0
-253 -8640 37229 0
37229 -257 -8639 0
-258 -8640 37229 0
8640 -258 -37229 8637 -23427 -23430 0
-259 37229 -8641 0
37229 -261 -8639 0
-8640 37229 -262 0
37229 -263 -8641 0
-265 37229 -8639 0
37229 -266 -8639 0
37229 -266 -8641 0
-8640 -268 37229 0
37229 -8641 -268 0
-285 37230 -8650 0
37230 -291 -8649 0
37230 -292 -8650 0
37230 -297 -8649 0
-298 37230 -8650 0
37230 -302 -8649 0
37230 -303 -8650 0
8650 -303 -37230 -23437 -23440 8647 0
37230 -304 -8651 0
37230 -306 -8649 0
37230 -8650 -307 0
37230 -308 -8651 0
37230 -310 -8649 0
37230 -311 -8649 0
37230 -8650 -313 0
37230 -8651 -313 0
37231 -329 -8659 0
-330 -8660 37231 0
37231 -336 -8659 0
-8660 37231 -337 0
37231 -342 -8659 0
-343 -8660 37231 0
37231 -347 -8659 0
-8660 -348 37231 0
-349 37231 -8661 0
37231 -351 -8659 0
-8660 -352 37231 0
-353 37231 -8661 0
37231 -355 -8659 0
37231 -356 -8659 0
37231 -358 -8660 0
37231 -358 -8661 0
37232 -374 -8669 0
-8670 37232 -375 0
-381 37232 -8669 0
-8670 -382 37232 0
-387 37232 -8669 0
-8670 -388 37232 0
37232 -392 -8669 0
-393 -8670 37232 0
37232 -8671 -394 0
37232 -396 -8669 0
-397 -8670 37232 0
37232 -8671 -398 0
-400 37232 -8669 0
37232 -8669 -401 0
37232 -8670 -403 0
37232 -8671 -403 0
37232 -405 -8672 0
37233 -419 -8679 0
-420 -8680 37233 0
-421 37233 -8681 0
-426 37233 -8679 0
-427 -8680 37233 0
37233 -8681 -428 0
-432 37233 -8679 0
-8680 37233 -433 0
-434 37233 -8681 0
37233 -437 -8679 0
-438 -8680 37233 0
-8677 37233 -439 0
37233 -439 -8681 0
37233 -441 -8679 0
-8680 37233 -442 0
37233 -8681 -443 0
37233 -445 -8679 0
37233 -446 -8679 0
37233 -446 -8681 0
-8680 37233 -448 0
37233 -8681 -448 0
37233 -8681 -450 0
37233 -450 -8682 0
37234 -8691 -458 0
-464 37234 -8689 0
-465 -8690 37234 0
-466 37234 -8691 0
37234 -471 -8689 0
-8690 37234 -472 0
-473 37234 -8691 0
-477 -8689 37234 0
-478 -8690 37234 0
37234 -479 -8691 0
-482 37234 -8689 0
-8690 37234 -483 0
-484 37234 -8691 0
37234 -486 -8689 0
-487 -8690 37234 0
37234 -8691 -488 0
37234 -8689 -490 0
-8690 37234 -490 0
37234 -8689 -491 0
37234 -8691 -491 0
-8690 37234 -493 0
37234 -493 -8691 0
37234 -495 -8692 0
37235 -509 -8699 0
-516 37235 -8699 0
37235 -8701 -518 0
-522 37235 -8699 0
37235 -524 -8701 0
-527 37235 -8699 0
37235 -529 -8701 0
-531 37235 -8699 0
37235 -533 -8701 0
37235 -535 -8699 0
-8700 37235 -535 0
37235 -536 -8699 0
37235 -8701 -536 0
-8700 37235 -538 0
37235 -8701 -538 0
37235 -540 -8702 0
37236 -554 -8709 0
-561 -8709 37236 0
-567 -8709 37236 0
-572 -8709 37236 0
-576 -8709 37236 0
37236 -580 -8709 0
37236 -581 -8709 0
37236 -8711 -581 0
37236 -8711 -583 0
37236 -585 -8712 0
37237 -599 -8719 0
-606 37237 -8719 0
-612 37237 -8719 0
-617 37237 -8719 0
37237 -8719 -621 0
37237 -8719 -625 0
-8720 37237 -625 0
37237 -8719 -626 0
37237 -8721 -626 0
37237 -8721 -628 0
37237 -8721 -630 0
37237 -630 -8722 0
-8729 -644 37238 0
-8729 -651 37238 0
-8729 37238 -657 0
-8729 37238 -662 0
-8729 37238 -666 0
-8729 37238 -670 0
-8730 37238 -670 0
37238 -8731 -671 0
37238 -8731 -673 0
37238 -8731 -675 0
-8739 37239 -689 0
-8739 37239 -696 0
37239 -697 -8740 0
-8739 37239 -702 0
-703 -8740 37239 0
-8739 -707 37239 0
-708 -8740 37239 0
-8739 37239 -711 0
-712 -8740 37239 0
-8739 37239 -715 0
37239 -715 -8740 0
37239 -716 -8741 0
37239 -718 -8741 0
37239 -720 -8742 0
-37240 -738 -23535 8746 -23536 8745 0
-8748 -757 37240 0
37240 -757 -8750 0
-8749 -760 37240 0
37240 -760 -8750 0
-761 -8751 37240 0
-763 -8751 37240 0
-8759 37241 -805 0
37241 -805 -8760 0
37242 -37224 0
37248 -37225 0
37248 -37242 0
37249 -37225 -37242 0
37254 -37226 0
37254 -37248 0
37255 -37249 0
37255 -37226 -37248 0
37256 -37249 -37226 0
37260 -37227 0
37260 -37254 0
37261 -37255 0
37262 -37256 0
37261 -37227 -37254 0
37262 -37255 -37227 0
-37256 -37227 37263 0
37266 -37228 0
37266 -37260 0
37267 -37261 0
37268 -37262 0
37267 -37228 -37260 0
37268 -37261 -37228 0
-37262 -37228 37269 0
-37263 -37228 37270 0
37272 -37229 0
37272 -37266 0
37273 -37267 0
37274 -37268 0
-37269 37275 0
-37270 37276 0
37273 -37229 -37266 0
37274 -37267 -37229 0
-37268 -37229 37275 0
-37269 -37229 37276 0
37278 -37230 0
37278 -37272 0
37279 -37273 0
37280 -37274 0
-37275 37281 0
-37276 37282 0
37279 -37230 -37272 0
37280 -37230 -37273 0
-37274 -37230 37281 0
-37275 -37230 37282 0
37284 -37231 0
37284 -37278 0
37285 -37279 0
37286 -37280 0
-37281 37287 0
-37282 37288 0
37285 -37231 -37278 0
37286 -37231 -37279 0
-37231 -37280 37287 0
-37281 -37231 37288 0
37290 -37232 0
37290 -37284 0
37291 -37285 0
37292 -37286 0
-37287 37293 0
-37288 37294 0
37291 -37232 -37284 0
37292 -37285 -37232 0
-37286 -37232 37293 0
-37287 -37232 37294 0
-37288 -37232 37295 0
37296 -37233 0
37296 -37290 0
37297 -37291 0
37298 -37292 0
-37293 37299 0
-37294 37300 0
37297 -37233 -37290 0
37298 -37233 -37291 0
-37233 -37292 37299 0
-37293 -37233 37300 0
-37294 -37233 37301 0
37302 -37296 0
37303 -37297 0
37304 -37298 0
-37299 37305 0
-37300 37306 0
-37301 37307 0
37303 -37234 -37296 0
37304 -37297 -37234 0
-37298 37305 -37234 0
-37299 -37234 37306 0
-37300 -37234 37307 0
37309 -37303 0
37310 -37304 0
-37305 37311 0
-37306 37312 0
-37307 37313 0
37309 -37235 -37302 0
37310 -37235 -37303 0
-37235 -37304 37311 0
-37305 -37235 37312 0
-37306 -37235 37313 0
-37311 37317 0
-37312 37318 0
-37313 37319 0
37316 -37236 -37309 0
-37236 -37310 37317 0
-37311 -37236 37318 0
-37312 -37236 37319 0
37323 -37317 0
-37318 37324 0
-37319 37325 0
37323 -37316 -37237 0
-37317 -37237 37324 0
-37318 -37237 37325 0
37329 -37323 0
-37324 37330 0
-37325 37331 0
-37323 -37238 37330 0
-37324 -37238 37331 0
-37331 37337 0
-37329 -37239 37336 0
-37330 -37239 37337 0
-37337 37343 0
-37336 -37240 37343 0
-37295 -37233 0
-37301 -37234 0
-37307 -37235 0
-37313 -37236 0
-37319 -37237 0
-37325 -37238 0
-37331 -37239 0
-37337 -37240 0
-37343 -37241 0
37344 -37 0
37344 -38 0
37345 -76 20668 0
37345 -88 -12001 0
37346 20677 -94 0
37346 -127 20678 0
37347 -136 20683 0
37347 20688 -140 0
37348 -181 20693 0
37349 -263 -12041 0
37355 -540 -12102 0
37362 -37344 0
37371 -37345 -37362 0
37380 -37371 -37346 0
37389 -37380 -37347 0
37397 -37389 0
-37389 37398 -37348 0
-37398 37406 0
-37397 37406 -37349 0
-37406 37414 0
37422 -37414 0
37430 -37422 0
-12525 37809 -154 0
-37809 -154 -23407 -23405 12525 12527 0
-37960 -20 0
37960 -23 0
-37960 -26 0
37960 -29 0
-37960 -31 0
37960 -34 0
-37960 -37 0
37960 -38 0
37960 -43 0
37961 -61 -13361 0
37961 -68 -13361 0
37961 -74 -13361 0
37961 -79 -13361 0
37961 -83 -13361 0
37961 -88 -13361 0
-100 -37962 -23394 -23395 13364 13365 0
-106 37962 -13371 0
-109 -37962 -23395 13365 13367 -23397 0
37962 -113 -13371 0
37962 -119 -13371 0
37962 -124 -13371 0
37962 -128 -13371 0
37962 -131 -13371 0
37962 -13371 -133 0
-37963 -136 -23403 13373 13374 -23404 0
37963 -151 -13381 0
37963 -156 -13379 0
37963 -13381 -158 0
37963 -162 -13379 0
37963 -13381 -164 0
37963 -167 -13379 0
-169 37963 -13381 0
37963 -171 -13379 0
37963 -173 -13381 0
37963 -175 -13379 0
37963 -13381 -176 0
37963 -13381 -178 0
37964 -13391 -188 0
37964 -194 -13389 0
37964 -196 -13391 0
37964 -201 -13389 0
-202 -13390 37964 0
-203 37964 -13391 0
-207 37964 -13389 0
-13390 37964 -208 0
-209 37964 -13391 0
-212 37964 -13389 0
-13390 37964 -213 0
13390 -213 -23417 13387 -23420 -37964 0
37964 -214 -13391 0
-216 37964 -13389 0
-13390 37964 -217 0
37964 -218 -13391 0
-220 37964 -13389 0
-220 -13390 37964 0
37964 -13391 -221 0
37964 -13391 -223 0
-13397 37965 -229 0
37965 -239 -13399 0
-13400 37965 -240 0
37965 -241 -13401 0
37965 -246 -13399 0
-247 -13400 37965 0
37965 -248 -13401 0
37965 -252 -13399 0
-253 -13400 37965 0
37965 -254 -13401 0
37965 -257 -13399 0
-258 -13400 37965 0
-259 37965 -13401 0
37965 -261 -13399 0
-13400 37965 -262 0
37965 -263 -13401 0
-265 37965 -13399 0
-13400 -265 37965 0
37965 -266 -13401 0
37965 -13401 -268 0
-269 37965 -13402 0
37965 -270 -13402 0
-13407 37966 -274 0
-284 37966 -13409 0
-285 -13410 37966 0
37966 -286 -13411 0
-13405 37966 -291 0
37966 -291 -13409 0
-13410 37966 -292 0
-293 37966 -13411 0
37966 -297 -13409 0
-298 -13410 37966 0
-299 37966 -13411 0
-13408 -301 37966 0
-302 37966 -13409 0
-13410 37966 -303 0
13407 -303 -37966 13410 -23437 -23440 0
-304 37966 -13411 0
37966 -306 -13409 0
-13410 37966 -307 0
37966 -308 -13411 0
37966 -310 -13409 0
-13410 37966 -310 0
37966 -311 -13409 0
37966 -13411 -311 0
37966 -13411 -313 0
37966 -315 -13411 0
-13413 37967 -316 0
-329 37967 -13419 0
-330 37967 -13420 0
37967 -331 -13421 0
37967 -336 -13419 0
37967 -13420 -337 0
-338 37967 -13421 0
-342 37967 -13419 0
-343 37967 -13420 0
-344 37967 -13421 0
13418 -346 -37967 -23447 -23448 13417 0
37967 -347 -13419 0
-348 37967 -13420 0
13417 13420 -37967 -348 -23450 -23447 0
-349 37967 -13421 0
-351 37967 -13419 0
-352 37967 -13420 0
-353 37967 -13421 0
37967 -355 -13419 0
37967 -355 -13420 0
37967 -356 -13419 0
37967 -356 -13421 0
37967 -358 -13421 0
37967 -13421 -360 0
37967 -360 -13422 0
37968 -374 -13429 0
-13424 37968 -375 0
37968 -13430 -375 0
37968 -376 -13431 0
-381 37968 -13429 0
-13425 -382 37968 0
-13430 -382 37968 0
37968 -13431 -383 0
-387 37968 -13429 0
-13426 -388 37968 0
-13430 -388 37968 0
37968 -13431 -389 0
37968 -392 -13429 0
-13427 -393 37968 0
-393 -13430 37968 0
37968 -13431 -394 0
37968 -396 -13429 0
-13428 -397 37968 0
-397 -13430 37968 0
37968 -13431 -398 0
-400 37968 -13429 0
-13430 -400 37968 0
37968 -13429 -401 0
37968 -13431 -401 0
37968 -13431 -403 0
37968 -405 -13432 0
-37969 -406 -23463 13433 -23464 13434 0
37969 -414 -13442 0
-419 37969 -13439 0
-420 -13440 37969 0
-421 -13441 37969 0
-426 37969 -13439 0
-427 -13440 37969 0
-13441 37969 -428 0
-429 37969 -13442 0
-432 37969 -13439 0
-13440 37969 -433 0
-434 -13441 37969 0
23467 -436 37969 0
23468 -436 37969 0
37969 -437 -13439 0
-13437 -438 37969 0
-438 -13440 37969 0
37969 -439 -13441 0
-440 37969 -13442 0
37969 -441 -13439 0
-13440 37969 -442 0
-13441 37969 -443 0
-444 37969 -13442 0
37969 -445 -13439 0
-13440 37969 -445 0
37969 -446 -13439 0
37969 -446 -13441 0
37969 -13441 -448 0
37969 -449 -13442 0
37969 -13441 -450 0
37969 -450 -13442 0
37970 -13451 -458 0
-13444 -462 37970 0
-13447 -462 37970 0
-464 -13449 37970 0
-465 37970 -13450 0
-465 13450 13444 -37970 -23480 -23474 0
-466 -13451 37970 0
-467 37970 -13452 0
37970 -471 -13449 0
-472 37970 -13450 0
-473 -13451 37970 0
37970 -474 -13452 0
-477 -13449 37970 0
-478 37970 -13450 0
37970 -479 -13451 0
-480 37970 -13452 0
-482 -13449 37970 0
37970 -13450 -483 0
-484 -13451 37970 0
-485 37970 -13452 0
37970 -486 -13449 0
-487 37970 -13450 0
-13451 37970 -488 0
-489 37970 -13452 0
37970 -13449 -490 0
37970 -13450 -490 0
37970 -13449 -491 0
37970 -13451 -491 0
37970 -13450 -493 0
37970 -493 -13451 0
37970 -13451 -495 0
37970 -495 -13452 0
-37971 -496 13453 -23483 -23484 13454 0
37971 -509 -13459 0
-510 -13460 37971 0
37971 -511 -13461 0
-516 -13459 37971 0
-13460 -517 37971 0
-13461 37971 -518 0
-522 -13459 37971 0
-13460 -523 37971 0
-524 -13461 37971 0
-527 -13459 37971 0
-13460 37971 -528 0
37971 -529 -13461 0
-530 37971 -13462 0
-531 -13459 37971 0
-13460 37971 -532 0
-533 -13461 37971 0
37971 -535 -13459 0
-13460 37971 -535 0
37971 -536 -13459 0
37971 -13461 -536 0
37971 -537 -13462 0
37971 -13461 -538 0
37971 -13461 -540 0
37971 -540 -13462 0
37972 -13469 -546 0
-13470 -547 37972 0
37972 -13471 -548 0
-550 13465 -37972 -23495 -23494 13464 0
-13464 37972 -554 0
37972 -554 -13469 0
-555 -13470 37972 0
-13471 37972 -556 0
-561 37972 -13469 0
-13465 -562 37972 0
-562 -13470 37972 0
-563 -13471 37972 0
-567 37972 -13469 0
-13470 -568 37972 0
-569 -13471 37972 0
-570 37972 -13472 0
-572 37972 -13469 0
-13470 -573 37972 0
37972 -574 -13471 0
-576 37972 -13469 0
-577 -13470 37972 0
-578 -13471 37972 0
37972 -579 -13472 0
37972 -580 -13469 0
-13470 37972 -580 0
37972 -581 -13469 0
37972 -13471 -581 0
37972 -13471 -583 0
37972 -13471 -585 0
37972 -585 -13472 0
37973 -599 -13479 0
-13480 -600 37973 0
-13481 37973 -601 0
-602 37973 -13482 0
-13475 -603 37973 0
-13476 -603 37973 0
-13478 -605 37973 0
-606 37973 -13479 0
-13475 -607 37973 0
-607 -13480 37973 0
-609 37973 -13482 0
-612 37973 -13479 0
-613 -13480 37973 0
-13481 37973 -614 0
-615 37973 -13482 0
-617 37973 -13479 0
-13480 37973 -618 0
-13481 37973 -619 0
-620 37973 -13482 0
37973 -13479 -621 0
-622 -13480 37973 0
-13481 37973 -623 0
37973 -13479 -625 0
-13480 37973 -625 0
37973 -13481 -626 0
37973 -13481 -628 0
37973 -13481 -630 0
37973 -630 -13482 0
-644 -13489 37974 0
37974 -13490 -645 0
-651 -13489 37974 0
-652 37974 -13490 0
-13489 37974 -657 0
-658 -13490 37974 0
-13489 37974 -662 0
-663 -13490 37974 0
-13489 37974 -666 0
-667 37974 -13490 0
-13489 37974 -670 0
37974 -13490 -670 0
37974 -13491 -671 0
37974 -13491 -673 0
37974 -13491 -675 0
37975 -690 -13500 0
-37975 -693 -23525 -23526 13496 13495 0
37975 -13499 -696 0
37975 -13500 -697 0
37975 -13499 -702 0
-703 37975 -13500 0
37975 -707 -13499 0
-708 -13500 37975 0
37975 -13499 -711 0
-712 -13500 37975 0
37975 -13499 -715 0
37975 -715 -13500 0
37975 -13499 -716 0
37975 -716 -13501 0
37975 -718 -13501 0
37975 -13501 -720 0
-727 37976 -13510 0
37976 -742 -13510 0
-13508 37976 -757 0
37976 -757 -13510 0
-13509 37976 -760 0
37976 -760 -13510 0
37976 -761 -13511 0
37976 -763 -13511 0
-37977 -783 -23546 -23545 13516 13515 0
-37977 -790 -23547 -23546 13516 13517 0
-13519 37977 -805 0
37977 -805 -13520 0
37977 -808 -13520 0
37978 -37960 0
37984 -37961 0
37984 -37978 0
37985 -37961 -37978 0
37990 -37962 0
37990 -37984 0
37991 -37985 0
37991 -37962 -37984 0
37992 -37985 -37962 0
37996 -37963 0
37996 -37990 0
37997 -37991 0
37998 -37992 0
37997 -37963 -37990 0
37998 -37991 -37963 0
-37992 -37963 37999 0
38002 -37964 0
38002 -37996 0
38003 -37997 0
38004 -37998 0
-37999 38005 0
38003 -37964 -37996 0
38004 -37964 -37997 0
-37998 -37964 38005 0
38008 -37965 0
38008 -38002 0
38009 -38003 0
38010 -38004 0
-38005 38011 0
38009 -37965 -38002 0
38010 -38003 -37965 0
-38004 -37965 38011 0
-38005 -37965 38012 0
38014 -37966 0
38014 -38008 0
38015 -38009 0
38016 -38010 0
-38011 38017 0
-38012 38018 0
38015 -37966 -38008 0
38016 -37966 -38009 0
-38010 -37966 38017 0
-38011 -37966 38018 0
38020 -37967 0
38020 -38014 0
38021 -38015 0
38022 -38016 0
-38017 38023 0
-38018 38024 0
38021 -37967 -38014 0
38022 -37967 -38015 0
-37967 -38016 38023 0
-38017 -37967 38024 0
-38018 -37967 38025 0
38026 -37968 0
38026 -38020 0
38027 -38021 0
38028 -38022 0
-38023 38029 0
-38024 38030 0
-38025 38031 0
38027 -37968 -38020 0
38028 -38021 -37968 0
-38022 -37968 38029 0
-38023 -37968 38030 0
-38024 -37968 38031 0
38032 -37969 0
38032 -38026 0
38033 -38027 0
38034 -38028 0
-38029 38035 0
-38030 38036 0
-38031 38037 0
38033 -37969 -38026 0
38034 -37969 -38027 0
-37969 -38028 38035 0
-38029 -37969 38036 0
-38030 -37969 38037 0
38038 -37970 0
38038 -38032 0
38039 -38033 0
38040 -38034 0
-38035 38041 0
-38036 38042 0
-38037 38043 0
38039 -37970 -38032 0
38040 -38033 -37970 0
-38034 -37970 38041 0
-38035 -37970 38042 0
-38036 -37970 38043 0
38044 -37971 0
38044 -38038 0
38045 -38039 0
38046 -38040 0
-38041 38047 0
-38042 38048 0
-38043 38049 0
38045 -37971 -38038 0
38046 -37971 -38039 0
-37971 -38040 38047 0
-38041 -37971 38048 0
-38042 -37971 38049 0
38052 -38046 0
-38047 38053 0
-38048 38054 0
-38049 38055 0
38051 -37972 -38044 0
38052 -37972 -38045 0
-37972 -38046 38053 0
-38047 -37972 38054 0
-38048 -37972 38055 0
38058 -38052 0
-38053 38059 0
-38054 38060 0
-38055 38061 0
38058 -38051 -37973 0
-38052 -37973 38059 0
-38053 -37973 38060 0
-38054 -37973 38061 0
-38059 38065 0
-38060 38066 0
-38061 38067 0
-38058 -37974 38065 0
-38059 -37974 38066 0
-38060 -37974 38067 0
-38067 38073 0
-38065 -37975 38072 0
-38066 -37975 38073 0
-38073 38079 0
-38072 -37976 38079 0
-38025 -37968 0
-38031 -37969 0
-38037 -37970 0
-38043 -37971 0
-38049 -37972 0
-38055 -37973 0
-38061 -37974 0
-38067 -37975 0
-37976 -38073 0
-38079 -37977 0
38252 38249 38246 38245 38251 38248 38250 38247 38253 38254 38255 0
38453 -38245 0
38454 -38246 0
38454 -38453 0
-38246 -38453 0
-38247 38455 0
38455 -38454 0
-38247 -38454 0
-38248 38456 0
-38248 -38455 0
-38456 -38249 0
38265 38264 38259 38260 38261 38257 38256 38266 38262 38263 38258 0
-38256 38463 0
-38257 38464 0
-38463 38464 0
-38258 38465 0
-38464 38465 0
38466 -38259 0
-38465 38466 0
-38465 -38259 0
-38260 38467 0
-38466 38467 0
-38260 -38466 0
-38467 38468 0
-38261 -38467 0
-38468 38469 0
-38262 -38468 0
-38469 38470 0
-38263 -38469 0
-38470 38471 0
38472 -38471 0
-38471 -38265 0
-38266 -38472 0
38277 38276 38268 38270 38274 38273 38272 38271 38267 38269 38275 0
-38267 38473 0
-38268 38474 0
-38473 38474 0
-38269 38475 0
-38474 38475 0
-38475 38476 0
-38271 38477 0
-38476 38477 0
-38272 38478 0
-38477 38478 0
-38273 38479 0
-38478 38479 0
-38274 38480 0
-38479 38480 0
-38275 38481 0
-38480 38481 0
-38276 38482 0
-38481 -38276 0
-38482 -38277 0
38288 38287 38281 38280 38278 38286 38279 38283 38285 38284 38282 0
38492 -38287 0
-38288 -38492 0
38299 38295 38298 38297 38289 38290 38294 38296 38293 38292 38291 0
38309 38310 38306 38308 38300 38305 38307 38301 38303 38302 38304 0
-38300 38503 0
-38301 38504 0
-38503 38504 0
-38302 38505 0
-38504 38505 0
-38303 38506 0
-38505 38506 0
-38304 38507 0
-38506 38507 0
-38305 38508 0
-38507 38508 0
-38306 38509 0
-38508 38509 0
-38307 38510 0
-38509 38510 0
-38308 38511 0
-38510 38511 0
38512 -38309 0
-38511 38512 0
-38511 -38309 0
-38512 -38310 0
38321 38320 38311 38312 38313 38319 38316 38317 38318 38314 38315 0
-38312 38514 0
-38313 38515 0
-38514 38515 0
-38314 38516 0
-38515 38516 0
-38315 38517 0
-38516 38517 0
-38316 38518 0
-38517 38518 0
-38317 38519 0
-38518 38519 0
-38519 38520 0
-38319 38521 0
-38520 38521 0
-38320 38522 0
-38521 38522 0
-38522 -38321 0
38330 38328 38332 38331 38327 38322 38329 38324 38326 38325 38323 0
-38322 38523 0
-38323 38524 0
-38523 38524 0
-38324 38525 0
-38524 38525 0
-38325 38526 0
-38525 38526 0
-38326 38527 0
-38526 38527 0
-38327 38528 0
-38527 38528 0
-38328 38529 0
-38528 38529 0
-38329 38530 0
-38529 38530 0
-38330 38531 0
-38530 38531 0
38532 -38331 0
-38531 38532 0
-38532 -38332 0
38343 38340 38342 38334 38341 38333 38339 38338 38337 38336 38335 0
-38334 38534 0
-38335 38535 0
-38534 38535 0
-38336 38536 0
-38535 38536 0
-38337 38537 0
-38536 38537 0
-38338 38538 0
-38537 38538 0
-38339 38539 0
-38538 38539 0
38540 -38340 0
-38539 38540 0
-38341 38541 0
38541 -38540 0
-38342 38542 0
38542 -38541 0
-38542 -38343 0
38349 38353 38354 38344 38351 38352 38350 38348 38347 38345 38346 0
-38347 38546 0
-38546 38547 0
-38547 38548 0
-38548 38549 0
38550 -38351 0
-38549 38550 0
-38550 38551 0
38552 -38353 0
-38551 38552 0
-38354 -38552 0
38360 38355 38365 38364 38361 38359 38358 38362 38363 38357 38356 0
-38355 38553 0
-38356 38554 0
-38553 38554 0
-38357 38555 0
-38554 38555 0
-38358 38556 0
-38555 38556 0
-38359 38557 0
-38556 38557 0
38558 -38360 0
-38557 38558 0
38559 -38361 0
-38558 38559 0
-38362 38560 0
-38559 38560 0
-38363 38561 0
-38560 38561 0
38562 -38364 0
-38561 38562 0
-38365 -38562 0
38376 38366 38375 38371 38370 38369 38368 38372 38373 38374 38367 0
38572 -38375 0
-38572 -38376 0
38386 38377 38387 38379 38381 38382 38383 38384 38385 38380 38378 0
-38377 38573 0
-38378 38574 0
-38573 38574 0
-38379 38575 0
-38574 38575 0
-38380 38576 0
-38575 38576 0
-38381 38577 0
-38576 38577 0
-38382 38578 0
-38577 38578 0
-38383 38579 0
-38578 38579 0
-38384 38580 0
-38579 38580 0
-38385 38581 0
-38580 38581 0
-38386 38582 0
-38581 38582 0
-38582 -38387 0
38397 38398 38396 38388 38390 38392 38393 38394 38395 38391 38389 0
38409 38407 38408 38401 38402 38403 38399 38404 38405 38406 38400 0
38415 38418 38419 38420 38410 38412 38413 38416 38417 38414 38411 0
-38441 38632 0
-38632 -38442 0
38234 0
38442 0
-1 -38234 0
-2 -38234 0
-3 -38234 0
-4 -38234 0
-5 -38234 0
-7 -38234 0
-8 -38234 0
38245 -18 -38234 0
38245 -19 -38234 0
38246 -20 -38234 0
38245 -22 -38234 0
38245 -23 -38234 0
38245 -25 -38234 0
38247 -26 -38234 0
38245 -28 -38234 0
38245 -29 -38234 0
38248 -31 -38234 0
38245 -33 -38234 0
38245 -34 -38234 0
38249 -37 -38234 0
38249 -38 -38234 0
38245 -41 -38234 0
38245 -43 -38234 0
-38245 -47 0
-38245 -48 0
-38245 -49 0
-51 -38245 0
-52 -38245 0
-53 -38245 0
-55 -38245 0
-56 -38245 0
-57 -38245 0
-58 -38245 0
-59 -38245 0
-60 -38245 0
-61 -38245 0
-63 38256 -38245 0
-64 38256 -38245 0
-65 38257 -38245 0
-67 38256 -38245 0
-68 38256 -38245 0
-70 38256 -38245 0
-71 38258 -38245 0
-73 38256 -38245 0
-74 38256 -38245 0
-76 38259 -38245 0
-78 38256 -38245 0
-79 38256 -38245 0
-82 38260 -38245 0
-83 38260 -38245 0
-88 38256 -38245 0
-38246 -47 0
-50 -38246 0
-52 -38246 0
-53 -38246 0
-55 -38246 0
-56 -38246 0
-57 -38246 0
-58 -38246 0
-60 -38246 0
-63 38261 -38246 0
-64 38261 -38246 0
-65 38261 -38246 0
-67 38261 -38246 0
-68 -38246 38261 0
-70 38257 -38246 0
-71 38257 -38246 0
-73 38257 -38246 0
-76 38257 -38246 0
-78 38257 -38246 0
-79 -38246 38257 0
38257 -82 -38246 0
-83 -38246 38257 0
-86 -38246 38257 0
-88 -38246 38257 0
-48 -38247 0
-38247 -50 0
-52 -38247 0
-53 -38247 0
-63 38261 -38247 0
-65 38258 -38247 0
-70 38262 -38247 0
-71 38262 -38247 0
-76 38258 -38247 0
-78 38258 -38247 0
-79 -38247 38258 0
-38247 -82 38258 0
-83 -38247 38258 0
-49 -38248 0
-38248 -50 0
-52 -38248 0
-53 -38248 0
-64 38261 -38248 0
-65 38259 -38248 0
-70 38262 -38248 0
-71 38259 -38248 0
-76 38263 -38248 0
-78 38263 -38248 0
-79 -38248 38263 0
38259 -82 -38248 0
-83 -38248 38259 0
-88 -38248 38259 0
-47 -38249 0
-48 -38249 0
-49 -38249 0
-50 -38249 0
-51 -38249 0
-52 -38249 0
-53 -38249 0
-54 -38249 0
-61 -38249 0
-65 38261 -38249 0
-67 38260 -38249 0
-68 -38249 38260 0
-71 38262 -38249 0
-73 38260 -38249 0
-76 38263 -38249 0
-78 38260 -38249 0
-79 -38249 38260 0
-82 38264 -38249 0
-88 -38249 38260 0
-38250 -52 0
-38250 -53 0
-38250 -65 0
-38251 -52 0
-38251 -53 0
-38251 -65 38262 0
-38252 -52 0
-38252 -53 0
-38252 -65 38263 0
-38253 -52 0
-38253 -53 0
-38253 -65 0
-38254 -52 0
-38254 -53 0
-38254 -65 38265 0
-38255 -52 0
-38255 -53 0
-38255 -65 38266 0
-38256 -91 0
-38256 -92 0
-38256 -93 0
-38256 -94 0
-38256 -95 0
-96 -38256 0
-38256 -97 0
-38256 -98 0
-100 -38256 0
-101 -38256 0
-38256 -102 0
-103 -38256 0
-105 -38256 0
-106 -38256 0
-108 -38256 38267 0
-109 -38256 38267 0
-110 -38256 38268 0
-112 -38256 38267 0
-113 -38256 38267 0
-115 -38256 38267 0
-116 -38256 38269 0
-118 -38256 38267 0
-119 -38256 38267 0
-121 38270 -38256 0
-123 -38256 38267 0
-124 -38256 38267 0
-127 -38256 38271 0
-128 -38256 38271 0
-38256 -131 38267 0
-38256 38267 -133 0
-38257 -91 0
-38257 -92 0
-38257 -93 0
-38257 -94 0
-38257 -95 0
-38257 -96 0
-38257 -97 0
-38257 -98 0
-110 -38257 38272 0
-116 -38257 38268 0
-38257 -119 38268 0
-38257 -121 38268 0
-38257 -124 38268 0
-127 -38257 38268 0
-38257 -128 38268 0
-38257 38268 -133 0
-38258 -91 0
-38258 -92 0
-38258 -93 0
-38258 -94 0
-38258 -95 0
-38258 -96 0
-38258 -97 0
-38258 -98 0
-110 -38258 38269 0
-116 -38258 38273 0
-119 -38258 38273 0
-121 -38258 38269 0
-124 -38258 38269 0
-127 -38258 38269 0
-128 -38258 38269 0
-38258 38269 -133 0
-38259 -91 0
-38259 -92 0
-93 -38259 0
-38259 -94 0
-95 -38259 0
-96 -38259 0
-97 -38259 0
-38259 -98 0
-103 -38259 0
-110 38270 -38259 0
-116 38270 -38259 0
-121 38274 -38259 0
-124 38274 -38259 0
-127 -38259 38270 0
-128 38270 -38259 0
-38259 38270 -133 0
-38260 -91 0
-38260 -92 0
-38260 -93 0
-38260 -94 0
-38260 -95 0
-38260 -96 0
-38260 -97 0
-38260 -98 0
-109 -38260 38271 0
-110 -38260 38272 0
-113 -38260 38271 0
-115 -38260 38271 0
-116 -38260 38273 0
-119 -38260 38271 0
-121 -38260 38274 0
-123 -38260 38271 0
-124 -38260 38271 0
-127 -38260 38275 0
-38261 -91 0
-38261 -92 38276 0
-93 -38261 0
-94 -38261 0
-95 -38261 0
-96 -38261 0
-97 -38261 0
-38261 -98 0
-101 -38261 0
-38261 -102 0
-105 -38261 0
-106 -38261 0
-108 -38261 0
-109 -38261 0
-110 -38261 0
-112 -38261 0
-113 -38261 0
-115 38272 -38261 0
-116 38272 -38261 0
-118 -38261 38272 0
-119 38272 -38261 0
-121 38272 -38261 0
-123 -38261 38272 0
-124 38272 -38261 0
-127 -38261 38272 0
-128 38272 -38261 0
-38261 38272 -133 0
-38262 -91 0
-38262 -92 0
-93 -38262 38276 0
-38262 -94 0
-95 -38262 0
-96 -38262 0
-97 -38262 0
-38262 -98 0
-38262 -99 0
-100 -38262 0
-38262 -102 0
-106 -38262 0
-108 -38262 0
-109 38273 -38262 0
-110 38273 -38262 0
-112 -38262 38273 0
-113 38273 -38262 0
-115 -38262 0
-116 -38262 0
-119 -38262 0
-121 38273 -38262 0
-123 -38262 38273 0
-124 38273 -38262 0
-127 -38262 38273 0
-128 38273 -38262 0
-38262 38273 -133 0
-38263 -91 0
-38263 -92 0
-38263 -93 0
-38263 -94 38276 0
-38263 -95 0
-38263 -96 0
-38263 -97 0
-38263 -98 0
-100 -38263 0
-101 -38263 0
-38263 -102 0
-103 -38263 0
-105 -38263 0
-106 -38263 0
-109 -38263 0
-110 -38263 38274 0
-112 -38263 38274 0
-113 -38263 38274 0
-115 -38263 0
-116 -38263 38274 0
-118 -38263 38274 0
-119 -38263 38274 0
-121 -38263 0
-123 -38263 0
-124 -38263 0
-127 -38263 38274 0
-128 -38263 38274 0
-38263 38274 -133 0
-38264 -91 0
-38264 -92 0
-38264 -93 0
-38264 -94 0
-95 -38264 38276 0
-96 -38264 0
-38264 -97 0
-38264 -98 0
-38264 -99 0
-38264 -102 0
-106 -38264 0
-109 -38264 38275 0
-110 -38264 0
-113 -38264 38275 0
-115 -38264 38275 0
-116 -38264 0
-119 -38264 38275 0
-121 -38264 0
-123 -38264 38275 0
-124 -38264 38275 0
-127 -38264 0
-128 -38264 0
-38264 38275 -133 0
38277 -38265 -91 0
-92 -38265 0
-93 -38265 0
-94 -38265 0
-95 -38265 0
-96 -38265 0
-97 -38265 0
-38265 -98 0
-108 38276 -38265 0
-109 38276 -38265 0
-110 38276 -38265 0
-111 38276 -38265 0
-112 38276 -38265 0
-113 38276 -38265 0
-114 38276 -38265 0
-115 38276 -38265 0
-116 38276 -38265 0
-118 38276 -38265 0
-119 38276 -38265 0
-121 38276 -38265 0
-123 38276 -38265 0
-124 38276 -38265 0
-126 38276 -38265 0
-127 38276 -38265 0
-128 38276 -38265 0
-129 38276 -38265 0
-131 38276 -38265 0
-133 38276 -38265 0
-38266 -91 0
-38266 -92 0
-93 -38266 0
-38266 -94 0
-95 -38266 0
-96 -38266 0
-97 -38266 0
-38266 -98 0
-110 -38266 38277 0
-116 -38266 38277 0
-121 -38266 38277 0
-127 -38266 38277 0
-128 -38266 38277 0
-38267 -136 0
-137 -38267 0
-138 -38267 0
-139 -38267 0
-38267 -140 0
-38267 -141 0
-38267 -142 0
-38267 -143 0
-38267 -147 0
-153 -38267 38278 0
-154 -38267 38278 0
-38267 -155 38279 0
-160 -38267 38278 0
-161 -38267 38280 0
-166 -38267 38281 0
-38268 -136 0
-38268 -137 0
-38268 -138 0
-38268 -139 0
-38268 -140 0
-38268 -141 0
-38268 -142 0
-38268 -143 0
-38268 -155 38283 0
-38268 -161 38279 0
-38268 -166 38279 0
-38269 -136 0
-38269 -137 0
-38269 -138 0
-38269 -139 0
-38269 -140 0
-38269 -141 0
-38269 -142 0
-38269 -143 0
-38269 -155 38280 0
-38269 -161 38284 0
-38269 -166 38280 0
-38270 -136 0
-38270 -137 0
-38270 -138 0
-38270 -139 0
-38270 -140 0
-38270 -141 0
-38270 -142 0
-38270 -143 0
-38270 -155 38281 0
-38270 -161 38281 0
-38270 -166 38285 0
-38271 -136 0
-38271 -137 0
-38271 -138 0
-38271 -139 0
-38271 -140 0
-141 -38271 0
-38271 -142 0
-38271 -143 0
-38271 -151 0
-38271 -155 38283 0
-161 -38271 38284 0
-166 -38271 38285 0
-38272 -136 0
-38272 -137 38287 0
-38272 -138 0
-38272 -139 0
-38272 -140 0
-38272 -141 0
-38272 -142 0
-38272 -143 0
-38272 -155 0
-38272 -161 38283 0
-38272 -166 38283 0
-38273 -136 0
-38273 -137 0
-38273 -138 38287 0
-38273 -139 0
-38273 -140 0
-38273 -141 0
-38273 -142 0
-38273 -143 0
-38273 -155 38284 0
-38273 -161 0
-38273 -166 38284 0
-38274 -136 0
-38274 -137 0
-38274 -138 0
-38274 -139 38287 0
-38274 -140 0
-38274 -141 0
-38274 -142 0
-38274 -143 0
-38274 -155 38285 0
-38274 -161 38285 0
-38274 -166 0
-38275 -136 0
-137 -38275 0
-138 -38275 0
-139 -38275 0
-140 -38275 38287 0
-141 -38275 0
-38275 -142 0
-38275 -143 0
-155 -38275 0
-161 -38275 0
-166 -38275 0
-38276 -136 38288 0
-137 -38276 0
-138 -38276 0
-139 -38276 0
-140 -38276 0
-141 -38276 0
-38276 -142 0
-143 -38276 0
-144 -38276 0
-145 -38276 0
-146 -38276 0
-147 -38276 0
-148 -38276 0
-149 -38276 0
-150 -38276 0
-151 -38276 0
-153 38287 -38276 0
-154 38287 -38276 0
-155 38287 -38276 0
-156 38287 -38276 0
-157 -38276 38287 0
-158 38287 -38276 0
-159 -38276 38287 0
-160 38287 -38276 0
-161 38287 -38276 0
-162 38287 -38276 0
-163 -38276 38287 0
-164 38287 -38276 0
-166 38287 -38276 0
-167 38287 -38276 0
-168 -38276 38287 0
-169 38287 -38276 0
-171 38287 -38276 0
-172 -38276 38287 0
-173 38287 -38276 0
-175 -38276 38287 0
-176 38287 -38276 0
-177 -38276 38287 0
-178 -38276 38287 0
-136 -38277 0
-137 -38277 0
-138 -38277 0
-139 -38277 0
-140 -38277 0
-141 -38277 0
-142 -38277 0
-143 -38277 0
-144 -38277 0
-145 38288 -38277 0
-146 38288 -38277 0
-147 38288 -38277 0
-148 38288 -38277 0
-149 38288 -38277 0
-150 38288 -38277 0
-151 38288 -38277 0
-152 38288 -38277 0
-153 38288 -38277 0
-154 38288 -38277 0
-155 38288 -38277 0
-156 38288 -38277 0
-157 38288 -38277 0
-158 38288 -38277 0
-159 38288 -38277 0
-160 38288 -38277 0
-161 38288 -38277 0
-162 38288 -38277 0
-164 38288 -38277 0
-165 38288 -38277 0
-166 38288 -38277 0
-167 38288 -38277 0
-168 38288 -38277 0
-169 38288 -38277 0
-170 38288 -38277 0
-171 38288 -38277 0
-172 38288 -38277 0
-173 38288 -38277 0
-175 38288 -38277 0
-176 38288 -38277 0
-177 38288 -38277 0
-178 38288 -38277 0
-179 38288 -38277 0
-180 38288 -38277 0
-38278 -181 0
-38278 -182 0
-38278 -183 0
-38278 -184 0
-38278 -185 0
-38278 -186 0
-38278 -187 0
-38278 -188 0
-38279 -181 0
-38279 -182 0
-38279 -183 0
-38279 -184 0
-38279 -185 0
-38279 -186 0
-38279 -187 0
-38279 -188 0
-38280 -181 0
-38280 -182 0
-38280 -183 0
-38280 -184 0
-185 -38280 0
-186 -38280 0
-38280 -187 0
-188 -38280 0
-38281 -181 0
-38281 -182 0
-38281 -183 0
-38281 -184 0
-38281 -185 0
-38281 -186 0
-38281 -187 0
-38281 -188 0
-192 -38281 0
-38282 -181 0
-38282 -182 0
-38282 -183 0
-38282 -184 0
-38282 -185 0
-38282 -186 0
-38282 -187 0
-38282 -188 0
-38283 -181 0
-38283 -182 38298 0
-38283 -183 0
-38283 -184 0
-38283 -185 0
-38283 -186 0
-38283 -187 0
-38283 -188 0
-38284 -181 0
-38284 -182 0
-38284 -183 38298 0
-38284 -184 0
-38284 -185 0
-38284 -186 0
-38284 -187 0
-38284 -188 0
-38285 -181 0
-38285 -182 0
-38285 -183 0
-38285 -184 38298 0
-38285 -185 0
-38285 -186 0
-38285 -187 0
-38285 -188 0
-192 -38285 0
-38286 -181 0
-38286 -182 0
-38286 -183 0
-184 -38286 0
-38286 -185 38298 0
-38286 -186 0
-38286 -187 0
-38286 -188 0
38299 -181 -38287 0
-182 -38287 0
-183 -38287 0
-184 -38287 0
-185 -38287 0
-186 -38287 0
-187 -38287 0
-188 -38287 0
-194 -38287 0
-196 -38287 0
-198 38298 -38287 0
-199 38298 -38287 0
-200 38298 -38287 0
-201 38298 -38287 0
-202 38298 -38287 0
-203 38298 -38287 0
-205 38298 -38287 0
-206 38298 -38287 0
-207 38298 -38287 0
-208 38298 -38287 0
-209 38298 -38287 0
-211 38298 -38287 0
-212 38298 -38287 0
-213 38298 -38287 0
-214 38298 -38287 0
-216 38298 -38287 0
-217 38298 -38287 0
-218 38298 -38287 0
-220 38298 -38287 0
38298 -221 -38287 0
38298 -223 -38287 0
-181 -38288 0
-182 -38288 0
-183 -38288 0
-184 -38288 0
-185 -38288 0
-186 -38288 0
-38288 -187 0
-188 -38288 0
-190 38299 -38288 0
-191 38299 -38288 0
-192 38299 -38288 0
-193 38299 -38288 0
-194 38299 -38288 0
-195 38299 -38288 0
-196 38299 -38288 0
-198 38299 -38288 0
-199 38299 -38288 0
-200 38299 -38288 0
-201 38299 -38288 0
-202 38299 -38288 0
-203 38299 -38288 0
-205 38299 -38288 0
-206 38299 -38288 0
-207 38299 -38288 0
-208 38299 -38288 0
-209 38299 -38288 0
-211 38299 -38288 0
-212 38299 -38288 0
-213 38299 -38288 0
-214 38299 -38288 0
-216 38299 -38288 0
-217 38299 -38288 0
-218 38299 -38288 0
-220 38299 -38288 0
38299 -38288 -221 0
-223 38299 -38288 0
-38289 -226 0
-38289 -227 0
-38289 -228 0
-38289 -229 0
-38289 -230 0
-38289 -231 0
-38289 -232 0
-38289 -233 0
-234 -38289 0
-38289 -240 0
-38289 -241 0
-38289 -245 38301 0
-38289 -256 38303 0
-38289 -259 38300 0
-38289 -266 38300 0
-38290 -226 0
-38290 -227 0
-38290 -228 0
-38290 -229 0
-38290 -230 0
-38290 -231 0
-38290 -232 0
-38290 -233 0
-234 -38290 0
-38290 -240 0
-38290 -241 0
-38290 -245 38305 0
-38290 -256 38301 0
-38290 -259 38301 0
-38290 -266 38301 0
-38291 -226 0
-38291 -227 0
-38291 -228 0
-38291 -229 0
-38291 -230 0
-38291 -231 0
-38291 -232 0
-38291 -233 0
-38291 -234 0
-38291 -240 0
-38291 -241 0
-38291 -245 38302 0
-38291 -256 38302 0
-38291 -259 38302 0
-38291 -266 38302 0
-38292 -226 0
-38292 -227 0
-38292 -228 0
-38292 -229 0
-38292 -230 0
-38292 -231 0
-38292 -232 0
-38292 -233 0
-38292 -234 0
-38292 -240 0
-38292 -241 0
-38292 -245 38303 0
-38292 -256 38307 0
-38292 -259 38307 0
-38292 -266 38303 0
-38293 -226 0
-38293 -227 0
-38293 -228 0
-38293 -229 0
-38293 -230 0
-38293 -231 0
-38293 -232 0
-38293 -233 0
-38293 -234 0
-38293 -240 0
-38293 -241 0
-38293 -245 38305 0
-38293 -256 38307 0
-38293 -259 38304 0
-38293 -266 38304 0
-38294 -226 0
-38294 -227 38309 0
-38294 -228 0
-38294 -229 0
-38294 -230 0
-38294 -231 0
-38294 -232 0
-38294 -233 0
-38294 -234 0
-38294 -240 0
-38294 -241 0
-38294 -245 0
-38294 -256 38305 0
-259 -38294 38305 0
-38294 -266 38305 0
-38295 -226 0
-227 -38295 0
-38295 -228 38309 0
-38295 -229 0
-38295 -230 0
-38295 -231 0
-38295 -232 0
-38295 -233 0
-38295 -234 0
-38295 -240 0
-241 -38295 0
-243 -38295 0
-38295 -245 38306 0
-247 -38295 38306 0
-250 -38295 0
-251 -38295 0
-252 -38295 0
-253 -38295 0
-38295 -254 0
-38295 -256 38306 0
-257 -38295 38306 0
-258 -38295 38306 0
-259 -38295 38306 0
-38295 -261 38306 0
-38295 -262 38306 0
-38295 -263 38306 0
-265 -38295 38306 0
-38295 -266 38306 0
-38296 -226 0
-227 -38296 0
-228 -38296 0
-38296 -229 38309 0
-230 -38296 0
-38296 -231 0
-38296 -232 0
-38296 -233 0
-38296 -234 0
-235 -38296 0
-236 -38296 0
-237 -38296 0
-238 -38296 0
-38296 -240 0
-241 -38296 0
-243 -38296 38307 0
-244 -38296 0
-38296 -245 38307 0
-247 -38296 38307 0
-248 -38296 38307 0
-250 -38296 0
-251 -38296 38307 0
-253 -38296 38307 0
-38296 -254 38307 0
-38296 -256 0
-258 -38296 0
-259 -38296 0
-38296 -261 38307 0
-38296 -262 38307 0
-38296 -263 38307 0
-265 -38296 38307 0
-38296 -266 38307 0
-268 -38296 38307 0
-38297 -226 0
-227 -38297 0
-228 -38297 0
-38297 -229 0
-230 -38297 38309 0
-231 -38297 0
-38297 -232 0
-38297 -233 0
-234 -38297 0
-240 -38297 0
-241 -38297 0
-245 -38297 0
-38297 -256 0
-259 -38297 38308 0
-38297 -266 38308 0
-226 -38298 38310 0
-227 -38298 0
-228 -38298 0
-229 -38298 0
-230 -38298 0
-231 -38298 0
-38298 -232 0
-38298 -233 0
-234 -38298 0
-235 -38298 0
-236 -38298 0
-237 -38298 0
-238 -38298 0
-239 -38298 0
-240 -38298 0
-241 -38298 0
-242 -38298 0
-243 -38298 38309 0
-244 -38298 38309 0
-245 -38298 38309 0
-246 -38298 38309 0
-247 -38298 38309 0
-248 -38298 38309 0
-250 -38298 38309 0
-251 -38298 38309 0
-252 -38298 38309 0
-253 -38298 38309 0
-254 -38298 38309 0
-256 -38298 38309 0
-257 -38298 38309 0
-258 -38298 38309 0
-259 -38298 38309 0
-261 -38298 38309 0
-38298 -262 38309 0
-263 -38298 38309 0
-265 -38298 38309 0
-266 -38298 38309 0
-268 -38298 38309 0
-270 -38298 38309 0
-226 -38299 0
-227 -38299 0
-228 -38299 0
-229 -38299 0
-230 -38299 0
-231 -38299 0
-232 -38299 0
-38299 -233 0
-234 -38299 0
-235 38310 -38299 0
-236 38310 -38299 0
-237 38310 -38299 0
-238 38310 -38299 0
-239 38310 -38299 0
-240 38310 -38299 0
-241 38310 -38299 0
-242 38310 -38299 0
-243 38310 -38299 0
-244 38310 -38299 0
-245 38310 -38299 0
-246 38310 -38299 0
-247 38310 -38299 0
-248 38310 -38299 0
-249 38310 -38299 0
-250 38310 -38299 0
-251 38310 -38299 0
-252 38310 -38299 0
-253 38310 -38299 0
-254 38310 -38299 0
-255 38310 -38299 0
-256 38310 -38299 0
-257 38310 -38299 0
-258 38310 -38299 0
-259 38310 -38299 0
-260 38310 -38299 0
-261 38310 -38299 0
-262 38310 -38299 0
-263 38310 -38299 0
-264 38310 -38299 0
-265 38310 -38299 0
-266 38310 -38299 0
-267 38310 -38299 0
-268 38310 -38299 0
-269 38310 -38299 0
-270 38310 -38299 0
-38300 -271 0
-38300 -272 0
-38300 -273 0
-38300 -274 0
-38300 -275 0
-38300 -276 0
-38300 -277 0
-38300 -278 0
-38300 -284 0
-38300 -296 38313 0
-38301 -271 0
-38301 -272 0
-38301 -273 0
-38301 -274 0
-38301 -275 0
-38301 -276 0
-38301 -277 0
-38301 -278 0
-38301 -284 0
-38301 -290 38316 0
-38301 -296 38312 0
-38302 -271 0
-38302 -272 0
-38302 -273 0
-38302 -274 0
-38302 -275 0
-38302 -276 0
-38302 -277 0
-38302 -278 0
-38302 -284 0
-38302 -290 38313 0
-38302 -296 38317 0
-38303 -271 0
-38303 -272 0
-38303 -273 0
-38303 -274 0
-38303 -275 0
-38303 -276 0
-38303 -277 0
-38303 -278 0
-38303 -284 0
-38303 -290 38314 0
-38303 -296 38314 0
-38304 -271 0
-38304 -272 0
-38304 -273 0
-38304 -274 0
-38304 -275 0
-38304 -276 0
-38304 -277 0
-38304 -278 0
-38304 -284 0
-38304 -290 38316 0
-38304 -296 38317 0
-38305 -271 0
-38305 -272 38320 0
-38305 -273 0
-38305 -274 0
-38305 -275 0
-38305 -276 0
-38305 -277 0
-38305 -278 0
-38305 -284 0
-38305 -290 0
-38305 -296 38316 0
-38306 -271 0
-38306 -272 0
-38306 -273 38320 0
-38306 -274 0
-38306 -275 0
-38306 -276 0
-38306 -277 0
-38306 -278 0
-38306 -284 0
-38306 -290 38317 0
-38306 -296 0
-38307 -271 0
-272 -38307 0
-273 -38307 0
-38307 -274 38320 0
-38307 -275 0
-276 -38307 0
-277 -38307 0
-278 -38307 0
-38307 -284 0
-38307 -290 38318 0
-38307 -296 38318 0
-38308 -271 0
-272 -38308 0
-273 -38308 0
-38308 -274 0
-38308 -275 38320 0
-276 -38308 0
-277 -38308 0
-278 -38308 0
-38308 -284 0
-38308 -290 0
-38308 -296 0
38321 -38309 -271 0
-272 -38309 0
-273 -38309 0
-274 -38309 0
-275 -38309 0
-276 -38309 0
-277 -38309 0
-278 -38309 0
-279 -38309 0
-280 -38309 0
-281 -38309 0
-282 -38309 0
-283 -38309 0
-284 -38309 0
-285 -38309 0
-286 -38309 0
-288 38320 -38309 0
-289 38320 -38309 0
-290 38320 -38309 0
-291 38320 -38309 0
-292 -38309 38320 0
-293 38320 -38309 0
-295 38320 -38309 0
-296 38320 -38309 0
-297 38320 -38309 0
-298 -38309 38320 0
-299 38320 -38309 0
-301 38320 -38309 0
-302 38320 -38309 0
-303 -38309 38320 0
-304 38320 -38309 0
-306 38320 -38309 0
-307 -38309 38320 0
-308 38320 -38309 0
-310 -38309 38320 0
38320 -38309 -311 0
-313 -38309 38320 0
-315 38320 -38309 0
-38310 -271 0
-272 -38310 0
-273 -38310 0
-274 -38310 0
-275 -38310 0
-276 -38310 0
-277 -38310 0
-278 -38310 0
-279 -38310 0
-280 -38310 38321 0
-281 -38310 38321 0
-282 -38310 38321 0
-283 -38310 38321 0
-284 -38310 38321 0
-285 -38310 38321 0
-286 -38310 38321 0
-288 -38310 38321 0
-289 -38310 38321 0
-290 -38310 38321 0
-38310 38321 -291 0
-292 -38310 38321 0
-293 -38310 38321 0
-295 -38310 38321 0
-296 -38310 38321 0
-38310 38321 -297 0
-298 -38310 38321 0
-299 -38310 38321 0
-301 -38310 38321 0
-302 -38310 38321 0
-303 -38310 38321 0
-304 -38310 38321 0
-306 -38310 38321 0
-307 -38310 38321 0
-308 -38310 38321 0
-310 -38310 38321 0
-38310 38321 -311 0
-313 -38310 38321 0
-315 -38310 38321 0
-38311 -316 0
-38311 -317 0
-38311 -318 0
-38311 -319 0
-38311 -320 0
-38311 -321 0
-38311 -322 0
-323 -38311 0
-38311 -325 0
-38311 -331 0
-38311 -348 38322 0
-38311 -353 38326 0
-38312 -316 0
-38312 -317 0
-318 -38312 0
-319 -38312 0
-320 -38312 0
-38312 -321 0
-38312 -322 0
-38312 -323 0
-324 -38312 0
-38312 -325 0
-326 -38312 0
-38312 -327 0
-328 -38312 0
-329 -38312 0
-330 -38312 0
-38312 -331 0
-332 -38312 0
-333 -38312 38327 0
-38312 38327 -334 0
-335 -38312 38327 0
-336 -38312 38327 0
-38312 -337 38327 0
-338 -38312 38327 0
-340 -38312 38323 0
-341 -38312 38323 0
-342 -38312 38323 0
-343 -38312 38323 0
-344 -38312 38323 0
-345 -38312 38323 0
-346 -38312 38323 0
-38312 -347 38323 0
-348 -38312 38323 0
-349 -38312 38323 0
-350 -38312 38323 0
-351 -38312 38323 0
-352 -38312 38323 0
-353 -38312 38323 0
-354 -38312 38323 0
-355 -38312 38323 0
-356 -38312 38323 0
-358 -38312 38323 0
-38312 -360 38323 0
-38313 -316 0
-38313 -317 0
-38313 -318 0
-38313 -319 0
-38313 -320 0
-38313 -321 0
-38313 -322 0
-38313 -323 0
-38313 -325 0
-38313 -331 0
-38313 -348 38324 0
-38314 -316 0
-38314 -317 0
-38314 -318 0
-38314 -319 0
-38314 -320 0
-38314 -321 0
-38314 -322 0
-38314 -323 0
-38314 -325 0
-38314 -331 0
-38314 -346 38329 0
-38314 -348 38329 0
-38315 -316 0
-38315 -317 0
-38315 -318 0
-38315 -319 0
-38315 -320 0
-38315 -321 0
-38315 -322 0
-38315 -323 0
-38315 -325 0
-38315 -331 0
-38315 -348 38326 0
-38316 -316 0
-38316 -317 38331 0
-38316 -318 0
-38316 -319 0
-320 -38316 0
-38316 -321 0
-38316 -322 0
-38316 -323 0
-38316 -325 0
-38316 -331 0
-38316 -348 38327 0
-38317 -316 0
-38317 -317 0
-38317 -318 38331 0
-38317 -319 0
-38317 -320 0
-38317 -321 0
-38317 -322 0
-38317 -323 0
-38317 -325 0
-38317 -331 0
-38317 -348 38328 0
-38318 -316 0
-38318 -317 0
-38318 -318 0
-38318 -319 38331 0
-38318 -320 0
-38318 -321 0
-38318 -322 0
-38318 -323 0
-38318 -325 0
-38318 -331 0
-38318 -346 0
-38318 -348 0
-38318 -353 38329 0
-38319 -316 0
-38319 -317 0
-318 -38319 0
-319 -38319 0
-320 -38319 38331 0
-38319 -321 0
-38319 -322 0
-38319 -323 0
-38319 -325 0
-326 -38319 0
-38319 -327 0
-328 -38319 0
-329 -38319 0
-330 -38319 0
-38319 -331 0
-332 -38319 0
-333 -38319 38330 0
-38319 38330 -334 0
-335 -38319 0
-336 -38319 38330 0
-38319 -337 38330 0
-338 -38319 38330 0
-340 -38319 38330 0
-341 -38319 0
-342 -38319 38330 0
-343 -38319 38330 0
-344 -38319 38330 0
-345 -38319 38330 0
-346 -38319 0
-38319 38330 -347 0
-348 -38319 38330 0
-349 -38319 38330 0
-350 -38319 38330 0
-351 -38319 0
-352 -38319 0
-353 -38319 0
-354 -38319 0
-355 -38319 38330 0
-38319 -356 38330 0
-358 -38319 38330 0
-316 -38320 38332 0
-317 -38320 0
-318 -38320 0
-319 -38320 0
-320 -38320 0
-321 -38320 0
-38320 -322 0
-323 -38320 0
-324 -38320 0
-325 -38320 0
-326 -38320 0
-327 -38320 0
-328 -38320 0
-329 -38320 0
-330 -38320 0
-331 -38320 0
-332 -38320 0
-333 -38320 38331 0
-38320 38331 -334 0
-335 -38320 38331 0
-336 -38320 38331 0
-337 -38320 38331 0
-338 -38320 38331 0
-339 -38320 38331 0
-340 -38320 38331 0
-341 -38320 38331 0
-342 -38320 38331 0
-343 -38320 38331 0
-344 -38320 38331 0
-345 -38320 38331 0
-346 -38320 38331 0
-38320 38331 -347 0
-348 -38320 38331 0
-349 -38320 38331 0
-350 -38320 38331 0
-351 -38320 38331 0
-352 -38320 38331 0
-353 38331 -38320 0
-355 -38320 38331 0
-356 38331 -38320 0
-358 -38320 38331 0
-360 38331 -38320 0
-316 -38321 0
-317 -38321 0
-318 -38321 0
-319 -38321 0
-320 -38321 0
-321 -38321 0
-38321 -322 0
-323 -38321 0
-324 -38321 0
-325 38332 -38321 0
-326 38332 -38321 0
-327 38332 -38321 0
-328 38332 -38321 0
-329 38332 -38321 0
-330 38332 -38321 0
-331 38332 -38321 0
-332 38332 -38321 0
-333 38332 -38321 0
38332 -38321 -334 0
-335 38332 -38321 0
-336 38332 -38321 0
-337 38332 -38321 0
-338 38332 -38321 0
-339 38332 -38321 0
-340 38332 -38321 0
-341 38332 -38321 0
-342 38332 -38321 0
-343 38332 -38321 0
-344 38332 -38321 0
-345 38332 -38321 0
-346 38332 -38321 0
-347 38332 -38321 0
-348 38332 -38321 0
-349 38332 -38321 0
-350 38332 -38321 0
-351 38332 -38321 0
-352 38332 -38321 0
-353 38332 -38321 0
-354 38332 -38321 0
-355 38332 -38321 0
-356 38332 -38321 0
-358 38332 -38321 0
-360 38332 -38321 0
-38322 -361 0
-38322 -364 0
-38322 -366 0
-38322 -367 0
-38322 -368 0
-38322 -374 0
-38323 -361 0
-38323 -364 0
-38323 -366 0
-38323 -367 0
-38323 -368 0
-38323 -374 0
-38323 -403 38334 0
-38324 -361 0
-38324 -364 0
-38324 -366 0
-38324 -367 0
-38324 -368 0
-38324 -374 0
-38324 -403 38335 0
-38325 -361 0
-38325 -364 0
-38325 -366 0
-38325 -367 0
-38325 -368 0
-38325 -374 0
-38325 -398 38336 0
-38326 -361 0
-38326 -364 0
-38326 -366 0
-38326 -367 0
-38326 -368 0
-38326 -374 0
-38327 -361 0
-38327 -364 0
-38327 -366 0
-38327 -367 0
-38327 -368 0
-38327 -374 0
-38327 -403 38338 0
-38328 -361 0
-38328 -364 0
-38328 -366 0
-38328 -367 0
-38328 -368 0
-38328 -374 0
-38328 -403 38339 0
-38329 -361 0
-38329 -364 38342 0
-38329 -366 0
-38329 -367 0
-38329 -368 0
-38329 -374 0
-38329 -403 38340 0
-38330 -361 0
-38330 -364 0
-38330 -366 0
-38330 -367 0
-38330 -368 0
-38330 -374 0
-38331 -361 38343 0
-38331 -362 0
-363 -38331 0
-364 -38331 0
-365 -38331 0
-366 -38331 0
-38331 -367 0
-38331 -368 0
-369 -38331 0
-38331 -370 0
-371 -38331 0
-38331 -372 0
-373 -38331 0
-374 -38331 0
-375 -38331 0
-376 -38331 0
-378 -38331 38342 0
-379 -38331 38342 0
-380 -38331 38342 0
-381 -38331 38342 0
-382 -38331 38342 0
-38331 -383 38342 0
-384 -38331 38342 0
-385 -38331 38342 0
-386 -38331 38342 0
-387 -38331 38342 0
-388 -38331 38342 0
-38331 -389 38342 0
-390 -38331 38342 0
-391 -38331 38342 0
-38331 -392 38342 0
-393 -38331 38342 0
-38331 -394 38342 0
-395 -38331 38342 0
-396 38342 -38331 0
-397 -38331 38342 0
-38331 -398 38342 0
-399 -38331 38342 0
-400 -38331 38342 0
-38331 -401 38342 0
-38331 -403 38342 0
-405 -38331 38342 0
-38332 -361 0
-38332 -362 0
-363 -38332 0
-364 -38332 0
-365 -38332 0
-366 -38332 0
-38332 -367 0
-38332 -368 0
-369 -38332 0
-370 -38332 38343 0
-371 -38332 38343 0
-372 -38332 38343 0
-373 -38332 38343 0
-374 -38332 38343 0
-375 -38332 38343 0
-376 -38332 38343 0
-378 -38332 38343 0
-379 -38332 38343 0
-380 -38332 38343 0
-381 -38332 38343 0
-382 -38332 38343 0
-38332 -383 38343 0
-384 -38332 38343 0
-385 -38332 38343 0
-386 -38332 38343 0
-387 -38332 38343 0
-388 -38332 38343 0
-38332 -389 38343 0
-390 -38332 38343 0
-391 -38332 38343 0
-392 -38332 38343 0
-393 -38332 38343 0
-38332 -394 38343 0
-395 -38332 38343 0
-396 -38332 38343 0
-397 -38332 38343 0
-38332 -398 38343 0
-399 -38332 38343 0
-400 38343 -38332 0
-38332 -401 38343 0
-38332 -403 38343 0
-405 38343 -38332 0
-38333 -406 0
-38333 -407 0
-408 -38333 0
-38333 -409 0
-410 -38333 0
-38333 -411 0
-38333 -412 0
-38333 -413 0
-446 -38333 38344 0
-38334 -406 0
-38334 -407 0
-38334 -408 0
-38334 -409 0
-38334 -410 0
-38334 -411 0
-38334 -412 0
-38334 -413 0
-38335 -406 0
-38335 -407 0
-38335 -408 0
-38335 -409 0
-38335 -410 0
-38335 -411 0
-38335 -412 0
-38335 -413 0
-38336 -406 0
-407 -38336 0
-408 -38336 0
-38336 -409 0
-410 -38336 0
-411 -38336 0
-412 -38336 0
-38336 -413 0
-414 -38336 0
-38336 -415 0
-416 -38336 0
-417 -38336 0
-418 -38336 0
-419 -38336 0
-420 -38336 0
-421 -38336 0
-425 -38336 38347 0
-427 -38336 38347 0
-431 -38336 38347 0
-433 -38336 38347 0
-436 -38336 38351 0
-438 -38336 38351 0
-440 -38336 0
-441 -38336 38347 0
-442 -38336 38347 0
-443 -38336 38347 0
-444 -38336 38347 0
-445 -38336 38347 0
-446 -38336 38347 0
-38336 38347 -448 0
-449 -38336 38347 0
-450 38347 -38336 0
-38337 -406 0
-38337 -407 0
-38337 -408 0
-38337 -409 0
-38337 -410 0
-38337 -411 0
-38337 -412 0
-38337 -413 0
-38338 -406 0
-38338 -407 38353 0
-38338 -408 0
-38338 -409 0
-38338 -410 0
-38338 -411 0
-38338 -412 0
-38338 -413 0
-38339 -406 0
-38339 -407 0
-38339 -408 38353 0
-38339 -409 0
-38339 -410 0
-38339 -411 0
-38339 -412 0
-38339 -413 0
-406 -38340 0
-38340 -407 0
-38340 -408 0
38353 -38340 -409 0
-410 -38340 0
-38340 -411 0
-38340 -412 0
-38340 -413 0
-38341 -406 0
-38341 -407 0
-38341 -408 0
-38341 -409 0
-38341 -410 38353 0
-38341 -411 0
-38341 -412 0
-38341 -413 0
-38342 -406 38354 0
-38342 -407 0
-408 -38342 0
-38342 -409 0
-410 -38342 0
-411 -38342 0
-412 -38342 0
-38342 -413 0
-38342 -415 0
-416 -38342 0
-417 -38342 0
-418 -38342 0
-419 -38342 0
-420 -38342 0
-421 -38342 0
-423 -38342 38353 0
-424 -38342 38353 0
-425 -38342 38353 0
-426 -38342 38353 0
-427 -38342 38353 0
-428 -38342 38353 0
-429 -38342 38353 0
-430 -38342 38353 0
-431 -38342 38353 0
-432 -38342 38353 0
-433 -38342 38353 0
-434 -38342 38353 0
-436 -38342 38353 0
-437 -38342 38353 0
-438 -38342 38353 0
-439 -38342 38353 0
-440 -38342 38353 0
-441 -38342 38353 0
-442 -38342 38353 0
-443 -38342 38353 0
-445 -38342 38353 0
-446 -38342 38353 0
-38342 38353 -448 0
-449 -38342 38353 0
-450 38353 -38342 0
-406 -38343 0
-407 -38343 0
-408 -38343 0
-38343 -409 0
-410 -38343 0
-411 -38343 0
-412 -38343 0
-38343 -413 0
-38343 -415 38354 0
-416 -38343 38354 0
-417 -38343 38354 0
-418 -38343 38354 0
-419 -38343 38354 0
-420 -38343 38354 0
-421 -38343 38354 0
-423 -38343 38354 0
-424 -38343 38354 0
-425 -38343 38354 0
-426 -38343 38354 0
-427 -38343 38354 0
-428 -38343 38354 0
-429 -38343 38354 0
-430 -38343 38354 0
-431 -38343 38354 0
-432 -38343 38354 0
-433 -38343 38354 0
-434 -38343 38354 0
-436 -38343 38354 0
-437 -38343 38354 0
-438 -38343 38354 0
-439 -38343 38354 0
-440 -38343 38354 0
-441 -38343 38354 0
-442 -38343 38354 0
-443 -38343 38354 0
-444 -38343 38354 0
38354 -445 -38343 0
-446 38354 -38343 0
38354 -38343 -448 0
-449 -38343 38354 0
-450 -38343 38354 0
-38344 -451 0
-38344 -452 0
-38344 -454 0
-38344 -455 0
-38344 -456 0
-38344 -457 0
-38344 38355 -495 0
-38345 -451 0
-38345 -452 0
-38345 -454 0
-38345 -455 0
-38345 -456 0
-38345 -457 0
-38346 -451 0
-38346 -452 0
-38346 -454 0
-38346 -455 0
-38346 -456 0
-38346 -457 0
-38347 -451 0
-38347 -452 0
-453 -38347 0
-38347 -454 0
-38347 -455 0
-38347 -456 0
-38347 -457 0
-38347 -458 0
-38347 -460 0
-38347 -461 0
-462 -38347 0
-463 -38347 0
-465 -38347 0
-466 -38347 0
-38347 -468 38358 0
-38347 -469 38360 0
-38347 -470 38358 0
-472 -38347 38358 0
-473 -38347 38358 0
-475 -38347 38361 0
-476 -38347 38358 0
-478 -38347 38358 0
-479 -38347 38358 0
-481 -38347 38362 0
-38347 38362 -483 0
-484 -38347 38362 0
-487 -38347 38358 0
-38347 -488 38358 0
-38348 -451 0
-38348 -452 0
-38348 -454 0
-38348 -455 0
-38348 -456 0
-38348 -457 0
-451 -38349 0
-38349 -452 38364 0
-38349 -454 0
-455 -38349 0
-456 -38349 0
-38349 -457 0
-38350 -451 0
-38350 -452 0
-38350 -454 0
-38350 -455 0
-38350 -456 0
-38350 -457 0
-451 -38351 0
-452 -38351 0
-38351 -454 38364 0
-38351 -455 0
-456 -38351 0
-38351 -457 0
-38352 -451 0
-38352 -452 0
-38352 -454 0
-38352 -455 38364 0
-38352 -456 0
-38352 -457 0
-38353 -451 38365 0
-38353 -452 0
-453 -38353 0
-38353 -454 0
-455 -38353 0
-456 -38353 0
-457 -38353 0
-38353 -458 0
-460 -38353 0
-461 -38353 0
-462 -38353 0
-463 -38353 0
-464 -38353 0
-465 -38353 0
-466 -38353 0
-467 -38353 0
-468 38364 -38353 0
-469 38364 -38353 0
-470 38364 -38353 0
-471 38364 -38353 0
-472 38364 -38353 0
-473 38364 -38353 0
-474 38364 -38353 0
-475 38364 -38353 0
-476 38364 -38353 0
-477 38364 -38353 0
-478 38364 -38353 0
-479 38364 -38353 0
-480 38364 -38353 0
-481 38364 -38353 0
-482 38364 -38353 0
-483 38364 -38353 0
-484 38364 -38353 0
-485 38364 -38353 0
-486 38364 -38353 0
-487 38364 -38353 0
-488 38364 -38353 0
-489 38364 -38353 0
38364 -490 -38353 0
38364 -491 -38353 0
-493 38364 -38353 0
-451 -38354 0
-38354 -452 0
-453 -38354 0
-38354 -454 0
-38354 -455 0
-456 -38354 0
-38354 -457 0
-38354 -458 0
-38354 38365 -460 0
-461 -38354 38365 0
-462 -38354 38365 0
-463 -38354 38365 0
-464 -38354 38365 0
-465 -38354 38365 0
-466 -38354 38365 0
-467 -38354 38365 0
-468 -38354 38365 0
-469 -38354 38365 0
-470 -38354 38365 0
-471 -38354 38365 0
-472 -38354 38365 0
-473 -38354 38365 0
-475 -38354 38365 0
-476 -38354 38365 0
-477 -38354 38365 0
-478 -38354 38365 0
-479 -38354 38365 0
-480 -38354 38365 0
-481 -38354 38365 0
-482 -38354 38365 0
-483 -38354 38365 0
-484 38365 -38354 0
-485 -38354 38365 0
-486 38365 -38354 0
-487 -38354 38365 0
-488 38365 -38354 0
-489 38365 -38354 0
38365 -38354 -490 0
38365 -38354 -491 0
-493 38365 -38354 0
38365 -38354 -495 0
-38355 -496 0
-38355 -501 0
-38355 -502 0
-38355 -503 0
-38356 -496 0
-38356 -501 0
-38356 -502 0
-38356 -503 0
-38357 -496 0
-38357 -501 0
-38357 -502 0
-38357 -503 0
-38358 -496 0
-38358 -501 0
-38358 -502 0
-38358 -503 0
-38359 -496 0
-38359 -501 0
-38359 -502 0
-38359 -503 0
-38360 -496 0
-38360 -501 0
-38360 -502 0
-38360 -503 0
-38361 -496 0
-38361 -501 0
-38361 -502 0
-38361 -503 0
-38362 -496 0
-38362 -501 0
-38362 -502 0
-38362 -503 0
-38363 -496 0
-38363 -501 0
-38363 -502 0
-38363 -503 0
-38364 -496 38376 0
-38364 -497 0
-38364 -498 0
-499 -38364 0
-500 -38364 0
-501 -38364 0
-38364 -502 0
-38364 -503 0
-505 -38364 0
-506 -38364 0
-507 -38364 0
-508 -38364 0
-509 -38364 0
-510 -38364 0
-513 38375 -38364 0
-514 38375 -38364 0
-515 38375 -38364 0
-516 38375 -38364 0
-517 38375 -38364 0
-520 38375 -38364 0
-521 38375 -38364 0
-522 38375 -38364 0
-523 38375 -38364 0
-38364 38375 -526 0
-527 38375 -38364 0
-528 38375 -38364 0
-531 38375 -38364 0
-532 38375 -38364 0
-536 -38364 38375 0
-38364 -538 38375 0
-496 -38365 0
-38365 -497 0
-38365 -498 0
-499 -38365 0
-500 -38365 0
-501 -38365 0
-502 -38365 0
-38365 -503 0
-505 -38365 38376 0
-506 -38365 38376 0
-507 -38365 38376 0
-38365 -508 38376 0
-509 -38365 38376 0
-510 -38365 38376 0
-511 -38365 38376 0
-513 -38365 38376 0
-514 -38365 38376 0
-515 -38365 38376 0
-516 -38365 38376 0
-517 -38365 38376 0
-518 -38365 38376 0
-520 -38365 38376 0
-521 -38365 38376 0
-522 -38365 38376 0
-523 -38365 38376 0
-524 -38365 38376 0
-38365 38376 -526 0
-527 -38365 38376 0
-528 -38365 38376 0
-529 -38365 38376 0
-530 -38365 38376 0
-531 -38365 38376 0
-532 -38365 38376 0
-533 -38365 38376 0
-535 -38365 38376 0
-536 -38365 38376 0
-38365 38376 -537 0
-38365 -538 38376 0
-38365 38376 -540 0
-38366 -541 0
-38366 -546 0
-38366 -547 0
-541 -38367 0
-542 -38367 0
-543 -38367 0
-544 -38367 0
-545 -38367 0
-38367 -546 0
-547 -38367 0
-548 -38367 0
-550 -38367 0
-551 -38367 0
-552 -38367 0
-553 -38367 0
-554 -38367 0
-555 -38367 0
-38367 -556 0
-38367 -564 0
-565 -38367 38378 0
-571 -38367 38378 0
-572 -38367 38378 0
-573 -38367 38378 0
-574 -38367 38378 0
-38368 -541 0
-38368 -546 0
-38368 -547 0
-38369 -541 0
-38369 -546 0
-38369 -547 0
-38370 -541 0
-38370 -546 0
-38370 -547 0
-38371 -541 0
-38371 -546 0
-547 -38371 0
-38372 -541 0
-38372 -546 0
-38372 -547 0
-38373 -541 0
-38373 -546 0
-38373 -547 0
-38374 -541 0
-38374 -546 0
-38374 -547 0
-38375 -541 38387 0
-38375 -546 0
-547 -38375 0
-581 -38375 38386 0
-585 38386 -38375 0
-38376 -541 0
-38376 -542 0
-543 -38376 0
-544 -38376 0
-545 -38376 0
-38376 -546 0
-547 -38376 0
-38376 -548 0
-550 -38376 38387 0
-551 -38376 38387 0
-552 -38376 38387 0
-553 -38376 38387 0
-38376 -554 38387 0
-555 -38376 38387 0
-38376 -556 38387 0
-38376 -557 38387 0
-558 -38376 38387 0
-559 -38376 38387 0
-560 -38376 38387 0
-561 -38376 38387 0
-562 -38376 38387 0
-563 -38376 38387 0
-38376 -564 38387 0
-565 -38376 38387 0
-566 -38376 38387 0
-567 -38376 38387 0
-568 -38376 38387 0
-569 -38376 38387 0
-570 -38376 38387 0
-38376 -571 38387 0
-572 -38376 38387 0
-573 -38376 38387 0
-574 -38376 38387 0
-576 -38376 38387 0
-577 -38376 38387 0
-578 -38376 38387 0
38387 -580 -38376 0
-581 38387 -38376 0
-38376 -583 38387 0
-38376 -585 38387 0
-38377 -586 0
-38377 -591 0
-38377 -592 0
-38377 -599 0
-38378 -586 0
-38378 -591 0
-38378 -592 0
-38378 -599 0
-38379 -586 0
-38379 -591 0
-38379 -592 0
-38379 -599 0
-38380 -586 0
-38380 -591 0
-38380 -592 0
-38380 -599 0
-38381 -586 0
-38381 -591 0
-38381 -592 0
-38381 -599 0
-38382 -586 0
-38382 -591 0
-38382 -592 0
-38382 -599 0
-38383 -586 0
-38383 -591 0
-38383 -592 0
-38383 -599 0
-38384 -586 0
-38384 -591 0
-38384 -592 0
-38384 -599 0
-38385 -586 0
-38385 -591 0
-38385 -592 0
-38385 -599 0
-38386 -586 38398 0
-38386 -591 0
-38386 -592 0
-38386 -599 0
-38386 38397 -626 0
38397 -38386 -630 0
-586 -38387 0
-38387 -587 0
-588 -38387 0
-589 -38387 0
-590 -38387 0
-38387 -591 0
-592 -38387 0
-594 -38387 0
-599 38398 -38387 0
-38388 -631 0
-38388 -634 0
-38388 -635 0
-38388 -636 0
-38388 -637 0
-38389 -631 0
-38389 -634 0
-38389 -635 0
-38389 -636 0
-38389 -637 0
-38390 -631 0
-38390 -634 0
-38390 -635 0
-38390 -636 0
-38390 -637 0
-38391 -631 0
-38391 -634 0
-38391 -635 0
-38391 -636 0
-38391 -637 0
-38392 -631 0
-38392 -634 0
-38392 -635 0
-38392 -636 0
-38392 -637 0
-38393 -631 0
-38393 -634 0
-38393 -635 0
-38393 -636 0
-38393 -637 0
-38394 -631 0
-38394 -634 0
-38394 -635 0
-38394 -636 0
-38394 -637 0
-631 -38395 0
-38395 -634 38408 0
-38395 -635 0
-636 -38395 0
-38395 -637 0
-38396 -631 0
-38396 -634 0
-38396 -635 38408 0
-38396 -636 0
-38396 -637 0
-631 -38397 38409 0
-634 -38397 0
-38397 -635 0
-636 -38397 0
-38397 -637 0
-38397 -670 38408 0
-38397 -671 38408 0
-631 -38398 0
-634 -38398 0
-38398 -635 0
-636 -38398 0
-38398 -637 0
38409 -640 -38398 0
-38399 -681 0
-38399 -682 0
-38400 -681 0
-38400 -682 0
-38401 -681 0
-38401 -682 0
-38402 -681 0
-38402 -682 0
-38403 -681 0
-38403 -682 0
-38404 -681 0
-38404 -682 0
-38405 -681 0
-38405 -682 0
-38406 -681 0
-38406 -682 0
-38407 -681 0
-38407 -682 0
-38408 -677 0
-678 -38408 0
-679 -38408 0
-38408 -680 0
-38408 -681 0
-38408 -682 0
-38408 -685 0
-38408 -686 0
-38408 -687 0
-38408 -688 0
-38408 -689 0
-693 -38408 38419 0
-694 -38408 38419 0
-695 -38408 38419 0
-696 -38408 38419 0
-38408 -697 38419 0
-700 -38408 38419 0
-701 -38408 38419 0
-38408 -702 38419 0
-703 -38408 38419 0
-706 -38408 38419 0
-707 -38408 38419 0
-708 -38408 38419 0
-711 -38408 38419 0
-712 -38408 38419 0
-715 -38408 38419 0
-38408 -716 38419 0
-38408 -718 38419 0
-38408 -720 38419 0
-681 -38409 0
-682 -38409 0
-38410 -722 0
-38411 -722 0
-38412 -722 0
-38413 -722 0
-38414 -722 0
-38415 -722 38430 0
-38416 -722 0
-38417 -722 0
-38418 -722 0
-38419 -722 0
-723 -38419 0
-724 -38419 0
-725 -38419 0
-726 -38419 0
-727 -38419 0
-38419 -730 0
-731 -38419 0
-38419 -732 0
-733 -38419 0
-734 -38419 0
-38419 -735 0
-38419 -738 38430 0
-739 -38419 38430 0
-740 -38419 38430 0
-741 -38419 38430 0
-38419 -742 38430 0
-38419 -745 38430 0
-746 -38419 38430 0
-747 -38419 38430 0
-38419 -748 38430 0
-38419 -751 38430 0
-38419 -752 38430 0
-38419 -753 38430 0
-38419 -756 38430 0
-38419 -757 38430 0
-38419 -760 38430 0
-38419 -761 38430 0
-38419 -763 38430 0
-38420 -722 0
-38430 -775 0
-38430 -783 38441 0
-38430 -790 38441 0
-38430 -796 38441 0
-38430 -801 38441 0
-38430 -805 38441 0
-38430 -808 38441 0
-38430 -810 38441 0
38795 0
38796 0
38797 0
38798 0
38799 0
38800 0
38801 0
38802 0
38803 0
38786 766 -38795 768 769 770 771 772 773 774 767 0
-38787 -775 0
38787 775 -38796 769 770 771 772 773 774 767 776 777 778 779 780 781 782 768 0
38788 783 769 770 771 772 773 774 -38797 777 778 779 780 781 782 768 784 785 786 787 788 789 776 0
38789 790 770 771 772 773 774 777 778 779 780 781 782 -38798 785 786 787 788 789 769 791 792 793 794 795 784 0
-38790 -796 0
38790 796 771 772 773 774 778 779 780 781 782 785 786 787 788 789 -38799 792 793 794 795 770 797 798 799 800 791 0
-38791 -801 0
38791 801 772 773 774 779 780 781 782 786 787 788 789 792 793 794 795 -38800 798 799 800 771 802 803 804 797 0
-38792 -805 0
38792 805 773 774 780 781 782 787 788 789 793 794 795 798 799 800 -38801 803 804 772 806 807 802 0
-38793 -808 0
38793 808 774 781 782 788 789 794 795 799 800 803 804 -38802 807 773 809 806 0
810 38794 782 789 795 800 804 807 -38803 774 809 0
-767 -38796 -38795 0
-768 -38796 -38795 0
-769 -38796 -38795 0
-770 -38796 -38795 0
-771 -38796 -38795 0
-772 -38796 -38795 0
-773 -38796 -38795 0
-774 -38796 -38795 0
-776 -38797 -38796 0
-777 -38797 -38796 0
-778 -38797 -38796 0
-779 -38797 -38796 0
-780 -38797 -38796 0
-781 -38797 -38796 0
-782 -38797 -38796 0
-784 -38798 -38797 0
-785 -38798 -38797 0
-786 -38798 -38797 0
-787 -38798 -38797 0
-788 -38798 -38797 0
-789 -38798 -38797 0
-791 -38799 -38798 0
-792 -38799 -38798 0
-793 -38799 -38798 0
-794 -38799 -38798 0
-795 -38799 -38798 0
-797 -38800 -38799 0
-798 -38800 -38799 0
-799 -38800 -38799 0
-800 -38800 -38799 0
-802 -38801 -38800 0
-803 -38801 -38800 0
-804 -38801 -38800 0
-806 -38802 -38801 0
-807 -38802 -38801 0
-809 -38803 -38802 0
-38777 38786 0
-721 -38777 0
-38777 -722 0
-723 -38777 0
-724 -38777 0
-725 -38777 0
-726 -38777 0
-727 -38777 0
38777 728 -38786 721 722 726 725 724 727 729 723 0
-38778 38787 0
-722 -38778 0
-723 -38778 0
-724 -38778 0
-725 -38778 0
-726 -38778 0
-727 -38778 0
-38778 -730 0
-731 -38778 0
-732 -38778 0
-733 -38778 0
-734 -38778 0
730 722 38778 -38787 737 732 723 728 729 726 724 727 725 733 735 734 736 731 0
-38779 38788 0
-731 -38779 0
-38779 -738 0
-739 -38779 0
-740 -38779 0
-741 -38779 0
-38779 -742 0
728 38779 731 726 736 740 742 729 734 743 723 727 725 -38788 737 735 733 732 724 739 738 744 741 0
-746 -38780 0
38780 728 736 732 -38789 749 729 735 746 724 742 750 737 725 745 727 741 743 744 733 740 734 739 747 748 726 0
-38781 38790 0
-726 -38781 0
-733 -38781 0
-734 -38781 0
-740 -38781 0
-741 -38781 0
-746 -38781 0
-747 -38781 0
-38781 -751 0
-38781 -752 0
728 38781 751 736 -38790 729 748 753 733 726 737 752 734 746 743 744 741 742 740 735 749 750 727 725 754 755 747 0
-734 -38782 0
-741 -38782 0
-38782 -747 0
-38782 -752 0
-38782 -756 0
728 38782 756 736 729 752 735 -38791 737 748 727 743 744 753 757 749 750 742 747 754 755 734 741 758 759 726 0
-38783 38792 0
-727 -38783 0
-38783 -735 0
-38783 -742 0
-38783 -748 0
-38783 -753 0
-757 -38783 0
-760 -38783 0
-38783 -761 0
728 760 38783 729 -38792 737 736 735 748 744 761 749 750 743 754 755 757 758 759 742 753 762 727 0
-38784 38793 0
-38784 -761 0
-38784 -763 0
749 754 38784 729 737 744 -38793 736 750 743 755 758 759 763 762 728 764 761 0
-737 -38785 0
-744 -38785 0
-755 -38785 0
-762 -38785 0
-765 -38785 0
-38794 729 38785 764 737 744 765 762 750 759 755 0
-723 -38786 -38788 0
-724 -38786 -38789 0
-724 -38789 -38788 0
-725 -38787 -38790 0
-725 -38788 -38790 0
-726 -38790 -38787 0
-726 -38790 -38788 0
-726 -38790 -38791 0
-727 -38790 -38786 0
-727 -38790 -38787 0
-727 -38790 -38788 0
-727 -38790 -38792 0
-727 -38791 -38792 0
-731 -38787 -38788 0
-732 -38788 -38787 0
-732 -38787 -38789 0
-732 -38788 -38789 0
-733 -38788 -38787 0
-733 -38787 -38790 0
-733 -38788 -38790 0
-733 -38789 -38790 0
-734 -38788 -38787 0
-734 -38788 -38789 0
-734 -38788 -38790 0
-734 -38790 -38789 0
-734 -38790 -38791 0
-735 -38788 -38790 0
-735 -38788 -38791 0
-735 -38790 -38792 0
-736 -38793 -38792 0
-737 -38790 -38793 0
-737 -38794 -38792 0
-737 -38793 -38794 0
-739 -38788 -38789 0
-740 -38788 -38789 0
-740 -38788 -38790 0
-740 -38789 -38790 0
-741 -38789 -38788 0
-741 -38788 -38790 0
-741 -38788 -38791 0
-741 -38789 -38790 0
-741 -38790 -38791 0
-742 -38789 -38788 0
-742 -38790 -38792 0
-743 -38788 -38789 0
-744 -38789 -38788 0
-744 -38792 -38793 0
-744 -38794 -38792 0
-744 -38793 -38794 0
-746 -38789 -38790 0
-747 -38789 -38790 0
-747 -38789 -38791 0
-747 -38790 -38791 0
-748 -38790 -38789 0
-748 -38790 -38792 0
-748 -38791 -38792 0
-752 -38790 -38791 0
-753 -38791 -38790 0
-753 -38790 -38792 0
-753 -38791 -38792 0
-755 -38792 -38793 0
-755 -38794 -38792 0
-755 -38793 -38794 0
-757 -38791 -38792 0
-761 -38793 -38792 0
-762 -38792 -38793 0
-762 -38794 -38792 0
-762 -38794 -38793 0
-678 -38768 0
-679 -38768 0
-38768 -680 0
-683 -38768 0
-38777 684 38768 676 683 680 681 682 679 677 678 0
-38769 38778 0
-678 -38769 0
-679 -38769 0
-38769 -680 0
-685 -38769 0
-38769 -686 0
-38769 -687 0
-688 -38769 0
-38769 -689 0
-690 -38769 0
-38778 682 687 38769 683 689 690 685 677 681 686 688 678 680 679 691 692 684 0
-38770 38779 0
-678 -38770 0
-679 -38770 0
-38770 -680 0
-38770 -689 0
-693 -38770 0
-694 -38770 0
-696 -38770 0
-38770 -697 0
38770 -38779 693 689 690 684 683 682 681 694 679 680 697 691 692 678 696 695 688 687 698 699 686 0
-38771 38780 0
-679 -38771 0
-38771 -680 0
-683 -38771 0
-38771 -687 0
-688 -38771 0
-694 -38771 0
-38771 -699 0
-700 -38771 0
-701 -38771 0
-38771 -702 0
-703 -38771 0
-704 -38771 0
-705 -38771 0
684 687 38771 689 -38780 700 681 682 697 703 690 691 692 688 694 679 683 698 699 695 702 696 680 705 704 701 0
-38772 38781 0
-695 -38772 0
-701 -38772 0
-38772 -702 0
-703 -38772 0
-704 -38772 0
-705 -38772 0
-706 -38772 0
-707 -38772 0
-708 -38772 0
-709 -38772 0
-38772 -710 0
680 689 38772 -38781 706 707 690 703 682 691 684 702 683 705 698 688 699 692 697 681 704 695 696 701 709 710 708 0
38773 681 -38782 689 711 691 696 690 684 682 702 698 697 699 704 692 705 683 708 709 710 703 707 713 714 712 0
-38774 38783 0
-38774 -697 0
-703 -38774 0
-708 -38774 0
-712 -38774 0
-38774 -715 0
-38774 -716 0
682 716 38774 697 -38783 715 692 691 698 708 684 683 690 704 709 710 705 713 714 699 703 717 712 0
-38775 38784 0
-683 -38775 0
-699 -38775 0
-704 -38775 0
-705 -38775 0
-709 -38775 0
-38775 -710 0
-38775 -716 0
-38775 -718 0
-38784 698 38775 716 718 692 684 691 709 705 683 713 714 699 717 704 719 710 0
-38776 38785 0
-720 -38776 0
692 -38785 38776 720 699 714 684 717 719 710 705 0
-678 -38778 -38777 0
-678 -38777 -38779 0
-679 -38778 -38777 0
-679 -38777 -38779 0
-680 -38778 -38777 0
-680 -38777 -38779 0
-683 -38778 -38777 0
-684 -38777 -38785 0
-684 -38782 -38783 0
-686 -38778 -38779 0
-38778 -687 -38779 0
-38778 -687 -38780 0
-688 -38779 -38778 0
-688 -38780 -38778 0
-688 -38781 -38778 0
-688 -38780 -38779 0
-688 -38779 -38781 0
-689 -38779 -38778 0
-689 -38780 -38778 0
-689 -38778 -38782 0
-689 -38779 -38780 0
-38779 -689 -38781 0
-689 -38780 -38781 0
-689 -38781 -38782 0
-690 -38779 -38778 0
-690 -38781 -38778 0
-690 -38783 -38778 0
-690 -38779 -38783 0
-690 -38780 -38781 0
-690 -38780 -38783 0
-690 -38783 -38782 0
-692 -38778 -38782 0
-694 -38780 -38779 0
-695 -38780 -38779 0
-695 -38779 -38781 0
-695 -38780 -38781 0
-696 -38779 -38780 0
-696 -38779 -38781 0
-696 -38779 -38782 0
-696 -38780 -38781 0
-696 -38780 -38782 0
-696 -38781 -38782 0
-38779 -697 -38780 0
-38779 -697 -38781 0
-697 -38779 -38783 0
-38780 -697 -38782 0
-697 -38780 -38783 0
-697 -38783 -38782 0
-699 -38782 -38779 0
-699 -38779 -38785 0
-701 -38780 -38781 0
-702 -38780 -38781 0
-702 -38780 -38782 0
-702 -38781 -38782 0
-703 -38780 -38781 0
-703 -38780 -38782 0
-703 -38780 -38783 0
-703 -38781 -38782 0
-703 -38783 -38782 0
-705 -38782 -38780 0
-705 -38780 -38785 0
-707 -38781 -38782 0
-708 -38781 -38782 0
-708 -38783 -38782 0
-710 -38781 -38782 0
-712 -38783 -38782 0
-714 -38782 -38783 0
-716 -38783 -38784 0
-38759 38768 0
-38759 -632 0
-633 -38759 0
-634 -38759 0
-38759 -635 0
-638 -38759 0
-639 -38759 0
-38768 631 38759 634 639 633 636 637 635 632 638 0
-38760 38769 0
-38760 -632 0
-633 -38760 0
-634 -38760 0
-38760 -635 0
-638 -38760 0
-640 -38760 0
-641 -38760 0
-642 -38760 0
-643 -38760 0
-644 -38760 0
-38760 -645 0
-38769 636 38760 645 634 640 639 647 633 644 637 638 641 642 643 646 632 635 0
-38761 38770 0
-633 -38761 0
-38761 -634 0
-641 -38761 0
-38761 -642 0
-643 -38761 0
-644 -38761 0
-38761 -645 0
-647 -38761 0
-38761 -648 0
-650 -38761 0
-651 -38761 0
-654 -38761 0
38761 -38770 648 645 636 638 642 649 634 633 639 651 641 646 647 644 652 637 643 650 653 654 635 0
-38762 38771 0
-38762 -634 0
-38762 -642 0
-643 -38762 0
-38762 -645 0
-649 -38762 0
-650 -38762 0
-38762 -652 0
-654 -38762 0
655 -38771 38762 657 645 642 634 653 639 638 643 646 651 649 652 635 656 647 654 650 637 636 658 659 660 644 0
-38763 38772 0
-38763 -635 0
-653 -38763 0
-654 -38763 0
-659 -38763 0
-663 -38763 0
661 -38772 38763 637 635 636 645 644 651 646 647 639 658 650 653 657 652 663 638 659 660 656 662 654 664 665 643 0
-38764 38773 0
-38764 -666 0
-667 -38764 0
-668 -38764 0
38764 666 -38773 637 636 667 639 646 647 654 644 653 638 652 668 659 660 651 658 664 665 657 662 663 669 645 0
38765 637 -38774 671 663 646 647 670 653 639 654 659 660 638 664 665 652 668 669 645 667 672 658 0
-38766 38775 0
-654 -38766 0
-668 -38766 0
-38766 -671 0
-38766 -673 0
647 -38775 38766 671 673 646 653 659 660 664 665 668 669 638 672 639 674 654 0
-38767 38776 0
-654 -38767 0
-675 -38767 0
669 -38776 38767 675 647 660 654 665 674 672 639 0
-38769 -38768 -632 0
-633 -38769 -38768 0
-634 -38769 -38768 0
-634 -38769 -38771 0
-635 -38769 -38768 0
-635 -38768 -38772 0
-636 -38768 -38773 0
-638 -38769 -38768 0
-638 -38769 -38772 0
-639 -38769 -38768 0
-639 -38769 -38772 0
-641 -38769 -38770 0
-642 -38769 -38770 0
-642 -38769 -38771 0
-643 -38769 -38770 0
-643 -38769 -38772 0
-643 -38770 -38771 0
-644 -38769 -38770 0
-644 -38771 -38769 0
-644 -38769 -38772 0
-644 -38769 -38773 0
-644 -38771 -38772 0
-38769 -645 -38770 0
-38769 -645 -38772 0
-38770 -645 -38771 0
-645 -38772 -38773 0
-645 -38773 -38774 0
-649 -38770 -38771 0
-650 -38771 -38770 0
-650 -38771 -38772 0
-651 -38771 -38770 0
-651 -38772 -38770 0
-651 -38770 -38773 0
-651 -38771 -38772 0
-651 -38772 -38773 0
-652 -38770 -38771 0
-652 -38773 -38774 0
-654 -38775 -38776 0
-656 -38771 -38772 0
-657 -38771 -38772 0
-658 -38771 -38772 0
-658 -38773 -38774 0
-662 -38772 -38773 0
-663 -38772 -38773 0
-663 -38773 -38774 0
-667 -38773 -38774 0
-671 -38774 -38775 0
-38750 38759 0
-586 -38750 0
-38750 -587 0
-588 -38750 0
-589 -38750 0
-590 -38750 0
-38759 586 38750 594 590 588 591 592 593 587 589 0
-38751 38760 0
-38751 -587 0
-588 -38751 0
-589 -38751 0
-590 -38751 0
-595 -38751 0
-596 -38751 0
-597 -38751 0
-598 -38751 0
-599 -38751 0
-600 -38751 0
-601 -38751 0
-602 -38751 0
-38760 591 38751 597 599 596 595 593 589 600 588 594 590 602 592 587 601 598 0
-38752 38761 0
-588 -38752 0
-589 -38752 0
-590 -38752 0
-38752 -596 0
-38752 -597 0
-598 -38752 0
-38752 -599 0
-38752 -600 0
-38752 -601 0
-38752 -602 0
-603 -38752 0
-606 -38752 0
-607 -38752 0
-609 -38752 0
-38761 38752 592 597 593 599 600 591 598 589 588 590 605 601 602 603 594 607 596 606 608 609 604 0
-38753 38762 0
-589 -38753 0
-590 -38753 0
-38753 -597 0
-38753 -598 0
-38753 -599 0
-38753 -600 0
-38753 -604 0
-38753 -605 0
-38753 -606 0
-38753 -607 0
-613 -38753 0
-38762 38753 592 593 597 600 599 610 590 611 589 591 602 601 607 612 605 608 609 604 594 606 613 614 615 598 0
-38754 38763 0
-605 -38754 0
-38754 -607 0
-613 -38754 0
-38754 -618 0
-38763 38754 616 618 599 600 593 591 594 598 602 592 601 590 612 609 605 607 611 614 615 613 617 606 619 620 608 0
38755 -38764 621 618 593 600 599 591 602 622 601 617 609 607 592 614 615 594 612 619 620 608 613 623 624 606 0
-38765 592 626 625 38756 602 594 618 593 609 608 622 615 614 619 620 607 623 624 613 601 627 600 0
-38757 38766 0
-38757 -601 0
-602 -38757 0
-609 -38757 0
-38757 -614 0
-615 -38757 0
-38757 -619 0
-620 -38757 0
-38757 -623 0
-38757 -626 0
-38757 -628 0
-38766 602 38757 626 627 628 594 609 615 619 620 623 624 614 593 608 629 601 0
-38758 38767 0
-630 -38758 0
-38767 627 38758 594 615 620 630 629 624 609 602 0
-588 -38760 -38759 0
-589 -38760 -38759 0
-590 -38760 -38759 0
-591 -38763 -38764 0
-594 -38764 -38761 0
-596 -38760 -38761 0
-38761 -597 -38760 0
-597 -38760 -38762 0
-597 -38761 -38762 0
-598 -38761 -38760 0
-598 -38760 -38762 0
-598 -38760 -38763 0
-598 -38761 -38762 0
-599 -38760 -38761 0
-599 -38760 -38762 0
-599 -38760 -38763 0
-599 -38761 -38762 0
-600 -38760 -38761 0
-600 -38760 -38762 0
-600 -38760 -38763 0
-600 -38761 -38762 0
-602 -38764 -38761 0
-604 -38761 -38762 0
-605 -38761 -38762 0
-605 -38763 -38761 0
-605 -38763 -38762 0
-606 -38761 -38762 0
-606 -38761 -38763 0
-606 -38761 -38764 0
-606 -38763 -38762 0
-607 -38761 -38762 0
-607 -38761 -38763 0
-607 -38763 -38762 0
-607 -38762 -38764 0
-609 -38764 -38761 0
-611 -38763 -38762 0
-612 -38763 -38762 0
-613 -38763 -38762 0
-613 -38762 -38764 0
-613 -38763 -38764 0
-615 -38764 -38763 0
-617 -38763 -38764 0
-618 -38763 -38764 0
-620 -38764 -38763 0
-38765 -38766 -626 0
-38741 38750 0
-38741 -542 0
-543 -38741 0
-544 -38741 0
-545 -38741 0
38741 -38750 542 546 541 544 543 548 547 549 545 0
-38742 38751 0
-550 -38742 0
-551 -38742 0
-552 -38742 0
-553 -38742 0
-554 -38742 0
-555 -38742 0
-38751 38742 546 555 547 543 554 548 549 542 551 556 550 545 553 544 557 552 0
-38743 38752 0
-543 -38743 0
-544 -38743 0
-545 -38743 0
-38743 -551 0
-552 -38743 0
-553 -38743 0
-38743 -554 0
-555 -38743 0
-38743 -556 0
-558 -38743 0
-559 -38743 0
-560 -38743 0
-562 -38743 0
-563 -38743 0
-38752 38743 556 554 548 547 546 549 563 545 562 561 552 560 557 555 553 551 543 559 544 564 558 0
-38744 38753 0
-38744 -554 0
-38744 -556 0
-559 -38744 0
-560 -38744 0
-38744 -561 0
-562 -38744 0
-563 -38744 0
-567 -38744 0
-570 -38744 0
-38753 38744 556 554 546 547 549 560 545 567 561 544 557 555 559 553 562 563 564 548 566 565 568 569 570 552 0
-38754 38745 546 571 548 549 547 567 554 556 557 545 561 560 563 564 566 553 568 569 570 562 572 573 574 575 555 0
-38755 38746 546 577 549 548 572 547 557 562 554 563 564 556 568 569 570 555 573 574 575 567 561 578 579 576 0
-38756 38747 548 549 556 581 557 580 568 564 547 569 570 563 574 575 577 578 579 555 562 582 573 0
-38748 38757 0
-38748 -556 0
-563 -38748 0
-569 -38748 0
-570 -38748 0
-574 -38748 0
-578 -38748 0
-38748 -581 0
-38748 -583 0
-38757 549 556 38748 582 569 564 583 570 581 575 557 579 574 548 563 584 578 0
-38749 38758 0
-570 -38749 0
-579 -38749 0
-585 -38749 0
-38758 549 584 38749 585 564 579 582 575 557 570 0
-543 -38750 -38751 0
-544 -38750 -38751 0
-545 -38750 -38751 0
-545 -38754 -38751 0
-38751 -546 -38750 0
-38754 -38751 -546 0
-547 -38750 -38751 0
-547 -38754 -38751 0
-552 -38753 -38751 0
-553 -38753 -38751 0
-553 -38751 -38754 0
-38752 -554 -38751 0
-38753 -554 -38751 0
-38751 -554 -38754 0
-38755 -554 -38751 0
-555 -38753 -38751 0
-555 -38751 -38754 0
-38753 -561 -38752 0
-561 -38752 -38754 0
-561 -38755 -38752 0
-561 -38753 -38754 0
-38753 -561 -38755 0
-561 -38755 -38754 0
-562 -38755 -38754 0
-563 -38755 -38754 0
-38753 -567 -38754 0
-567 -38755 -38754 0
-568 -38755 -38754 0
-569 -38755 -38754 0
-570 -38757 -38758 0
-572 -38755 -38754 0
-573 -38755 -38754 0
-579 -38757 -38758 0
-38756 -38757 -581 0
-38732 38741 0
-38732 -496 0
-38732 -497 0
-38732 -498 0
-38732 -499 0
-38732 -500 0
38732 -38741 499 496 502 500 501 498 503 504 497 0
-38733 38742 0
-497 -38733 0
-498 -38733 0
-499 -38733 0
-500 -38733 0
-505 -38733 0
-506 -38733 0
-507 -38733 0
-508 -38733 0
-510 -38733 0
-511 -38733 0
-38742 38733 499 498 509 501 502 503 504 508 510 511 505 500 497 506 512 507 0
-38734 38743 0
-38734 -511 0
-38734 -518 0
-38743 506 38734 516 502 501 503 504 518 498 500 511 515 499 512 513 517 514 509 510 507 519 508 0
-38735 -521 0
-38744 509 38735 522 501 503 504 500 502 518 499 510 512 520 521 514 508 516 519 507 517 511 524 523 525 515 0
-38745 502 38736 501 503 504 500 509 516 518 512 523 524 508 510 519 511 522 517 528 525 526 527 521 515 530 529 0
-38746 503 38737 501 504 502 509 528 512 529 532 531 519 533 516 517 525 523 522 527 530 524 511 510 534 518 0
-38747 503 38738 504 502 536 512 535 510 519 532 518 525 523 529 530 524 533 534 517 511 537 528 0
-38739 38748 0
-511 -38739 0
-38739 -518 0
-524 -38739 0
-529 -38739 0
-533 -38739 0
-536 -38739 0
-38739 -538 0
-38748 504 38739 503 512 538 519 536 525 518 530 533 534 511 529 537 539 524 0
-38740 38749 0
-530 -38740 0
-537 -38740 0
-38740 -540 0
-38749 525 504 38740 539 519 534 540 512 537 530 0
-38743 -498 -38742 0
-38743 -499 -38742 0
-38743 -500 -38742 0
-506 -38742 -38743 0
-507 -38742 -38743 0
-38743 -508 -38742 0
-38743 -509 -38742 0
-510 -38742 -38743 0
-38743 -511 -38742 0
-38744 -514 -38743 0
-38744 -515 -38743 0
-38744 -517 -38743 0
-38744 -38743 -518 0
-38747 -38748 -536 0
-38723 38732 0
-453 -38723 0
-38723 -454 0
-38723 -455 0
38723 -38732 454 452 458 455 456 457 451 459 453 0
-38724 38733 0
-452 -38724 0
-453 -38724 0
-454 -38724 0
-455 -38724 0
-460 -38724 0
-461 -38724 0
-462 -38724 0
-463 -38724 0
-464 -38724 0
-465 -38724 0
-466 -38724 0
-467 -38724 0
-38733 38724 460 452 454 456 457 464 459 463 465 458 462 466 455 453 467 461 0
-38725 38734 0
-38734 38725 471 468 456 457 469 459 466 470 473 454 458 453 467 472 464 461 462 465 463 474 455 0
-38735 38726 471 456 457 470 459 469 472 463 466 475 467 462 465 458 455 473 474 478 454 476 477 479 480 464 0
-38737 38728 457 456 459 488 465 482 467 466 473 471 474 483 487 479 480 464 484 478 485 472 458 477 489 486 0
-38738 490 38729 459 491 472 467 457 473 474 458 479 480 484 483 485 466 488 489 465 487 492 478 0
-38730 38739 0
-38730 -458 0
-466 -38730 0
-467 -38730 0
-473 -38730 0
-474 -38730 0
-479 -38730 0
-480 -38730 0
-484 -38730 0
-485 -38730 0
-38730 -488 0
-489 -38730 0
-38730 -491 0
-493 -38730 0
-38739 491 38730 488 458 493 474 479 485 480 467 489 484 466 492 459 494 473 0
-38731 38740 0
-38731 -495 0
-38740 38731 495 459 485 467 489 492 494 480 474 0
-38732 -452 -38733 0
-453 -38733 -38732 0
-453 -38734 -38733 0
-38732 -454 -38733 0
-38734 -454 -38733 0
-38733 -455 -38732 0
-38734 -455 -38733 0
-38734 -461 -38733 0
-462 -38734 -38733 0
-462 -38735 -38733 0
-462 -38735 -38734 0
-38734 -463 -38733 0
-38735 -463 -38733 0
-38735 -38734 -463 0
-38734 -464 -38733 0
-38734 -465 -38733 0
-38735 -465 -38733 0
-38735 -38734 -465 0
-466 -38734 -38733 0
-38735 -466 -38734 0
-38735 -38734 -469 0
-38735 -38734 -470 0
-38735 -472 -38734 0
-473 -38735 -38734 0
-38738 -38739 -491 0
-38714 38723 0
-38714 -406 0
-38714 -407 0
-38714 -408 0
-410 -38714 0
-38723 414 407 406 38714 410 411 412 413 409 408 0
-38715 38724 0
-38715 -415 0
-38724 409 415 422 407 411 412 413 414 417 419 418 420 410 416 421 38715 408 0
-38725 414 38716 410 411 412 413 424 419 426 416 423 427 418 422 425 408 421 409 420 428 429 417 0
-38726 414 412 411 426 413 38717 424 410 419 418 427 422 425 409 431 421 420 429 428 430 432 433 434 435 417 0
-38721 38730 0
-444 -38721 0
-446 -38721 0
-38721 -448 0
-449 -38721 0
-38730 38721 448 443 422 446 428 440 435 413 414 449 421 434 447 444 439 429 0
-38722 38731 0
-450 -38722 0
-38731 422 38722 450 435 414 444 447 449 440 429 0
-38723 -407 -38724 0
-38723 -408 -38724 0
-38724 -410 -38723 0
-416 -38725 -38724 0
-38725 -417 -38724 0
-38726 -417 -38724 0
-38725 -418 -38724 0
-420 -38725 -38724 0
-38726 -420 -38724 0
-421 -38725 -38724 0
-38729 -446 -38730 0
-38705 38714 0
-38705 -365 0
38705 -38714 369 361 363 364 366 367 368 365 362 0
-38706 38715 0
-38706 -362 0
-38706 -363 0
-38715 38706 364 372 363 366 367 368 369 365 376 370 374 375 371 373 377 362 0
-38712 38721 0
-38721 38712 368 401 398 389 376 403 394 377 383 369 390 395 402 384 404 399 0
-38713 38722 0
-405 -38713 0
-38722 38713 402 404 390 369 399 405 377 395 384 0
-38715 -362 -38714 0
-38715 -363 -38714 0
-38715 -364 -38714 0
-38715 -365 -38714 0
-369 -38721 -38722 0
-38716 -38715 -371 0
-38716 -38715 -372 0
-38717 -38715 -372 0
-38716 -373 -38715 0
-38715 -38716 -375 0
-38696 38705 0
38696 -38705 324 316 321 319 318 322 323 317 320 0
-38706 38697 325 328 317 321 322 323 324 330 320 319 326 329 327 331 332 318 0
-38712 38703 323 332 344 356 349 350 353 338 345 324 354 339 357 358 359 331 0
-38704 38713 0
-38713 360 38704 339 324 350 354 357 359 332 345 0
-38687 38696 0
-38687 -274 0
38687 -38696 279 271 275 277 276 274 278 273 272 0
-38697 38688 276 281 282 286 277 278 280 273 279 284 275 274 272 285 287 283 0
-38703 311 38694 304 305 308 293 286 300 287 313 278 309 294 312 279 314 299 0
-38704 312 38695 315 294 300 309 287 314 305 279 0
-227 -38678 0
-38678 -228 0
-38678 -229 0
-38678 -230 0
38678 -38687 226 232 229 230 234 233 227 231 228 0
-38688 38679 231 241 234 230 232 233 236 240 237 239 238 227 229 228 242 235 0
-38694 254 255 234 38685 266 241 263 248 242 260 233 264 249 267 259 269 268 0
-38686 -270 0
-38695 270 38686 242 249 260 264 267 234 255 269 0
38669 -38678 182 184 185 186 181 187 188 189 183 0
-38686 38677 189 204 225 197 219 222 224 210 215 0
38660 -38669 140 138 137 139 141 142 143 144 136 0
-38677 38668 159 144 165 170 174 177 179 152 180 0
-38668 114 38659 135 120 125 129 132 134 107 99 0
38914 -19 0
-38914 -26 0
-38914 -34 0
-38920 -63 2135 0
-38920 -65 2135 0
-38920 -67 2135 0
-38920 -70 2136 0
-38920 -76 2137 0
-78 38920 -2137 2140 0
-79 38920 -2137 2141 0
-38920 -82 2138 0
-38920 -88 2140 0
-38921 -63 2305 0
-38921 -65 2305 0
-38921 -67 2305 0
-38921 -68 2305 0
-38921 -73 2306 0
-38921 -76 2307 0
-78 -38921 2307 0
-38921 -82 2308 0
-82 38921 -2308 2310 0
-83 38921 -2308 2311 0
-38921 -88 2310 0
-38922 -63 2475 0
-38922 -65 2475 0
-38922 -76 2477 0
-38922 -82 2478 0
-38922 -88 2480 0
-38923 -63 2645 0
-38923 -64 2645 0
-38923 -65 2645 0
-38923 -68 2645 0
-38923 -70 -2647 0
-38923 -74 2646 0
-38923 -76 2647 0
-76 38923 -2647 2648 0
-78 38923 2650 -2647 0
-79 38923 2651 -2647 0
-38923 -82 2648 0
-38923 -88 2650 0
-38924 2815 -63 0
-38924 -65 -2818 0
-38924 -76 -2818 0
-38924 -82 2818 0
-38924 -88 2820 0
-38925 2985 -63 0
-38925 -65 -2988 0
-38925 -76 -2988 0
-38925 -82 2988 0
-38925 -88 2990 0
-38926 -63 3155 0
-38926 -65 3155 0
-38926 -76 3157 0
-38926 -82 3158 0
-38926 -88 -3161 0
-38927 -63 3495 0
-38927 -65 3495 0
-38927 -76 3497 0
-38927 -82 3498 0
-38927 -88 3500 0
-38928 -63 3665 0
-38928 -65 3665 0
-38928 -76 3667 0
-38928 -82 3668 0
-38928 -88 3670 0
-38929 -63 3835 0
-38929 -65 3835 0
-38929 -76 3837 0
-38929 -82 3838 0
-38929 -88 3840 0
-38930 -63 4005 0
-65 -38930 4005 0
-76 -38930 4007 0
-38930 -82 4008 0
-88 -38930 4010 0
-38931 -63 4175 0
-38931 -65 4175 0
-38931 -76 4177 0
-38931 -82 4178 0
-38931 -88 4180 0
-38932 4345 -63 0
-38932 -65 -4348 0
-38932 -76 -4348 0
-38932 -82 4348 0
-38932 -88 4350 0
-38933 -63 4515 0
-38933 -65 4515 0
-38933 -76 4517 0
-38933 -82 4518 0
-38933 -88 4520 0
-38934 -63 4685 0
-65 -38934 4685 0
-38934 -76 4687 0
-38934 -82 4688 0
-38934 -88 4690 0
-38935 -63 4855 0
-38935 -65 4855 0
-38935 -76 4857 0
-38935 -82 4858 0
-38935 -88 4860 0
-38936 -63 -5026 0
-38936 -65 5025 0
-38936 -76 5027 0
-38936 -82 5028 0
-38936 -88 5030 0
-38937 -63 -5196 0
-38937 -65 5195 0
-38937 -76 5197 0
-38937 -82 5198 0
-38937 -88 5200 0
-38938 -63 5365 0
-38938 -65 5365 0
-38938 -76 5367 0
-38938 -82 5368 0
-38938 -88 5370 0
-38939 -63 5535 0
-65 -38939 5535 0
-38939 -76 5537 0
-38939 -82 5538 0
-38939 -88 5540 0
-38940 -63 5705 0
-38940 -65 5705 0
-38940 -76 5707 0
-38940 -82 5708 0
-38940 -88 5710 0
-38941 -63 5875 0
-38941 -65 5875 0
-38941 -76 5877 0
-38941 -82 5878 0
-38941 -88 5880 0
-38942 -63 6045 0
-65 -38942 6045 0
-38942 -76 6047 0
-38942 -82 6048 0
-38942 -88 6050 0
-38943 -63 -6216 0
-38943 -65 6215 0
-38943 -76 6217 0
-38943 -82 6218 0
-38943 -88 6220 0
-38944 6385 -63 0
-38944 -65 -6388 0
-38944 -76 -6388 0
-38944 -82 6388 0
-38944 -88 6390 0
-38945 6555 -63 0
-38945 -65 -6558 0
-38945 -76 -6558 0
-38945 -82 6558 0
-38945 -88 6560 0
-38946 6725 -63 0
-38946 -65 -6728 0
-38946 -76 -6728 0
-38946 -82 6728 0
-38946 -88 6730 0
-38947 -63 6895 0
-38947 -65 -6898 0
-38947 -76 -6898 0
-38947 -82 6898 0
-38947 -88 6900 0
-38948 -63 -7066 0
-38948 -65 -7068 0
-38948 -76 -7068 0
-38948 -82 7068 0
-38948 -88 7070 0
-38949 7235 -63 0
-38949 -65 -7238 0
-38949 -76 -7238 0
-38949 -82 7238 0
-38949 -88 7240 0
-38950 7405 -63 0
-38950 -65 -7408 0
-38950 -76 -7408 0
-38950 -82 7408 0
-38950 -88 7410 0
-38951 7575 -63 0
-38951 -65 -7578 0
-38951 -76 -7578 0
-38951 -82 7578 0
-38951 -88 7580 0
-38952 -63 7745 0
-38952 -65 -7748 0
-38952 -76 -7748 0
-38952 -82 7748 0
-38952 -88 7750 0
-38953 -63 7915 0
-38953 -65 -7918 0
-38953 -76 -7918 0
-38953 -82 7918 0
-38953 -88 7920 0
-38954 -63 -8086 0
-38954 -65 -8088 0
-38954 -76 -8088 0
-38954 -82 8088 0
-38954 -88 8090 0
-38955 -63 8255 0
-38955 -65 8255 0
-38955 -76 8257 0
-38955 -82 8258 0
-38955 -88 8260 0
-38956 8425 -63 0
-38956 -65 -8428 0
-38956 -76 -8428 0
-38956 -82 -8430 0
-38956 -88 8430 0
-38957 -63 8595 0
-38957 -65 8595 0
-38957 -71 8596 0
-73 -38957 -8600 0
-38957 -76 8597 0
-38957 -78 8597 0
-38957 -82 8598 0
-38957 -82 -8600 0
-38957 -88 8600 0
-88 38957 8601 -8600 0
-38958 -63 8765 0
-38958 -65 8765 0
-38958 -76 8767 0
-38958 -82 8768 0
-38958 -88 8770 0
-38959 -63 8935 0
-38959 -65 8935 0
-38959 -76 8937 0
-38959 -82 8938 0
-38959 -88 8940 0
-38960 -63 -9106 0
-38960 -65 9105 0
-38960 -76 9107 0
-38960 -82 9108 0
-38960 -88 9110 0
-38961 -63 -9276 0
-38961 -65 9275 0
-38961 -76 9277 0
-38961 -82 9278 0
-38961 -88 9280 0
-38962 -63 9445 0
-38962 -65 9445 0
-38962 -76 9447 0
-38962 -82 9448 0
-38962 -88 9450 0
-38963 -63 9615 0
-38963 -65 9615 0
-38963 -76 9617 0
-38963 -82 9618 0
-38963 -88 9620 0
-38964 -63 9785 0
-38964 -65 9785 0
-38964 -76 9787 0
-38964 -82 9788 0
-38964 -88 9790 0
-38965 -9956 -63 0
-38965 -65 9955 0
-38965 -76 9957 0
-38965 -82 9958 0
-38965 -88 9960 0
-38966 -10126 -63 0
-38966 -65 10125 0
-38966 -76 10127 0
-38966 -82 10128 0
-38966 -88 10130 0
-38967 10295 -63 0
-38967 -65 -10298 0
-38967 -76 -10298 0
-38967 -82 -10300 0
-38967 -88 10300 0
-38968 10465 -63 0
-38968 -65 -10468 0
-38968 -76 -10468 0
-38968 -82 -10470 0
-38968 -88 10470 0
-38969 -63 10635 0
-38969 -65 -10638 0
-38969 -76 -10638 0
-38969 -82 -10640 0
-38969 -88 10640 0
-38970 -63 -10806 0
-38970 -65 -10808 0
-38970 -76 -10808 0
-38970 -82 -10810 0
-38970 -88 10810 0
-38971 -63 -10976 0
-38971 -65 -10978 0
-38971 -76 -10978 0
-38971 -82 -10980 0
-38971 -88 10980 0
-38972 -63 11145 0
-38972 -65 -11148 0
-38972 -76 -11148 0
-38972 -82 -11150 0
-38972 -88 11150 0
-38973 11315 -63 0
-38973 -65 -11318 0
-38973 -76 -11318 0
-38973 -82 -11320 0
-38973 -88 11320 0
-38974 -63 11485 0
-38974 -65 -11488 0
-38974 -76 -11488 0
-38974 -82 -11490 0
-38974 -88 11490 0
-38975 -63 -11656 0
-38975 -65 -11658 0
-38975 -76 -11658 0
-38975 -82 -11660 0
-38975 -88 11660 0
-38976 -63 -11826 0
-38976 -65 -11828 0
-38976 -76 -11828 0
-38976 -82 -11830 0
-38976 -88 11830 0
-38977 -63 12165 0
-65 -38977 12165 0
-38977 -76 12167 0
-38977 -82 12168 0
-38977 -88 12170 0
-38978 -63 12335 0
-38978 -65 12335 0
-38978 -76 12337 0
-38978 -82 12338 0
-38978 -88 12340 0
-38979 -63 12505 0
-38979 -65 12505 0
-38979 -76 12507 0
-38979 -82 12508 0
-38979 -88 -12511 0
-38980 -63 12675 0
-65 -38980 12675 0
-38980 -76 12677 0
-38980 -82 12678 0
-38980 -88 12680 0
-38981 -63 12845 0
-38981 -65 12845 0
-38981 -76 12847 0
-38981 -82 12848 0
-38981 -88 12850 0
-38982 -63 13015 0
-65 -38982 13015 0
-38982 -76 13017 0
-38982 -82 13018 0
-38982 -88 13020 0
-38983 13185 -63 0
-38983 -65 -13188 0
-38983 -76 -13188 0
-38983 -82 13188 0
-38983 -88 13190 0
-38984 -63 13355 0
-38984 -65 13355 0
-38984 -76 13357 0
-38984 -82 13358 0
-38984 -88 -13361 0
-38985 -63 13525 0
-65 -38985 13525 0
-38985 -76 13527 0
-38985 -82 13528 0
-38985 -88 13530 0
-38986 -63 13695 0
-38986 -65 13695 0
-38986 -76 13697 0
-38986 -82 13698 0
-38986 -88 13700 0
-38987 -63 13865 0
-38987 -65 13865 0
-38987 -76 13867 0
-38987 -82 13868 0
-38987 -88 13870 0
-38988 -63 -14036 0
-38988 -65 14035 0
-38988 -76 14037 0
-38988 -82 14038 0
-38988 -88 14040 0
-38989 -63 14205 0
-38989 -65 14205 0
-38989 -76 14207 0
-38989 -82 14208 0
-38989 -88 14210 0
-38990 -63 14375 0
-65 -38990 14375 0
-38990 -76 14377 0
-38990 -82 14378 0
-38990 -88 14380 0
-38991 -63 14545 0
-38991 -65 14545 0
-38991 -76 14547 0
-38991 -82 14548 0
-38991 -88 14550 0
-38992 -63 14715 0
-65 -38992 14715 0
-38992 -76 14717 0
-38992 -82 14718 0
-38992 -88 14720 0
-38993 -63 14885 0
-38993 -65 14885 0
-38993 -76 14887 0
-38993 -82 14888 0
-38993 -88 14890 0
-38994 -63 15055 0
-65 -38994 15055 0
-38994 -76 15057 0
-38994 -82 15058 0
-38994 -88 15060 0
-38995 -63 -15226 0
-38995 -65 15225 0
-38995 -76 15227 0
-38995 -82 15228 0
-38995 -88 15230 0
-38996 -63 -15396 0
-65 -38996 15395 0
-38996 -76 15397 0
-38996 -82 15398 0
-38996 -88 15400 0
-38997 15565 -63 0
-38997 -65 -15568 0
-38997 -76 -15568 0
-38997 -82 15568 0
-38997 -88 15570 0
-38998 15735 -63 0
-38998 -65 -15738 0
-38998 -76 -15738 0
-38998 -82 15738 0
-38998 -88 15740 0
-38999 15905 -63 0
-38999 -65 -15908 0
-38999 -76 -15908 0
-38999 -82 15908 0
-38999 -88 15910 0
-39000 -63 16075 0
-39000 -65 -16078 0
-39000 -76 -16078 0
-39000 -82 16078 0
-39000 -88 16080 0
-39001 -63 -16246 0
-39001 -65 -16248 0
-39001 -76 -16248 0
-39001 -82 16248 0
-39001 -88 16250 0
-39002 16415 -63 0
-39002 -65 -16418 0
-39002 -76 -16418 0
-39002 -82 16418 0
-39002 -88 16420 0
-39003 16585 -63 0
-39003 -65 -16588 0
-39003 -76 -16588 0
-39003 -82 16588 0
-39003 -88 16590 0
-39004 16755 -63 0
-39004 -65 -16758 0
-39004 -76 -16758 0
-39004 -82 16758 0
-39004 -88 16760 0
-39005 16925 -63 0
-39005 -65 -16928 0
-39005 -76 -16928 0
-39005 -82 16928 0
-39005 -88 16930 0
-39006 -63 17095 0
-39006 -65 -17098 0
-39006 -76 -17098 0
-39006 -82 17098 0
-39006 -88 17100 0
-39007 -63 17265 0
-39007 -65 -17268 0
-39007 -76 -17268 0
-39007 -82 17268 0
-39007 -88 17270 0
-39008 -63 -17436 0
-39008 -65 -17438 0
-39008 -76 -17438 0
-39008 -82 17438 0
-39008 -88 17440 0
-39009 -63 -17606 0
-39009 -65 -17608 0
-39009 -76 -17608 0
-39009 -82 17608 0
-39009 -88 17610 0
-39010 17945 -63 0
-39010 -65 -17948 0
-39010 -76 -17948 0
-39010 -82 -17950 0
-39010 -88 -17951 0
-39011 -63 18285 0
-65 -39011 18285 0
-39011 -76 18287 0
-39011 -82 18288 0
-39011 -88 -18291 0
-39012 -63 18455 0
-39012 -65 18455 0
-39012 -76 18457 0
-39012 -82 18458 0
-39012 -88 -18461 0
-39013 -63 18625 0
-39013 -65 18625 0
-39013 -76 18627 0
-39013 -82 18628 0
-39013 -88 -18631 0
-39014 -63 -18796 0
-39014 -65 18795 0
-39014 -76 18797 0
-39014 -82 18798 0
-39014 -88 -18801 0
-39015 -63 -18966 0
-39015 -65 18965 0
-39015 -76 18967 0
-39015 -82 18968 0
-39015 -88 -18971 0
-39016 -63 19135 0
-39016 -65 19135 0
-39016 -76 19137 0
-39016 -82 19138 0
-39016 -88 -19141 0
-39017 -63 19305 0
-65 -39017 19305 0
-39017 -76 19307 0
-39017 -82 19308 0
-39017 -88 -19311 0
-39018 -63 19475 0
-39018 -65 19475 0
-39018 -76 19477 0
-39018 -82 19478 0
-39018 -88 -19481 0
-39019 -63 19645 0
-39019 -65 19645 0
-39019 -76 19647 0
-39019 -82 19648 0
-39019 -88 -19651 0
-39020 -63 19815 0
-39020 -65 19815 0
-39020 -76 19817 0
-39020 -82 19818 0
-39020 -88 -19821 0
-39021 -63 19985 0
-39021 -65 19985 0
-39021 -76 19987 0
-39021 -82 19988 0
-39021 -88 -19991 0
-39022 -20156 -63 0
-39022 -65 20155 0
-39022 -76 20157 0
-39022 -82 20158 0
-39022 -88 -20161 0
-20326 -63 -39023 0
-39023 -65 20325 0
-39023 -76 20327 0
-39023 -82 20328 0
-39023 -88 -20331 0
-39024 -20496 -63 0
-39024 -65 20495 0
-39024 -76 20497 0
-39024 -82 20498 0
-39024 -88 -20501 0
-39025 -63 -20666 0
-39025 -65 -20668 0
-39025 -76 20667 0
-39025 -82 -20670 0
-39025 -88 -20671 0
-39026 21005 -63 0
-39026 -65 -21008 0
-39026 -76 -21008 0
-39026 -82 -21010 0
-39026 -88 -21011 0
-39027 21175 -63 0
-39027 -65 -21178 0
-39027 -76 21177 0
-39027 -82 -21180 0
-39027 -88 -21181 0
-39028 -63 21345 0
-39028 -65 -21348 0
-39028 -76 21347 0
-39028 -82 -21350 0
-39028 -88 -21351 0
-39029 -63 -21516 0
-39029 -65 -21518 0
-39029 -76 -21518 0
-39029 -82 -21520 0
-39029 -88 -21521 0
-39030 -63 -21686 0
-39030 -65 -21688 0
-70 39030 -21686 21687 0
-39030 -76 -21688 0
-39030 -82 -21690 0
-39030 -88 -21691 0
-39031 -63 22025 0
-39031 -65 -22028 0
-39031 -76 -22028 0
-39031 -82 -22030 0
-39031 -88 -22031 0
-39032 22195 -63 0
-39032 -65 -22198 0
-39032 -76 -22198 0
-39032 -82 -22200 0
-39032 -88 -22201 0
-39033 22365 -63 0
-39033 -65 -22368 0
-39033 -76 -22368 0
-39033 -82 -22370 0
-39033 -88 -22371 0
-39034 -63 22705 0
-39034 -65 22705 0
-39034 -76 -22708 0
-39034 -82 -22710 0
-39034 -88 -22711 0
-39035 -63 -23046 0
-39035 -65 -23048 0
-39035 -76 -23048 0
-39035 -82 -23050 0
-39035 -88 -23051 0
38980 39023 38979 38961 38957 38925 39024 38927 38924 39035 38928 38923 38930 38922 39033 39034 38931 38933 38934 38935 38936 38937 38938 38939 38940 38941 38932 38944 38945 38947 38946 38942 38943 38950 38951 38929 38952 38949 38955 38956 38958 38959 38960 38921 38953 38954 38962 38963 38920 38967 38968 38969 38970 38971 38964 38965 38972 38966 38926 38977 38978 38973 38976 38983 38981 38982 38984 38985 38986 38987 38988 38989 38990 38991 38992 38993 38994 38995 38996 38997 38998 38999 39000 39001 39002 39003 39004 39005 39006 39007 38974 38975 39010 39008 39009 39011 39012 39013 39014 39015 39016 39017 39018 39019 39020 39025 39021 39022 39026 39027 39028 39029 39030 39031 39032 38948 0
-39036 -93 2143 0
-101 -39036 2144 0
-105 -39036 2144 0
-109 -39036 2145 0
-110 -39036 2145 0
-112 -39036 2145 0
-39036 -113 2145 0
-115 -39036 2146 0
-116 -39036 2146 0
-118 -39036 2146 0
-119 -39036 2146 0
-121 -39036 2147 0
-121 -2147 39036 2148 0
-123 -39036 2147 0
-123 -2147 39036 2150 0
-124 -39036 2147 0
-124 2151 39036 -2147 0
-127 -39036 2148 0
-128 -39036 2148 0
-128 39036 -2148 2151 0
-39036 -133 2150 0
-39036 -133 -2151 0
-2151 -135 39036 2152 0
-115 -39037 2316 0
-39037 -124 2317 0
-127 -39037 2318 0
-127 -39037 -2320 0
-39037 -133 2320 0
-115 -39038 2486 0
-124 -39038 2487 0
-127 -39038 2488 0
-39038 -133 2490 0
-39039 -112 2655 0
-39039 -115 2656 0
-39039 -118 2656 0
-121 39039 -2657 2658 0
-124 -39039 2657 0
-124 2661 39039 -2657 0
-39039 -127 2658 0
-39039 2660 -133 0
-39039 -2661 -133 0
-39040 -115 2826 0
-124 -39040 2827 0
-39040 -127 -2830 0
-39040 -133 2830 0
-39041 -115 2996 0
2997 -124 -39041 0
-39041 -127 2998 0
-39041 -127 -3000 0
-39041 -133 3000 0
-115 -39042 3166 0
-39042 -124 -3171 0
-127 -39042 3168 0
-39042 -133 3170 0
-39042 -3171 -133 0
-92 39043 -3503 3505 0
-93 39043 -3503 3506 0
-94 39043 -3503 3507 0
-39043 -115 3506 0
-39043 -121 3507 0
-39043 -124 3507 0
-39043 -127 3508 0
-128 -39043 3508 0
-39043 -133 3510 0
-39044 -115 3676 0
-39044 -124 3677 0
-39044 -127 3678 0
-39044 -133 3680 0
-39045 -115 3846 0
-39045 -124 3847 0
-39045 -127 3848 0
-39045 -133 3850 0
-39046 -115 4016 0
-39046 -124 4017 0
-39046 -127 4018 0
-39046 -133 4020 0
4186 -39047 -115 0
-39047 -124 4187 0
-39047 -127 4188 0
-39047 4190 -133 0
-39047 -4191 -133 0
-39048 -115 4356 0
-39048 -124 4357 0
-39048 -127 -4360 0
-39048 -133 4360 0
-39049 -115 4526 0
-39049 -124 4527 0
-39049 -127 4528 0
-39049 -133 4530 0
-39050 -115 4696 0
-39050 -124 4697 0
-39050 -127 4698 0
-39050 -133 4700 0
-39051 -115 4866 0
-39051 -124 4867 0
-39051 -127 4868 0
-39051 -133 4870 0
-39052 -113 5035 0
-39052 -115 -5037 0
-118 -5036 39052 5040 0
5041 -119 39052 -5036 0
-39052 -123 5037 0
-39052 -124 5037 0
-39052 -127 5038 0
-39052 -128 5038 0
-39052 -133 5040 0
-39053 -115 -5207 0
-39053 -124 5207 0
-39053 -127 5208 0
-39053 -133 5210 0
-39054 -115 5376 0
-39054 -124 5377 0
-39054 -127 5378 0
-39054 -133 5380 0
-39055 -115 5546 0
-39055 -124 5547 0
-39055 -127 5548 0
-39055 -133 5550 0
5716 -39056 -115 0
-39056 -124 5717 0
-39056 -127 5718 0
-39056 5720 -133 0
-39056 -5721 -133 0
5886 -39057 -115 0
-39057 -124 5887 0
-39057 -127 5888 0
-39057 -133 5890 0
6056 -39058 -115 0
-39058 -124 6057 0
-39058 -127 6058 0
-39058 -133 6060 0
6226 -39059 -115 0
-39059 -124 6227 0
-39059 -127 6228 0
-39059 6230 -133 0
-39059 -6231 -133 0
-39060 -115 6396 0
-39060 -124 6397 0
-39060 -127 -6400 0
-39060 -133 6400 0
-39061 -115 6566 0
-39061 -124 6567 0
-39061 -127 -6570 0
-39061 -133 6570 0
-39062 -115 6736 0
-39062 -124 6737 0
-39062 -127 -6740 0
-39062 -133 6740 0
-39063 -115 -6907 0
-39063 -124 6907 0
-39063 -127 6908 0
-39063 -127 -6910 0
-39063 -133 6910 0
-39064 -115 -7077 0
-39064 -124 7077 0
-39064 -127 -7080 0
-39064 -133 7080 0
-39065 -115 7246 0
-39065 7247 -124 0
-39065 -127 -7250 0
-39065 -133 7250 0
-39066 -115 7416 0
-39066 7417 -124 0
-39066 -127 -7420 0
-39066 -133 7420 0
7586 -39067 -115 0
-39067 -124 -7591 0
-39067 -127 -7590 0
-39067 7590 -133 0
-39067 -7591 -133 0
7756 -39068 -115 0
-39068 7757 -124 0
-39068 -127 -7760 0
-39068 -133 7760 0
7926 -39069 -115 0
-39069 7927 -124 0
-39069 -127 7928 0
-39069 -127 -7930 0
-39069 -133 7930 0
8096 -39070 -115 0
-39070 -124 -8101 0
-39070 -127 8098 0
-39070 -127 -8100 0
-39070 8100 -133 0
-39070 -8101 -133 0
8266 -39071 -115 0
-39071 -124 8267 0
-39071 -127 8268 0
-39071 -127 -8270 0
-39071 -133 8270 0
-39072 -115 8436 0
-39072 -124 -8441 0
-39072 -127 -8440 0
-39072 8440 -133 0
-39072 -8441 -133 0
-39073 -109 8605 0
-110 -39073 8605 0
-39073 -115 8606 0
-116 -39073 8606 0
-39073 -121 8607 0
-39073 -124 8607 0
-39073 -127 8608 0
-39073 -127 -8610 0
-39073 -133 8610 0
39073 -8610 -133 8611 0
8776 -39074 -115 0
-39074 -124 8777 0
-39074 -127 8778 0
-39074 -127 -8780 0
-39074 8780 -133 0
-39074 -8781 -133 0
-39075 -115 -8947 0
-39075 -124 8947 0
-39075 -127 8948 0
-39075 -127 -8950 0
-39075 -133 8950 0
-39076 -115 -9117 0
-39076 -124 9117 0
-39076 -127 9118 0
-39076 -127 -9120 0
-39076 9120 -133 0
-39076 -9121 -133 0
-39077 -115 -9287 0
-39077 -124 9287 0
-39077 -127 9288 0
-39077 -127 -9290 0
-39077 9290 -133 0
-39077 -9291 -133 0
-39078 -115 9456 0
-39078 -124 9457 0
-39078 -127 9458 0
-39078 -127 -9460 0
-39078 9460 -133 0
-39078 -9461 -133 0
-39079 -115 9626 0
-39079 -124 9627 0
-39079 -127 9628 0
-39079 -127 -9630 0
-39079 9630 -133 0
-39079 -9631 -133 0
-39080 -9797 -115 0
-39080 -124 9797 0
-39080 -127 9798 0
-39080 -127 -9800 0
-39080 9800 -133 0
-39080 -9801 -133 0
-39081 -115 -9967 0
-39081 -124 9967 0
-39081 -127 9968 0
-39081 -127 -9970 0
-39081 9970 -133 0
-39081 -9971 -133 0
-39082 -115 -10137 0
-39082 -124 10137 0
-39082 -127 10138 0
-39082 -127 -10140 0
-39082 10140 -133 0
-39082 -10141 -133 0
10306 -39083 -115 0
-39083 -124 -10311 0
-39083 -127 -10310 0
-39083 10310 -133 0
-39083 -10311 -133 0
10476 -39084 -115 0
-39084 -124 -10481 0
-39084 -127 -10480 0
-39084 -133 -10481 0
-39085 -115 -10647 0
-39085 -124 -10651 0
-39085 -127 -10650 0
-39085 10650 -133 0
-39085 -10651 -133 0
-39086 -115 -10817 0
-39086 -124 -10821 0
-39086 -127 -10820 0
-39086 -133 -10821 0
-39087 -115 -10987 0
-39087 -124 -10991 0
-39087 -127 -10990 0
-39087 -133 -10991 0
-39088 -115 11156 0
-39088 -124 -11161 0
-39088 -127 -11160 0
-39088 -133 -11161 0
-39089 -115 11326 0
-39089 -124 -11331 0
-39089 -127 -11330 0
-39089 -133 -11331 0
-39090 -11497 -115 0
-39090 -124 -11501 0
-39090 -127 -11500 0
-39090 -133 -11501 0
-39091 -115 -11667 0
-39091 -124 -11671 0
-39091 -127 -11670 0
-39091 -133 -11671 0
-39092 -115 -11837 0
-39092 -124 -11841 0
-39092 -127 -11840 0
-39092 -133 -11841 0
-39093 -115 12176 0
-39093 -124 12177 0
-39093 -127 12178 0
-39093 12180 -133 0
-39093 -12181 -133 0
-39094 -115 12346 0
-39094 -124 12347 0
-39094 -127 12348 0
-39094 12350 -133 0
-39094 -12351 -133 0
-39095 12516 -115 0
-39095 -124 -12521 0
-39095 -127 12518 0
-39095 12520 -133 0
-39095 -12521 -133 0
-39096 -115 12686 0
-39096 -124 -12691 0
-39096 -127 12688 0
-39096 12690 -133 0
-39096 -12691 -133 0
-39097 12856 -115 0
-39097 -124 -12861 0
-39097 -127 12858 0
-39097 12860 -133 0
-39097 -12861 -133 0
-39098 -115 13026 0
-39098 -124 -13031 0
-39098 -127 13028 0
-39098 13030 -133 0
-39098 -13031 -133 0
-39099 -115 13196 0
-39099 -124 -13201 0
-39099 -127 13198 0
-39099 -127 -13200 0
-39099 13200 -133 0
-39099 -13201 -133 0
-39100 -115 13366 0
-39100 -124 13367 0
-39100 -127 13368 0
-39100 13370 -133 0
-39100 -13371 -133 0
-39101 -115 13536 0
-39101 -124 13537 0
-39101 -127 13538 0
-39101 13540 -133 0
-39101 -13541 -133 0
-39102 13706 -115 0
-39102 -124 13707 0
-39102 -127 13708 0
-39102 13710 -133 0
-39102 -13711 -133 0
-39103 -115 -13877 0
-39103 -124 13877 0
-39103 -127 13878 0
-39103 13880 -133 0
-39103 -13881 -133 0
-39104 -115 -14047 0
-39104 -124 14047 0
-39104 -127 14048 0
-39104 14050 -133 0
-39104 -14051 -133 0
-39105 14216 -115 0
-39105 -124 -14221 0
-39105 -127 14218 0
-39105 14220 -133 0
-39105 -14221 -133 0
-39106 -115 14386 0
-39106 -124 -14391 0
-39106 -127 14388 0
-39106 14390 -133 0
-39106 -14391 -133 0
-39107 14556 -115 0
-39107 -124 -14561 0
-39107 -127 14558 0
-39107 14560 -133 0
-39107 -14561 -133 0
-39108 -115 14726 0
-39108 -124 -14731 0
-39108 -127 14728 0
-39108 14730 -133 0
-39108 -14731 -133 0
-39109 14896 -115 0
-39109 -124 -14901 0
-39109 -127 14898 0
-39109 14900 -133 0
-39109 -14901 -133 0
-39110 15066 -115 0
-39110 -124 -15071 0
-39110 -127 15068 0
-39110 15070 -133 0
-39110 -15071 -133 0
-39111 15236 -115 0
-39111 -124 -15241 0
-39111 -127 15238 0
-39111 15240 -133 0
-39111 -15241 -133 0
-39112 15406 -115 0
-39112 -124 -15411 0
-39112 -127 15408 0
-39112 15410 -133 0
-39112 -15411 -133 0
-39113 15576 -115 0
-39113 -124 -15581 0
-39113 -127 15578 0
-39113 -127 -15580 0
-39113 15580 -133 0
-39113 -15581 -133 0
-39114 -115 15746 0
-39114 -124 15747 0
-39114 -127 15748 0
-39114 -127 -15750 0
-39114 15750 -133 0
-39114 -15751 -133 0
-39115 15916 -115 0
-39115 -124 -15921 0
-39115 -127 15918 0
-39115 -127 -15920 0
-39115 15920 -133 0
-39115 -15921 -133 0
-39116 -115 -16087 0
-39116 -124 -16091 0
-39116 -127 16088 0
-39116 -127 -16090 0
-39116 16090 -133 0
-39116 -16091 -133 0
-39117 -115 -16257 0
-39117 -124 -16261 0
-39117 -127 16258 0
-39117 -127 -16260 0
-39117 16260 -133 0
-39117 -16261 -133 0
-39118 16426 -115 0
-39118 -124 -16431 0
-39118 -127 16428 0
-39118 -127 -16430 0
-39118 16430 -133 0
-39118 -16431 -133 0
-39119 -115 16596 0
-39119 -124 -16601 0
-39119 -127 16598 0
-39119 -127 -16600 0
-39119 16600 -133 0
-39119 -16601 -133 0
-39120 16766 -115 0
-39120 -124 -16771 0
-39120 -127 16768 0
-39120 -127 -16770 0
-39120 16770 -133 0
-39120 -16771 -133 0
-39121 -115 16936 0
-39121 -124 -16941 0
-39121 -127 16938 0
-39121 -127 -16940 0
-39121 16940 -133 0
-39121 -16941 -133 0
-39122 17106 -115 0
-39122 -124 -17111 0
-39122 -127 17108 0
-39122 -127 -17110 0
-39122 17110 -133 0
-39122 -17111 -133 0
17276 -39123 -115 0
-39123 -124 -17281 0
-39123 -127 17278 0
-39123 -127 -17280 0
-39123 17280 -133 0
-39123 -17281 -133 0
-39124 17446 -115 0
-39124 -124 -17451 0
-39124 -127 17448 0
-39124 -127 -17450 0
-39124 17450 -133 0
-39124 -17451 -133 0
17616 -115 -39125 0
-124 -17621 -39125 0
-39125 -127 17618 0
-39125 -127 -17620 0
-39125 17620 -133 0
-17621 -39125 -133 0
-39126 17956 -115 0
-39126 -124 -17961 0
-39126 -127 -17960 0
-39126 -133 -17961 0
-39127 -115 18296 0
-39127 -124 18297 0
-39127 -127 18298 0
-39127 -127 -18300 0
-39127 -133 -18301 0
-39128 18466 -115 0
-39128 -124 18467 0
-39128 -127 18468 0
-39128 -127 -18470 0
-39128 -133 -18471 0
-39129 -115 -18637 0
-39129 -124 18637 0
-39129 -127 18638 0
-39129 -127 -18640 0
-39129 -133 -18641 0
-39130 -115 -18807 0
-39130 -124 18807 0
-39130 -127 18808 0
-39130 -127 -18810 0
-39130 -133 -18811 0
-39131 -115 -18977 0
-39131 -124 18977 0
-39131 -127 18978 0
-39131 -127 -18980 0
-39131 -133 -18981 0
-39132 -115 19146 0
-39132 -124 -19151 0
-39132 -127 19148 0
-39132 -127 -19150 0
-39132 -133 -19151 0
-39133 -115 19316 0
-39133 -124 -19321 0
-39133 -127 19318 0
-39133 -127 -19320 0
-39133 -133 -19321 0
-39134 -115 19486 0
-39134 -124 -19491 0
-39134 -127 19488 0
-39134 -127 -19490 0
-39134 -133 -19491 0
-39135 -115 19656 0
-39135 -124 -19661 0
-39135 -127 19658 0
-39135 -127 -19660 0
-39135 -133 -19661 0
-39136 -19827 -115 0
-39136 -124 -19831 0
-39136 -127 19828 0
-39136 -127 -19830 0
-39136 -133 -19831 0
-39137 -115 -19997 0
-39137 -124 -20001 0
-39137 -127 19998 0
-39137 -127 -20000 0
-39137 -133 -20001 0
-39138 -115 -20167 0
-39138 -124 -20171 0
-39138 -127 20168 0
-39138 -127 -20170 0
-39138 -133 -20171 0
-39139 -115 -20337 0
-39139 -124 -20341 0
-39139 -127 20338 0
-39139 -127 -20340 0
-39139 -133 -20341 0
-39140 -115 -20507 0
-39140 -124 -20511 0
-39140 -127 20508 0
-39140 -127 -20510 0
-39140 -133 -20511 0
-39141 -115 -20677 0
-39141 -124 -20681 0
-39141 -127 20678 0
-39141 -127 -20680 0
-39141 -133 -20681 0
-39142 -115 21016 0
-39142 -124 21017 0
-39142 -127 -21020 0
-39142 -133 -21021 0
-39143 21186 -115 0
-39143 -124 -21191 0
-39143 -127 -21190 0
-39143 -133 -21191 0
-39144 -115 -21357 0
-39144 -124 -21361 0
-39144 -127 -21360 0
-39144 -133 -21361 0
-39145 -115 21526 0
-39145 -124 -21531 0
-39145 -127 -21530 0
-39145 -133 -21531 0
-39146 -115 -21697 0
-39146 -124 -21701 0
-39146 -127 -21700 0
-39146 -133 -21701 0
-39147 -115 22036 0
-39147 -124 -22041 0
-39147 -127 -22040 0
-39147 -133 -22041 0
-39148 -115 22206 0
-39148 -124 -22211 0
-39148 -127 -22210 0
-39148 -133 -22211 0
-39149 -115 22376 0
-39149 -124 -22381 0
-39149 -127 -22380 0
-39149 -133 -22381 0
-39150 -115 -22717 0
-39150 -124 -22721 0
-39150 -127 -22720 0
-39150 -133 -22721 0
-115 -23057 -39151 0
-124 -23061 -39151 0
-127 -23060 -39151 0
-133 -23061 -39151 0
39125 39124 39038 39069 39040 39085 39083 39072 39043 39044 39045 39076 39048 39053 39039 39051 39047 39054 39046 39055 39056 39057 39058 39059 39060 39061 39062 39079 39064 39065 39066 39067 39068 39082 39070 39041 39071 39073 39077 39075 39074 39037 39078 39042 39080 39081 39036 39050 39084 39049 39086 39087 39088 39089 39090 39091 39092 39093 39094 39095 39096 39097 39098 39099 39100 39101 39102 39063 39103 39105 39106 39107 39108 39109 39110 39111 39104 39113 39114 39115 39116 39117 39112 39118 39119 39120 39121 39052 39122 39123 39126 39127 39128 39129 39130 39131 39132 39133 39134 39135 39136 39137 39138 39139 39140 39141 39142 39143 39144 39145 39146 39147 39148 39149 39150 39151 0
-39152 -145 2154 0
-146 -39152 2154 0
-39152 -153 2155 0
-39152 -154 2155 0
-39152 -161 2156 0
-166 39152 2158 -2157 0
-169 -2157 39152 2161 0
-39152 -172 2158 0
-39152 -178 2160 0
-39152 -178 -2161 0
-39153 -153 2325 0
-39153 -154 2325 0
-39153 -178 -2331 0
-39154 -153 2495 0
-39154 -154 2495 0
-39154 -178 2500 0
-39155 -153 2665 0
-39155 -154 2665 0
-39155 -2671 -178 0
-39156 -153 2835 0
-39156 -154 2835 0
-39156 -2841 -178 0
-39157 -153 3005 0
-39157 -154 3005 0
-39157 -3011 -178 0
-39158 -153 3175 0
-39158 -154 3175 0
-39158 -3181 -178 0
39159 -137 3515 -3513 0
-138 3516 39159 -3513 0
-39159 -153 3515 0
-39159 -154 3515 0
-39159 -169 3517 0
-39159 -178 3520 0
-39160 -153 3685 0
-39160 -154 3685 0
-39160 -178 3690 0
-39161 -153 3855 0
-39161 -154 3855 0
-39161 -3861 -178 0
-39162 -153 4025 0
-39162 -154 4025 0
-39162 -4031 -178 0
-39163 4195 -153 0
-39163 4195 -154 0
-39163 -4201 -178 0
-39164 -153 4365 0
-39164 -154 4365 0
-39164 -4371 -178 0
-39165 -153 4535 0
-39165 -154 4535 0
-39165 -178 4540 0
-39166 -153 4705 0
-39166 -154 4705 0
-39166 -178 4710 0
4875 -39167 -153 0
-39167 4875 -154 0
-39167 -178 4880 0
-39168 -153 -5046 0
-39168 -154 5045 0
-5047 -39168 -154 0
-39168 -178 5050 0
-39169 -153 -5216 0
-5217 -39169 -154 0
-39169 -178 5220 0
-39170 5385 -153 0
-39170 5385 -154 0
-39170 -5391 -178 0
-39171 -153 5555 0
-39171 -154 5555 0
-39171 -5561 -178 0
-39172 5725 -153 0
-39172 5725 -154 0
-39172 -5731 -178 0
-39173 -153 5895 0
-39173 -154 5895 0
-39173 -5897 -154 0
-39173 -5901 -178 0
-39174 -153 6065 0
-39174 -154 6065 0
-39174 -154 -6067 0
-39174 -6071 -178 0
-39175 6235 -153 0
-39175 6235 -154 0
-39175 -6237 -154 0
-39175 -6241 -178 0
-39176 -153 6405 0
-39176 -154 6405 0
-39176 -6411 -178 0
-39177 -153 6575 0
-39177 -154 6575 0
-39177 -6581 -178 0
-39178 6745 -153 0
-39178 6745 -154 0
-39178 -6751 -178 0
-39179 -153 -6916 0
-39179 6915 -154 0
-39179 -6917 -154 0
-39179 -6921 -178 0
-39180 -153 -7086 0
-39180 -7087 -154 0
-39180 -7091 -178 0
-39181 -153 7255 0
-39181 -154 7255 0
-39181 -7261 -178 0
-39182 -153 7425 0
-39182 -154 7425 0
-39182 -7431 -178 0
-39183 7595 -153 0
-39183 7595 -154 0
-39183 -7601 -178 0
-39184 -153 7765 0
-39184 -154 7765 0
-39184 -7767 -154 0
-39184 -7771 -178 0
-39185 -153 7935 0
-39185 -154 7935 0
-39185 -154 -7937 0
-39185 -7941 -178 0
-39186 8105 -153 0
-39186 8105 -154 0
-39186 -8107 -154 0
-39186 -8111 -178 0
-39187 -153 8275 0
-39187 -154 8275 0
-39187 -178 8280 0
-39188 -153 8445 0
-39188 -154 8445 0
-39188 -178 -8451 0
-39189 -153 8615 0
-39189 -154 8615 0
-39189 -8621 -178 0
-8620 39189 -178 8621 0
8785 -39190 -153 0
-39190 8785 -154 0
-39190 -8791 -178 0
-39191 -153 -8956 0
-39191 8955 -154 0
-8957 -39191 -154 0
-39191 -8961 -178 0
-39192 -153 -9126 0
-9127 -39192 -154 0
-39192 -9131 -178 0
-39193 -153 -9296 0
-9297 -39193 -154 0
-39193 -9301 -178 0
-39194 -153 9465 0
-39194 -154 9465 0
-39194 -9467 -154 0
-39194 -9471 -178 0
-39195 9635 -153 0
-39195 9635 -154 0
-39195 -9637 -154 0
-39195 -9641 -178 0
-39196 -153 9805 0
-39196 -154 9805 0
-39196 -9807 -154 0
-39196 -9811 -178 0
-39197 -153 -9976 0
-39197 -9977 -154 0
-39197 -9981 -178 0
-39198 -153 -10146 0
-39198 -154 -10147 0
-39198 -10151 -178 0
-39199 -153 10315 0
-39199 -154 10315 0
-39199 -178 -10321 0
-39200 10485 -153 0
-39200 10485 -154 0
-39200 -178 -10491 0
-39201 -153 -10656 0
-39201 10655 -154 0
-39201 -10657 -154 0
-39201 -178 -10661 0
-39202 -153 -10826 0
-39202 -10827 -154 0
-39202 -178 -10831 0
-39203 -153 -10996 0
-39203 -10997 -154 0
-39203 -178 -11001 0
-39204 -153 11165 0
-39204 -154 11165 0
-39204 -11167 -154 0
-39204 -178 -11171 0
-39205 11335 -153 0
-39205 11335 -154 0
-39205 -11337 -154 0
-39205 -178 -11341 0
-39206 -153 11505 0
-39206 -154 11505 0
-39206 -11507 -154 0
-39206 -178 -11511 0
-39207 -153 -11676 0
-39207 -11677 -154 0
-39207 -178 -11681 0
-39208 -153 -11846 0
-39208 -154 -11847 0
-39208 -178 -11851 0
-39209 -153 12185 0
-39209 -154 12185 0
-39209 -12191 -178 0
-39210 12355 -153 0
-39210 12355 -154 0
-39210 -12361 -178 0
-39211 -153 12525 0
-39211 -154 12525 0
-39211 -12531 -178 0
-39212 -153 12695 0
-39212 -154 12695 0
-39212 -12701 -178 0
-39213 12865 -153 0
-39213 12865 -154 0
-39213 -12871 -178 0
-39214 13035 -153 0
-39214 13035 -154 0
-39214 -13041 -178 0
-39215 -153 13205 0
-39215 -154 13205 0
-39215 -13211 -178 0
-39216 -153 13375 0
-39216 -154 13375 0
-39216 -13381 -178 0
-39217 -153 13545 0
-39217 -154 13545 0
-39217 -13551 -178 0
-39218 13715 -153 0
-39218 13715 -154 0
-39218 -13721 -178 0
-39219 -153 -13886 0
-39219 13885 -154 0
-39219 -13887 -154 0
-39219 -13891 -178 0
-39220 -153 -14056 0
-39220 -14057 -154 0
-39220 -14061 -178 0
-39221 -153 14225 0
-39221 -154 14225 0
-39221 -14231 -178 0
-39222 -153 14395 0
-39222 -154 14395 0
-39222 -14401 -178 0
-39223 14565 -153 0
-39223 14565 -154 0
-39223 -14571 -178 0
-39224 14735 -153 0
-39224 14735 -154 0
-39224 -14741 -178 0
-39225 -153 -14906 0
-39225 14905 -154 0
-39225 -14907 -154 0
-39225 -14911 -178 0
-39226 -153 -15076 0
-39226 15075 -154 0
-39226 -154 -15077 0
-39226 -15081 -178 0
-39227 -153 -15246 0
-39227 15245 -154 0
-39227 -15247 -154 0
-39227 -15251 -178 0
-39228 -153 -15416 0
-39228 15415 -154 0
-39228 -154 -15417 0
-39228 -15421 -178 0
-39229 -153 15585 0
-39229 -154 15585 0
-39229 -15591 -178 0
-39230 -153 15755 0
-39230 -154 15755 0
-39230 -15761 -178 0
-39231 15925 -153 0
-39231 15925 -154 0
-39231 -15931 -178 0
-39232 -153 -16096 0
-39232 16095 -154 0
-39232 -16097 -154 0
-39232 -16101 -178 0
-39233 -153 -16266 0
-39233 -16267 -154 0
-39233 -16271 -178 0
-39234 -153 16435 0
-39234 -154 16435 0
-39234 -16441 -178 0
-39235 -153 16605 0
-39235 -154 16605 0
-39235 -16611 -178 0
-39236 16775 -153 0
-39236 16775 -154 0
-39236 -16781 -178 0
-39237 16945 -153 0
-39237 16945 -154 0
-39237 -16951 -178 0
-39238 -153 17115 0
-39238 -154 17115 0
-39238 -17117 -154 0
-39238 -17121 -178 0
-39239 -153 -17286 0
-39239 17285 -154 0
-39239 -154 -17287 0
-39239 -17291 -178 0
-39240 17455 -153 0
-39240 17455 -154 0
-39240 -17457 -154 0
-39240 -17461 -178 0
-39241 -153 -17626 0
-39241 17625 -154 0
-39241 -154 -17627 0
-39241 -17631 -178 0
-39242 -153 17965 0
-39242 -154 17965 0
-39242 -178 -17971 0
-39243 -153 18305 0
-39243 -154 18305 0
-39243 -178 -18311 0
-39244 18475 -153 0
-39244 18475 -154 0
-39244 -178 -18481 0
-39245 -153 -18646 0
-39245 18645 -154 0
-39245 -18647 -154 0
-39245 -178 -18651 0
-39246 -153 -18816 0
-39246 -18817 -154 0
-39246 -178 -18821 0
-39247 -153 -18986 0
-39247 -18987 -154 0
-39247 -178 -18991 0
-39248 -153 19155 0
-39248 -154 19155 0
-39248 -19157 -154 0
-39248 -178 -19161 0
-39249 -153 19325 0
-39249 -154 19325 0
-39249 -154 -19327 0
-39249 -178 -19331 0
-39250 -19496 -153 0
-39250 19495 -154 0
-39250 -19497 -154 0
-39250 -178 -19501 0
-39251 -153 -19666 0
-39251 19665 -154 0
-39251 -154 -19667 0
-39251 -178 -19671 0
-39252 -153 -19836 0
-39252 -154 19835 0
-39252 -19837 -154 0
-39252 -178 -19841 0
-39253 -153 -20006 0
-39253 -154 20005 0
-39253 -154 -20007 0
-39253 -178 -20011 0
-39254 -153 -20176 0
-39254 -20177 -154 0
-39254 -178 -20181 0
-39255 -153 -20346 0
-39255 -154 -20347 0
-39255 -178 -20351 0
-39256 -153 -20516 0
-39256 -20517 -154 0
-39256 -178 -20521 0
-39257 -153 -20686 0
-39257 -154 -20687 0
-39257 -178 -20691 0
-39258 -153 21025 0
-39258 -154 21025 0
-39258 -178 -21031 0
-39259 21195 -153 0
-39259 21195 -154 0
-39259 -178 -21201 0
-39260 -153 21365 0
-39260 -154 21365 0
-39260 -21367 -154 0
-39260 -178 -21371 0
-39261 -153 -21536 0
-39261 -21537 -154 0
-39261 -178 -21541 0
-39262 21705 -153 0
-39262 21705 -154 0
-39262 -21707 -154 0
-39262 -178 -21711 0
-39263 -153 22045 0
-39263 -154 22045 0
-39263 -154 -22047 0
-39263 -178 -22051 0
-39264 22215 -153 0
-39264 22215 -154 0
-39264 -154 -22217 0
-39264 -178 -22221 0
-39265 22385 -153 0
-39265 22385 -154 0
-39265 -154 -22387 0
-39265 -178 -22391 0
-39266 -153 22725 0
-39266 -154 22725 0
-39266 -178 -22731 0
-39267 -153 -23066 0
-39267 -154 -23067 0
-178 -39267 -23071 0
39235 39154 39256 39237 39157 39180 39158 39193 39159 39160 39155 39187 39153 39161 39156 39163 39164 39165 39162 39168 39170 39167 39169 39255 39172 39175 39173 39166 39176 39171 39179 39178 39181 39174 39183 39177 39186 39184 39188 39189 39192 39152 39190 39191 39194 39195 39196 39199 39200 39201 39202 39203 39204 39205 39206 39198 39197 39209 39210 39211 39182 39213 39185 39215 39216 39212 39218 39219 39220 39221 39214 39223 39217 39225 39222 39227 39224 39229 39226 39231 39232 39233 39234 39228 39236 39230 39238 39239 39240 39241 39242 39243 39244 39245 39246 39247 39248 39249 39250 39251 39252 39253 39207 39208 39254 39257 39258 39259 39260 39261 39262 39263 39264 39265 39266 39267 0
-39268 -181 2163 0
-39268 -182 2163 0
-39268 -183 2163 0
-39268 -184 2163 0
-185 -39268 2163 0
-190 -39268 2164 0
-191 -39268 2164 0
-39268 -193 2164 0
-195 -39268 2164 0
-39268 -196 2164 0
-198 -39268 2165 0
-200 -39268 2165 0
-202 -39268 2165 0
-39268 -203 2165 0
-205 -39268 2166 0
-206 -39268 2166 0
-39268 -208 2166 0
-209 -39268 2166 0
-211 39268 2168 -2167 0
39268 -213 2170 -2167 0
-214 39268 -2167 2171 0
-2168 -218 2171 39268 0
-39268 -223 2170 0
-39269 -181 2333 0
-39269 -196 2334 0
-198 -39269 2335 0
-203 -39269 2335 0
-209 -39269 2336 0
-217 39269 2340 -2338 0
39269 -218 2341 -2338 0
-198 -39270 2505 0
-198 -39271 2675 0
2845 -198 -39272 0
3015 -198 -39273 0
-198 -39274 3185 0
-39275 -198 3525 0
-39276 -198 3695 0
3865 -39277 -198 0
4035 -39278 -198 0
4205 -39279 -198 0
-39280 4375 -198 0
4545 -198 -39281 0
4715 -39282 -198 0
4885 -39283 -198 0
-39284 -198 5055 0
-5226 -39285 -198 0
5395 -39286 -198 0
5565 -39287 -198 0
5735 -39288 -198 0
5905 -39289 -198 0
6075 -39290 -198 0
-6246 -39291 -198 0
-39292 6415 -198 0
-39293 6585 -198 0
-39294 6755 -198 0
-39295 6925 -198 0
-39296 -7096 -198 0
-39297 7265 -198 0
-39298 7435 -198 0
-39299 7605 -198 0
-39300 7775 -198 0
-39301 7945 -198 0
-39302 -8116 -198 0
-39303 8285 -198 0
-39304 -8458 -193 0
8455 -39304 -198 0
-8460 39304 -223 8461 0
-39305 -193 8624 0
-39305 -198 8625 0
-39305 -217 -8630 0
8631 -8630 -223 39305 0
8795 -39306 -198 0
8965 -39307 -198 0
-9136 -39308 -198 0
-9306 -39309 -198 0
-39310 -198 9475 0
-9646 -39311 -198 0
-39312 -198 9815 0
-39313 -9986 -198 0
-39314 -10156 -198 0
-39315 10325 -198 0
-39316 10495 -198 0
-39317 10665 -198 0
-39318 -10836 -198 0
-39319 -11006 -198 0
-39320 -198 11175 0
-11346 -39321 -198 0
-39322 -198 11515 0
-39323 -11686 -198 0
-39324 -11856 -198 0
-39325 12195 -198 0
-39326 12365 -198 0
12535 -39327 -198 0
12705 -39328 -198 0
12875 -39329 -198 0
13045 -39330 -198 0
-39331 13215 -198 0
-39332 -198 13385 0
-39333 13555 -198 0
-39334 13725 -198 0
-39335 13895 -198 0
-39336 -14066 -198 0
14235 -39337 -198 0
14405 -39338 -198 0
14575 -39339 -198 0
14745 -39340 -198 0
14915 -39341 -198 0
15085 -39342 -198 0
-15256 -39343 -198 0
-15426 -39344 -198 0
-39345 15595 -198 0
-39346 15765 -198 0
-39347 15935 -198 0
-39348 16105 -198 0
-39349 -16276 -198 0
-39350 16445 -198 0
-39351 16615 -198 0
-39352 16785 -198 0
-39353 16955 -198 0
-39354 17125 -198 0
-39355 17295 -198 0
-39356 -17466 -198 0
-39357 -17636 -198 0
-39358 17975 -198 0
-39359 18315 -198 0
-39360 18485 -198 0
-39361 18655 -198 0
-39362 -18826 -198 0
-39363 -18996 -198 0
-39364 -198 19165 0
-39365 -198 19335 0
-39366 19505 -198 0
-39367 -19676 -198 0
-39368 -198 19845 0
-39369 -20016 -198 0
-39370 -20186 -198 0
-39371 -20356 -198 0
-39372 -20526 -198 0
-39373 -198 -20696 0
-39374 21035 -198 0
-39375 21205 -198 0
-39376 21375 -198 0
-39377 -21546 -198 0
-39378 -21716 -198 0
-39379 -198 22055 0
-39380 22225 -198 0
-39381 22395 -198 0
39382 22735 -182 -22733 0
-39382 -191 22734 0
-192 -39382 22734 0
-39382 -195 22734 0
-39382 -196 22734 0
-39382 -198 22735 0
-39383 -198 -23076 0
39374 39270 39268 39371 39276 39303 39274 39275 39269 39277 39271 39279 39280 39281 39272 39283 39284 39285 39286 39278 39288 39289 39290 39291 39292 39293 39294 39295 39296 39297 39298 39299 39300 39301 39302 39273 39304 39305 39306 39307 39308 39309 39310 39311 39312 39313 39314 39315 39316 39317 39318 39319 39320 39321 39322 39323 39324 39287 39326 39327 39282 39329 39325 39331 39332 39328 39334 39335 39336 39337 39330 39339 39333 39341 39338 39343 39340 39345 39342 39347 39348 39349 39350 39344 39352 39346 39354 39351 39356 39353 39358 39355 39360 39361 39362 39363 39364 39357 39366 39359 39368 39365 39370 39367 39372 39373 39369 39375 39376 39377 39378 39379 39380 39381 39382 39383 0
-227 -39384 2173 0
-228 -39384 2173 0
-39384 -229 2173 0
-230 -39384 2173 0
-235 -39384 2174 0
-236 -39384 2174 0
-237 -39384 2174 0
-238 -39384 2174 0
-240 -39384 2174 0
-39384 -241 2174 0
-243 -39384 2175 0
-244 -39384 2175 0
-245 -39384 2175 0
-247 -39384 2175 0
-248 -39384 2175 0
-250 -39384 2176 0
-251 -39384 2176 0
-253 -39384 2176 0
39384 -2177 -256 2178 0
-258 39384 2180 -2177 0
-259 39384 2181 -2177 0
-39384 -262 2178 0
-39384 -263 2178 0
-2178 39384 2181 -263 0
-39384 -268 2180 0
39384 -2180 -268 2181 0
39384 -270 2182 -2181 0
-39385 -226 2343 0
-39385 -227 2343 0
-39385 -228 2343 0
-39385 -229 2343 0
-39385 -230 2343 0
-235 -39385 2344 0
-236 -39385 2344 0
-237 -39385 2344 0
-238 -39385 2344 0
-240 -39385 2344 0
-244 -39385 2345 0
-39385 -245 2345 0
-247 -39385 2345 0
-250 -39385 2346 0
-253 -39385 2346 0
-39385 -256 2347 0
-258 -39385 2347 0
-2348 -263 39385 2351 0
-268 39385 -2350 2351 0
-39390 -226 3193 0
-227 -39390 3193 0
-228 -39390 3193 0
-39390 -229 3193 0
-230 -39390 3193 0
-259 -39390 -3201 0
39390 -3201 -270 3202 0
-39391 -235 3534 0
-253 39391 3540 -3536 0
-39421 -8640 -262 0
-8640 39421 -268 8641 0
-39500 -271 2183 0
-39500 -272 2183 0
-273 -39500 2183 0
-274 -39500 2183 0
-39500 -275 2183 0
-39500 -280 2184 0
-39500 -281 2184 0
-282 -39500 2184 0
-283 -39500 2184 0
-285 -39500 2184 0
-39500 -286 2184 0
-288 -39500 2185 0
-289 -39500 2185 0
-39500 -290 2185 0
-39500 -291 2185 0
-292 -39500 2185 0
-293 -39500 2185 0
-295 -39500 2186 0
-295 -39500 -2187 0
-39500 -296 2186 0
-39500 -297 2186 0
-298 -39500 2186 0
-299 -39500 2186 0
-301 39500 2188 -2187 0
-39500 -303 2187 0
39500 -303 2190 -2187 0
-304 -2187 39500 2191 0
39500 -307 2190 -2188 0
-39500 -308 2188 0
39500 -308 -2188 2191 0
39500 -2190 -313 2191 0
-39501 -271 2353 0
-273 -39501 2353 0
-2358 39501 -307 2360 0
-39537 -303 -8650 0
-39537 -8650 -307 0
8651 39537 -313 -8650 0
-39616 -316 2193 0
-39616 -317 2193 0
-318 -39616 2193 0
-319 -39616 2193 0
-320 -39616 2193 0
-39616 -325 2194 0
-326 -39616 2194 0
-39616 -327 2194 0
-329 -39616 2194 0
-330 -39616 2194 0
-39616 -331 2194 0
-333 -39616 2195 0
-335 -39616 2195 0
-336 -39616 2195 0
-39616 -337 2195 0
-338 -39616 2195 0
-342 -39616 2196 0
-343 -39616 2196 0
-344 -39616 2196 0
-346 -39616 2197 0
-346 -2197 39616 2198 0
-39616 -347 2197 0
-348 -2197 39616 2200 0
-2197 39616 2201 -349 0
-351 -39616 2198 0
-352 -39616 -2200 0
-353 -39616 2198 0
-353 39616 2201 -2198 0
-355 -39616 2199 0
39616 -2200 2201 -358 0
39616 -2201 -360 2202 0
-39617 -325 2364 0
-326 -39617 2364 0
-39617 -327 2364 0
-2368 39617 2371 -353 0
-39620 -335 -2878 0
-2878 39620 2881 -353 0
-39622 -358 -3221 0
39622 -3221 -360 3222 0
-39623 3555 -334 0
-39623 -340 3556 0
-353 39623 -3558 3561 0
-39732 -361 2203 0
-39732 -362 2203 0
-39732 -363 2203 0
-39732 -364 2203 0
-39732 -365 2203 0
-369 -39732 2203 0
-39732 -370 2204 0
-39732 -371 2204 0
-39732 -372 2204 0
-373 -39732 2204 0
-39732 -374 2204 0
-39732 -375 2204 0
-39732 -376 2204 0
-378 -39732 2205 0
-39732 -379 2205 0
-380 -39732 2205 0
-381 -39732 2205 0
-39732 -382 -2210 0
-384 -39732 2205 0
-385 -39732 2206 0
-386 -39732 2206 0
-39732 -387 2206 0
-39732 -388 -2210 0
-390 -39732 2206 0
-391 -39732 2207 0
-391 -2207 2208 39732 0
-39732 -393 2207 0
-393 -2207 2210 39732 0
39732 -2207 -394 2211 0
-395 -39732 2207 0
39732 -2208 -398 2211 0
-2210 39732 -403 2211 0
-39739 -365 3563 0
-39739 -379 3565 0
-385 -39739 3566 0
3571 39739 -403 -3570 0
-39769 -382 -8670 0
-39769 -393 -8670 0
8671 39769 -403 -8670 0
-39848 -406 2213 0
-39848 -407 2213 0
-39848 -408 2213 0
-39848 2213 -409 0
-39848 -410 2213 0
-39848 -415 2214 0
-416 -39848 2214 0
-417 -39848 2214 0
-418 -39848 2214 0
-39848 -423 2215 0
-424 -39848 2215 0
-425 -39848 2215 0
-427 -39848 2215 0
-436 39848 -2217 2218 0
-438 -2217 2220 39848 0
39848 -439 -2217 2221 0
39848 -443 2221 -2218 0
39848 -2220 2221 -448 0
-39885 -8680 -442 0
-8680 8681 39885 -448 0
-453 -39964 2223 0
-39964 -454 2223 0
-462 -39964 2224 0
-462 -39964 -2227 0
-39964 -471 2225 0
-39964 -475 -2227 0
-39964 -477 2226 0
-39964 -482 2227 0
-39964 -483 2227 0
39964 -484 2231 -2227 0
-39964 -486 2228 0
39964 -488 2231 -2228 0
-39964 -490 2229 0
-39964 -493 2230 0
-2230 -493 39964 2231 0
39964 -2231 -495 2232 0
-39967 -464 -2739 0
-39967 -471 -2739 0
-39967 -477 -2739 0
39967 -2741 -495 2742 0
-2238 -40080 -526 0
-527 -40080 2237 0
40080 -533 2241 -2238 0
40080 -2241 -540 2242 0
-40082 -535 2579 0
40082 -536 -2579 2581 0
-40082 -540 2581 0
40082 -540 2582 -2581 0
-40083 -509 -2749 0
-516 -2749 -40083 0
-522 -2749 -40083 0
-527 -2749 -40083 0
-531 -2749 -40083 0
40083 -2751 -540 2752 0
-577 -40196 2248 0
40196 -2251 -585 2252 0
-580 -40198 2589 0
40198 -585 -2591 2592 0
-2760 -547 -40199 0
-555 -40199 -2760 0
-562 -40199 -2760 0
-40199 -568 -2760 0
-40199 -573 -2760 0
-577 -40199 -2760 0
-40199 -2761 -583 0
40199 -2761 -585 2762 0
40260 -580 -13469 13470 0
-40260 -13471 -583 0
-40428 -648 2265 0
-40428 -666 2268 0
-40429 -648 2435 0
-40429 -666 2438 0
-40430 -648 2605 0
-40430 -666 2608 0
-2780 -40431 -645 0
-648 -40431 2775 0
-40431 -652 -2780 0
-658 -2780 -40431 0
-663 -2780 -40431 0
-40431 2778 -666 0
40431 -2781 -675 2782 0
-648 -40432 2945 0
-40432 2948 -666 0
-648 -40433 3115 0
-40433 -661 3117 0
-40434 -648 3285 0
-40434 -666 3288 0
-40435 -648 3625 0
-40435 3628 -666 0
-40436 -648 3795 0
-40436 3798 -666 0
-40437 -648 3965 0
-40437 3968 -666 0
-40438 -648 4135 0
-40438 -661 4137 0
-40439 -648 4305 0
-40439 -661 4307 0
-40440 -648 4475 0
-40440 4478 -666 0
-40441 -648 4645 0
-40441 4648 -666 0
-40442 -648 4815 0
-40442 -661 4817 0
-40443 -648 4985 0
-40443 -661 4987 0
-40444 -648 5155 0
-40444 -661 5157 0
-40445 -648 5325 0
-40445 -661 5327 0
-40446 -648 5495 0
-40446 -661 5497 0
-40447 -648 5665 0
-40447 -661 5667 0
-40448 -648 5835 0
-40448 -661 5837 0
-40449 -648 6005 0
-40449 -661 6007 0
-40450 -648 6175 0
-40450 -6179 -666 0
-40451 -648 6345 0
-40451 -6349 -666 0
-40452 -648 6515 0
-40452 -661 6517 0
-40453 -648 6685 0
-40453 -661 6687 0
-40454 -648 6855 0
-40454 -661 6857 0
-40455 -648 7025 0
-40455 -661 7027 0
-40456 -648 7195 0
-40456 -7199 -666 0
-40457 -648 7365 0
-40457 -661 7367 0
-40458 -648 7535 0
-40458 -7539 -666 0
-40459 -648 7705 0
-40459 -7709 -666 0
-40460 -648 7875 0
-40460 -7879 -666 0
-40461 -648 8045 0
-40461 -8049 -666 0
-40462 -648 8215 0
-40462 -8219 -666 0
-40463 -648 8385 0
-40463 8388 -666 0
-40464 -648 8555 0
-40464 -661 8557 0
-40465 -648 8725 0
-40465 -661 8727 0
-40466 -648 8895 0
-40466 -661 8897 0
-40467 -648 9065 0
-40467 -661 9067 0
-40468 -648 9235 0
-40468 -9239 -666 0
-40469 -648 9405 0
-40469 -9409 -666 0
-40470 -648 9575 0
-40470 -661 9577 0
-40471 -648 9745 0
-40471 -9749 -666 0
-40472 -648 9915 0
-40472 -9919 -666 0
-40473 -648 10085 0
-40473 -10089 -666 0
-40474 -661 -10258 0
-40474 -10259 -666 0
-40474 -667 -10260 0
-40475 -648 10425 0
-40475 -661 10427 0
-40476 -648 10595 0
-40476 -10599 -666 0
-40477 -648 10765 0
-40477 -10769 -666 0
-40478 -648 10935 0
-40478 -10939 -666 0
-40479 -661 -11108 0
-40479 -11109 -666 0
-40479 -667 -11110 0
-40480 -648 11275 0
-40480 -11279 -666 0
-40481 -648 11445 0
-40481 -11449 -666 0
-40482 -648 11615 0
-40482 -11619 -666 0
-40483 -661 -11788 0
-40483 -11789 -666 0
-40483 -667 -11790 0
-40484 -648 -11956 0
-40484 -11959 -666 0
-40485 -648 12295 0
-40485 -661 12297 0
-40486 -648 12465 0
-40486 -661 12467 0
-40487 -648 12635 0
-40487 -661 12637 0
-40488 -648 12805 0
-40488 -661 12807 0
-40489 -648 12975 0
-40489 -661 12977 0
-40490 -648 13145 0
-40490 -13149 -666 0
-40491 -648 13315 0
-40491 -661 13317 0
-40492 -640 13484 0
-40492 -648 13485 0
-40492 -13489 -657 0
-40492 -13489 -662 0
-40492 13488 -666 0
13490 40492 -670 -13489 0
-40493 -648 13655 0
-40493 -661 13657 0
-40494 -648 13825 0
-40494 -661 13827 0
-40495 -648 13995 0
-40495 -661 13997 0
-40496 -648 14165 0
-40496 -14169 -666 0
-40497 -648 14335 0
-40497 -661 14337 0
-40498 -648 14505 0
-40498 -14509 -666 0
-40499 -648 14675 0
-40499 -14679 -666 0
-40500 -648 14845 0
-40500 -14849 -666 0
-40501 -648 15015 0
-40501 -15019 -666 0
-40502 -648 15185 0
-40502 -15189 -666 0
-40503 -648 15355 0
-40503 -15359 -666 0
-40504 -661 -15528 0
-40504 -15529 -666 0
-40504 -667 -15530 0
-40505 -648 15695 0
-40505 -661 15697 0
-40506 -648 15865 0
-40506 -15869 -666 0
-40507 -648 16035 0
-40507 -16039 -666 0
-40508 -648 16205 0
-40508 -16209 -666 0
-40509 -648 16375 0
-40509 -16379 -666 0
-40510 -648 16545 0
-40510 -16549 -666 0
-40511 -648 16715 0
-40511 -16719 -666 0
-40512 -648 16885 0
-40512 -16889 -666 0
-40513 -661 -17058 0
-40513 -17059 -666 0
-40513 -667 -17060 0
-40514 -648 17225 0
-40514 -17229 -666 0
-40515 -661 -17398 0
-40515 -17399 -666 0
-40515 -667 -17400 0
-40516 -661 -17568 0
-40516 -17569 -666 0
-40516 -667 -17570 0
-40517 -648 -17736 0
-40517 -17739 -666 0
-40518 -648 18075 0
-40518 -661 18077 0
-40519 -648 18415 0
-40519 -18419 -666 0
-40520 -648 18585 0
-40520 -18589 -666 0
-40521 -648 18755 0
-40521 -18759 -666 0
-40522 -648 18925 0
-40522 -18929 -666 0
-40523 -661 -19098 0
-40523 -19099 -666 0
-40523 -667 -19100 0
-40524 -648 19265 0
-40524 -19269 -666 0
-40525 -648 19435 0
-40525 -19439 -666 0
-40526 -648 19605 0
-40526 -19609 -666 0
-40527 -661 -19778 0
-40527 -19779 -666 0
-40527 -667 -19780 0
-40528 -648 19945 0
-40528 -19949 -666 0
-40529 -661 -20118 0
-40529 -20119 -666 0
-40529 -667 -20120 0
-40530 -661 -20288 0
-40530 -20289 -666 0
-40530 -667 -20290 0
-40531 -648 -20456 0
-40531 -20459 -666 0
-40532 -648 -20626 0
-40532 -20629 -666 0
-40533 -648 -20796 0
-40533 -666 -20799 0
-40534 -648 21135 0
-40534 -21139 -666 0
-40535 -648 21305 0
-40535 -21309 -666 0
-40536 -648 21475 0
-40536 -21479 -666 0
-40537 -661 -21648 0
-40537 -21649 -666 0
-40537 -667 -21650 0
-40538 -648 -21816 0
-40538 -21819 -666 0
-40539 -661 -22158 0
-40539 -22159 -666 0
-40539 -667 -22160 0
-40540 -661 -22328 0
-40540 -22329 -666 0
-40540 -667 -22330 0
-40541 -648 -22496 0
-40541 -22499 -666 0
-40542 -648 -22836 0
-40542 -22839 -666 0
-40543 -648 -23176 0
-40543 -666 -23179 0
40432 40435 40430 40513 40484 40517 40450 40451 40434 40429 40529 40431 40440 40441 40428 40439 40444 40445 40446 40447 40448 40449 40443 40442 40461 40462 40452 40453 40454 40455 40456 40457 40458 40459 40460 40463 40464 40465 40466 40467 40468 40469 40470 40471 40472 40473 40436 40475 40476 40477 40478 40437 40480 40481 40482 40516 40438 40485 40486 40487 40488 40489 40490 40491 40492 40493 40494 40495 40496 40497 40498 40499 40500 40501 40502 40503 40474 40505 40506 40507 40508 40509 40510 40511 40512 40483 40514 40479 40530 40433 40518 40519 40520 40521 40522 40523 40524 40525 40526 40527 40528 40504 40515 40531 40532 40533 40534 40535 40536 40537 40538 40539 40540 40541 40542 40543 0
-40776 -790 2296 0
-40776 -801 2298 0
-40777 -790 2466 0
-40777 -801 2468 0
-40778 -790 2636 0
-40778 -801 2638 0
-40779 -790 2806 0
-40779 -801 2808 0
-40780 -790 2976 0
-40780 -801 2978 0
-40781 -790 3146 0
-40781 -801 3148 0
-40782 -790 3316 0
-40782 -801 3318 0
-40783 -790 3656 0
-40783 -801 3658 0
-40784 -790 3826 0
-40784 -801 3828 0
-40785 -790 3996 0
-40785 -801 3998 0
-40786 -790 4166 0
-40786 -801 4168 0
-40787 -790 4336 0
-40787 -801 4338 0
-40788 -790 4506 0
-40788 -801 4508 0
-40789 -790 4676 0
-40789 -801 4678 0
-40790 -790 4846 0
-40790 -801 4848 0
-40791 -790 5016 0
-40791 -801 5018 0
-40792 -790 5186 0
-40792 -801 5188 0
-40793 -790 5356 0
-40793 -801 5358 0
-40793 -5359 -801 0
-40793 -805 -5360 0
-40794 -790 5526 0
-40794 -801 5528 0
-40795 -790 5696 0
-40795 -801 5698 0
-40795 -5699 -801 0
-40795 -805 -5700 0
-40796 -790 5866 0
-40796 -801 5868 0
-40796 -5869 -801 0
-40796 -805 -5870 0
-40797 -790 6036 0
-40797 -801 6038 0
-40797 -6039 -801 0
-40797 -805 -6040 0
-40798 -790 6206 0
-40798 -801 -6209 0
-40799 -790 6376 0
-40799 -801 -6379 0
-40800 -790 6546 0
-40800 -801 6548 0
-40801 -790 6716 0
-40801 -801 6718 0
-40801 -6719 -801 0
-40801 -805 -6720 0
-40802 -790 6886 0
-40802 -801 6888 0
-40802 -6889 -801 0
-40802 -805 -6890 0
-40803 -790 7056 0
-40803 -801 7058 0
-40803 -7059 -801 0
-40803 -805 -7060 0
-40804 -790 7226 0
-40804 -801 -7229 0
-40805 -790 7396 0
-40805 -801 7398 0
-40805 -7399 -801 0
-40805 -805 -7400 0
-40806 -790 7566 0
-40806 -801 -7569 0
-40807 -790 7736 0
-40807 -801 -7739 0
-40808 -790 7906 0
-40808 -801 -7909 0
-40809 -801 -8079 0
-40810 -801 -8249 0
-40811 -790 8416 0
-40811 -801 8418 0
-40812 -790 8586 0
-40812 -801 8588 0
-40813 -790 8756 0
-40813 -801 8758 0
-40814 -790 8926 0
-40814 -801 8928 0
-40814 -8929 -801 0
-40814 -805 -8930 0
-40815 -790 9096 0
-40815 -801 9098 0
-40815 -9099 -801 0
-40815 -805 -9100 0
-40816 -790 9266 0
-40816 -801 -9269 0
-40817 -801 -9439 0
-40818 -790 9606 0
-40818 -801 9608 0
-40818 -9609 -801 0
-40818 -805 -9610 0
-40819 -790 9776 0
-40819 -801 -9779 0
-40820 -790 9946 0
-40820 -801 -9949 0
-40821 -801 -10119 0
-40822 -790 -10287 0
-40822 -801 -10289 0
-40823 -790 10456 0
-40823 -801 10458 0
-40823 -10459 -801 0
-40823 -805 -10460 0
-40824 -790 10626 0
-40824 -801 -10629 0
-40825 -790 10796 0
-40825 -801 -10799 0
-40826 -801 -10969 0
-40827 -790 -11137 0
-40827 -801 -11139 0
-40828 -790 11306 0
-40828 -801 -11309 0
-40829 -801 -11479 0
-40830 -801 -11649 0
-40831 -790 -11817 0
-40831 -801 -11819 0
-40832 -790 -11987 0
-40832 -801 -11989 0
-40833 -790 12326 0
-40833 -801 12328 0
-40834 -790 12496 0
-40834 -801 12498 0
-40835 -790 12666 0
-40835 -801 12668 0
-40836 -790 12836 0
-40836 -801 12838 0
-40836 -801 -12839 0
-40836 -805 -12840 0
-40837 -790 13006 0
-40837 -801 13008 0
-40837 -13009 -801 0
-40837 -805 -13010 0
-40838 -790 13176 0
-40838 -801 -13179 0
-40839 -790 13346 0
-40839 -801 13348 0
-40840 -790 13516 0
-40840 -801 13518 0
-40841 -790 13686 0
-40841 -801 13688 0
-40841 -13689 -801 0
-40841 -805 -13690 0
-40842 -790 13856 0
-40842 -801 13858 0
-40842 -13859 -801 0
-40842 -805 -13860 0
-40843 -790 14026 0
-40843 -801 14028 0
-40843 -14029 -801 0
-40843 -805 -14030 0
-40844 -790 14196 0
-40844 -801 -14199 0
-40845 -790 14366 0
-40845 -801 14368 0
-40845 -14369 -801 0
-40845 -805 -14370 0
-40846 -790 14536 0
-40846 -801 -14539 0
-40847 -790 14706 0
-40847 -801 -14709 0
-40848 -801 -14879 0
-40849 -790 15046 0
-40849 -801 -15049 0
-40850 -801 -15219 0
-40851 -801 -15389 0
-40852 -790 -15557 0
-40852 -801 -15559 0
-40853 -790 15726 0
-40853 -801 15728 0
-40853 -15729 -801 0
-40853 -805 -15730 0
-40854 -790 15896 0
-40854 -801 -15899 0
-40855 -790 16066 0
-40855 -801 -16069 0
-40856 -790 16236 0
-40856 -801 -16239 0
-40857 -801 -16409 0
-40858 -790 16576 0
-40858 -801 -16579 0
-40859 -801 -16749 0
-40860 -801 -16919 0
-40861 -790 -17087 0
-40861 -801 -17089 0
-40862 -801 -17259 0
-40863 -790 -17427 0
-40863 -801 -17429 0
-40864 -790 -17597 0
-40864 -801 -17599 0
-40865 -790 -17767 0
-40865 -801 -17769 0
-40866 -790 18106 0
-40866 -801 18108 0
-40866 -18109 -801 0
-40866 -805 -18110 0
-40867 -790 18446 0
-40867 -801 -18449 0
-40868 -790 18616 0
-40868 -801 -18619 0
-40869 -790 18786 0
-40869 -801 -18789 0
-40870 -801 -18959 0
-40871 -790 -19127 0
-40871 -801 -19129 0
-40872 -790 19296 0
-40872 -801 -19299 0
-40873 -801 -19469 0
-40874 -801 -19639 0
-40875 -790 -19807 0
-40875 -801 -19809 0
-40876 -801 -19979 0
-40877 -790 -20147 0
-40877 -801 -20149 0
-40878 -790 -20317 0
-40878 -801 -20319 0
-40879 -790 -20487 0
-40879 -801 -20489 0
-40880 -790 -20657 0
-40880 -801 -20659 0
-40881 -790 -20827 0
-40881 -801 -20829 0
-40882 -801 -21169 0
-40883 -801 -21339 0
-40884 -801 -21509 0
-40885 -790 -21677 0
-40885 -801 -21679 0
-40886 -790 -21847 0
-40886 -801 -21849 0
-40887 -790 -22187 0
-40887 -801 -22189 0
-40888 -790 -22357 0
-40888 -801 -22359 0
-40889 -790 -22527 0
-40889 -801 -22529 0
-40890 -790 -22867 0
-40890 -801 -22869 0
-40891 -790 -23207 0
-40891 -801 -23209 0
40865 40832 40809 40831 40799 40810 40866 40776 40836 40792 40788 40891 40784 40798 40881 40827 40789 40786 40794 40793 40796 40797 40791 40777 40800 40801 40802 40843 40804 40805 40806 40807 40808 40780 40783 40778 40811 40812 40813 40795 40779 40782 40803 40819 40820 40853 40814 40823 40824 40825 40826 40815 40828 40829 40830 40781 40822 40833 40834 40835 40816 40837 40838 40839 40840 40841 40842 40790 40844 40845 40846 40847 40848 40849 40850 40851 40852 40787 40854 40855 40856 40857 40858 40859 40860 40861 40862 40863 40864 40821 40785 40867 40868 40869 40870 40871 40872 40873 40874 40875 40876 40877 40878 40879 40880 40817 40882 40883 40884 40885 40886 40887 40888 40889 40890 40818 0
-2105 -38770 0
-2107 -38773 0
-2106 -38775 0
-2107 -38775 0
-2108 -38775 0
-2109 -38775 0
-2110 -38775 0
-2099 -38767 0
-2100 -38767 0
-2106 -38776 0
-2107 -38776 0
-2108 -38776 0
-2109 -38776 0
-2116 -38785 0
-2117 -38785 0
-2118 -38785 0
-2119 -38785 0
-2120 -38785 0
-2125 -38794 0
-2126 -38794 0
-2127 -38794 0
-2128 -38794 0
-2129 -38794 0
-2130 -38794 0
-2131 -38794 0
-2275 -38771 0
-2276 -38771 0
-2265 -38763 0
-2228 -38730 0
-2237 -38739 0
-2260 -38757 0
-2275 -38775 0
-2276 -38775 0
-2171 -38677 0
-2190 -38695 0
-2197 -38704 0
-2198 -38704 0
-2199 -38704 0
-2200 -38704 0
-2201 -38704 0
-38704 2202 0
-2204 -38713 0
-2205 -38713 0
-2207 -38713 0
-2208 -38713 0
-2209 -38713 0
-2210 -38713 0
-2211 -38713 0
-38713 2212 0
-2219 -38722 0
-2220 -38722 0
-2221 -38722 0
2222 -38722 0
-2227 -38731 0
-2228 -38731 0
-2229 -38731 0
-2230 -38731 0
-2231 -38731 0
2232 -38731 0
-2237 -38740 0
-2238 -38740 0
-2239 -38740 0
-2240 -38740 0
-2241 -38740 0
-38740 2242 0
-2249 -38749 0
-2250 -38749 0
-2251 -38749 0
-38749 2252 0
-2254 -38758 0
-2257 -38758 0
-2258 -38758 0
-2259 -38758 0
-2260 -38758 0
-2261 -38758 0
-38758 2262 0
-2264 -38767 0
-2265 -38767 0
-2266 -38767 0
-2267 -38767 0
-2268 -38767 0
-2269 -38767 0
-2270 -38767 0
-2271 -38767 0
-38767 2272 0
-2279 -38776 0
-2280 -38776 0
2282 -38776 0
-2288 -38785 0
-2289 -38785 0
-2290 -38785 0
2292 -38785 0
-2296 -38794 0
-2298 -38794 0
-2446 -38771 0
-2435 -38763 0
-2447 -38772 0
-2438 -38764 0
-2429 -38757 0
-2430 -38757 0
-2438 -38766 0
-2445 -38775 0
-2446 -38775 0
-38686 2352 0
-2380 -38713 0
-2381 -38713 0
-2388 -38722 0
-2390 -38722 0
-2400 -38731 0
-2408 -38740 0
-2410 -38740 0
-38740 2412 0
-2418 -38749 0
-2420 -38749 0
2422 -38749 0
-2429 -38758 0
-2430 -38758 0
-2438 -38767 0
-2439 -38767 0
-2440 -38767 0
-2441 -38767 0
-38767 2442 0
-2450 -38776 0
2452 -38776 0
-2458 -38785 0
-2459 -38785 0
-2460 -38785 0
-2461 -38785 0
2462 -38785 0
-2466 -38794 0
-2468 -38794 0
-2573 -38732 0
-2583 -38741 0
-2594 -38751 0
-38744 -2584 0
-2605 -38763 0
-2615 -38772 0
-2616 -38772 0
-2617 -38772 0
-38739 -2579 0
-2615 -38775 0
-2616 -38775 0
-2636 -38793 0
-2638 -38793 0
-2489 -38659 0
-2490 -38659 0
-2491 -38659 0
-2521 -38686 0
-2529 -38695 0
2542 -38704 0
-2549 -38713 0
-2550 -38713 0
-2559 -38722 0
-2560 -38722 0
2562 -38722 0
-2579 -38740 0
-2580 -38740 0
-2581 -38740 0
-2589 -38749 0
-2590 -38749 0
-2591 -38749 0
2592 -38749 0
-2594 -38758 0
-2601 -38758 0
-2603 -38767 0
-2604 -38767 0
-2605 -38767 0
-2606 -38767 0
-2607 -38767 0
-2608 -38767 0
-2609 -38767 0
-2610 -38767 0
-2611 -38767 0
-38767 2612 0
-2619 -38776 0
-2621 -38776 0
2622 -38776 0
-2628 -38785 0
-2629 -38785 0
-2630 -38785 0
-2631 -38785 0
-2636 -38794 0
-2637 -38794 0
-2638 -38794 0
-2786 -38771 0
-2775 -38763 0
-2787 -38772 0
-2797 -38781 0
-2788 -38773 0
-2796 -38783 0
-2806 -38792 0
-2707 -38703 0
-2708 -38703 0
-2709 -38703 0
-38712 -2719 0
-2728 -38721 0
-2729 -38721 0
-38721 2732 0
-2738 -38730 0
-2739 -38730 0
-2740 -38730 0
2741 -38730 0
-38730 2742 0
-2747 -38739 0
-2748 -38739 0
-2749 -38739 0
-2750 -38739 0
2751 -38739 0
-38739 2752 0
-2759 -38748 0
2761 -38748 0
-38748 2762 0
-2767 -38757 0
-2768 -38757 0
-2769 -38757 0
-2770 -38757 0
2771 -38757 0
-2777 -38766 0
-2778 -38766 0
-2779 -38766 0
-2780 -38766 0
2781 -38766 0
-2785 -38775 0
-2786 -38775 0
-2787 -38775 0
-2788 -38775 0
-2789 -38775 0
-2790 -38775 0
2791 -38775 0
-2796 -38784 0
-2797 -38784 0
-2799 -38784 0
-2800 -38784 0
-2806 -38793 0
-2808 -38793 0
-2809 -38793 0
-2810 -38793 0
2712 -38704 0
2722 -38713 0
-38722 2732 0
-38749 2762 0
-2956 -38771 0
-2945 -38763 0
-2957 -38772 0
-2967 -38781 0
-2958 -38773 0
-2966 -38783 0
-2976 -38792 0
-38703 -2879 0
2891 -38712 0
-2899 -38721 0
-2909 -38730 0
-2910 -38730 0
2911 -38730 0
-2919 -38739 0
-2920 -38739 0
-2929 -38748 0
-2939 -38757 0
-2940 -38757 0
2941 -38757 0
-2949 -38766 0
2951 -38766 0
-2955 -38775 0
-2956 -38775 0
-2959 -38775 0
2961 -38775 0
-2966 -38784 0
-2967 -38784 0
-2976 -38793 0
-2978 -38793 0
-2979 -38793 0
-3126 -38771 0
-3115 -38763 0
-3146 -38790 0
-38729 3080 0
-38747 3102 0
-3107 -38756 0
-38756 3110 0
-38756 3112 0
-3117 -38765 0
3120 -38765 0
-38765 3122 0
3130 -38774 0
3131 -38774 0
3140 -38783 0
-38783 3142 0
-3146 -38792 0
-38712 3062 0
-38721 3072 0
3081 -38730 0
-38748 3102 0
3111 -38757 0
-38757 3112 0
3121 -38766 0
3131 -38775 0
-38758 3112 0
-38767 3122 0
3152 -38794 0
-3213 -38696 0
-38714 -3233 0
-3254 -38734 0
-3255 -38734 0
-3296 -38771 0
-3285 -38763 0
-3295 -38775 0
-3296 -38775 0
-3201 -38686 0
-3209 -38695 0
-3211 -38695 0
-3221 -38704 0
-3231 -38713 0
-3241 -38722 0
-3249 -38731 0
-3250 -38731 0
-3251 -38731 0
-3253 -38740 0
-3260 -38740 0
-3261 -38740 0
-3270 -38749 0
-3275 -38758 0
-3279 -38758 0
-3280 -38758 0
-3281 -38758 0
-3288 -38767 0
-3289 -38767 0
-3290 -38767 0
-3291 -38767 0
3292 -38767 0
-3299 -38776 0
-3300 -38776 0
-3308 -38785 0
-3309 -38785 0
-3310 -38785 0
-3316 -38794 0
-3318 -38794 0
-3373 -38687 0
-3444 -38753 0
-3445 -38753 0
-3458 -38767 0
-3460 -38767 0
-3480 -38785 0
-3485 -38794 0
-3486 -38794 0
-38678 -3533 0
-38687 -3543 0
-38705 -3563 0
-3604 -38742 0
-3584 -38725 0
-38734 -3595 0
-3605 -38743 0
-3615 -38752 0
-3625 -38761 0
-38744 -3606 0
-38753 -3615 0
-3626 -38762 0
-3636 -38771 0
-3615 -38754 0
-3625 -38763 0
-3637 -38772 0
-3647 -38781 0
-38728 -3583 0
-3615 -38755 0
-3618 -38755 0
-3625 -38764 0
-3638 -38773 0
-3646 -38783 0
-3656 -38792 0
-38685 -3533 0
-3535 -38685 0
-3536 -38685 0
-3537 -38685 0
-3538 -38685 0
-38694 -3543 0
-3544 -38694 0
-3545 -38694 0
-3546 -38694 0
-3547 -38694 0
-3548 -38694 0
-3553 -38703 0
-3554 -38703 0
-3555 -38703 0
-3556 -38703 0
-3557 -38703 0
-3558 -38703 0
-3560 -38703 0
-38712 -3563 0
-3564 -38712 0
-3565 -38712 0
-3566 -38712 0
-3567 -38712 0
-3568 -38712 0
-3569 -38712 0
-3570 -38712 0
-38721 -3573 0
-3574 -38721 0
-3575 -38721 0
-3576 -38721 0
-3577 -38721 0
-3578 -38721 0
-3583 -38730 0
-3584 -38730 0
-3585 -38730 0
-3586 -38730 0
-3587 -38730 0
-3588 -38730 0
-3589 -38730 0
-3590 -38730 0
3591 -38730 0
-38739 -3593 0
-3594 -38739 0
-3595 -38739 0
-3596 -38739 0
-3597 -38739 0
-3598 -38739 0
-3599 -38739 0
-3600 -38739 0
3601 -38739 0
-3603 -38748 0
-3604 -38748 0
-3605 -38748 0
-3606 -38748 0
-3608 -38748 0
-3609 -38748 0
-3614 -38757 0
-3615 -38757 0
-3616 -38757 0
-3617 -38757 0
-3618 -38757 0
-3619 -38757 0
-3620 -38757 0
3621 -38757 0
-3624 -38766 0
-3625 -38766 0
-3626 -38766 0
-3627 -38766 0
-3628 -38766 0
-3629 -38766 0
-3630 -38766 0
3631 -38766 0
-3635 -38775 0
-3636 -38775 0
-3637 -38775 0
-3638 -38775 0
-3639 -38775 0
-3640 -38775 0
3641 -38775 0
-3646 -38784 0
-3647 -38784 0
-3648 -38784 0
-3649 -38784 0
-3650 -38784 0
-3656 -38793 0
-3658 -38793 0
-3659 -38793 0
-3660 -38793 0
-3806 -38771 0
-3795 -38763 0
-3807 -38772 0
-3817 -38781 0
-3808 -38773 0
-3816 -38783 0
-3826 -38792 0
-3725 -38703 0
-3727 -38703 0
-3728 -38703 0
-3745 -38721 0
-3749 -38721 0
-3755 -38730 0
3761 -38730 0
3791 -38757 0
-3805 -38775 0
-3806 -38775 0
3811 -38775 0
-3816 -38784 0
-3817 -38784 0
-3826 -38793 0
-3828 -38793 0
-3829 -38793 0
-3976 -38771 0
-3965 -38763 0
-3977 -38772 0
-3987 -38781 0
-3978 -38773 0
-3986 -38783 0
-3996 -38792 0
-3960 -38757 0
3961 -38757 0
-3975 -38775 0
-3976 -38775 0
3981 -38775 0
-3986 -38784 0
-3987 -38784 0
-3996 -38793 0
-3998 -38793 0
-3999 -38793 0
-4146 -38771 0
-4135 -38763 0
-4166 -38790 0
-4127 -38756 0
-38756 4130 0
-4136 -38765 0
-4137 -38765 0
4140 -38765 0
4150 -38774 0
4160 -38783 0
-4166 -38792 0
-4316 -38771 0
-4305 -38763 0
-4336 -38790 0
4320 -38774 0
-4336 -38792 0
-4486 -38771 0
-4475 -38763 0
-4487 -38772 0
-4497 -38781 0
-4488 -38773 0
-4496 -38783 0
-4506 -38792 0
-4485 -38775 0
-4486 -38775 0
-4496 -38784 0
-4497 -38784 0
-4506 -38793 0
-4508 -38793 0
-4509 -38793 0
-4655 -38770 0
-4645 -38763 0
-4656 -38772 0
-4657 -38772 0
-4667 -38781 0
-4658 -38773 0
-4666 -38783 0
-4676 -38792 0
4611 -38730 0
-38739 4621 0
-38757 -4639 0
4641 -38757 0
-4648 -38766 0
-4650 -38766 0
4651 -38766 0
-4655 -38775 0
-4656 -38775 0
-4658 -38775 0
-4659 -38775 0
-4660 -38775 0
4661 -38775 0
-38775 4662 0
-4666 -38784 0
-4667 -38784 0
-4676 -38793 0
-4678 -38793 0
-4679 -38793 0
-4680 -38793 0
-38704 4582 0
-38713 4592 0
-38776 4662 0
-4826 -38771 0
-4815 -38763 0
-4846 -38790 0
-4846 -38792 0
-4996 -38771 0
-4985 -38763 0
-5016 -38790 0
-5017 -38790 0
-5005 -38783 0
5010 -38783 0
-5016 -38792 0
-5166 -38771 0
-5155 -38763 0
-5186 -38790 0
-5186 -38792 0
-5336 -38771 0
-5325 -38763 0
-5337 -38772 0
-5356 -38790 0
-5506 -38771 0
-5495 -38763 0
-5526 -38790 0
-5526 -38792 0
-5676 -38771 0
-5665 -38763 0
-5677 -38772 0
-5696 -38790 0
-5846 -38771 0
-5835 -38763 0
-5847 -38772 0
-5866 -38790 0
-6016 -38771 0
-6005 -38763 0
-6017 -38772 0
-6036 -38790 0
-6186 -38771 0
-6175 -38763 0
-6187 -38772 0
6188 -38772 0
6209 -38790 0
-6356 -38771 0
-6345 -38763 0
-6357 -38772 0
6358 -38772 0
6379 -38790 0
-6526 -38771 0
-6515 -38763 0
-6546 -38790 0
-6546 -38792 0
-6696 -38771 0
-6685 -38763 0
-6697 -38772 0
-6716 -38790 0
-6866 -38771 0
-6855 -38763 0
-6867 -38772 0
-6886 -38790 0
-7036 -38771 0
-7025 -38763 0
-7037 -38772 0
-7056 -38790 0
-7206 -38771 0
-7195 -38763 0
-7207 -38772 0
7208 -38772 0
7229 -38790 0
-7376 -38771 0
-7365 -38763 0
-7377 -38772 0
-7396 -38790 0
-7546 -38771 0
-7535 -38763 0
-7547 -38772 0
7548 -38772 0
7569 -38790 0
-7716 -38771 0
-7705 -38763 0
-7717 -38772 0
7718 -38772 0
7739 -38790 0
-7886 -38771 0
-7875 -38763 0
-7887 -38772 0
7888 -38772 0
7909 -38790 0
8018 -38735 0
8027 -38744 0
8028 -38744 0
8030 -38744 0
-8045 -38762 0
-8046 -38762 0
-8056 -38771 0
8057 -38771 0
8058 -38771 0
8077 -38789 0
8079 -38790 0
8200 -38744 0
-8215 -38762 0
-8216 -38762 0
-8226 -38771 0
8227 -38771 0
8228 -38771 0
8238 -38780 0
8247 -38789 0
8249 -38790 0
-8396 -38771 0
-8385 -38763 0
-8397 -38772 0
-8407 -38781 0
-8398 -38773 0
-8406 -38783 0
-8416 -38792 0
8381 -38757 0
-8395 -38775 0
-8396 -38775 0
-8406 -38784 0
-8407 -38784 0
-8416 -38793 0
-8418 -38793 0
-8419 -38793 0
-8566 -38771 0
-8555 -38763 0
-8586 -38790 0
-8538 -38747 0
-8548 -38756 0
8550 -38756 0
-8558 -38765 0
-8568 -38774 0
8570 -38774 0
-8578 -38783 0
8580 -38783 0
-8586 -38792 0
-8736 -38771 0
-8745 -38780 0
-8746 -38780 0
-8725 -38763 0
-8726 -38763 0
-8756 -38790 0
-8719 -38756 0
8720 -38756 0
-8729 -38765 0
8730 -38765 0
-8739 -38774 0
8740 -38774 0
-8749 -38783 0
8750 -38783 0
-8756 -38792 0
8760 -38792 0
8721 -38757 0
-8906 -38771 0
-8895 -38763 0
-8907 -38772 0
-8926 -38790 0
-9076 -38771 0
-9065 -38763 0
-9077 -38772 0
-9096 -38790 0
-9246 -38771 0
-9235 -38763 0
-9247 -38772 0
9248 -38772 0
9269 -38790 0
-38706 -9344 0
-9364 -38724 0
-9374 -38733 0
-9404 -38760 0
-9424 -38778 0
-38716 -9354 0
-38716 -9355 0
-38734 -9375 0
-38743 -9384 0
-9385 -38743 0
-38752 -9394 0
-9395 -38752 0
-38761 -9404 0
-9405 -38761 0
-38770 -9414 0
-9415 -38770 0
-9424 -38779 0
-9425 -38779 0
-38717 -9354 0
-9386 -38744 0
-38753 -9394 0
-38753 -9395 0
9399 -38753 0
-9404 -38762 0
-9405 -38762 0
-9406 -38762 0
-9416 -38771 0
9417 -38771 0
9418 -38771 0
-38780 -9424 0
-9436 -38789 0
9437 -38789 0
9439 -38790 0
-9586 -38771 0
-9575 -38763 0
-9587 -38772 0
-9606 -38790 0
-9756 -38771 0
-9745 -38763 0
-9757 -38772 0
9758 -38772 0
9779 -38790 0
-9926 -38771 0
-9915 -38763 0
-9927 -38772 0
9928 -38772 0
9949 -38790 0
-10085 -38762 0
-10086 -38762 0
-10096 -38771 0
10097 -38771 0
10098 -38771 0
10117 -38789 0
10119 -38790 0
-10214 -38724 0
-10264 -38769 0
10216 -38725 0
10217 -38725 0
-38725 10221 0
-10225 -38734 0
10259 -38761 0
-10265 -38770 0
10266 -38770 0
10287 -38788 0
10288 -38788 0
10289 -38788 0
10258 -38762 0
10260 -38762 0
10260 -38763 0
10289 -38790 0
-10436 -38771 0
-10425 -38763 0
-10437 -38772 0
-10456 -38790 0
-10606 -38771 0
-10595 -38763 0
-10607 -38772 0
10608 -38772 0
10629 -38790 0
-10776 -38771 0
-10765 -38763 0
-10777 -38772 0
10778 -38772 0
10799 -38790 0
-10935 -38762 0
-10936 -38762 0
-10946 -38771 0
10947 -38771 0
10948 -38771 0
10967 -38789 0
10969 -38790 0
-38725 11070 0
-38725 11071 0
11077 -38734 0
11078 -38734 0
11080 -38734 0
11086 -38743 0
11087 -38743 0
11088 -38743 0
11090 -38743 0
11109 -38761 0
11116 -38770 0
11117 -38770 0
11119 -38770 0
11137 -38788 0
11138 -38788 0
11139 -38788 0
-38726 11070 0
-38726 11071 0
11108 -38762 0
11110 -38762 0
11110 -38763 0
11139 -38790 0
-11286 -38771 0
-11275 -38763 0
-11287 -38772 0
11288 -38772 0
11309 -38790 0
-11445 -38762 0
-11446 -38762 0
-11456 -38771 0
11457 -38771 0
11458 -38771 0
11477 -38789 0
11479 -38790 0
-11615 -38762 0
-11616 -38762 0
-11626 -38771 0
11627 -38771 0
11628 -38771 0
11647 -38789 0
11649 -38790 0
11747 -38725 0
-38725 11748 0
-38725 11751 0
11756 -38734 0
11760 -38734 0
-38734 11761 0
11789 -38761 0
11796 -38770 0
11798 -38770 0
-11814 -38788 0
-11815 -38788 0
11816 -38788 0
11817 -38788 0
11818 -38788 0
11819 -38788 0
11820 -38788 0
11821 -38788 0
11788 -38762 0
11790 -38762 0
11807 -38780 0
11808 -38780 0
11809 -38780 0
11810 -38780 0
11817 -38789 0
11790 -38763 0
11818 -38790 0
11819 -38790 0
11820 -38790 0
11821 -38790 0
-38697 11891 0
11895 -38706 0
11896 -38706 0
-38706 11897 0
-38706 11898 0
-38706 11900 0
-38706 11901 0
-11904 -38715 0
-38715 11905 0
11906 -38715 0
11907 -38715 0
11910 -38715 0
-38715 11911 0
-11914 -38724 0
11915 -38724 0
11916 -38724 0
11917 -38724 0
11918 -38724 0
11920 -38724 0
11921 -38724 0
11926 -38733 0
11927 -38733 0
11928 -38733 0
11930 -38733 0
11931 -38733 0
11935 -38742 0
11936 -38742 0
11937 -38742 0
11938 -38742 0
11940 -38742 0
11947 -38751 0
11955 -38760 0
11956 -38760 0
11957 -38760 0
11958 -38760 0
11959 -38760 0
11968 -38769 0
11975 -38778 0
11976 -38778 0
11977 -38778 0
11978 -38778 0
11986 -38787 0
11988 -38787 0
11989 -38787 0
11936 -38743 0
11937 -38743 0
11938 -38743 0
11939 -38743 0
11940 -38743 0
11957 -38761 0
11986 -38788 0
11987 -38788 0
11988 -38788 0
-38735 11927 0
11987 -38789 0
11989 -38790 0
12121 -38757 0
-12306 -38771 0
-12295 -38763 0
-12326 -38790 0
12310 -38774 0
-12318 -38783 0
12320 -38783 0
-12326 -38792 0
-12476 -38771 0
-12465 -38763 0
-12496 -38790 0
12480 -38774 0
-12496 -38792 0
-12646 -38771 0
-12635 -38763 0
-12666 -38790 0
-12607 -38738 0
-12608 -38738 0
-12617 -38747 0
-12618 -38747 0
-12627 -38756 0
-12628 -38756 0
-12637 -38765 0
-12638 -38765 0
-12647 -38774 0
-12648 -38774 0
-12657 -38783 0
-12658 -38783 0
-12666 -38792 0
-12816 -38771 0
-12805 -38763 0
-12836 -38790 0
-38764 12809 0
12829 -38782 0
12839 -38791 0
-12986 -38771 0
-12975 -38763 0
-12987 -38772 0
-13006 -38790 0
12969 -38755 0
-12984 -38773 0
12989 -38773 0
-13156 -38771 0
-38736 13119 0
-38745 13129 0
13138 -38754 0
-38754 13139 0
-13145 -38763 0
-13157 -38772 0
13158 -38772 0
-38772 13159 0
-13166 -38781 0
13168 -38781 0
13169 -38781 0
13178 -38790 0
13179 -38790 0
-38755 13139 0
13159 -38773 0
-13326 -38771 0
-13315 -38763 0
-13346 -38790 0
13310 -38756 0
13320 -38765 0
13330 -38774 0
13340 -38783 0
-13346 -38792 0
-13464 -38743 0
-13465 -38743 0
-13506 -38780 0
-13485 -38763 0
-13486 -38763 0
-13487 -38763 0
-13504 -38781 0
-13507 -38781 0
-13516 -38790 0
-13517 -38790 0
-13496 -38773 0
-13498 -38773 0
-13504 -38782 0
-13507 -38782 0
-38756 -13479 0
-13489 -38765 0
-13499 -38774 0
-13504 -38783 0
-13505 -38783 0
-13506 -38783 0
-13507 -38783 0
-13508 -38783 0
-13509 -38783 0
13510 -38783 0
-13516 -38792 0
-13519 -38792 0
13520 -38792 0
13461 -38739 0
13481 -38757 0
13491 -38766 0
-38722 13442 0
-38749 13472 0
-13666 -38771 0
-13655 -38763 0
-13667 -38772 0
-13686 -38790 0
-13836 -38771 0
-13825 -38763 0
-13837 -38772 0
-13856 -38790 0
-14006 -38771 0
-13995 -38763 0
-14007 -38772 0
-14026 -38790 0
-14176 -38771 0
-14165 -38763 0
-14177 -38772 0
14178 -38772 0
14199 -38790 0
-14346 -38771 0
-14335 -38763 0
-14347 -38772 0
-14366 -38790 0
-14516 -38771 0
-14505 -38763 0
-14517 -38772 0
14518 -38772 0
14539 -38790 0
-14686 -38771 0
-14675 -38763 0
-14687 -38772 0
14688 -38772 0
14709 -38790 0
-14845 -38762 0
-14846 -38762 0
-14856 -38771 0
14857 -38771 0
14858 -38771 0
14877 -38789 0
14879 -38790 0
-15026 -38771 0
-15015 -38763 0
-15027 -38772 0
15028 -38772 0
15049 -38790 0
-15185 -38762 0
-15186 -38762 0
-15196 -38771 0
15197 -38771 0
15198 -38771 0
15217 -38789 0
15219 -38790 0
-15355 -38762 0
-15356 -38762 0
-15366 -38771 0
15367 -38771 0
15368 -38771 0
15387 -38789 0
15389 -38790 0
15529 -38761 0
15536 -38770 0
15557 -38788 0
15558 -38788 0
15559 -38788 0
15528 -38762 0
15530 -38762 0
15530 -38763 0
15559 -38790 0
-15706 -38771 0
-15695 -38763 0
-15707 -38772 0
-15726 -38790 0
-15876 -38771 0
-15865 -38763 0
-15877 -38772 0
15878 -38772 0
15899 -38790 0
-16046 -38771 0
-16035 -38763 0
-16047 -38772 0
16048 -38772 0
16069 -38790 0
-16216 -38771 0
-16205 -38763 0
-16217 -38772 0
16218 -38772 0
16239 -38790 0
16360 -38744 0
-16375 -38762 0
-16376 -38762 0
-16386 -38771 0
16387 -38771 0
16388 -38771 0
16407 -38789 0
16409 -38790 0
-16556 -38771 0
-16545 -38763 0
-16557 -38772 0
16558 -38772 0
16579 -38790 0
-16715 -38762 0
-16716 -38762 0
-16726 -38771 0
16727 -38771 0
16728 -38771 0
16747 -38789 0
16749 -38790 0
-16885 -38762 0
-16886 -38762 0
-16896 -38771 0
16897 -38771 0
16898 -38771 0
16917 -38789 0
16919 -38790 0
17059 -38761 0
17066 -38770 0
17087 -38788 0
17088 -38788 0
17089 -38788 0
17058 -38762 0
17060 -38762 0
17060 -38763 0
17089 -38790 0
-17225 -38762 0
-17226 -38762 0
-17236 -38771 0
17237 -38771 0
17238 -38771 0
17257 -38789 0
17259 -38790 0
17399 -38761 0
17406 -38770 0
17427 -38788 0
17428 -38788 0
17429 -38788 0
17398 -38762 0
17400 -38762 0
17400 -38763 0
17429 -38790 0
17569 -38761 0
-17575 -38770 0
17576 -38770 0
17597 -38788 0
17598 -38788 0
17599 -38788 0
17568 -38762 0
17570 -38762 0
17570 -38763 0
17599 -38790 0
17680 -38706 0
17686 -38715 0
17688 -38715 0
17707 -38733 0
17708 -38733 0
17710 -38733 0
17727 -38751 0
17736 -38760 0
17738 -38760 0
17739 -38760 0
17757 -38778 0
17758 -38778 0
-17764 -38787 0
17767 -38787 0
17768 -38787 0
17769 -38787 0
17737 -38761 0
17757 -38779 0
17767 -38788 0
17768 -38788 0
17769 -38790 0
-18086 -38771 0
-18075 -38763 0
-18106 -38790 0
18089 -38773 0
-18426 -38771 0
-18415 -38763 0
-18427 -38772 0
18428 -38772 0
18449 -38790 0
-18596 -38771 0
-18585 -38763 0
-18597 -38772 0
18598 -38772 0
18619 -38790 0
-18766 -38771 0
-18755 -38763 0
-18767 -38772 0
18768 -38772 0
18789 -38790 0
18908 -38744 0
-18925 -38762 0
-18926 -38762 0
-18936 -38771 0
18937 -38771 0
18938 -38771 0
18957 -38789 0
18959 -38790 0
-38715 -19044 0
-38725 -19054 0
19066 -38734 0
19067 -38734 0
19069 -38734 0
19077 -38743 0
19087 -38752 0
19099 -38761 0
19106 -38770 0
19127 -38788 0
19128 -38788 0
19129 -38788 0
19098 -38762 0
19100 -38762 0
19100 -38763 0
19129 -38790 0
-19276 -38771 0
-19265 -38763 0
-19277 -38772 0
19278 -38772 0
19299 -38790 0
-19435 -38762 0
-19436 -38762 0
-19446 -38771 0
19447 -38771 0
19448 -38771 0
19467 -38789 0
19469 -38790 0
-19605 -38762 0
-19606 -38762 0
-19616 -38771 0
19617 -38771 0
19618 -38771 0
19637 -38789 0
19639 -38790 0
19779 -38761 0
19786 -38770 0
19807 -38788 0
19808 -38788 0
19809 -38788 0
19778 -38762 0
19780 -38762 0
19780 -38763 0
19809 -38790 0
-19945 -38762 0
-19946 -38762 0
-19956 -38771 0
19957 -38771 0
19958 -38771 0
19977 -38789 0
19979 -38790 0
20119 -38761 0
20126 -38770 0
20147 -38788 0
20148 -38788 0
20149 -38788 0
20118 -38762 0
20120 -38762 0
20120 -38763 0
20149 -38790 0
20289 -38761 0
20296 -38770 0
20317 -38788 0
20318 -38788 0
20319 -38788 0
20288 -38762 0
20290 -38762 0
20290 -38763 0
20319 -38790 0
20447 -38751 0
20456 -38760 0
20458 -38760 0
20459 -38760 0
20477 -38778 0
20478 -38778 0
20487 -38787 0
20488 -38787 0
20489 -38787 0
20457 -38761 0
20477 -38779 0
20487 -38788 0
20488 -38788 0
20489 -38790 0
20575 -38715 0
20617 -38751 0
-20624 -38760 0
20626 -38760 0
20628 -38760 0
20629 -38760 0
20647 -38778 0
20648 -38778 0
20657 -38787 0
20658 -38787 0
20659 -38787 0
20627 -38761 0
20647 -38779 0
20657 -38788 0
20658 -38788 0
20659 -38790 0
20685 -38660 0
20688 -38660 0
20695 -38669 0
20696 -38669 0
20705 -38678 0
20706 -38678 0
20708 -38678 0
-38687 -20713 0
20716 -38687 0
20718 -38687 0
20725 -38696 0
20726 -38696 0
20727 -38696 0
20728 -38696 0
-38705 -20733 0
20735 -38705 0
20736 -38705 0
20737 -38705 0
20740 -38705 0
-20753 -38723 0
20768 -38732 0
20770 -38732 0
20787 -38750 0
20796 -38759 0
20797 -38759 0
20798 -38759 0
20799 -38759 0
20800 -38759 0
20806 -38768 0
20809 -38768 0
20817 -38777 0
20826 -38786 0
20827 -38786 0
20829 -38786 0
20830 -38786 0
20827 -38787 0
20829 -38787 0
20830 -38787 0
20826 -38788 0
20827 -38788 0
20829 -38788 0
20830 -38788 0
20829 -38789 0
-21125 -38752 0
-21135 -38762 0
-21136 -38762 0
-21146 -38771 0
21147 -38771 0
21148 -38771 0
21167 -38789 0
21169 -38790 0
-21305 -38762 0
-21306 -38762 0
-21316 -38771 0
21317 -38771 0
21318 -38771 0
21337 -38789 0
21339 -38790 0
-21475 -38762 0
-21476 -38762 0
-21486 -38771 0
21487 -38771 0
21488 -38771 0
21507 -38789 0
21509 -38790 0
21616 -38734 0
21617 -38734 0
21646 -38761 0
21647 -38761 0
21649 -38761 0
-21655 -38770 0
21656 -38770 0
21657 -38770 0
21677 -38788 0
21678 -38788 0
21679 -38788 0
21648 -38762 0
21650 -38762 0
21650 -38763 0
21679 -38790 0
-38679 21727 0
-38706 21757 0
21765 -38715 0
21766 -38715 0
-38715 21767 0
21775 -38724 0
21776 -38724 0
21777 -38724 0
21785 -38733 0
21786 -38733 0
21787 -38733 0
21807 -38751 0
21816 -38760 0
21818 -38760 0
21819 -38760 0
21837 -38778 0
21838 -38778 0
21847 -38787 0
21848 -38787 0
21849 -38787 0
21776 -38725 0
-38725 21777 0
21817 -38761 0
21847 -38788 0
21848 -38788 0
21849 -38790 0
-22145 -38752 0
22149 -38752 0
22151 -38752 0
22159 -38761 0
22166 -38770 0
22187 -38788 0
22188 -38788 0
22189 -38788 0
22158 -38762 0
22160 -38762 0
22160 -38763 0
22189 -38790 0
-22295 -38734 0
22307 -38743 0
22329 -38761 0
22336 -38770 0
22357 -38788 0
22358 -38788 0
22359 -38788 0
22328 -38762 0
22330 -38762 0
22330 -38763 0
22359 -38790 0
22445 -38715 0
22446 -38715 0
22465 -38733 0
22466 -38733 0
22487 -38751 0
22496 -38760 0
22498 -38760 0
22499 -38760 0
22517 -38778 0
22518 -38778 0
22527 -38787 0
22528 -38787 0
22529 -38787 0
22497 -38761 0
22517 -38779 0
22527 -38788 0
22528 -38788 0
22529 -38790 0
-22625 -38725 0
-22635 -38734 0
22638 -38734 0
22640 -38734 0
-22793 -38723 0
-22794 -38724 0
22795 -38724 0
22800 -38724 0
22805 -38733 0
22825 -38751 0
22827 -38751 0
22835 -38760 0
22836 -38760 0
22838 -38760 0
22839 -38760 0
22845 -38769 0
22855 -38778 0
22857 -38778 0
22858 -38778 0
-22864 -38787 0
22867 -38787 0
22868 -38787 0
22869 -38787 0
22837 -38761 0
22857 -38779 0
22867 -38788 0
22868 -38788 0
22869 -38790 0
22970 -38724 0
22975 -38733 0
22978 -38733 0
22980 -38733 0
22981 -38733 0
22997 -38751 0
-23004 -38760 0
-23014 -38769 0
23018 -38769 0
-23024 -38778 0
23025 -38778 0
23026 -38778 0
23028 -38778 0
23029 -38778 0
22980 -38734 0
-38669 23074 0
23075 -38669 0
23076 -38669 0
23077 -38669 0
23080 -38669 0
23084 -38678 0
23085 -38678 0
23086 -38678 0
23087 -38678 0
23090 -38678 0
-38687 -23093 0
23094 -38687 0
23095 -38687 0
23096 -38687 0
23098 -38687 0
23101 -38687 0
23104 -38696 0
23107 -38696 0
23108 -38696 0
23109 -38696 0
23110 -38696 0
23111 -38696 0
-23113 -38705 0
23114 -38705 0
23115 -38705 0
23116 -38705 0
23117 -38705 0
23118 -38705 0
23121 -38705 0
-23123 -38714 0
23124 -38714 0
23125 -38714 0
23126 -38714 0
23127 -38714 0
23128 -38714 0
23130 -38714 0
23131 -38714 0
-38714 23132 0
23140 -38723 0
23141 -38723 0
-38723 23142 0
-38732 -23143 0
23145 -38732 0
23146 -38732 0
23147 -38732 0
23148 -38732 0
23149 -38732 0
23150 -38732 0
23151 -38732 0
-38732 23152 0
23154 -38741 0
23159 -38741 0
23160 -38741 0
-38750 -23163 0
23167 -38750 0
23169 -38750 0
23170 -38750 0
-38759 -23173 0
23174 -38759 0
23175 -38759 0
23176 -38759 0
23177 -38759 0
23178 -38759 0
23179 -38759 0
23180 -38759 0
-38768 -23183 0
23184 -38768 0
23185 -38768 0
23186 -38768 0
23189 -38768 0
23194 -38777 0
23196 -38777 0
23197 -38777 0
23204 -38786 0
23206 -38786 0
23207 -38786 0
23209 -38786 0
23210 -38786 0
23145 -38733 0
23146 -38733 0
23159 -38742 0
23161 -38742 0
23169 -38751 0
23170 -38751 0
23175 -38760 0
23207 -38787 0
23209 -38787 0
23210 -38787 0
23206 -38788 0
23207 -38788 0
23209 -38788 0
23210 -38788 0
23169 -38753 0
23170 -38753 0
23209 -38789 0
23170 -38756 0
-23273 -38696 0
-23283 -38705 0
23345 -38759 0
23346 -38759 0
23416 -38669 0
23417 -38669 0
23418 -38669 0
23420 -38669 0
23421 -38669 0
23424 -38678 0
23425 -38678 0
23426 -38678 0
23427 -38678 0
23428 -38678 0
23430 -38678 0
23431 -38678 0
23434 -38687 0
23435 -38687 0
23436 -38687 0
23437 -38687 0
23438 -38687 0
23439 -38687 0
23440 -38687 0
23441 -38687 0
23444 -38696 0
23445 -38696 0
23446 -38696 0
23447 -38696 0
23448 -38696 0
23449 -38696 0
23450 -38696 0
23454 -38705 0
23455 -38705 0
23456 -38705 0
23457 -38705 0
23458 -38705 0
23459 -38705 0
23460 -38705 0
23461 -38705 0
-38705 23462 0
23464 -38714 0
23465 -38714 0
23466 -38714 0
23467 -38714 0
23468 -38714 0
23469 -38714 0
23470 -38714 0
23471 -38714 0
-38714 23472 0
23474 -38723 0
23475 -38723 0
23476 -38723 0
23477 -38723 0
23478 -38723 0
23479 -38723 0
23480 -38723 0
23481 -38723 0
-38723 23482 0
23484 -38732 0
23487 -38732 0
23488 -38732 0
23489 -38732 0
23490 -38732 0
23491 -38732 0
23494 -38741 0
23495 -38741 0
23497 -38741 0
23498 -38741 0
23499 -38741 0
23500 -38741 0
23508 -38750 0
23509 -38750 0
23510 -38750 0
23517 -38759 0
23519 -38759 0
23520 -38759 0
23529 -38768 0
23530 -38768 0
23537 -38777 0
23538 -38777 0
23539 -38777 0
23540 -38777 0
23544 -38786 0
23545 -38786 0
23475 -38724 0
23480 -38724 0
23481 -38724 0
-38724 23482 0
23508 -38751 0
23509 -38751 0
23510 -38751 0
-38760 23520 0
23545 -38787 0
23546 -38787 0
23499 -38743 0
23529 -38770 0
23546 -38788 0
23547 -38788 0
23509 -38753 0
-38753 23510 0
23529 -38771 0
-38771 23530 0
23547 -38789 0
23540 -38781 0
23531 -38773 0
23532 -38773 0
23540 -38782 0
