42 425
0 5
0 6
0 9
0 10
0 11
0 12
0 17
0 18
0 19
0 20
0 22
0 23
0 24
0 25
0 28
0 30
0 32
0 35
0 40
1 4
1 7
1 8
1 10
1 11
1 14
1 16
1 17
1 18
1 21
1 23
1 24
1 26
1 27
1 29
1 33
1 34
1 38
1 41
2 5
2 6
2 7
2 9
2 13
2 19
2 20
2 21
2 22
2 23
2 24
2 29
2 31
2 32
2 33
2 35
2 37
2 38
2 40
3 4
3 6
3 7
3 8
3 15
3 16
3 20
3 21
3 22
3 23
3 24
3 30
3 32
3 33
3 34
3 36
3 38
3 39
3 41
4 7
4 8
4 9
4 13
4 14
4 18
4 21
4 23
4 27
4 31
4 32
4 34
4 35
4 36
4 37
4 40
4 41
5 6
5 8
5 9
5 12
5 15
5 17
5 20
5 24
5 28
5 33
5 34
5 35
5 36
5 37
5 39
5 40
5 41
6 8
6 9
6 12
6 15
6 17
6 19
6 20
6 22
6 26
6 27
6 29
6 33
6 36
6 37
6 41
7 8
7 9
7 13
7 14
7 16
7 18
7 21
7 25
7 28
7 30
7 32
7 36
7 37
7 38
7 40
8 9
8 16
8 22
8 23
8 24
8 26
8 29
8 31
8 34
8 37
8 38
8 39
8 41
9 19
9 22
9 23
9 24
9 25
9 30
9 31
9 35
9 36
9 38
9 39
9 40
10 11
10 12
10 13
10 14
10 15
10 16
10 18
10 20
10 21
10 22
10 23
10 27
10 29
10 30
10 31
10 35
10 39
10 41
11 12
11 13
11 14
11 15
11 17
11 19
11 20
11 21
11 24
11 28
11 29
11 30
11 31
11 34
11 38
11 39
11 40
12 13
12 15
12 16
12 18
12 19
12 22
12 25
12 27
12 28
12 29
12 32
12 33
12 34
12 35
12 37
13 14
13 16
13 19
13 21
13 25
13 26
13 27
13 28
13 31
13 33
13 34
13 35
13 37
13 41
14 15
14 16
14 17
14 19
14 26
14 27
14 28
14 30
14 32
14 33
14 34
14 35
14 36
14 38
15 16
15 19
15 20
15 25
15 26
15 27
15 28
15 32
15 34
15 35
15 36
15 39
15 40
16 18
16 21
16 22
16 25
16 26
16 30
16 31
16 34
16 37
16 39
16 40
17 18
17 19
17 22
17 23
17 25
17 26
17 28
17 29
17 30
17 33
17 35
17 36
17 37
17 39
18 24
18 25
18 26
18 27
18 29
18 30
18 31
18 32
18 34
18 36
18 37
18 38
19 20
19 25
19 26
19 29
19 31
19 35
19 36
19 38
19 39
19 41
20 21
20 22
20 24
20 25
20 27
20 31
20 32
20 35
20 38
20 40
20 41
21 22
21 23
21 26
21 28
21 33
21 34
21 38
21 39
21 40
21 41
22 23
22 25
22 26
22 27
22 29
22 30
22 32
22 36
23 24
23 26
23 27
23 32
23 35
23 36
23 37
23 39
23 40
24 25
24 28
24 31
24 33
24 34
24 36
24 37
24 38
24 41
25 26
25 27
25 28
25 29
25 31
25 36
25 38
25 40
26 27
26 28
26 30
26 37
26 38
26 39
26 41
27 30
27 32
27 33
27 36
27 37
27 39
27 41
28 29
28 31
28 32
28 33
28 36
28 37
28 38
28 40
29 30
29 31
29 33
29 34
29 35
29 37
29 38
29 41
30 32
30 34
30 35
30 36
30 38
30 39
30 40
31 33
31 34
31 37
31 39
31 40
31 41
32 33
32 34
32 35
32 39
32 40
32 41
33 34
33 35
33 38
33 40
33 41
34 36
34 40
35 37
35 39
35 41
36 39
36 41
37 38
37 40
38 39
39 40
39 41
40 41
