p cnf 55 146
-46 0
-35 0
-31 0
-30 0
-11 0
-55 -54 -53 0
-55 -52 -51 0
-55 -49 -48 0
-55 -45 -44 0
-55 -40 -39 0
-55 -34 -33 0
-55 -27 -26 0
-55 -19 -18 0
-55 -10 -9 0
-54 -52 -50 0
-54 -49 -47 0
-54 -45 -43 0
-54 -40 -38 0
-54 -34 -32 0
-54 -27 -25 0
-54 -19 -17 0
-54 -10 -8 0
-53 -51 -50 0
-53 -48 -47 0
-53 -44 -43 0
-53 -39 -38 0
-53 -33 -32 0
-53 -26 -25 0
-53 -18 -17 0
-53 -9 -8 0
-52 -27 -24 0
-52 -19 -16 0
-52 -10 -7 0
-51 -26 -24 0
-51 -18 -16 0
-51 -9 -7 0
-50 -25 -24 0
-50 -17 -16 0
-50 -8 -7 0
-49 -27 -23 0
-49 -19 -15 0
-49 -10 -6 0
-48 -26 -23 0
-48 -18 -15 0
-48 -9 -6 0
-47 -25 -23 0
-47 -17 -15 0
-47 -8 -6 0
-34 -27 -20 0
-34 -19 -12 0
-34 -10 -3 0
-33 -26 -20 0
-33 -18 -12 0
-33 -9 -3 0
-32 -25 -20 0
-32 -17 -12 0
-32 -8 -3 0
-27 -10 -2 0
-26 -9 -2 0
-25 -8 -2 0
-24 -7 -2 0
-23 -6 -2 0
-20 -3 -2 0
-19 -10 -1 0
-18 -9 -1 0
-17 -8 -1 0
-16 -7 -1 0
-15 -6 -1 0
-12 -3 -1 0
1 2 11 0
6 7 46 0
8 9 53 0
8 10 54 0
9 10 55 0
35 38 43 0
35 39 44 0
35 40 45 0
38 39 53 0
38 40 54 0
39 40 55 0
43 44 53 0
43 45 54 0
44 45 55 0
53 54 55 0
3 6 8 30 32 47 0
3 6 9 30 33 48 0
3 6 10 30 34 49 0
3 7 8 31 32 50 0
3 7 9 31 33 51 0
11 12 17 20 25 32 0
11 12 18 20 26 33 0
11 12 19 20 27 34 0
11 15 16 23 24 46 0
11 15 17 23 25 47 0
11 15 18 23 26 48 0
11 15 19 23 27 49 0
11 16 17 24 25 50 0
11 16 18 24 26 51 0
11 16 19 24 27 52 0
11 17 18 25 26 53 0
11 17 19 25 27 54 0
11 18 19 26 27 55 0
12 15 16 30 31 46 0
12 15 17 30 32 47 0
12 15 18 30 33 48 0
12 15 19 30 34 49 0
12 16 17 31 32 50 0
12 16 18 31 33 51 0
12 16 19 31 34 52 0
15 16 17 46 47 50 0
15 16 18 46 48 51 0
15 16 19 46 49 52 0
15 17 18 47 48 53 0
15 17 19 47 49 54 0
15 18 19 48 49 55 0
16 17 18 50 51 53 0
16 17 19 50 52 54 0
16 18 19 51 52 55 0
20 23 24 30 31 46 0
20 23 25 30 32 47 0
20 23 27 30 34 49 0
20 24 26 31 33 51 0
20 25 26 32 33 53 0
20 25 27 32 34 54 0
20 26 27 33 34 55 0
23 24 25 46 47 50 0
23 24 26 46 48 51 0
23 24 27 46 49 52 0
23 25 26 47 48 53 0
23 25 27 47 49 54 0
23 26 27 48 49 55 0
24 25 26 50 51 53 0
24 25 27 50 52 54 0
24 26 27 51 52 55 0
30 31 32 46 47 50 0
30 31 33 46 48 51 0
30 31 34 46 49 52 0
30 32 33 47 48 53 0
30 32 34 47 49 54 0
30 33 34 48 49 55 0
31 32 33 50 51 53 0
31 32 34 50 52 54 0
31 33 34 51 52 55 0
46 47 48 50 51 53 0
46 47 49 50 52 54 0
46 48 49 51 52 55 0
