p cnf 68 198
2 4 6 8 16 26 0
-2 -4 -6 -8 -16 -26 0
-2 -4 -8 -18 -26 0
20 26 0
-6 -22 -26 0
-2 -8 -23 -26 0
4 6 13 16 17 20 27 0
18 24 27 0
1 2 3 6 11 16 28 0
2 3 5 8 13 18 28 0
22 28 0
4 6 8 13 15 17 29 0
23 29 0
23 26 29 0
4 6 8 14 30 0
13 31 0
-2 -5 -15 -16 -17 -18 -31 0
14 32 0
-14 -32 0
2 5 17 32 0
-2 -5 -17 -32 0
-2 -4 -6 -24 -26 -32 0
-1 -2 -13 -16 -17 -18 -33 0
5 6 13 16 20 33 0
-2 -6 -14 -34 0
16 34 0
2 4 18 34 0
4 7 19 34 0
6 8 22 26 34 0
-3 -6 -11 -19 -26 -27 -34 0
-17 -35 0
5 17 35 0
-2 -5 -20 -35 0
1 2 6 15 34 35 0
2 7 12 21 34 35 0
-5 -12 -15 -25 -26 -34 -35 0
-6 -13 -26 -27 -34 -35 0
-18 -36 0
2 4 18 36 0
-22 -28 -32 -34 -36 0
11 30 32 33 34 37 0
1 9 16 17 18 28 38 0
2 32 38 0
1 2 5 6 16 33 38 0
-2 -32 -34 -36 -38 0
4 6 13 16 17 20 39 0
1 13 15 17 23 39 0
-1 -2 -4 -6 -26 -35 -39 0
12 33 36 39 0
-2 -6 -8 -40 0
4 13 16 19 22 40 0
22 25 40 0
2 4 6 26 32 40 0
3 7 13 17 41 0
-2 -5 -35 -41 0
-4 -6 -8 -42 0
12 42 0
-1 -4 -5 -6 -8 -15 -42 0
-3 -12 -15 -42 0
6 12 15 42 0
-2 -3 -11 -13 -16 -42 0
1 5 14 15 16 19 42 0
-4 -6 -14 -20 -42 0
2 4 6 16 20 42 0
6 15 18 21 42 0
2 4 6 16 22 42 0
1 5 14 15 18 22 42 0
2 26 32 34 42 0
2 4 36 42 0
-1 -4 -16 -43 0
5 14 15 16 18 43 0
11 33 41 43 0
-5 -14 -15 -16 -18 -42 -43 0
2 44 0
-2 -44 0
5 17 44 0
-17 -26 -44 0
-17 -32 -44 0
-14 -16 -30 -40 -44 0
3 45 0
1 5 7 11 45 0
6 18 45 0
-6 -18 -45 0
-6 -7 -8 -26 -34 -35 -45 0
15 36 45 0
-21 -36 -39 -45 0
-20 -34 -35 -36 -41 -43 -45 0
4 46 0
-4 -46 0
-1 -16 -46 0
-7 -16 -46 0
-16 -31 -46 0
13 34 46 0
-13 -34 -46 0
7 40 46 0
6 44 46 0
-6 -44 -46 0
-5 -47 0
2 17 47 0
-2 -17 -47 0
11 17 47 0
-11 -17 -47 0
-17 -29 -47 0
17 35 47 0
2 32 35 47 0
5 44 47 0
8 17 44 47 0
-8 -17 -44 -47 0
17 26 44 47 0
8 29 44 47 0
17 32 44 47 0
-17 -35 -44 -47 0
11 25 33 45 47 0
-3 -31 -35 -45 -47 0
-19 -28 -34 -36 -44 -45 -47 0
6 48 0
-6 -48 0
12 14 16 20 48 0
3 42 48 0
4 44 48 0
-4 -44 -48 0
-16 -34 -44 -48 0
-8 -28 -34 -36 -44 -48 0
-20 -28 -34 -36 -44 -48 0
-15 -36 -45 -48 0
1 13 40 41 44 45 48 0
2 46 48 0
-2 -46 -48 0
-18 -32 -46 -48 0
-20 -36 -38 -46 -48 0
8 31 33 35 40 46 48 0
-12 -16 -44 -46 -48 0
18 32 44 46 48 0
-1 -32 -34 -35 -45 -46 -48 0
-13 -14 -16 -33 -44 -47 -48 0
1 34 44 45 46 47 48 0
-7 -19 -22 -34 -43 -46 -49 0
-15 -17 -21 -37 -47 -49 0
15 19 41 45 47 49 0
-5 -16 -18 -25 -26 -39 -50 0
26 35 41 44 50 0
-31 -32 -35 -40 -45 -48 -50 0
-20 -22 -36 -46 -52 0
14 16 20 42 46 52 0
-18 -42 -48 -52 0
26 27 35 36 40 42 53 0
-4 -15 -26 -38 -41 -42 -53 0
-28 -39 -44 -47 -48 -53 0
2 32 35 41 55 0
-7 -9 -19 -21 -47 -55 0
14 20 38 47 55 0
-14 -20 -38 -47 -55 0
-6 -18 -42 -56 0
33 35 36 38 43 46 56 0
-30 -33 -39 -48 -56 0
-8 -11 -12 -21 -31 -58 0
-16 -38 -42 -48 -58 0
13 15 41 44 45 48 58 0
-5 -13 -15 -25 -59 0
-1 -6 -14 -16 -17 -27 -59 0
-5 -17 -29 -59 0
25 28 33 36 38 59 0
-1 -3 -12 -14 -17 -40 -59 0
-13 -15 -18 -26 -39 -40 -59 0
-5 -17 -41 -59 0
-26 -37 -39 -46 -48 -59 0
-2 -8 -32 -60 0
28 32 36 42 44 60 0
-14 -19 -23 -42 -45 -46 -61 0
-9 -19 -21 -31 -35 -47 -61 0
15 18 21 39 42 48 61 0
-5 -6 -13 -15 -16 -26 -62 0
-27 -29 -30 -32 -37 -45 -62 0
25 28 31 43 46 62 0
4 13 16 22 37 63 0
-28 -32 -36 -45 -47 -63 0
-20 -32 -44 -64 0
14 20 38 44 64 0
-17 -20 -23 -41 -47 -64 0
-4 -5 -14 -15 -18 -25 -65 0
-1 -11 -17 -39 -65 0
-6 -13 -17 -26 -38 -40 -65 0
-27 -39 -45 -65 0
31 32 34 35 42 46 65 0
1 2 5 28 33 66 0
-5 -7 -11 -27 -32 -34 -66 0
-7 -19 -23 -33 -35 -45 -67 0
13 15 19 41 45 47 67 0
-14 -19 -22 -42 -45 -47 -67 0
49 52 55 58 61 64 67 0
-49 -52 -55 -58 -61 -64 -67 0
4 6 14 18 28 68 0
-4 -6 -14 -18 -28 -68 0
-4 -12 -14 -22 -38 -68 0
32 36 42 46 68 0
-32 -36 -42 -46 -68 0
50 53 56 59 62 65 68 0
-50 -53 -56 -59 -62 -65 -68 0
