p cnf 279 2069
-1 -33 -49 0
-2 -34 -50 0
-35 -3 -51 0
-5 -37 -53 0
-54 -38 -6 0
-7 -39 -55 0
-1 -33 -89 0
-2 -34 -90 0
-35 -3 -91 0
-5 -37 -93 0
-6 -38 -94 0
-95 -7 -39 0
-34 -114 -2 0
-35 -3 -115 0
-4 -36 -116 0
-38 -6 -118 0
-119 -7 -39 0
-8 -40 -120 0
-37 -5 -121 -33 -1 0
-1 -33 -38 -6 -122 0
-1 -33 -39 -7 -123 0
-125 -5 -34 -2 -37 0
-126 -38 -34 -2 -6 0
-127 -2 -39 -34 -7 0
-5 -35 -3 -37 -129 0
-35 -3 -6 -38 -130 0
-35 -7 -39 -3 -131 0
-1 -81 -49 0
-2 -82 -50 0
-5 -53 -85 0
-54 -86 -6 0
-7 -87 -55 0
-105 -1 -49 0
-2 -50 -106 0
-3 -51 -107 0
-5 -109 -53 0
-54 -110 -6 0
-111 -7 -55 0
-56 -8 -2 -50 -128 0
-6 -3 -130 -51 -54 0
-3 -51 -55 -131 -7 0
-4 -52 -133 -5 -53 0
-134 -4 -52 -6 -54 0
-4 -135 -52 -55 -7 0
-1 -81 -89 0
-2 -82 -90 0
-91 -3 -83 0
-5 -93 -85 0
-86 -6 -94 0
-95 -7 -87 0
-2 -114 -82 0
-3 -83 -115 0
-4 -84 -116 0
-5 -85 -117 0
-86 -6 -118 0
-7 -87 -119 0
-8 -88 -120 0
-5 -85 -1 -81 -121 0
-122 -6 -1 -86 -81 0
-7 -1 -87 -81 -123 0
-125 -5 -2 -82 -85 0
-126 -2 -82 -86 -6 0
-127 -2 -87 -7 -82 0
-5 -3 -83 -85 -129 0
-3 -83 -130 -86 -6 0
-1 -105 -89 0
-2 -106 -90 0
-3 -91 -107 0
-5 -93 -109 0
-110 -6 -94 0
-95 -111 -7 0
-93 -121 -1 -5 -89 0
-122 -1 -94 -89 -6 0
-123 -95 -7 -1 -89 0
-124 -96 -1 -8 -89 0
-126 -2 -94 -90 -6 0
-127 -7 -90 -95 -2 0
-3 -91 -130 -6 -94 0
-95 -3 -91 -7 -131 0
-5 -4 -133 -93 -92 0
-134 -4 -92 -6 -94 0
-95 -4 -92 -135 -7 0
-2 -114 -106 0
-4 -108 -116 0
-110 -6 -118 0
-111 -119 -7 0
-8 -112 -120 0
-122 -6 -1 -110 -105 0
-111 -105 -7 -123 -1 0
-125 -109 -2 -5 -106 0
-126 -110 -2 -106 -6 0
-127 -111 -2 -106 -7 0
-109 -3 -129 -5 -107 0
-6 -3 -130 -107 -110 0
-131 -111 -3 -7 -107 0
-131 -7 -115 -119 -3 0
-132 -8 -115 -3 -120 0
-134 -6 -118 -4 -116 0
-135 -7 -119 -4 -116 0
-136 -8 -4 -116 -120 0
-41 -9 -57 0
-10 -42 -58 0
-45 -61 -13 0
-14 -62 -46 0
-63 -47 -15 0
-9 -41 -97 0
-10 -42 -98 0
-13 -45 -101 0
-14 -46 -102 0
-47 -15 -103 0
-10 -114 -42 0
-43 -11 -115 0
-12 -44 -116 0
-117 -13 -45 0
-14 -46 -118 0
-47 -15 -119 0
-16 -48 -120 0
-9 -121 -45 -41 -13 0
-9 -47 -123 -15 -41 0
-10 -42 -13 -45 -125 0
-42 -10 -46 -14 -126 0
-43 -13 -45 -11 -129 0
-43 -14 -11 -130 -46 0
-9 -57 -73 0
-10 -74 -58 0
-59 -75 -11 0
-13 -61 -77 0
-9 -57 -105 0
-10 -106 -58 0
-59 -107 -11 0
-109 -61 -13 0
-110 -14 -62 0
-63 -111 -15 0
-63 -9 -15 -57 -123 0
-64 -9 -16 -124 -57 0
-129 -59 -11 -61 -13 0
-14 -59 -62 -11 -130 0
-63 -15 -59 -11 -131 0
-12 -60 -61 -13 -133 0
-60 -134 -62 -12 -14 0
-60 -63 -15 -135 -12 0
-9 -73 -97 0
-10 -74 -98 0
-99 -11 -75 0
-101 -77 -13 0
-78 -14 -102 0
-79 -15 -103 0
-10 -114 -74 0
-75 -11 -115 0
-12 -76 -116 0
-77 -13 -117 0
-78 -14 -118 0
-79 -15 -119 0
-80 -16 -120 0
-9 -73 -13 -77 -121 0
-9 -73 -14 -122 -78 0
-15 -73 -123 -79 -9 0
-10 -74 -13 -77 -125 0
-78 -74 -10 -126 -14 0
-13 -75 -11 -77 -129 0
-78 -130 -11 -75 -14 0
-9 -105 -97 0
-10 -106 -98 0
-11 -99 -107 0
-109 -13 -101 0
-110 -14 -102 0
-111 -15 -103 0
-9 -14 -97 -102 -122 0
-15 -123 -97 -9 -103 0
-124 -9 -104 -16 -97 0
-10 -13 -101 -98 -125 0
-10 -98 -102 -14 -126 0
-127 -98 -103 -10 -15 0
-128 -16 -10 -98 -104 0
-99 -13 -101 -11 -129 0
-130 -11 -102 -99 -14 0
-131 -99 -103 -11 -15 0
-100 -13 -101 -133 -12 0
-100 -134 -102 -14 -12 0
-100 -135 -103 -12 -15 0
-12 -108 -116 0
-109 -13 -117 0
-110 -14 -118 0
-111 -15 -119 0
-16 -112 -120 0
-9 -122 -14 -105 -110 0
-9 -111 -105 -15 -123 0
-125 -10 -109 -106 -13 0
-10 -14 -106 -110 -126 0
-127 -15 -10 -106 -111 0
-107 -109 -13 -129 -11 0
-110 -130 -11 -14 -107 0
-131 -111 -107 -11 -15 0
-129 -117 -115 -13 -11 0
-131 -15 -115 -119 -11 0
-16 -132 -115 -11 -120 0
-117 -13 -133 -12 -116 0
-134 -14 -118 -12 -116 0
-15 -12 -135 -119 -116 0
-136 -12 -16 -116 -120 0
-17 -25 -49 0
-18 -26 -50 0
-27 -19 -51 0
-20 -52 -28 0
-53 -29 -21 0
-30 -54 -22 0
-23 -55 -31 0
-24 -32 -56 0
-57 -25 -17 0
-58 -18 -26 0
-19 -27 -59 0
-60 -20 -28 0
-61 -29 -21 0
-30 -62 -22 0
-63 -23 -31 0
-64 -24 -32 0
-65 -25 -17 0
-66 -18 -26 0
-19 -27 -67 0
-68 -20 -28 0
-69 -29 -21 0
-30 -70 -22 0
-23 -71 -31 0
-24 -32 -72 0
-17 -29 -21 -25 -121 0
-17 -25 -22 -122 -30 0
-23 -123 -17 -25 -31 0
-124 -32 -17 -24 -25 0
-125 -26 -21 -18 -29 0
-126 -18 -22 -30 -26 0
-23 -31 -26 -18 -127 0
-128 -32 -18 -26 -24 0
-27 -19 -21 -29 -129 0
-30 -27 -19 -130 -22 0
-23 -27 -19 -131 -31 0
-32 -27 -132 -24 -19 0
-20 -28 -21 -133 -29 0
-134 -28 -22 -30 -20 0
-23 -31 -28 -20 -135 0
-32 -136 -28 -20 -24 0
-17 -33 -49 0
-34 -18 -50 0
-35 -19 -51 0
-20 -52 -36 0
-37 -53 -21 0
-54 -38 -22 0
-23 -39 -55 0
-24 -56 -40 0
-65 -33 -17 0
-34 -18 -66 0
-19 -35 -67 0
-37 -69 -21 0
-70 -38 -22 0
-23 -71 -39 0
-73 -33 -17 0
-74 -34 -18 0
-19 -35 -75 0
-37 -77 -21 0
-78 -38 -22 0
-23 -79 -39 0
-37 -17 -21 -33 -121 0
-33 -17 -22 -38 -122 0
-23 -123 -33 -17 -39 0
-124 -24 -33 -40 -17 0
-37 -34 -18 -125 -21 0
-126 -38 -34 -18 -22 0
-23 -34 -18 -39 -127 0
-24 -128 -18 -40 -34 0
-35 -19 -21 -129 -37 0
-130 -19 -38 -35 -22 0
-131 -35 -19 -39 -23 0
-24 -35 -19 -40 -132 0
-38 -36 -22 -20 -134 0
-23 -39 -36 -20 -135 0
-17 -49 -97 0
-18 -50 -98 0
-51 -99 -19 0
-100 -20 -52 0
-53 -101 -21 0
-54 -22 -102 0
-23 -55 -103 0
-24 -104 -56 0
-53 -17 -21 -49 -121 0
-54 -17 -22 -49 -122 0
-23 -55 -17 -49 -123 0
-56 -24 -17 -49 -124 0
-53 -18 -21 -50 -125 0
-126 -50 -54 -22 -18 0
-127 -18 -55 -23 -50 0
-24 -56 -18 -50 -128 0
-53 -19 -21 -129 -51 0
-23 -131 -51 -19 -55 0
-56 -132 -19 -51 -24 0
-53 -52 -21 -20 -133 0
-134 -52 -22 -20 -54 0
-55 -20 -52 -135 -23 0
-24 -56 -20 -136 -52 0
-57 -73 -17 0
-74 -58 -18 0
-59 -19 -75 0
-60 -20 -76 0
-61 -77 -21 0
-78 -62 -22 0
-23 -63 -79 0
-24 -64 -80 0
-57 -17 -61 -21 -121 0
-57 -17 -62 -22 -122 0
-23 -123 -17 -57 -63 0
-124 -57 -17 -64 -24 0
-125 -18 -61 -21 -58 0
-126 -18 -62 -58 -22 0
-24 -128 -18 -64 -58 0
-59 -61 -21 -129 -19 0
-131 -23 -59 -63 -19 0
-64 -59 -19 -132 -24 0
-20 -61 -21 -60 -133 0
-60 -134 -22 -20 -62 0
-60 -23 -20 -63 -135 0
-60 -24 -20 -64 -136 0
-65 -17 -97 0
-18 -66 -98 0
-19 -99 -67 0
-100 -68 -20 0
-69 -101 -21 0
-70 -22 -102 0
-23 -71 -103 0
-24 -104 -72 0
-121 -65 -21 -17 -69 0
-70 -65 -22 -17 -122 0
-23 -71 -123 -65 -17 0
-72 -24 -65 -17 -124 0
-69 -66 -21 -125 -18 0
-126 -18 -22 -66 -70 0
-23 -71 -66 -18 -127 0
-72 -24 -18 -66 -128 0
-70 -19 -22 -67 -130 0
-23 -71 -19 -67 -131 0
-24 -72 -19 -67 -132 0
-68 -20 -69 -21 -133 0
-68 -20 -22 -134 -70 0
-23 -68 -20 -71 -135 0
-73 -17 -97 0
-74 -18 -98 0
-99 -19 -75 0
-100 -20 -76 0
-77 -101 -21 0
-78 -22 -102 0
-23 -79 -103 0
-24 -104 -80 0
-17 -77 -21 -121 -73 0
-122 -73 -22 -17 -78 0
-23 -123 -17 -79 -73 0
-80 -24 -73 -17 -124 0
-23 -79 -74 -18 -127 0
-24 -74 -18 -80 -128 0
-19 -75 -22 -78 -130 0
-131 -23 -79 -19 -75 0
-24 -80 -19 -132 -75 0
-76 -77 -133 -20 -21 0
-134 -20 -76 -78 -22 0
-23 -20 -76 -135 -79 0
-121 -97 -101 -21 -17 0
-122 -17 -22 -97 -102 0
-23 -123 -17 -97 -103 0
-124 -104 -17 -24 -97 0
-125 -18 -101 -98 -21 0
-18 -98 -102 -22 -126 0
-127 -98 -103 -23 -18 0
-24 -104 -18 -98 -128 0
-99 -19 -21 -129 -101 0
-19 -99 -102 -130 -22 0
-131 -99 -103 -23 -19 0
-24 -104 -19 -99 -132 0
-100 -20 -133 -21 -101 0
-100 -134 -22 -20 -102 0
-100 -135 -103 -23 -20 0
-100 -104 -20 -24 -136 0
-57 -25 -41 0
-42 -26 -58 0
-27 -59 -43 0
-60 -28 -44 0
-45 -61 -29 0
-30 -62 -46 0
-63 -47 -31 0
-32 -64 -48 0
-41 -65 -25 0
-42 -26 -66 0
-27 -67 -43 0
-68 -44 -28 0
-45 -69 -29 0
-30 -70 -46 0
-47 -31 -71 0
-41 -81 -25 0
-42 -82 -26 0
-27 -83 -43 0
-84 -28 -44 0
-85 -45 -29 0
-30 -86 -46 0
-47 -31 -87 0
-121 -25 -29 -45 -41 0
-122 -25 -46 -41 -30 0
-31 -123 -41 -25 -47 0
-32 -48 -25 -124 -41 0
-30 -26 -46 -42 -126 0
-127 -47 -42 -26 -31 0
-32 -48 -42 -26 -128 0
-27 -43 -29 -45 -129 0
-30 -27 -43 -130 -46 0
-27 -31 -43 -131 -47 0
-27 -132 -48 -32 -43 0
-133 -28 -44 -29 -45 0
-30 -134 -28 -44 -46 0
-47 -31 -28 -44 -135 0
-25 -81 -49 0
-82 -26 -50 0
-27 -83 -51 0
-84 -52 -28 0
-53 -85 -29 0
-30 -54 -86 0
-31 -87 -55 0
-32 -56 -88 0
-121 -25 -29 -49 -53 0
-30 -25 -49 -54 -122 0
-123 -25 -55 -49 -31 0
-32 -25 -49 -124 -56 0
-53 -26 -29 -50 -125 0
-30 -54 -26 -50 -126 0
-127 -31 -50 -26 -55 0
-56 -32 -26 -50 -128 0
-53 -51 -129 -27 -29 0
-30 -54 -51 -27 -130 0
-131 -51 -55 -27 -31 0
-32 -132 -51 -56 -27 0
-52 -53 -29 -28 -133 0
-30 -54 -52 -28 -134 0
-135 -31 -28 -55 -52 0
-32 -56 -28 -52 -136 0
-57 -25 -89 0
-58 -26 -90 0
-27 -59 -91 0
-60 -92 -28 0
-93 -61 -29 0
-62 -30 -94 0
-63 -95 -31 0
-96 -64 -32 0
-121 -25 -29 -57 -61 0
-30 -25 -62 -57 -122 0
-63 -57 -31 -25 -123 0
-125 -58 -61 -29 -26 0
-59 -27 -29 -61 -129 0
-30 -59 -62 -27 -130 0
-63 -59 -31 -131 -27 0
-32 -64 -27 -59 -132 0
-60 -61 -28 -29 -133 0
-60 -62 -28 -30 -134 0
-60 -63 -31 -28 -135 0
-64 -32 -28 -60 -136 0
-65 -25 -89 0
-66 -26 -90 0
-27 -91 -67 0
-68 -92 -28 0
-93 -69 -29 0
-30 -70 -94 0
-95 -31 -71 0
-96 -32 -72 0
-121 -65 -25 -69 -29 0
-70 -65 -25 -30 -122 0
-65 -25 -71 -31 -123 0
-72 -65 -25 -124 -32 0
-30 -70 -26 -66 -126 0
-31 -26 -71 -66 -127 0
-72 -32 -26 -66 -128 0
-27 -67 -29 -129 -69 0
-30 -27 -70 -67 -130 0
-131 -67 -71 -31 -27 0
-133 -69 -29 -28 -68 0
-30 -68 -134 -70 -28 0
-135 -31 -28 -68 -71 0
-25 -81 -89 0
-82 -26 -90 0
-27 -83 -91 0
-84 -92 -28 0
-93 -85 -29 0
-30 -86 -94 0
-95 -31 -87 0
-96 -32 -88 0
-31 -25 -87 -81 -123 0
-88 -32 -81 -25 -124 0
-82 -31 -26 -87 -127 0
-128 -32 -26 -82 -88 0
-83 -27 -85 -29 -129 0
-86 -83 -130 -27 -30 0
-131 -83 -31 -27 -87 0
-32 -27 -83 -88 -132 0
-84 -85 -28 -29 -133 0
-30 -86 -84 -28 -134 0
-135 -31 -28 -87 -84 0
-93 -121 -29 -89 -25 0
-122 -89 -94 -25 -30 0
-123 -31 -89 -25 -95 0
-124 -32 -89 -25 -96 0
-93 -26 -29 -90 -125 0
-126 -26 -94 -30 -90 0
-31 -95 -26 -90 -127 0
-96 -32 -26 -90 -128 0
-93 -27 -91 -29 -129 0
-30 -27 -94 -91 -130 0
-131 -91 -31 -95 -27 0
-96 -32 -132 -91 -27 0
-92 -93 -29 -28 -133 0
-30 -134 -92 -28 -94 0
-31 -92 -28 -95 -135 0
-96 -32 -28 -92 -136 0
-37 -121 -53 -33 -49 0
-38 -33 -49 -54 -122 0
-33 -123 -55 -39 -49 0
-124 -56 -49 -40 -33 0
-53 -37 -34 -50 -125 0
-126 -38 -34 -50 -54 0
-127 -50 -39 -55 -34 0
-128 -34 -40 -50 -56 0
-53 -51 -129 -35 -37 0
-130 -51 -38 -54 -35 0
-56 -35 -51 -40 -132 0
-37 -36 -133 -53 -52 0
-54 -36 -38 -52 -134 0
-135 -55 -36 -52 -39 0
-65 -33 -89 0
-34 -66 -90 0
-37 -93 -69 0
-70 -38 -94 0
-95 -71 -39 0
-114 -34 -66 0
-35 -67 -115 0
-68 -36 -116 0
-70 -38 -118 0
-119 -71 -39 0
-72 -40 -120 0
-65 -33 -69 -37 -121 0
-70 -65 -33 -38 -122 0
-65 -33 -39 -71 -123 0
-37 -66 -69 -34 -125 0
-70 -38 -34 -66 -126 0
-66 -34 -39 -71 -127 0
-67 -69 -129 -37 -35 0
-35 -67 -38 -70 -130 0
-73 -33 -89 0
-34 -74 -90 0
-35 -91 -75 0
-76 -36 -92 0
-37 -93 -77 0
-78 -38 -94 0
-95 -79 -39 0
-114 -34 -74 0
-35 -75 -115 0
-76 -36 -116 0
-37 -77 -117 0
-78 -38 -118 0
-79 -119 -39 0
-80 -40 -120 0
-37 -73 -33 -77 -121 0
-78 -73 -33 -38 -122 0
-123 -33 -39 -73 -79 0
-37 -34 -77 -74 -125 0
-78 -38 -34 -74 -126 0
-35 -37 -75 -77 -129 0
-78 -35 -75 -38 -130 0
-121 -93 -89 -37 -33 0
-122 -33 -94 -38 -89 0
-95 -33 -39 -89 -123 0
-96 -33 -40 -89 -124 0
-125 -93 -34 -37 -90 0
-126 -38 -34 -90 -94 0
-34 -90 -39 -95 -127 0
-96 -34 -40 -90 -128 0
-93 -91 -129 -35 -37 0
-91 -130 -94 -35 -38 0
-95 -91 -39 -35 -131 0
-96 -91 -40 -35 -132 0
-37 -93 -36 -92 -133 0
-92 -36 -94 -38 -134 0
-130 -118 -115 -38 -35 0
-35 -119 -115 -39 -131 0
-132 -40 -115 -35 -120 0
-134 -38 -118 -36 -116 0
-135 -39 -119 -36 -116 0
-136 -40 -36 -116 -120 0
-121 -41 -61 -45 -57 0
-122 -57 -62 -41 -46 0
-57 -47 -123 -63 -41 0
-57 -48 -41 -64 -124 0
-125 -58 -45 -61 -42 0
-126 -42 -46 -62 -58 0
-63 -127 -42 -58 -47 0
-128 -64 -48 -42 -58 0
-45 -61 -129 -43 -59 0
-130 -43 -62 -46 -59 0
-131 -63 -43 -59 -47 0
-132 -48 -59 -64 -43 0
-60 -61 -45 -44 -133 0
-60 -44 -46 -62 -134 0
-60 -63 -44 -135 -47 0
-41 -65 -97 0
-42 -66 -98 0
-68 -100 -44 0
-101 -69 -45 0
-70 -46 -102 0
-47 -71 -103 0
-114 -42 -66 0
-43 -67 -115 0
-68 -44 -116 0
-70 -46 -118 0
-47 -119 -71 0
-48 -72 -120 0
-65 -41 -69 -45 -121 0
-122 -65 -46 -70 -41 0
-65 -123 -71 -41 -47 0
-125 -66 -69 -45 -42 0
-42 -66 -46 -70 -126 0
-67 -43 -69 -45 -129 0
-70 -67 -43 -46 -130 0
-41 -81 -97 0
-42 -82 -98 0
-43 -99 -83 0
-100 -84 -44 0
-85 -45 -101 0
-86 -46 -102 0
-47 -87 -103 0
-114 -42 -82 0
-43 -83 -115 0
-84 -44 -116 0
-86 -46 -118 0
-47 -87 -119 0
-48 -88 -120 0
-85 -41 -81 -45 -121 0
-122 -81 -46 -41 -86 0
-47 -41 -87 -81 -123 0
-42 -85 -45 -82 -125 0
-127 -47 -87 -82 -42 0
-83 -85 -45 -43 -129 0
-97 -45 -101 -41 -121 0
-97 -41 -102 -46 -122 0
-123 -41 -103 -97 -47 0
-124 -48 -97 -104 -41 0
-42 -98 -101 -45 -125 0
-42 -98 -46 -102 -126 0
-127 -42 -103 -47 -98 0
-104 -48 -42 -98 -128 0
-99 -43 -45 -101 -129 0
-43 -99 -102 -46 -130 0
-47 -99 -43 -103 -131 0
-104 -48 -43 -99 -132 0
-100 -44 -101 -45 -133 0
-100 -44 -46 -102 -134 0
-100 -135 -103 -47 -44 0
-130 -118 -115 -46 -43 0
-43 -47 -115 -131 -119 0
-132 -48 -115 -43 -120 0
-134 -44 -46 -118 -116 0
-47 -135 -44 -119 -116 0
-48 -136 -44 -116 -120 0
-81 -49 -97 0
-82 -50 -98 0
-51 -99 -83 0
-100 -84 -52 0
-53 -85 -101 0
-86 -54 -102 0
-87 -55 -103 0
-104 -56 -88 0
-53 -85 -81 -49 -121 0
-54 -86 -81 -49 -122 0
-81 -87 -55 -49 -123 0
-124 -88 -81 -49 -56 0
-85 -82 -50 -53 -125 0
-128 -88 -50 -56 -82 0
-56 -83 -51 -88 -132 0
-86 -84 -52 -54 -134 0
-105 -49 -97 0
-106 -50 -98 0
-51 -99 -107 0
-109 -53 -101 0
-110 -54 -102 0
-111 -55 -103 0
-104 -56 -112 0
-121 -97 -101 -53 -49 0
-122 -54 -97 -49 -102 0
-123 -97 -55 -49 -103 0
-124 -104 -49 -97 -56 0
-125 -53 -98 -50 -101 0
-126 -54 -50 -98 -102 0
-127 -50 -55 -98 -103 0
-104 -56 -50 -98 -128 0
-51 -99 -104 -56 -132 0
-100 -52 -133 -53 -101 0
-54 -134 -52 -100 -102 0
-100 -52 -103 -55 -135 0
-104 -56 -52 -136 -100 0
-122 -54 -105 -49 -110 0
-111 -105 -55 -49 -123 0
-124 -56 -49 -105 -112 0
-125 -109 -106 -50 -53 0
-126 -54 -106 -50 -110 0
-111 -50 -55 -106 -127 0
-128 -56 -50 -112 -106 0
-109 -53 -51 -129 -107 0
-54 -51 -107 -130 -110 0
-111 -107 -55 -51 -131 0
-56 -107 -112 -51 -132 0
-57 -73 -89 0
-58 -74 -90 0
-91 -59 -75 0
-60 -76 -92 0
-93 -61 -77 0
-78 -62 -94 0
-63 -95 -79 0
-96 -64 -80 0
-57 -61 -77 -73 -121 0
-57 -73 -62 -78 -122 0
-63 -73 -123 -57 -79 0
-124 -57 -80 -73 -64 0
-74 -58 -77 -125 -61 0
-126 -74 -62 -58 -78 0
-63 -79 -74 -58 -127 0
-128 -64 -74 -58 -80 0
-75 -61 -77 -59 -129 0
-76 -61 -133 -60 -77 0
-60 -76 -62 -78 -134 0
-57 -105 -89 0
-106 -58 -90 0
-59 -91 -107 0
-93 -109 -61 0
-110 -62 -94 0
-63 -95 -111 0
-96 -64 -112 0
-93 -57 -61 -89 -121 0
-122 -89 -62 -57 -94 0
-95 -57 -123 -89 -63 0
-96 -64 -57 -89 -124 0
-93 -90 -61 -58 -125 0
-126 -90 -94 -58 -62 0
-127 -63 -90 -95 -58 0
-96 -64 -128 -58 -90 0
-59 -91 -61 -129 -93 0
-59 -91 -94 -62 -130 0
-63 -59 -91 -95 -131 0
-64 -59 -91 -132 -96 0
-60 -93 -92 -61 -133 0
-134 -92 -62 -60 -94 0
-60 -63 -92 -95 -135 0
-96 -64 -92 -136 -60 0
-122 -105 -62 -57 -110 0
-63 -105 -123 -57 -111 0
-124 -57 -112 -64 -105 0
-125 -109 -61 -106 -58 0
-126 -58 -62 -110 -106 0
-127 -63 -106 -58 -111 0
-128 -106 -112 -64 -58 0
-109 -59 -61 -129 -107 0
-130 -110 -59 -62 -107 0
-63 -111 -107 -59 -131 0
-64 -132 -107 -59 -112 0
-65 -105 -89 0
-106 -66 -90 0
-91 -67 -107 0
-93 -109 -69 0
-110 -70 -94 0
-95 -111 -71 0
-93 -121 -65 -89 -69 0
-122 -89 -94 -65 -70 0
-95 -65 -71 -89 -123 0
-124 -72 -89 -96 -65 0
-68 -92 -69 -93 -133 0
-134 -92 -94 -68 -70 0
-95 -135 -92 -68 -71 0
-65 -105 -97 0
-106 -66 -98 0
-99 -67 -107 0
-109 -69 -101 0
-70 -110 -102 0
-111 -71 -103 0
-121 -65 -101 -97 -69 0
-70 -65 -97 -122 -102 0
-97 -71 -103 -65 -123 0
-124 -104 -65 -72 -97 0
-98 -69 -101 -66 -125 0
-70 -98 -102 -66 -126 0
-127 -66 -103 -98 -71 0
-128 -72 -66 -98 -104 0
-99 -67 -101 -69 -129 0
-70 -99 -67 -130 -102 0
-131 -67 -71 -99 -103 0
-100 -133 -101 -69 -68 0
-100 -68 -134 -70 -102 0
-100 -135 -103 -68 -71 0
-68 -108 -116 0
-111 -119 -71 0
-72 -112 -120 0
-122 -105 -65 -110 -70 0
-105 -123 -71 -65 -111 0
-70 -106 -66 -110 -126 0
-127 -66 -71 -106 -111 0
-109 -69 -129 -67 -107 0
-70 -67 -130 -110 -107 0
-131 -111 -107 -67 -71 0
-131 -71 -115 -119 -67 0
-72 -132 -67 -115 -120 0
-70 -134 -118 -68 -116 0
-71 -68 -119 -135 -116 0
-136 -68 -72 -116 -120 0
-73 -81 -89 0
-82 -74 -90 0
-83 -91 -75 0
-84 -76 -92 0
-93 -85 -77 0
-86 -78 -94 0
-95 -79 -87 0
-73 -81 -97 0
-74 -82 -98 0
-99 -83 -75 0
-100 -84 -76 0
-85 -77 -101 0
-78 -86 -102 0
-79 -87 -103 0
-73 -81 -113 0
-114 -74 -82 0
-83 -75 -115 0
-76 -84 -116 0
-86 -78 -118 0
-79 -87 -119 0
-80 -88 -120 0
-73 -85 -81 -77 -121 0
-86 -78 -81 -73 -122 0
-73 -89 -77 -93 -121 0
-122 -78 -73 -89 -94 0
-95 -123 -73 -79 -89 0
-124 -80 -89 -96 -73 0
-93 -125 -90 -74 -77 0
-126 -74 -94 -78 -90 0
-127 -79 -74 -90 -95 0
-128 -80 -90 -96 -74 0
-91 -93 -77 -75 -129 0
-78 -91 -130 -94 -75 0
-95 -79 -91 -75 -131 0
-96 -132 -91 -75 -80 0
-76 -92 -133 -93 -77 0
-78 -92 -94 -76 -134 0
-95 -79 -92 -135 -76 0
-121 -73 -101 -97 -77 0
-78 -73 -102 -97 -122 0
-123 -97 -103 -73 -79 0
-104 -80 -73 -97 -124 0
-125 -74 -77 -101 -98 0
-78 -98 -102 -74 -126 0
-127 -74 -103 -98 -79 0
-128 -104 -74 -98 -80 0
-129 -99 -101 -77 -75 0
-130 -99 -102 -78 -75 0
-131 -99 -103 -75 -79 0
-104 -80 -132 -99 -75 0
-100 -76 -101 -77 -133 0
-100 -76 -102 -78 -134 0
-100 -76 -103 -79 -135 0
-131 -119 -75 -79 -115 0
-80 -132 -75 -115 -120 0
-134 -78 -118 -76 -116 0
-79 -76 -119 -135 -116 0
-80 -136 -76 -116 -120 0
-121 -93 -85 -81 -89 0
-86 -81 -94 -89 -122 0
-95 -89 -87 -81 -123 0
-124 -96 -88 -89 -81 0
-93 -125 -90 -82 -85 0
-126 -86 -90 -82 -94 0
-95 -90 -87 -82 -127 0
-96 -128 -88 -90 -82 0
-86 -91 -130 -83 -94 0
-96 -88 -91 -83 -132 0
-84 -85 -92 -133 -93 0
-86 -84 -92 -94 -134 0
-86 -122 -97 -81 -102 0
-97 -81 -87 -103 -123 0
-124 -104 -81 -88 -97 0
-125 -82 -101 -98 -85 0
-126 -82 -102 -98 -86 0
-127 -98 -87 -103 -82 0
-128 -104 -82 -88 -98 0
-129 -99 -85 -101 -83 0
-86 -99 -130 -102 -83 0
-131 -99 -103 -87 -83 0
-104 -88 -99 -83 -132 0
-100 -84 -101 -85 -133 0
-100 -86 -102 -84 -134 0
-100 -84 -87 -103 -135 0
-127 -114 -119 -87 -82 0
-131 -83 -119 -87 -115 0
-88 -132 -115 -83 -120 0
-86 -134 -84 -118 -116 0
-135 -84 -87 -119 -116 0
-88 -84 -136 -116 -120 0
-93 -109 -90 -106 -125 0
-126 -106 -94 -110 -90 0
-127 -95 -106 -90 -111 0
-96 -128 -112 -106 -90 0
-93 -107 -129 -91 -109 0
-110 -91 -130 -94 -107 0
-131 -95 -91 -111 -107 0
-96 -132 -112 -107 -91 0
-110 -106 -98 -102 -126 0
-111 -98 -103 -106 -127 0
-128 -104 -98 -106 -112 0
-130 -110 -99 -107 -102 0
-131 -111 -107 -103 -99 0
-104 -132 -112 -107 -99 0
-108 -136 -112 -116 -120 0
17 10 1 2 18 9 0
17 11 9 19 1 3 0
9 17 20 4 1 12 0
121 9 21 17 5 1 13 0
122 22 9 17 14 1 6 0
17 1 23 7 15 123 9 0
124 1 24 9 17 8 16 0
10 3 2 18 11 19 0
2 18 20 12 4 10 0
125 2 5 10 18 21 13 0
127 10 15 2 23 7 18 0
128 18 8 24 2 16 10 0
11 19 12 20 3 4 0
132 19 24 11 3 8 16 0
135 12 20 15 23 4 7 0
13 7 5 15 23 21 0
24 21 5 13 8 16 0
6 14 23 15 7 22 0
22 24 14 16 8 6 0
7 16 23 8 15 24 0
26 9 2 25 1 10 0
3 9 1 25 11 27 0
9 25 12 4 28 1 0
124 25 32 1 9 16 8 0
10 3 2 11 26 27 0
28 2 4 26 12 10 0
128 26 32 2 16 8 10 0
3 11 4 12 27 28 0
132 3 32 27 11 8 16 0
13 133 29 5 4 12 28 0
136 4 32 12 8 28 16 0
29 6 30 5 14 13 0
13 31 15 7 29 5 0
13 29 32 5 8 16 0
6 31 15 14 7 30 0
6 30 8 32 16 14 0
7 32 15 8 16 31 0
10 66 2 65 1 9 0
3 11 1 9 67 65 0
65 9 4 12 68 1 0
65 7 71 1 9 123 15 0
65 1 16 72 9 124 8 0
10 3 66 67 2 11 0
66 2 12 68 4 10 0
128 10 72 66 2 8 16 0
3 11 4 12 68 67 0
130 3 14 11 67 6 70 0
131 3 71 7 15 11 67 0
132 67 16 3 72 11 8 0
134 4 14 12 68 6 70 0
7 4 71 68 12 135 15 0
136 8 68 4 12 72 16 0
16 5 69 13 8 72 0
6 7 15 70 14 71 0
6 14 8 72 70 16 0
7 16 15 72 8 71 0
3 10 1 2 9 11 0
11 1 4 9 12 3 0
10 11 2 4 3 12 0
13 7 5 15 14 6 0
13 6 16 14 5 8 0
13 7 16 15 5 8 0
7 16 15 14 6 8 0
17 18 1 2 42 41 0
43 1 19 41 3 17 0
44 1 4 41 17 20 0
122 17 46 41 22 1 6 0
17 47 1 7 41 123 23 0
17 41 8 24 124 48 1 0
43 3 2 42 18 19 0
2 42 20 4 18 44 0
126 6 42 2 22 46 18 0
18 2 23 7 42 127 47 0
128 18 24 2 42 8 48 0
3 19 20 44 43 4 0
129 43 21 5 3 45 19 0
132 43 24 8 3 48 19 0
20 21 5 133 44 4 45 0
134 46 4 20 22 6 44 0
47 44 7 4 20 135 23 0
24 21 8 5 48 45 0
6 47 46 7 22 23 0
22 24 46 6 48 8 0
47 48 8 7 24 23 0
17 1 19 18 2 3 0
17 2 4 1 20 18 0
1 17 20 4 19 3 0
122 3 1 22 130 19 17 6 0
3 2 20 18 19 4 0
22 6 24 21 8 5 0
22 6 7 8 24 23 0
26 1 2 25 74 73 0
75 73 27 1 25 3 0
28 1 4 25 76 73 0
124 25 32 1 80 73 8 0
3 75 2 26 27 74 0
28 2 76 74 26 4 0
74 32 80 2 128 26 8 0
3 28 4 75 27 76 0
130 3 6 27 75 78 30 0
132 3 80 32 75 27 8 0
133 28 5 77 76 4 29 0
134 28 4 76 78 30 6 0
29 77 78 6 5 30 0
79 31 77 7 5 29 0
29 77 8 32 80 5 0
79 31 78 6 30 7 0
6 32 80 30 8 78 0
79 7 8 31 80 32 0
3 1 99 97 27 25 0
100 97 4 28 25 1 0
123 1 7 31 25 103 97 0
124 25 8 104 97 32 1 0
3 2 99 26 27 98 0
100 2 98 28 26 4 0
126 2 30 26 102 98 6 0
128 26 32 104 8 2 98 0
100 27 4 28 99 3 0
132 27 8 104 32 3 99 0
134 100 102 6 28 4 30 0
28 135 103 100 31 4 7 0
29 101 103 5 7 31 0
32 29 8 5 104 101 0
6 30 103 102 7 31 0
6 30 102 104 8 32 0
104 8 103 7 31 32 0
29 6 30 5 32 8 0
41 73 74 2 1 42 0
3 43 1 73 41 75 0
123 73 7 1 41 47 79 0
43 3 74 2 42 75 0
42 2 76 4 74 44 0
128 48 74 8 2 42 80 0
43 44 3 75 4 76 0
132 43 80 8 3 48 75 0
47 135 79 7 76 44 4 0
76 8 80 4 44 48 136 0
77 45 80 5 48 8 0
6 47 46 7 78 79 0
6 46 8 78 48 80 0
47 48 8 7 80 79 0
43 3 1 2 42 41 0
44 1 4 41 43 3 0
44 43 3 2 42 4 0
6 45 5 46 8 48 0
48 47 5 7 45 8 0
47 46 8 7 48 6 0
57 66 2 65 1 58 0
67 3 65 57 1 59 0
65 4 60 57 68 1 0
124 1 72 65 57 8 64 0
3 67 66 59 58 2 0
2 4 60 68 58 66 0
126 2 70 6 58 66 62 0
127 63 66 2 7 58 71 0
64 128 2 66 8 72 58 0
3 4 60 68 67 59 0
129 67 5 69 3 61 59 0
3 6 62 67 130 59 70 0
131 59 71 63 3 7 67 0
64 8 59 72 3 132 67 0
62 5 70 69 6 61 0
63 7 61 5 71 69 0
64 69 72 8 5 61 0
6 7 70 71 62 63 0
64 6 72 8 70 62 0
63 7 8 72 71 64 0
3 1 59 57 97 99 0
100 1 4 97 57 60 0
124 64 1 57 8 104 97 0
3 58 98 59 2 99 0
100 2 60 58 98 4 0
126 58 62 6 98 102 2 0
64 128 2 98 8 104 58 0
100 4 59 60 3 99 0
131 63 99 7 59 3 103 0
64 132 8 104 99 59 3 0
64 5 61 101 104 8 0
6 62 103 7 63 102 0
64 62 8 102 104 6 0
64 63 8 104 103 7 0
64 62 8 61 5 6 0
66 65 74 2 1 73 0
67 75 65 1 73 3 0
65 1 76 4 73 68 0
1 77 5 73 65 69 121 0
123 65 7 73 1 79 71 0
124 65 8 73 1 80 72 0
75 3 2 66 67 74 0
74 2 4 68 66 76 0
6 74 78 2 70 126 66 0
79 74 7 66 2 71 127 0
128 74 8 66 2 80 72 0
67 3 4 68 76 75 0
129 67 69 5 3 75 77 0
3 67 78 70 75 130 6 0
131 79 67 7 75 3 71 0
67 75 72 80 132 3 8 0
134 6 76 4 78 70 68 0
79 4 71 68 7 76 135 0
76 8 80 72 136 4 68 0
77 78 5 70 69 6 0
77 7 71 5 69 79 0
77 8 69 5 72 80 0
6 79 70 7 71 78 0
8 6 80 78 70 72 0
79 7 8 72 80 71 0
3 66 1 65 2 67 0
66 2 4 65 1 68 0
67 65 4 1 68 3 0
3 66 4 68 67 2 0
6 8 69 5 70 72 0
7 8 72 5 71 69 0
7 72 71 8 70 6 0
3 75 73 74 1 2 0
2 73 76 4 74 1 0
73 1 76 4 75 3 0
74 3 76 4 75 2 0
78 8 80 5 6 77 0
79 7 8 5 80 77 0
79 78 80 7 8 6 0
2 3 98 99 97 1 0
100 2 4 1 98 97 0
3 100 1 4 97 99 0
122 130 3 97 6 102 99 1 0
100 2 4 98 99 3 0
128 132 2 98 3 8 99 104 0
128 127 103 2 8 98 104 7 0
132 129 3 99 101 8 104 5 0
131 132 7 104 99 8 3 103 0
6 7 102 103 5 101 0
6 104 102 5 101 8 0
7 8 103 104 5 101 0
6 8 103 7 102 104 0
3 1 4 2 0
6 7 8 5 0
10 81 82 18 9 17 0
83 17 11 9 81 19 0
17 81 20 9 12 84 0
17 81 85 13 9 121 21 0
122 17 81 9 22 14 86 0
17 81 15 87 9 123 23 0
124 17 81 9 24 88 16 0
10 83 18 11 19 82 0
10 12 84 20 18 82 0
125 82 85 10 18 13 21 0
126 82 86 18 10 14 22 0
127 82 15 23 10 87 18 0
128 18 24 10 82 88 16 0
83 20 84 11 12 19 0
129 83 85 11 19 13 21 0
130 22 11 14 86 19 83 0
131 19 23 11 15 83 87 0
13 20 84 133 85 21 12 0
134 20 14 84 12 22 86 0
20 84 87 15 23 12 135 0
136 88 20 24 12 84 16 0
22 14 21 13 85 86 0
13 23 87 85 21 15 0
88 24 16 85 21 13 0
22 14 23 15 86 87 0
88 24 14 86 22 16 0
24 23 87 15 88 16 0
17 11 9 19 89 91 0
17 9 12 20 92 89 0
124 17 24 9 96 16 89 0
92 90 12 10 18 20 0
125 90 21 18 93 10 13 0
127 90 15 95 23 10 18 0
128 18 24 10 90 16 96 0
92 11 20 12 19 91 0
129 13 91 19 93 11 21 0
132 19 24 91 11 96 16 0
92 133 21 20 12 93 13 0
134 20 14 12 94 92 22 0
92 20 95 12 15 23 135 0
96 13 24 16 93 21 0
22 14 23 94 95 15 0
24 16 94 22 96 14 0
96 16 95 24 15 23 0
22 24 14 13 21 16 0
24 21 15 23 16 13 0
10 33 34 9 25 26 0
35 9 27 25 33 11 0
9 36 25 12 28 33 0
123 25 39 31 33 9 15 0
124 33 32 25 9 16 40 0
35 34 27 11 10 26 0
10 28 26 12 36 34 0
126 38 34 26 30 14 10 0
128 26 32 16 10 40 34 0
35 27 12 36 28 11 0
131 27 15 39 31 11 35 0
132 35 27 40 16 32 11 0
134 28 14 12 30 36 38 0
38 14 37 13 29 30 0
13 16 37 32 40 29 0
39 30 15 14 31 38 0
38 30 16 14 40 32 0
31 32 15 39 40 16 0
10 9 27 25 11 26 0
9 26 25 12 10 28 0
25 27 12 9 11 28 0
123 31 28 25 12 9 15 135 0
10 28 12 26 11 27 0
13 29 32 16 30 14 0
13 29 32 16 15 31 0
10 81 82 9 34 33 0
35 11 81 9 33 83 0
9 33 84 36 81 12 0
124 9 16 40 81 33 88 0
10 35 34 83 11 82 0
10 36 82 84 12 34 0
128 34 16 40 10 82 88 0
11 83 84 36 12 35 0
132 11 40 83 35 88 16 0
134 12 14 38 86 36 84 0
136 12 40 16 36 88 84 0
13 85 86 14 37 38 0
37 85 15 87 13 39 0
16 37 85 13 88 40 0
38 39 15 14 86 87 0
88 38 16 14 40 86 0
88 40 15 39 16 87 0
34 33 36 12 9 10 0
35 33 36 9 11 12 0
35 10 36 34 11 12 0
14 37 15 39 38 13 0
38 37 16 40 13 14 0
39 40 15 37 13 16 0
39 40 15 16 14 38 0
10 9 49 66 50 65 0
11 9 49 51 65 67 0
9 49 68 65 12 52 0
9 49 15 65 123 55 71 0
10 11 50 66 67 51 0
10 66 68 52 50 12 0
126 66 14 50 10 54 70 0
127 66 15 55 10 71 50 0
50 10 72 56 16 66 128 0
11 52 67 68 51 12 0
129 67 69 13 51 11 53 0
130 11 70 14 54 51 67 0
131 51 15 71 55 67 11 0
67 51 16 72 56 11 132 0
13 69 70 54 14 53 0
13 69 15 71 55 53 0
13 16 69 72 53 56 0
55 54 71 14 15 70 0
16 14 56 54 72 70 0
16 72 71 15 56 55 0
10 9 49 50 90 89 0
11 9 49 51 91 89 0
92 89 12 49 9 52 0
9 49 15 55 123 89 95 0
50 51 91 90 11 10 0
92 52 50 12 10 90 0
128 50 56 96 10 90 16 0
92 11 12 52 51 91 0
129 13 91 53 93 11 51 0
130 91 14 94 11 51 54 0
91 55 15 11 51 131 95 0
132 96 16 91 56 11 51 0
13 53 15 95 55 93 0
96 13 16 53 93 56 0
55 54 15 95 94 14 0
96 14 56 16 54 94 0
96 56 95 15 16 55 0
52 12 49 50 9 10 0
16 14 56 54 15 55 0
9 66 81 10 82 65 0
67 83 65 9 81 11 0
9 65 68 81 12 84 0
121 65 85 13 81 69 9 0
81 9 86 14 65 122 70 0
81 65 15 71 9 123 87 0
124 65 16 81 9 72 88 0
10 83 82 67 66 11 0
10 82 12 68 66 84 0
125 82 85 10 66 13 69 0
126 66 86 10 82 14 70 0
127 82 15 66 10 71 87 0
128 88 66 82 72 10 16 0
83 11 84 68 12 67 0
129 83 85 11 67 13 69 0
130 11 70 14 67 86 83 0
131 83 87 71 67 15 11 0
11 83 16 72 88 132 67 0
13 133 68 85 84 69 12 0
134 12 86 68 14 84 70 0
135 84 87 68 12 71 15 0
136 88 12 16 68 72 84 0
13 85 70 86 69 14 0
13 85 87 71 69 15 0
88 16 85 72 13 69 0
14 70 15 71 86 87 0
88 16 70 14 86 72 0
88 16 71 87 72 15 0
10 65 68 9 12 66 0
67 65 68 12 9 11 0
10 67 66 68 12 11 0
13 16 69 72 14 70 0
13 72 71 69 15 16 0
16 72 71 14 15 70 0
10 9 82 11 83 81 0
82 12 84 81 10 9 0
11 83 81 12 84 9 0
83 11 84 10 12 82 0
13 85 15 87 14 86 0
13 88 86 14 85 16 0
13 88 16 85 15 87 0
88 16 14 15 87 86 0
9 11 91 89 90 10 0
10 89 12 90 9 92 0
92 11 9 91 12 89 0
92 90 12 11 10 91 0
131 127 11 91 10 90 95 15 0
128 132 90 11 10 91 16 96 0
13 93 15 14 95 94 0
96 14 93 94 16 13 0
96 13 15 95 16 93 0
96 16 15 14 95 94 0
11 10 12 9 0
13 16 15 14 0
17 41 89 90 42 18 0
43 17 41 19 91 89 0
92 89 20 44 41 17 0
122 17 94 41 89 22 46 0
17 47 23 89 95 41 123 0
43 42 91 90 18 19 0
92 42 20 18 90 44 0
92 91 20 44 19 43 0
129 43 93 91 21 45 19 0
130 43 94 91 19 46 22 0
47 91 23 19 131 43 95 0
132 96 43 19 24 48 91 0
92 133 21 45 93 44 20 0
22 134 20 46 44 94 92 0
44 47 20 135 95 92 23 0
22 46 94 45 21 93 0
45 47 23 21 93 95 0
48 24 21 45 96 93 0
47 46 94 95 22 23 0
96 46 94 22 48 24 0
96 24 23 47 48 95 0
17 41 105 42 18 106 0
17 41 107 43 105 19 0
17 41 20 44 105 108 0
121 41 45 105 109 21 17 0
122 17 46 41 110 105 22 0
17 41 23 47 123 105 111 0
124 105 112 41 24 48 17 0
44 42 20 18 106 108 0
125 18 109 42 106 45 21 0
126 46 106 18 22 110 42 0
127 18 23 106 42 47 111 0
128 18 112 106 48 42 24 0
43 19 20 44 107 108 0
129 21 107 43 19 109 45 0
131 43 23 107 111 19 47 0
132 19 107 112 48 24 43 0
44 20 45 21 109 133 108 0
22 44 20 46 110 134 108 0
44 47 23 20 111 135 108 0
44 24 20 48 112 136 108 0
22 46 21 45 109 110 0
45 109 23 21 47 111 0
24 45 112 21 109 48 0
46 23 111 47 22 110 0
24 46 112 110 48 22 0
47 23 112 24 48 111 0
24 46 21 48 22 45 0
22 47 23 24 46 48 0
81 18 82 17 106 105 0
81 17 107 83 19 105 0
17 81 20 84 105 108 0
17 81 21 85 109 105 121 0
122 22 81 86 110 105 17 0
81 23 111 17 87 105 123 0
124 17 112 105 24 88 81 0
82 20 84 18 106 108 0
125 82 85 106 18 21 109 0
126 106 110 22 82 86 18 0
127 82 111 23 87 106 18 0
128 88 106 24 112 18 82 0
19 20 84 83 107 108 0
23 107 87 83 19 111 131 0
20 21 84 85 109 133 108 0
22 20 84 86 110 134 108 0
23 84 87 20 111 135 108 0
24 20 84 88 112 136 108 0
22 21 110 109 85 86 0
23 87 111 21 85 109 0
88 24 109 85 112 21 0
22 23 110 86 87 111 0
88 24 110 112 22 86 0
24 23 87 88 112 111 0
81 18 82 17 84 20 0
83 19 84 81 20 17 0
19 20 84 82 18 83 0
128 136 20 18 24 88 82 84 0
17 18 89 90 113 114 0
17 19 115 113 89 91 0
121 17 21 93 117 89 113 0
122 22 89 94 113 118 17 0
123 17 119 89 95 23 113 0
18 19 91 115 90 114 0
125 90 21 18 93 117 114 0
126 18 118 22 90 94 114 0
127 18 119 23 95 90 114 0
129 19 115 117 91 21 93 0
130 22 91 19 115 118 94 0
91 23 115 119 95 19 131 0
22 21 94 93 117 118 0
21 95 117 119 93 23 0
22 23 119 95 94 118 0
92 91 20 90 19 18 0
24 96 95 23 21 93 0
17 20 106 105 18 108 0
17 19 20 105 107 108 0
23 21 111 110 22 109 0
21 22 112 109 110 24 0
17 18 115 19 114 113 0
126 18 119 118 22 23 127 114 0
22 23 119 117 118 21 0
17 18 19 20 0
22 24 23 21 0
34 26 98 25 33 97 0
35 33 99 27 97 25 0
25 100 97 28 33 36 0
123 33 103 25 97 39 31 0
124 32 97 25 33 40 104 0
35 26 99 34 27 98 0
34 36 98 26 100 28 0
125 34 37 98 26 101 29 0
127 34 39 26 98 31 103 0
128 26 32 104 40 34 98 0
35 100 27 28 99 36 0
29 27 37 99 35 129 101 0
131 35 39 31 99 27 103 0
132 35 27 40 32 104 99 0
29 100 101 28 133 37 36 0
134 100 30 36 28 38 102 0
28 135 103 100 39 31 36 0
136 28 40 36 32 100 104 0
29 32 40 101 37 104 0
30 38 31 39 103 102 0
104 38 102 40 30 32 0
39 40 103 104 31 32 0
33 25 106 26 34 105 0
35 27 107 25 33 105 0
33 28 105 36 25 108 0
121 29 25 105 37 109 33 0
105 25 110 30 33 38 122 0
124 32 112 105 25 40 33 0
28 34 106 36 26 108 0
35 28 27 36 107 108 0
29 36 37 28 109 133 108 0
30 38 36 28 110 134 108 0
38 29 37 109 30 110 0
29 31 111 39 109 37 0
29 32 37 40 109 112 0
31 39 110 30 111 38 0
32 110 112 30 40 38 0
32 39 112 40 111 31 0
35 28 27 36 26 34 0
73 105 106 25 74 26 0
73 105 107 27 75 25 0
28 73 76 25 105 108 0
121 105 77 25 29 109 73 0
73 25 78 30 105 122 110 0
123 31 73 111 105 25 79 0
124 32 112 105 80 73 25 0
28 76 106 74 26 108 0
125 29 106 74 26 77 109 0
126 106 110 74 30 26 78 0
127 79 74 106 26 31 111 0
28 27 76 75 107 108 0
129 29 107 27 75 77 109 0
27 107 110 75 30 78 130 0
29 28 76 77 109 133 108 0
28 76 30 78 110 134 108 0
31 28 76 79 111 135 108 0
28 76 32 80 112 136 108 0
29 77 78 30 109 110 0
79 31 77 29 109 111 0
32 77 112 80 29 109 0
79 78 110 111 30 31 0
78 80 112 30 110 32 0
79 31 112 111 80 32 0
28 73 27 25 76 75 0
28 27 76 74 75 26 0
77 32 80 78 29 30 0
79 31 78 32 80 30 0
26 25 98 113 97 114 0
25 113 99 97 27 115 0
121 29 97 101 113 117 25 0
122 25 30 97 118 102 113 0
25 113 103 119 97 123 31 0
26 27 98 115 99 114 0
29 101 98 114 117 26 125 0
126 26 102 118 98 30 114 0
127 31 119 103 98 26 114 0
129 29 27 99 101 117 115 0
27 30 102 115 130 118 99 0
99 103 115 119 27 31 131 0
29 30 101 117 102 118 0
29 103 119 117 101 31 0
30 31 119 103 118 102 0
100 27 98 26 99 28 0
32 31 101 104 103 29 0
28 25 105 26 106 108 0
28 105 107 25 27 108 0
31 30 110 111 29 109 0
30 32 112 109 110 29 0
25 26 27 113 114 115 0
121 125 26 25 29 117 114 113 0
29 30 119 31 118 117 0
31 29 32 30 0
33 105 107 43 41 35 0
44 36 41 33 105 108 0
124 33 41 105 40 112 48 0
43 35 42 34 106 107 0
44 34 42 36 106 108 0
34 109 45 42 106 125 37 0
43 35 36 44 107 108 0
129 35 37 107 109 43 45 0
130 35 46 43 107 38 110 0
131 35 111 39 107 43 47 0
132 107 112 43 35 48 40 0
36 45 37 44 109 133 108 0
38 44 46 36 110 134 108 0
44 39 135 36 111 47 108 0
48 44 40 36 112 136 108 0
38 37 45 46 109 110 0
45 47 37 111 109 39 0
109 40 112 45 48 37 0
47 46 110 111 38 39 0
38 46 112 40 48 110 0
48 39 112 47 111 40 0
34 33 42 41 43 35 0
44 33 42 41 36 34 0
43 33 41 44 35 36 0
38 40 45 46 48 37 0
38 48 39 47 40 46 0
57 81 82 34 58 33 0
83 57 59 33 35 81 0
33 81 60 84 57 36 0
122 62 33 81 57 86 38 0
124 88 57 40 64 33 81 0
83 34 59 58 35 82 0
58 36 60 34 82 84 0
125 34 85 37 61 58 82 0
126 34 86 58 62 38 82 0
127 82 39 58 63 87 34 0
64 128 58 34 88 82 40 0
35 83 60 84 59 36 0
129 83 85 35 59 61 37 0
38 35 62 130 59 86 83 0
131 63 59 83 35 39 87 0
64 132 35 83 88 59 40 0
133 37 61 60 84 85 36 0
134 60 86 84 62 38 36 0
63 39 60 84 36 135 87 0
63 85 87 61 39 37 0
64 88 61 85 37 40 0
63 62 86 87 38 39 0
64 38 62 88 86 40 0
64 63 40 39 87 88 0
35 33 99 59 97 57 0
100 57 60 36 97 33 0
58 34 99 35 98 59 0
58 100 98 34 36 60 0
127 58 39 103 63 98 34 0
64 128 58 104 34 98 40 0
35 100 60 59 99 36 0
35 37 59 99 129 101 61 0
35 99 103 39 63 131 59 0
133 36 61 60 37 101 100 0
134 62 60 102 36 100 38 0
63 100 103 60 36 135 39 0
63 61 103 39 101 37 0
64 37 61 40 101 104 0
38 62 103 39 63 102 0
64 62 104 38 102 40 0
64 63 39 40 103 104 0
35 57 60 59 36 33 0
35 34 60 59 36 58 0
64 62 37 61 40 38 0
81 33 82 34 106 105 0
81 33 107 35 83 105 0
33 81 84 36 105 108 0
121 33 37 85 81 109 105 0
122 38 33 86 105 110 81 0
123 81 87 33 111 105 39 0
124 33 40 88 112 105 81 0
35 82 107 106 83 34 0
34 82 84 36 106 108 0
127 34 111 106 82 39 87 0
128 34 112 106 88 40 82 0
35 83 36 84 107 108 0
130 107 86 110 35 83 38 0
131 35 111 39 107 83 87 0
132 40 107 35 83 88 112 0
37 36 85 84 109 133 108 0
38 84 86 36 110 134 108 0
135 84 111 39 87 36 108 0
88 40 84 36 112 136 108 0
38 37 85 110 109 86 0
39 37 85 111 109 87 0
88 109 40 37 85 112 0
38 39 111 110 87 86 0
38 86 110 112 40 88 0
88 87 112 39 40 111 0
34 33 84 36 81 82 0
35 34 82 36 83 84 0
38 37 86 85 39 87 0
40 85 87 39 88 37 0
34 33 99 35 98 97 0
100 33 98 97 36 34 0
35 100 97 36 33 99 0
124 132 33 99 40 104 35 97 0
35 36 99 34 98 100 0
134 35 99 36 38 100 130 102 0
38 37 103 101 102 39 0
38 37 102 101 40 104 0
39 101 103 37 40 104 0
104 38 103 40 102 39 0
34 33 106 105 36 108 0
35 105 107 36 33 108 0
38 37 110 111 39 109 0
38 37 40 109 110 112 0
109 40 112 37 39 111 0
38 39 112 110 111 40 0
35 33 36 34 0
38 39 40 37 0
50 41 74 49 42 73 0
75 73 51 41 43 49 0
44 52 41 76 49 73 0
73 46 54 49 122 41 78 0
124 41 56 49 80 48 73 0
43 42 51 74 50 75 0
44 52 50 76 74 42 0
125 42 45 74 53 77 50 0
126 42 46 50 74 78 54 0
47 50 55 42 74 79 127 0
128 48 42 80 56 74 50 0
76 52 75 51 44 43 0
129 53 75 45 77 51 43 0
130 51 46 43 54 75 78 0
131 79 51 55 75 43 47 0
51 48 56 75 132 43 80 0
53 76 45 52 133 44 77 0
44 52 54 134 78 46 76 0
135 52 55 79 44 76 47 0
136 52 56 80 76 44 48 0
53 54 77 45 46 78 0
55 45 77 47 79 53 0
77 45 80 48 56 53 0
47 46 54 79 55 78 0
78 46 56 54 80 48 0
48 47 80 79 55 56 0
43 41 51 89 49 91 0
92 52 89 41 49 44 0
123 49 95 55 47 41 89 0
124 41 56 96 49 89 48 0
42 51 91 90 43 50 0
92 52 50 42 44 90 0
127 50 55 95 90 42 47 0
128 96 50 90 42 56 48 0
92 44 52 91 51 43 0
129 51 93 53 45 91 43 0
131 51 95 43 91 55 47 0
44 52 54 134 92 94 46 0
52 135 55 47 44 95 92 0
53 55 45 95 47 93 0
48 53 56 93 45 96 0
47 55 54 94 95 46 0
48 46 94 54 96 56 0
48 96 47 95 55 56 0
55 45 56 47 53 48 0
47 46 54 55 48 56 0
73 105 106 74 42 41 0
73 105 107 41 75 43 0
44 73 76 41 105 108 0
122 105 46 41 73 110 78 0
47 41 105 111 79 73 123 0
124 73 112 41 80 48 105 0
44 74 76 42 106 108 0
125 42 45 106 74 77 109 0
126 106 110 74 42 78 46 0
47 79 74 42 111 106 127 0
128 74 80 112 106 48 42 0
43 44 75 76 107 108 0
129 45 107 109 75 43 77 0
130 43 46 110 75 107 78 0
131 107 111 47 79 75 43 0
132 107 112 75 43 48 80 0
77 76 45 44 109 133 108 0
78 46 76 44 110 134 108 0
44 47 135 111 76 79 108 0
48 76 80 44 112 136 108 0
77 78 45 110 46 109 0
79 77 45 47 111 109 0
77 45 80 48 112 109 0
78 46 111 47 79 110 0
48 110 112 78 80 46 0
47 48 80 79 112 111 0
43 75 74 42 73 41 0
44 74 76 42 41 73 0
75 43 73 41 76 44 0
43 44 75 76 74 42 0
77 45 80 46 78 48 0
48 45 79 47 77 80 0
47 78 80 79 46 48 0
43 41 91 90 42 89 0
44 92 90 42 89 41 0
92 43 89 44 41 91 0
44 92 91 90 43 42 0
96 46 94 48 93 45 0
45 47 48 95 93 96 0
48 47 94 95 96 46 0
44 41 106 105 42 108 0
43 44 107 41 105 108 0
47 45 110 46 109 111 0
45 48 112 109 110 46 0
48 45 111 47 109 112 0
47 48 46 111 112 110 0
43 44 41 42 0
45 47 46 48 0
58 57 49 50 65 66 0
67 65 51 57 59 49 0
52 49 68 65 60 57 0
121 49 61 57 65 69 53 0
122 65 54 57 62 49 70 0
123 63 57 71 49 65 55 0
124 65 56 57 64 72 49 0
58 51 59 66 67 50 0
58 52 50 66 68 60 0
125 66 61 53 58 50 69 0
128 66 72 50 58 56 64 0
51 59 60 52 67 68 0
55 59 71 51 67 63 131 0
134 60 54 68 52 70 62 0
64 53 72 56 69 61 0
63 55 70 71 54 62 0
64 62 56 54 70 72 0
64 55 71 63 56 72 0
58 57 49 113 114 50 0
57 49 51 115 113 59 0
123 63 57 55 119 49 113 0
58 50 51 115 114 59 0
126 58 62 54 118 50 114 0
63 50 55 58 119 127 114 0
129 53 59 115 61 117 51 0
130 51 118 62 115 54 59 0
53 62 54 61 118 117 0
53 55 61 119 117 63 0
63 54 119 62 55 118 0
66 65 74 49 73 50 0
67 49 51 65 75 73 0
52 76 73 65 49 68 0
53 49 77 73 65 121 69 0
73 49 78 54 122 70 65 0
123 65 71 73 55 49 79 0
124 49 80 73 72 65 56 0
67 66 51 50 74 75 0
52 66 68 50 74 76 0
125 74 69 66 50 53 77 0
50 66 78 70 74 126 54 0
127 74 71 66 79 50 55 0
128 66 72 56 80 74 50 0
76 52 75 67 68 51 0
129 75 69 51 67 77 53 0
130 67 70 51 75 54 78 0
131 67 55 51 79 71 75 0
51 75 56 80 132 67 72 0
53 133 68 76 52 77 69 0
134 68 54 76 52 70 78 0
76 52 55 79 71 68 135 0
136 68 80 76 52 56 72 0
53 77 69 78 70 54 0
53 77 79 69 55 71 0
69 77 56 72 80 53 0
78 55 71 70 54 79 0
78 72 70 56 80 54 0
79 56 71 72 80 55 0
52 66 68 65 50 49 0
67 49 68 65 52 51 0
52 66 68 50 67 51 0
53 69 72 56 54 70 0
53 69 72 56 71 55 0
55 56 71 54 72 70 0
52 76 74 49 73 50 0
49 51 76 75 73 52 0
52 76 75 51 50 74 0
53 54 80 77 56 78 0
77 55 56 80 53 79 0
78 79 54 55 56 80 0
49 50 89 113 114 90 0
49 91 113 51 115 89 0
121 53 49 89 117 93 113 0
122 49 94 54 89 118 113 0
123 49 119 55 95 89 113 0
50 51 91 90 114 115 0
125 50 93 53 117 90 114 0
126 90 94 50 54 118 114 0
90 50 95 55 119 127 114 0
129 51 93 53 115 91 117 0
130 91 94 51 54 118 115 0
91 51 95 55 115 119 131 0
53 54 94 93 118 117 0
53 95 119 117 93 55 0
55 54 94 118 119 95 0
56 55 95 93 96 53 0
49 50 115 51 114 113 0
53 55 54 119 117 118 0
52 49 51 50 0
53 55 56 54 0
58 66 81 65 82 57 0
83 65 59 57 81 67 0
81 65 60 68 84 57 0
121 81 61 57 85 65 69 0
122 81 70 86 57 65 62 0
123 63 65 71 81 87 57 0
124 64 57 88 72 81 65 0
83 82 59 58 66 67 0
66 58 68 60 84 82 0
125 82 69 58 61 85 66 0
126 82 70 62 58 66 86 0
127 63 66 58 87 82 71 0
64 128 58 72 82 88 66 0
83 59 60 84 68 67 0
129 83 85 61 67 59 69 0
130 83 86 59 70 62 67 0
131 83 71 59 67 63 87 0
64 132 88 72 59 67 83 0
133 84 61 60 69 85 68 0
134 62 68 60 84 86 70 0
63 135 60 68 84 87 71 0
136 60 72 84 88 64 68 0
62 69 70 61 86 85 0
63 69 87 85 71 61 0
64 88 61 85 69 72 0
63 62 87 71 86 70 0
64 88 72 70 86 62 0
64 88 72 87 63 71 0
57 65 68 60 66 58 0
57 65 68 60 59 67 0
58 66 68 60 67 59 0
64 62 72 61 69 70 0
81 82 60 57 58 84 0
83 57 60 84 59 81 0
58 83 60 84 82 59 0
58 57 98 113 97 114 0
57 113 99 97 115 59 0
121 101 97 61 57 117 113 0
122 97 102 113 57 118 62 0
123 63 97 57 103 119 113 0
58 59 115 98 99 114 0
125 58 61 101 117 98 114 0
126 58 62 118 102 98 114 0
127 58 98 63 119 103 114 0
129 59 115 61 101 99 117 0
130 59 118 115 99 102 62 0
63 99 103 59 115 119 131 0
62 61 101 118 117 102 0
63 61 103 119 101 117 0
63 62 103 119 102 118 0
63 104 103 101 64 61 0
58 57 59 115 114 113 0
63 62 119 61 118 117 0
58 57 60 59 0
67 75 65 74 73 66 0
67 75 65 73 68 76 0
66 74 68 76 67 75 0
69 78 72 77 80 70 0
79 69 72 80 77 71 0
79 72 71 78 80 70 0
81 65 82 66 83 67 0
67 83 81 65 68 84 0
83 66 84 67 82 68 0
69 85 71 86 87 70 0
69 72 86 85 70 88 0
85 72 71 88 69 87 0
88 72 71 86 87 70 0
67 66 68 65 0
69 72 71 70 0
73 105 76 74 106 108 0
73 105 107 75 76 108 0
74 76 107 75 106 108 0
79 78 110 111 77 109 0
77 78 112 109 110 80 0
79 77 112 111 109 80 0
78 79 80 111 110 112 0
75 73 76 74 0
78 79 80 77 0
81 82 105 84 106 108 0
83 105 107 84 81 108 0
83 107 84 106 82 108 0
109 85 110 86 111 87 0
109 86 112 110 85 88 0
88 109 85 111 112 87 0
88 87 112 110 86 111 0
83 82 84 81 0
88 85 87 86 0
89 113 98 90 97 114 0
89 113 115 99 97 91 0
121 93 101 117 113 89 97 0
122 97 118 89 113 102 94 0
89 97 103 119 123 95 113 0
90 91 99 115 98 114 0
125 101 98 93 117 90 114 0
126 90 102 94 98 118 114 0
127 98 119 103 90 95 114 0
129 93 115 101 91 117 99 0
130 91 94 99 115 118 102 0
95 99 103 91 115 119 131 0
93 102 117 94 101 118 0
95 93 103 101 117 119 0
95 94 119 103 102 118 0
92 100 91 89 99 97 0
92 100 91 90 98 99 0
92 136 100 99 96 91 132 104 0
96 93 102 101 104 94 0
96 104 95 102 94 103 0
91 89 114 115 113 90 0
126 130 118 114 91 115 94 90 0
93 95 119 118 117 94 0
92 90 91 89 0
96 93 95 94 0
113 97 98 99 115 114 0
122 130 118 99 115 113 102 97 0
101 103 119 117 102 118 0
100 97 98 99 0
104 101 102 103 0
105 106 107 108 0
109 110 112 111 0
113 115 114 116 0
114 -113 0
-137 -113 114 0
-114 -113 137 0
113 114 137 0
-105 106 -137 0
-105 138 -106 -137 0
138 105 -137 106 0
-97 98 -138 0
-98 97 -139 0
-138 -98 -97 139 0
139 97 -138 98 0
-89 90 -139 0
-89 -90 -139 140 0
140 89 -139 90 0
-81 82 -140 0
141 -81 -140 -82 0
141 81 82 -140 0
-141 -73 74 0
115 -114 0
151 -114 -115 0
115 151 114 0
-106 107 -151 0
-152 -107 106 0
152 -106 -107 -151 0
-152 -98 99 0
-153 152 0
-152 153 99 98 0
-153 -90 91 0
-154 83 -82 0
116 -115 0
-165 -115 116 0
-116 -115 165 0
-107 108 -165 0
166 107 -165 108 0
-166 -99 100 0
167 -166 -99 -100 0
-166 167 99 100 0
-167 92 -91 0
-167 -91 -92 168 0
-167 92 91 168 0
-168 -83 84 0
-168 169 84 83 0
-169 76 -75 0
118 -117 0
117 -179 -118 0
-118 -117 179 0
117 118 179 0
-109 110 -179 0
-180 179 0
-109 -180 110 0
-110 109 -180 0
180 -110 -109 -179 0
180 109 110 -179 0
-101 -180 102 0
-180 -101 -102 181 0
181 101 -180 102 0
-93 -181 94 0
-182 -93 94 0
182 -93 -94 -181 0
182 -181 93 94 0
-85 -182 86 0
183 -182 86 85 0
-183 78 -77 0
-183 184 77 78 0
-184 -69 70 0
119 -118 0
-119 193 -118 0
119 193 118 0
-110 111 -193 0
-110 -111 -193 194 0
194 110 111 -193 0
-194 103 -102 0
-103 195 -102 -194 0
-194 195 103 102 0
-195 -94 95 0
-195 -95 -94 196 0
196 -195 95 94 0
-86 87 -196 0
119 -120 -207 0
-119 207 -120 0
-111 112 -207 0
-208 207 0
-111 -112 -207 208 0
208 111 112 -207 0
-103 104 -208 0
-209 104 -103 0
-104 -103 209 -208 0
209 104 -208 103 0
-209 96 -95 0
-209 210 95 96 0
-210 88 -87 0
120 -116 0
-221 -116 120 0
-120 -116 221 0
-108 112 -221 0
-222 -112 108 0
222 112 -221 108 0
-100 -222 104 0
-223 222 0
-223 -104 100 0
-100 223 -222 -104 0
223 -222 104 100 0
-223 96 -92 0
-96 224 -92 -223 0
224 -223 96 92 0
-224 88 -84 0
-224 225 84 88 0
-225 -76 80 0
-225 226 76 80 0
-226 -68 72 0
-226 227 72 68 0
-227 64 -60 0
-227 228 -64 -60 0
-228 -52 56 0
-228 -56 -52 229 0
-229 48 -44 0
