p cnf 40739 26213
31 43 3 4 5 6 7 8 9 10 11 12 13 14 15 16 17 1 2 18 21 37 20 24 38 26 27 22 33 30 34 32 41 19 35 36 23 29 39 40 25 42 28 44 45 0
1207 -37 0
-1207 -38 0
-811 1 2 3 4 5 6 7 8 9 0
-991 0
-812 10 11 12 13 14 15 16 17 0
-992 1 0
-813 19 20 18 21 22 23 24 0
813 -18 0
-993 2 10 0
-814 25 28 27 29 26 30 0
-994 18 11 3 0
994 -18 0
-815 31 32 33 34 35 0
815 -31 0
-995 19 12 4 25 0
-816 37 36 38 39 0
816 -37 0
816 -38 0
-996 31 13 5 26 20 0
996 -26 0
-817 41 40 42 0
-997 6 14 21 27 32 36 0
-818 43 44 0
-998 33 15 7 22 37 28 40 0
998 -22 0
998 -28 0
-819 45 0
41 43 16 8 -999 38 23 34 29 0
999 -43 0
-820 0
-1000 9 17 24 30 35 39 42 44 45 0
79 86 47 49 90 50 48 63 52 55 56 69 58 59 60 61 62 57 82 65 74 51 88 70 78 66 83 46 67 75 68 77 53 76 80 81 64 71 84 72 54 87 73 89 85 0
1217 -48 0
1218 -49 0
1218 -1217 0
1219 -50 0
1219 -1218 0
-50 -1218 0
1220 -1219 0
1221 -1220 0
1222 -1221 0
1223 -1222 0
1224 -1223 0
1225 -1224 0
1226 -1225 0
1227 -1226 0
1228 -1227 0
1229 -1228 0
1230 -1229 0
1231 -1230 0
1232 -1231 0
-64 1233 0
1233 -1232 0
-65 1234 0
1234 -1233 0
1235 -1234 0
-67 1236 0
1236 -1235 0
-68 1237 0
1237 -1236 0
-68 -1236 0
1238 -1237 0
1239 -70 0
1239 -1238 0
-71 1240 0
1240 -1239 0
1241 -1240 0
1242 -1241 0
1243 -74 0
1243 -1242 0
-74 -1242 0
1244 -1243 0
-76 1245 0
1245 -1244 0
-76 -1244 0
1246 -1245 0
-78 1247 0
1247 -1246 0
-78 -1246 0
1248 -79 0
1248 -1247 0
-79 -1247 0
1249 -1248 0
1250 -1249 0
-82 1251 0
1251 -1250 0
-82 -1250 0
-83 1252 0
1252 -1251 0
-83 -1251 0
1253 -1252 0
1254 -1253 0
1255 -1254 0
1256 -1255 0
-88 -1256 0
-821 54 49 52 47 48 53 51 50 46 0
-46 821 0
-47 821 0
-48 821 0
-49 821 0
-50 821 0
-53 821 0
-1001 0
-822 59 56 55 57 58 61 60 62 0
-1002 46 0
-823 68 65 66 63 64 67 69 0
-64 823 0
-1003 55 47 0
-824 73 72 70 74 71 75 0
-70 824 0
-73 824 0
-1004 56 48 63 0
-825 78 77 79 76 80 0
825 -79 0
-1005 57 49 70 64 0
1005 -49 0
-64 1005 0
-70 1005 0
-826 83 81 82 84 0
826 -82 0
826 -83 0
-1006 58 50 76 71 65 0
-827 86 85 87 0
-1007 66 51 59 72 77 81 0
-828 88 89 0
828 -88 0
-1008 82 52 73 67 85 60 78 0
-73 1008 0
-829 90 0
-1009 83 74 61 53 79 86 68 88 0
-88 1009 0
-830 0
-1010 54 62 90 80 87 84 75 89 69 0
-49 -18 0
-50 -18 0
-50 -19 0
-46 -20 0
-48 -20 0
-49 -20 0
-53 -20 0
-49 -22 0
-50 -22 0
-49 -23 0
-50 -23 0
-47 -25 0
-50 -25 0
-46 -26 0
-47 -26 0
-49 -26 0
-53 -26 0
-64 -26 0
-67 -26 0
-68 -26 0
-47 -28 0
-49 -28 0
-50 -28 0
-47 -29 0
-49 -29 0
-50 -29 0
-46 -31 0
-47 -31 0
-48 -31 0
-53 -31 0
-63 -31 0
-67 -31 0
-68 -31 0
-73 -31 0
-74 -31 0
-47 -33 0
-50 -33 0
-63 -33 0
-65 -33 0
-71 -33 0
-47 -34 0
-50 -34 0
-63 -34 0
-65 -34 0
-67 -34 0
-71 -34 0
-73 -34 0
-46 -37 0
-47 -37 0
-48 -37 0
-49 -37 0
-53 -37 0
-63 -37 0
-64 -37 0
-68 -37 0
-70 -37 0
-74 -37 0
-79 -37 0
-46 -38 0
-47 -38 0
-48 -38 0
-49 -38 0
-63 -38 0
-64 -38 0
-67 -38 0
-70 -38 0
-73 -38 0
-78 -38 0
-54 -41 0
-69 -41 0
-75 -41 0
-80 -41 0
-84 -41 0
-47 -43 0
-49 -43 0
-50 -43 0
-63 -43 0
-64 -43 0
-65 -43 0
-70 -43 0
-71 -43 0
-76 -43 0
133 131 96 97 111 98 135 126 115 91 104 109 121 129 95 124 103 132 112 128 105 106 99 123 119 102 116 114 108 120 127 93 118 101 130 122 113 94 100 107 92 125 110 134 117 0
-91 1259 0
-92 1260 0
-1259 1260 0
-93 1261 0
-1260 1261 0
-94 1262 0
-1261 1262 0
-95 1263 0
-1262 1263 0
-1263 1264 0
1265 -1264 0
1266 -1265 0
1267 -1266 0
1268 -1267 0
1269 -1268 0
1270 -1269 0
1271 -1270 0
1272 -1271 0
1273 -1272 0
1274 -1273 0
1275 -1274 0
-108 1276 0
1276 -1275 0
-109 1277 0
1277 -1276 0
-110 1278 0
1278 -1277 0
1279 -1278 0
-112 1280 0
1280 -1279 0
-112 -1279 0
-113 1281 0
1281 -1280 0
1282 -1281 0
-115 1283 0
1283 -1282 0
-115 -1282 0
-116 1284 0
1284 -1283 0
1285 -1284 0
-118 1286 0
1286 -1285 0
-118 -1285 0
-119 1287 0
1287 -1286 0
1288 -1287 0
-121 1289 0
1289 -1288 0
-121 -1288 0
1290 -1289 0
-123 1291 0
1291 -1290 0
-123 -1290 0
-124 1292 0
1292 -1291 0
-124 -1291 0
1293 -1292 0
1294 -1293 0
-127 1295 0
1295 -1294 0
-127 -1294 0
-128 1296 0
1296 -1295 0
-128 -1295 0
-129 1297 0
1297 -1296 0
-130 1298 0
1298 -1297 0
1299 -131 0
1299 -1298 0
-131 -1298 0
-132 1300 0
1300 -1299 0
-133 1301 0
-133 -1300 0
1302 -1301 0
-135 -1302 0
-831 91 98 92 96 93 97 95 99 94 0
-91 831 0
-94 831 0
-1011 0
-832 103 106 100 101 104 105 107 102 0
-1012 91 0
1012 -91 0
-833 110 111 108 112 109 114 113 0
-108 833 0
-109 833 0
-112 833 0
-1013 100 92 0
-834 116 117 118 119 115 120 0
-1014 108 101 93 0
-835 121 122 123 124 125 0
-121 835 0
-123 835 0
-124 835 0
-1015 109 94 102 115 0
-94 1015 0
-109 1015 0
-836 128 126 127 129 0
-126 836 0
-127 836 0
-128 836 0
-129 836 0
-1016 116 95 121 103 110 0
-110 1016 0
-116 1016 0
-121 1016 0
-837 131 130 132 0
-1017 126 96 104 122 111 117 0
-838 133 134 0
838 -133 0
-1018 112 97 130 118 105 123 127 0
1018 -112 0
-118 1018 0
-123 1018 0
-127 1018 0
-839 135 0
-135 839 0
-1019 119 128 133 131 98 113 106 124 0
1019 -128 0
1019 -133 0
-840 0
-1020 120 99 135 107 132 129 125 134 114 0
-99 1020 0
-63 -91 0
-102 -63 0
-64 -91 0
-64 -95 0
-65 -91 0
-93 -65 0
-94 -65 0
-102 -65 0
-67 -91 0
-67 -94 0
-67 -95 0
-67 -102 0
-68 -91 0
-68 -95 0
-102 -68 0
-91 -70 0
-92 -70 0
-95 -70 0
-110 -70 0
-112 -70 0
-71 -91 0
-92 -71 0
-102 -71 0
-73 -91 0
-73 -92 0
-73 -94 0
-73 -95 0
-73 -102 0
-73 -110 0
-74 -91 0
-92 -74 0
-74 -95 0
-102 -74 0
-76 -91 0
-76 -92 0
-76 -93 0
-91 -78 0
-92 -78 0
-93 -78 0
-95 -78 0
-108 -78 0
-110 -78 0
-113 -78 0
-116 -78 0
-119 -78 0
-91 -79 0
-92 -79 0
-93 -79 0
-95 -79 0
-108 -79 0
-110 -79 0
-112 -79 0
-116 -79 0
-118 -79 0
-82 -91 0
-92 -82 0
-93 -82 0
-94 -82 0
-102 -82 0
-108 -82 0
-109 -82 0
-113 -82 0
-82 -115 0
-119 -82 0
-124 -82 0
-125 -82 0
-83 -91 0
-92 -83 0
-93 -83 0
-94 -83 0
-102 -83 0
-108 -83 0
-109 -83 0
-83 -112 0
-83 -115 0
-118 -83 0
-123 -83 0
-91 -86 0
-92 -86 0
-93 -86 0
-94 -86 0
-95 -86 0
-102 -86 0
-108 -86 0
-109 -86 0
-110 -86 0
-112 -86 0
-114 -86 0
-115 -86 0
-116 -86 0
-118 -86 0
-120 -86 0
-121 -86 0
-123 -86 0
-125 -86 0
-127 -86 0
-129 -86 0
-88 -91 0
-92 -88 0
-93 -88 0
-94 -88 0
-88 -95 0
-102 -88 0
-108 -88 0
-109 -88 0
-110 -88 0
-115 -88 0
-116 -88 0
-121 -88 0
-126 -88 0
162 153 152 141 136 169 151 147 144 150 175 176 178 172 180 139 143 161 166 163 160 140 173 148 157 158 146 164 142 174 155 145 137 165 170 156 168 149 159 167 154 177 138 179 171 0
-136 1303 0
-137 1304 0
-1303 1304 0
-138 1305 0
-1304 1305 0
-139 1306 0
-1305 1306 0
1307 -140 0
-1306 1307 0
1308 -1307 0
1309 -1308 0
1310 -1309 0
1311 -1310 0
-145 1312 0
1312 -1311 0
-146 1313 0
1313 -1312 0
-147 1314 0
1314 -1313 0
1315 -1314 0
1316 -1315 0
1317 -1316 0
-151 1318 0
1318 -1317 0
1319 -1318 0
-153 1320 0
1320 -1319 0
-154 1321 0
1321 -1320 0
-155 1322 0
1322 -1321 0
1323 -1322 0
-157 1324 0
1324 -1323 0
-158 1325 0
1325 -1324 0
1326 -1325 0
-160 1327 0
1327 -1326 0
-161 1328 0
1328 -1327 0
1329 -1328 0
-163 1330 0
1330 -1329 0
-164 1331 0
1331 -1330 0
1332 -1331 0
-166 1333 0
1333 -1332 0
1334 -1333 0
-168 1335 0
1335 -1334 0
-168 -1334 0
-169 1336 0
1336 -1335 0
-169 -1335 0
1337 -1336 0
-171 1338 0
1338 -1337 0
-172 1339 0
1339 -1338 0
-172 -1338 0
-173 1340 0
1340 -1339 0
-173 -1339 0
1341 -1340 0
1342 -175 0
1342 -1341 0
-175 -1341 0
1343 -176 0
1343 -1342 0
-176 -1342 0
1344 -1343 0
1345 -1344 0
-178 -1344 0
1346 -1345 0
-180 -1346 0
142 144 140 138 137 -841 139 141 143 136 0
-1021 0
-842 146 149 150 151 147 145 152 148 0
-147 842 0
-148 842 0
-150 842 0
-1022 136 0
-843 153 156 158 154 155 159 157 0
-153 843 0
-1023 145 137 0
-844 162 163 164 165 161 160 0
-1024 153 138 146 0
1024 -153 0
-845 170 168 169 167 166 0
-166 845 0
-1025 139 154 160 147 0
-846 174 171 172 173 0
-171 846 0
-172 846 0
-173 846 0
-1026 140 155 166 148 161 0
1026 -140 0
-148 1026 0
-155 1026 0
-161 1026 0
-166 1026 0
-847 175 176 177 0
847 -176 0
-1027 162 141 156 149 171 167 0
-141 1027 0
-149 1027 0
-156 1027 0
1027 -162 0
-167 1027 0
-171 1027 0
-848 179 178 0
848 -178 0
-1028 142 157 150 175 168 163 172 0
1028 -150 0
-157 1028 0
-163 1028 0
-168 1028 0
-172 1028 0
1028 -175 0
-849 180 0
-1029 164 143 173 176 169 178 151 158 0
-151 1029 0
-158 1029 0
-169 1029 0
-173 1029 0
1029 -176 0
-178 1029 0
-850 0
-1030 152 144 170 174 180 165 177 179 159 0
-144 1030 0
-152 1030 0
-159 1030 0
-165 1030 0
-170 1030 0
-174 1030 0
-179 1030 0
-180 1030 0
-108 -136 0
-139 -108 0
-108 -140 0
-109 -136 0
-109 -138 0
-109 -140 0
-110 -136 0
-138 -110 0
-139 -110 0
-111 -136 0
-111 -140 0
-112 -136 0
-138 -112 0
-139 -112 0
-112 -140 0
-113 -136 0
-113 -139 0
-113 -140 0
-114 -136 0
-114 -140 0
-115 -136 0
-115 -140 0
-116 -136 0
-116 -137 0
-139 -116 0
-154 -116 0
-117 -136 0
-117 -140 0
-118 -136 0
-118 -137 0
-139 -118 0
-118 -140 0
-119 -136 0
-119 -137 0
-119 -139 0
-119 -140 0
-120 -136 0
-121 -136 0
-121 -137 0
-138 -121 0
-157 -121 0
-158 -121 0
-163 -121 0
-164 -121 0
-122 -136 0
-122 -140 0
-123 -136 0
-123 -137 0
-138 -123 0
-123 -140 0
-155 -123 0
-158 -123 0
-161 -123 0
-164 -123 0
-124 -136 0
-124 -137 0
-138 -124 0
-124 -140 0
-155 -124 0
-157 -124 0
-161 -124 0
-163 -124 0
-125 -136 0
-125 -140 0
-126 -136 0
-127 -136 0
-127 -137 0
-138 -127 0
-139 -127 0
-153 -127 0
-154 -127 0
-158 -127 0
-160 -127 0
-164 -127 0
-127 -169 0
-128 -136 0
-128 -137 0
-138 -128 0
-139 -128 0
-153 -128 0
-154 -128 0
-157 -128 0
-160 -128 0
-163 -128 0
-168 -128 0
-129 -136 0
-130 -136 0
-130 -140 0
-136 -131 0
-137 -131 0
-138 -131 0
-139 -131 0
-131 -140 0
-131 -142 0
-145 -131 0
-146 -131 0
-147 -131 0
-148 -131 0
-150 -131 0
-153 -131 0
-154 -131 0
-155 -131 0
-157 -131 0
-160 -131 0
-161 -131 0
-163 -131 0
-166 -131 0
-168 -131 0
-172 -131 0
-132 -136 0
-132 -140 0
-133 -136 0
-133 -137 0
-138 -133 0
-139 -133 0
-133 -140 0
-133 -145 0
-146 -133 0
-147 -133 0
-148 -133 0
-133 -149 0
-153 -133 0
-154 -133 0
-155 -133 0
-156 -133 0
-160 -133 0
-161 -133 0
-133 -162 0
-166 -133 0
-167 -133 0
-171 -133 0
-136 -135 0
-137 -135 0
-138 -135 0
-139 -135 0
-135 -140 0
-141 -135 0
-135 -142 0
-145 -135 0
-146 -135 0
-147 -135 0
-148 -135 0
-135 -149 0
-135 -150 0
-153 -135 0
-154 -135 0
-155 -135 0
-156 -135 0
-157 -135 0
-160 -135 0
-161 -135 0
-135 -162 0
-163 -135 0
-166 -135 0
-167 -135 0
-168 -135 0
-171 -135 0
-172 -135 0
-135 -175 0
188 191 181 196 194 201 213 220 219 203 187 195 214 209 200 185 192 217 215 182 189 193 186 204 190 221 223 183 218 210 206 184 197 225 202 224 198 208 207 211 199 222 212 205 216 0
-181 1347 0
-182 1348 0
-1347 1348 0
1349 -183 0
-1348 1349 0
-184 1350 0
-1349 1350 0
-185 1351 0
-1350 1351 0
-1351 1352 0
-1352 1353 0
-1353 1354 0
-1354 1355 0
-190 1356 0
-1355 1356 0
1357 -191 0
1357 -1356 0
-192 1358 0
1358 -1357 0
-193 1359 0
1359 -1358 0
1360 -1359 0
-195 1361 0
1361 -1360 0
-196 1362 0
1362 -1361 0
1363 -1362 0
-198 1364 0
1364 -1363 0
-199 1365 0
1365 -1364 0
-200 1366 0
1366 -1365 0
-200 -1365 0
1367 -1366 0
-202 1368 0
1368 -1367 0
-203 1369 0
1369 -1368 0
1370 -1369 0
-205 1371 0
1371 -1370 0
-206 1372 0
1372 -1371 0
1373 -1372 0
-208 1374 0
1374 -1373 0
-209 1375 0
1375 -1374 0
1376 -1375 0
-211 1377 0
1377 -1376 0
-211 -1376 0
1378 -1377 0
-213 1379 0
1379 -1378 0
-213 -1378 0
1380 -214 0
1380 -1379 0
-214 -1379 0
1381 -1380 0
1382 -1381 0
-217 1383 0
1383 -1382 0
-217 -1382 0
-218 1384 0
1384 -1383 0
-218 -1383 0
1385 -1384 0
1386 -1385 0
1387 -221 0
1387 -1386 0
-221 -1386 0
1388 -1387 0
-223 -1388 0
-851 186 183 182 181 189 188 185 184 187 0
-1031 0
-852 191 197 196 190 193 192 195 194 0
-1032 181 0
-853 204 202 201 203 200 198 199 0
-1033 190 182 0
-854 210 205 207 209 208 206 0
-1034 191 198 183 0
-855 215 214 213 212 211 0
-211 855 0
-212 855 0
-213 855 0
855 -214 0
-215 855 0
-1035 192 199 184 205 0
-856 219 217 216 218 0
-216 856 0
-217 856 0
-218 856 0
-1036 193 206 211 200 185 0
-185 1036 0
-200 1036 0
-206 1036 0
-211 1036 0
-857 222 221 220 0
857 -221 0
-1037 186 216 194 201 212 207 0
1037 -194 0
-201 1037 0
-207 1037 0
-212 1037 0
-216 1037 0
-858 224 223 0
858 -223 0
-1038 195 187 208 213 220 217 202 0
-195 1038 0
-202 1038 0
-208 1038 0
-213 1038 0
-217 1038 0
1038 -220 0
-859 225 0
-1039 188 209 214 223 218 196 221 203 0
-196 1039 0
1039 -214 0
-218 1039 0
1039 -221 0
-223 1039 0
-860 0
-1040 222 219 197 225 210 204 189 215 224 0
-189 1040 0
-222 1040 0
-224 1040 0
-225 1040 0
-146 -182 0
-147 -182 0
-148 -182 0
-182 -149 0
-182 -150 0
-151 -182 0
-152 -182 0
-153 -181 0
-153 -184 0
-153 -185 0
-154 -181 0
-154 -183 0
-154 -185 0
-155 -181 0
-155 -183 0
-155 -184 0
-156 -181 0
-156 -183 0
-156 -184 0
-156 -185 0
-157 -181 0
-157 -183 0
-157 -184 0
-157 -185 0
-158 -181 0
-158 -183 0
-158 -184 0
-185 -158 0
-160 -181 0
-160 -182 0
-160 -185 0
-161 -181 0
-161 -182 0
-161 -184 0
-181 -162 0
-182 -162 0
-184 -162 0
-185 -162 0
-163 -181 0
-163 -182 0
-163 -184 0
-163 -185 0
-164 -181 0
-164 -182 0
-164 -184 0
-164 -185 0
-165 -181 0
-165 -182 0
-166 -181 0
-166 -182 0
-166 -196 0
-203 -166 0
-209 -166 0
-167 -181 0
-167 -182 0
-167 -183 0
-167 -185 0
-168 -181 0
-168 -182 0
-168 -183 0
-168 -185 0
-190 -168 0
-168 -191 0
-193 -168 0
-168 -196 0
-198 -168 0
-168 -200 0
-168 -203 0
-206 -168 0
-209 -168 0
-169 -181 0
-182 -169 0
-169 -183 0
-185 -169 0
-190 -169 0
-169 -191 0
-193 -169 0
-195 -169 0
-202 -169 0
-208 -169 0
-170 -181 0
-170 -182 0
-171 -181 0
-171 -182 0
-171 -183 0
-171 -184 0
-172 -181 0
-172 -182 0
-172 -183 0
-172 -184 0
-172 -194 0
-197 -172 0
-199 -172 0
-172 -201 0
-204 -172 0
-205 -172 0
-172 -207 0
-210 -172 0
-172 -212 0
-172 -214 0
-215 -172 0
-173 -181 0
-173 -182 0
-173 -183 0
-173 -184 0
-190 -173 0
-173 -191 0
-192 -173 0
-195 -173 0
-198 -173 0
-199 -173 0
-202 -173 0
-205 -173 0
-208 -173 0
-213 -173 0
-174 -181 0
-174 -182 0
-181 -175 0
-182 -175 0
-175 -183 0
-184 -175 0
-185 -175 0
-188 -175 0
-196 -175 0
-197 -175 0
-203 -175 0
-204 -175 0
-209 -175 0
-210 -175 0
-175 -214 0
-215 -175 0
-218 -175 0
-175 -219 0
-181 -176 0
-182 -176 0
-176 -183 0
-184 -176 0
-185 -176 0
-190 -176 0
-176 -191 0
-192 -176 0
-193 -176 0
-195 -176 0
-197 -176 0
-198 -176 0
-199 -176 0
-200 -176 0
-202 -176 0
-205 -176 0
-206 -176 0
-208 -176 0
-211 -176 0
-213 -176 0
-217 -176 0
-181 -178 0
-182 -178 0
-178 -183 0
-184 -178 0
-185 -178 0
-190 -178 0
-178 -191 0
-192 -178 0
-193 -178 0
-197 -178 0
-198 -178 0
-199 -178 0
-200 -178 0
-204 -178 0
-205 -178 0
-206 -178 0
-210 -178 0
-211 -178 0
-215 -178 0
-216 -178 0
-178 -219 0
-179 -181 0
-179 -182 0
-181 -180 0
-182 -180 0
-180 -183 0
-184 -180 0
-185 -180 0
-187 -180 0
-190 -180 0
-180 -191 0
-192 -180 0
-193 -180 0
-180 -194 0
-195 -180 0
-198 -180 0
-199 -180 0
-200 -180 0
-201 -180 0
-202 -180 0
-205 -180 0
-206 -180 0
-207 -180 0
-208 -180 0
-211 -180 0
-212 -180 0
-213 -180 0
-216 -180 0
-217 -180 0
-180 -220 0
268 257 235 237 234 226 250 270 269 240 254 246 230 228 248 247 242 241 251 236 227 232 262 249 245 263 265 231 266 255 244 252 233 256 260 261 229 238 264 239 253 267 243 259 258 0
1391 -226 0
-227 1392 0
1392 -1391 0
-228 1393 0
1393 -1392 0
-229 1394 0
1394 -1393 0
-230 1395 0
1395 -1394 0
1396 -1395 0
1397 -1396 0
1398 -1397 0
1399 -1398 0
-235 1400 0
1400 -1399 0
-236 1401 0
1401 -1400 0
1402 -237 0
1402 -1401 0
-238 1403 0
1403 -1402 0
1404 -1403 0
-240 1405 0
1405 -1404 0
-241 1406 0
1406 -1405 0
1407 -1406 0
-243 1408 0
1408 -1407 0
-244 1409 0
1409 -1408 0
-245 1410 0
1410 -1409 0
1411 -1410 0
-247 1412 0
1412 -1411 0
-248 1413 0
1413 -1412 0
1414 -1413 0
-250 1415 0
1415 -1414 0
-251 1416 0
1416 -1415 0
1417 -1416 0
-253 1418 0
1418 -1417 0
-254 1419 0
1419 -1418 0
1420 -1419 0
-256 1421 0
1421 -1420 0
-256 -1420 0
1422 -1421 0
-258 1423 0
1423 -1422 0
-258 -1422 0
-259 1424 0
1424 -1423 0
-259 -1423 0
1425 -1424 0
1426 -1425 0
1427 -1426 0
-262 -1426 0
-263 1428 0
1428 -1427 0
-263 -1427 0
1429 -1428 0
1430 -1429 0
1431 -266 0
1431 -1430 0
1432 -1431 0
-268 -1432 0
-861 228 231 233 227 230 226 229 232 234 0
-226 861 0
-227 861 0
-228 861 0
-229 861 0
-230 861 0
-232 861 0
-234 861 0
-1041 0
-862 239 237 240 238 236 235 241 242 0
-239 862 0
-241 862 0
-1042 226 0
1042 -226 0
-863 246 243 248 245 247 249 244 0
-1043 235 227 0
-864 252 254 253 250 255 251 0
-1044 243 228 236 0
-865 257 256 258 259 260 0
-256 865 0
-1045 250 229 237 244 0
-866 261 263 262 264 0
-261 866 0
-262 866 0
-263 866 0
-264 866 0
-1046 251 230 238 256 245 0
1046 -238 0
-867 267 265 266 0
867 -266 0
-1047 246 231 239 257 261 252 0
-239 1047 0
-257 1047 0
-261 1047 0
-868 269 268 0
-268 868 0
-1048 265 232 240 258 262 253 247 0
-240 1048 0
-247 1048 0
-253 1048 0
-258 1048 0
-262 1048 0
1048 -265 0
-869 270 0
-1049 268 233 241 263 248 254 266 259 0
-241 1049 0
-248 1049 0
-254 1049 0
-259 1049 0
-263 1049 0
1049 -266 0
-268 1049 0
-870 0
-1050 270 234 242 255 260 267 269 264 249 0
-234 1050 0
-270 1050 0
-198 -226 0
-198 -229 0
-230 -198 0
-198 -238 0
-199 -226 0
-199 -228 0
-199 -230 0
-199 -238 0
-200 -226 0
-200 -228 0
-201 -226 0
-201 -238 0
-202 -226 0
-202 -230 0
-202 -238 0
-203 -226 0
-203 -238 0
-204 -226 0
-205 -226 0
-205 -227 0
-205 -230 0
-205 -238 0
-206 -226 0
-206 -227 0
-207 -226 0
-227 -207 0
-207 -238 0
-208 -226 0
-208 -230 0
-208 -238 0
-209 -226 0
-209 -238 0
-210 -226 0
-211 -226 0
-227 -211 0
-211 -228 0
-235 -211 0
-236 -211 0
-240 -211 0
-212 -226 0
-227 -212 0
-212 -238 0
-213 -226 0
-213 -227 0
-213 -228 0
-230 -213 0
-235 -213 0
-236 -213 0
-213 -238 0
-214 -226 0
-230 -214 0
-238 -214 0
-240 -214 0
-245 -214 0
-247 -214 0
-251 -214 0
-253 -214 0
-215 -226 0
-216 -226 0
-227 -216 0
-217 -226 0
-217 -227 0
-217 -228 0
-217 -229 0
-235 -217 0
-236 -217 0
-217 -237 0
-217 -241 0
-244 -217 0
-217 -248 0
-250 -217 0
-217 -254 0
-217 -259 0
-218 -226 0
-258 -218 0
-219 -226 0
-220 -226 0
-227 -220 0
-228 -220 0
-229 -220 0
-230 -220 0
-238 -220 0
-256 -220 0
-221 -226 0
-227 -221 0
-228 -221 0
-229 -221 0
-230 -221 0
-234 -221 0
-235 -221 0
-236 -221 0
-237 -221 0
-238 -221 0
-240 -221 0
-242 -221 0
-243 -221 0
-244 -221 0
-245 -221 0
-247 -221 0
-250 -221 0
-251 -221 0
-253 -221 0
-256 -221 0
-258 -221 0
-262 -221 0
-222 -226 0
-223 -226 0
-227 -223 0
-223 -228 0
-223 -229 0
-230 -223 0
-235 -223 0
-236 -223 0
-223 -237 0
-223 -238 0
-243 -223 0
-244 -223 0
-245 -223 0
-250 -223 0
-251 -223 0
-256 -223 0
-224 -226 0
-224 -266 0
-225 -226 0
-227 -225 0
-228 -225 0
-229 -225 0
-230 -225 0
-235 -225 0
-236 -225 0
-225 -237 0
-238 -225 0
-239 -225 0
-240 -225 0
-243 -225 0
-244 -225 0
-245 -225 0
-246 -225 0
-247 -225 0
-250 -225 0
-251 -225 0
-252 -225 0
-253 -225 0
-256 -225 0
-257 -225 0
-258 -225 0
-261 -225 0
-262 -225 0
-225 -265 0
315 276 311 307 310 313 275 273 277 288 314 309 303 298 271 279 304 280 287 290 286 282 293 274 306 289 295 301 299 284 278 283 296 302 294 291 308 281 300 297 285 312 272 305 292 0
-271 1435 0
-272 1436 0
-1435 1436 0
-1435 -272 0
-273 1437 0
-1436 1437 0
-274 1438 0
-1437 1438 0
-275 1439 0
-1438 1439 0
-1439 1440 0
1441 -1440 0
1442 -1441 0
1443 -1442 0
-280 1444 0
1444 -1443 0
-281 1445 0
1445 -1444 0
-282 1446 0
1446 -1445 0
-283 1447 0
1447 -1446 0
-284 1448 0
1448 -1447 0
-285 1449 0
1449 -1448 0
-286 1450 0
1450 -1449 0
-287 1451 0
1451 -1450 0
-288 1452 0
1452 -1451 0
-289 1453 0
1453 -1452 0
-290 1454 0
1454 -1453 0
1455 -1454 0
-291 -1454 0
-292 1456 0
1456 -1455 0
-293 1457 0
1457 -1456 0
1458 -1457 0
-295 1459 0
1459 -1458 0
-296 1460 0
1460 -1459 0
1461 -1460 0
-298 1462 0
1462 -1461 0
-299 1463 0
1463 -1462 0
1464 -1463 0
-301 1465 0
1465 -1464 0
1466 -1465 0
-303 1467 0
1467 -1466 0
-303 -1466 0
-304 1468 0
1468 -1467 0
-304 -1467 0
1469 -1468 0
1470 -1469 0
-307 1471 0
1471 -1470 0
-307 -1470 0
-308 1472 0
1472 -1471 0
-308 -1471 0
1473 -1472 0
1474 -1473 0
1475 -311 0
1475 -1474 0
1476 -1475 0
-313 -1476 0
276 -871 279 272 271 273 278 277 275 274 0
871 -271 0
871 -272 0
871 -273 0
-274 871 0
871 -275 0
-1051 0
-872 287 284 285 280 283 282 281 286 0
-1052 271 0
-873 294 293 292 288 291 290 289 0
-1053 280 272 0
-874 300 299 297 298 295 296 0
-1054 288 273 281 0
-875 305 304 303 301 302 0
-302 875 0
-304 875 0
-305 875 0
-1055 295 274 282 289 0
-274 1055 0
-282 1055 0
-876 309 308 307 306 0
-307 876 0
-309 876 0
-1056 301 275 296 283 290 0
1056 -275 0
-283 1056 0
-301 1056 0
-877 312 311 310 0
-310 877 0
276 -1057 306 284 291 302 297 0
-284 1057 0
-291 1057 0
-297 1057 0
-302 1057 0
-306 1057 0
-878 314 313 0
878 -313 0
-1058 277 310 292 307 303 285 298 0
-292 1058 0
-298 1058 0
-303 1058 0
-307 1058 0
1058 -310 0
-879 315 0
-1059 278 308 311 313 293 304 299 286 0
-286 1059 0
-293 1059 0
-299 1059 0
-304 1059 0
1059 -308 0
1059 -311 0
1059 -313 0
-880 0
-1060 314 315 309 300 294 287 279 312 305 0
-314 1060 0
-315 1060 0
-243 -271 0
-243 -274 0
-244 -271 0
-245 -271 0
-245 -274 0
-246 -271 0
-246 -274 0
-247 -271 0
-247 -274 0
-248 -271 0
-274 -248 0
-249 -271 0
-249 -274 0
-250 -271 0
-251 -271 0
-251 -274 0
-252 -271 0
-252 -274 0
-253 -271 0
-253 -274 0
-254 -271 0
-274 -254 0
-255 -271 0
-255 -274 0
-256 -271 0
-256 -272 0
-256 -273 0
-280 -256 0
-256 -281 0
-285 -256 0
-256 -286 0
-293 -256 0
-256 -298 0
-256 -299 0
-257 -271 0
-257 -275 0
-258 -271 0
-258 -272 0
-258 -273 0
-258 -275 0
-280 -258 0
-258 -281 0
-283 -258 0
-258 -286 0
-258 -288 0
-290 -258 0
-293 -258 0
-296 -258 0
-258 -299 0
-259 -271 0
-259 -275 0
-283 -259 0
-285 -259 0
-290 -259 0
-292 -259 0
-296 -259 0
-298 -259 0
-260 -271 0
-260 -275 0
-261 -271 0
-261 -274 0
-262 -271 0
-262 -272 0
-262 -273 0
-262 -274 0
-280 -262 0
-262 -281 0
-282 -262 0
-262 -286 0
-262 -288 0
-262 -289 0
-293 -262 0
-295 -262 0
-262 -299 0
-262 -304 0
-263 -271 0
-263 -272 0
-263 -273 0
-274 -263 0
-280 -263 0
-281 -263 0
-282 -263 0
-285 -263 0
-303 -263 0
-264 -271 0
-264 -274 0
-271 -265 0
-272 -265 0
-273 -265 0
-274 -265 0
-275 -265 0
-280 -265 0
-281 -265 0
-282 -265 0
-283 -265 0
-289 -265 0
-271 -266 0
-272 -266 0
-273 -266 0
-274 -266 0
-275 -266 0
-277 -266 0
-280 -266 0
-281 -266 0
-282 -266 0
-283 -266 0
-285 -266 0
-288 -266 0
-289 -266 0
-290 -266 0
-292 -266 0
-295 -266 0
-296 -266 0
-298 -266 0
-301 -266 0
-303 -266 0
-307 -266 0
-268 -271 0
-268 -272 0
-268 -273 0
-274 -268 0
-268 -275 0
-280 -268 0
-281 -268 0
-282 -268 0
-283 -268 0
-288 -268 0
-268 -289 0
-290 -268 0
-295 -268 0
-296 -268 0
-301 -268 0
-269 -289 0
-271 -270 0
-272 -270 0
-273 -270 0
-274 -270 0
-275 -270 0
-277 -270 0
-280 -270 0
-281 -270 0
-282 -270 0
-283 -270 0
-284 -270 0
-285 -270 0
-288 -270 0
-289 -270 0
-290 -270 0
-291 -270 0
-292 -270 0
-295 -270 0
-296 -270 0
-297 -270 0
-298 -270 0
-301 -270 0
-302 -270 0
-303 -270 0
-306 -270 0
-307 -270 0
-310 -270 0
322 347 348 321 356 360 358 354 324 357 337 352 317 351 336 344 332 331 329 330 349 333 325 339 340 341 334 320 342 345 319 343 328 327 318 316 355 353 350 338 335 323 326 359 346 0
-316 1479 0
-317 1480 0
-1479 1480 0
-317 -1479 0
-318 1481 0
-1480 1481 0
-318 -1480 0
-319 1482 0
-1481 1482 0
-319 -1481 0
-320 1483 0
-1482 1483 0
-1483 1484 0
-1484 1485 0
-1485 1486 0
-1486 1487 0
-325 1488 0
1488 -1487 0
-326 1489 0
1489 -1488 0
-327 1490 0
1490 -1489 0
-328 1491 0
1491 -1490 0
-329 1492 0
1492 -1491 0
-330 1493 0
1493 -1492 0
-331 1494 0
1494 -1493 0
1495 -1494 0
-333 1496 0
1496 -1495 0
-334 1497 0
1497 -1496 0
-335 1498 0
1498 -1497 0
-336 1499 0
1499 -1498 0
-337 1500 0
1500 -1499 0
-338 1501 0
1501 -1500 0
1502 -1501 0
-340 1503 0
1503 -1502 0
-341 1504 0
1504 -1503 0
-342 1505 0
1505 -1504 0
-343 1506 0
1506 -1505 0
-344 1507 0
1507 -1506 0
1508 -1507 0
-346 1509 0
1509 -1508 0
-346 -1508 0
-347 1510 0
1510 -1509 0
-348 1511 0
1511 -1510 0
-348 -1510 0
-349 1512 0
1512 -1511 0
-349 -1511 0
1513 -1512 0
-351 1514 0
1514 -1513 0
-352 1515 0
1515 -1514 0
-352 -1514 0
-353 1516 0
1516 -1515 0
-353 -1515 0
1517 -1516 0
-355 1518 0
1518 -1517 0
-355 -1517 0
-356 1519 0
1519 -1518 0
-356 -1518 0
1520 -1519 0
1521 -1520 0
-358 -1520 0
1522 -1521 0
-360 -1522 0
322 321 -881 316 318 320 317 323 319 324 0
-1061 0
329 330 -882 332 331 328 327 326 325 0
-1062 316 0
-883 336 337 339 338 335 334 333 0
-1063 325 317 0
-884 342 343 344 345 341 340 0
-1064 333 318 326 0
-885 347 348 350 349 346 0
-1065 340 319 327 334 0
-319 1065 0
-327 1065 0
-334 1065 0
-340 1065 0
-886 351 352 353 354 0
886 -352 0
-1066 341 346 320 335 328 0
-328 1066 0
-335 1066 0
-887 357 356 355 0
887 -356 0
-1067 351 321 329 347 342 336 0
-888 359 358 0
-358 888 0
-1068 322 355 343 348 330 352 337 0
-330 1068 0
-337 1068 0
-343 1068 0
-348 1068 0
-352 1068 0
-355 1068 0
-889 360 0
-360 889 0
-1069 338 356 358 353 349 323 331 344 0
-331 1069 0
1069 -338 0
-344 1069 0
-349 1069 0
-353 1069 0
1069 -356 0
-358 1069 0
-890 0
359 324 -1070 354 360 339 345 357 332 350 0
-360 1070 0
-316 -288 0
-320 -288 0
-316 -289 0
-320 -289 0
-290 -316 0
-316 -291 0
-320 -291 0
-292 -316 0
-320 -292 0
-293 -316 0
-293 -320 0
-294 -316 0
-294 -320 0
-295 -316 0
-295 -320 0
-296 -316 0
-297 -316 0
-297 -320 0
-298 -316 0
-298 -317 0
-298 -320 0
-299 -316 0
-320 -299 0
-300 -316 0
-300 -320 0
-301 -316 0
-317 -301 0
-301 -318 0
-325 -301 0
-326 -301 0
-330 -301 0
-302 -316 0
-302 -320 0
-303 -316 0
-317 -303 0
-318 -303 0
-320 -303 0
-325 -303 0
-326 -303 0
-328 -303 0
-333 -303 0
-335 -303 0
-303 -341 0
-304 -316 0
-320 -304 0
-305 -316 0
-305 -320 0
-306 -316 0
-307 -316 0
-317 -307 0
-307 -318 0
-319 -307 0
-325 -307 0
-326 -307 0
-327 -307 0
-307 -331 0
-333 -307 0
-334 -307 0
-307 -338 0
-340 -307 0
-307 -344 0
-307 -349 0
-316 -308 0
-317 -308 0
-318 -308 0
-319 -308 0
-325 -308 0
-326 -308 0
-327 -308 0
-329 -308 0
-330 -308 0
-333 -308 0
-334 -308 0
-336 -308 0
-337 -308 0
-340 -308 0
-342 -308 0
-343 -308 0
-347 -308 0
-348 -308 0
-309 -316 0
-316 -310 0
-317 -310 0
-318 -310 0
-319 -310 0
-320 -310 0
-325 -310 0
-326 -310 0
-327 -310 0
-328 -310 0
-333 -310 0
-334 -310 0
-335 -310 0
-340 -310 0
-341 -310 0
-346 -310 0
-353 -310 0
-316 -311 0
-317 -311 0
-318 -311 0
-319 -311 0
-320 -311 0
-325 -311 0
-326 -311 0
-327 -311 0
-328 -311 0
-330 -311 0
-333 -311 0
-334 -311 0
-335 -311 0
-337 -311 0
-340 -311 0
-341 -311 0
-343 -311 0
-346 -311 0
-348 -311 0
-352 -311 0
-316 -313 0
-317 -313 0
-318 -313 0
-319 -313 0
-320 -313 0
-325 -313 0
-326 -313 0
-327 -313 0
-328 -313 0
-329 -313 0
-333 -313 0
-334 -313 0
-335 -313 0
-336 -313 0
-340 -313 0
-341 -313 0
-346 -313 0
-347 -313 0
-316 -315 0
-317 -315 0
-318 -315 0
-319 -315 0
-320 -315 0
-325 -315 0
-326 -315 0
-327 -315 0
-328 -315 0
-329 -315 0
-330 -315 0
-333 -315 0
-334 -315 0
-335 -315 0
-336 -315 0
-337 -315 0
-340 -315 0
-341 -315 0
-342 -315 0
-343 -315 0
-346 -315 0
-347 -315 0
-348 -315 0
-351 -315 0
-352 -315 0
-355 -315 0
366 369 400 403 401 405 367 368 382 372 398 387 385 393 361 397 377 392 370 373 376 375 383 384 365 391 379 386 389 390 371 364 378 394 395 396 380 363 399 374 388 402 362 404 381 0
-361 1523 0
-362 1524 0
-1523 1524 0
-1523 -362 0
-363 1525 0
-1524 1525 0
-363 -1524 0
-364 1526 0
-1525 1526 0
-1525 -364 0
-365 1527 0
-1526 1527 0
-1526 -365 0
-1527 1528 0
-1528 1529 0
-1529 1530 0
-1530 1531 0
-370 1532 0
-1531 1532 0
-370 -1531 0
-371 1533 0
-1532 1533 0
-371 -1532 0
-372 1534 0
-1533 1534 0
-373 1535 0
-1534 1535 0
-374 1536 0
-1535 1536 0
-374 -1535 0
-375 1537 0
-1536 1537 0
-375 -1536 0
-376 1538 0
-1537 1538 0
-376 -1537 0
-1538 1539 0
-378 1540 0
-1539 1540 0
-379 1541 0
-1540 1541 0
-379 -1540 0
-380 1542 0
-1541 1542 0
-380 -1541 0
-1542 1543 0
-382 1544 0
-1543 1544 0
-383 1545 0
-1544 1545 0
-1545 1546 0
-385 1547 0
-1546 1547 0
-385 -1546 0
-386 1548 0
-1547 1548 0
-386 -1547 0
-1548 1549 0
-388 1550 0
-1549 1550 0
-389 1551 0
-1550 1551 0
-1551 1552 0
-391 1553 0
-1552 1553 0
-391 -1552 0
-1553 1554 0
-393 1555 0
-1554 1555 0
-393 -1554 0
-394 1556 0
-1555 1556 0
-395 1557 0
-1556 1557 0
-396 1558 0
-1557 1558 0
-397 1559 0
-1558 1559 0
-397 -1558 0
-398 1560 0
-1559 1560 0
-398 -1559 0
-1560 1561 0
-400 1562 0
-1561 1562 0
-400 -1561 0
1563 -401 0
-1562 1563 0
-1562 -401 0
1564 -1563 0
1565 -1564 0
-403 -1564 0
1566 -1565 0
-405 -1566 0
-891 367 361 364 363 362 365 366 368 369 0
-1071 0
-892 375 377 376 372 374 371 373 370 0
-370 892 0
-371 892 0
-372 892 0
-373 892 0
-1072 361 0
-893 384 381 382 379 383 378 380 0
-1073 362 370 0
-894 387 390 385 388 389 386 0
-1074 363 378 371 0
-895 392 395 393 394 391 0
-394 895 0
-1075 364 385 372 379 0
-364 1075 0
-372 1075 0
-896 399 398 397 396 0
-1076 365 391 373 380 386 0
1076 -365 0
1076 -373 0
-380 1076 0
-386 1076 0
-391 1076 0
-897 402 400 401 0
-400 897 0
897 -401 0
-1077 366 396 374 381 392 387 0
-396 1077 0
-898 404 403 0
-403 898 0
-1078 367 397 382 400 375 393 388 0
-393 1078 0
-397 1078 0
-400 1078 0
-899 405 0
-405 899 0
376 -1079 401 403 394 398 389 368 383 0
-376 1079 0
-383 1079 0
-389 1079 0
-394 1079 0
-398 1079 0
1079 -401 0
1079 -403 0
-900 0
-1080 369 404 405 384 399 390 377 402 395 0
-390 1080 0
-395 1080 0
-405 1080 0
-325 -365 0
-326 -365 0
-327 -365 0
-328 -362 0
-328 -363 0
-329 -365 0
-330 -365 0
-331 -365 0
-333 -361 0
-334 -361 0
-334 -363 0
-334 -365 0
-335 -361 0
-336 -361 0
-337 -361 0
-338 -361 0
-339 -361 0
-340 -361 0
-340 -362 0
-340 -365 0
-340 -370 0
-341 -361 0
-341 -370 0
-342 -361 0
-342 -370 0
-343 -361 0
-343 -370 0
-344 -361 0
-344 -370 0
-345 -361 0
-346 -361 0
-346 -362 0
-346 -363 0
-346 -370 0
-371 -346 0
-375 -346 0
-346 -376 0
-347 -361 0
-370 -347 0
-348 -361 0
-362 -348 0
-363 -348 0
-365 -348 0
-370 -348 0
-371 -348 0
-376 -348 0
-383 -348 0
-389 -348 0
-349 -361 0
-349 -370 0
-350 -361 0
-351 -361 0
-351 -370 0
-352 -361 0
-362 -352 0
-363 -352 0
-364 -352 0
-352 -370 0
-371 -352 0
-372 -352 0
-374 -352 0
-376 -352 0
-378 -352 0
-379 -352 0
-383 -352 0
-385 -352 0
-389 -352 0
-394 -352 0
-353 -361 0
-362 -353 0
-363 -353 0
-364 -353 0
-353 -370 0
-371 -353 0
-372 -353 0
-375 -353 0
-378 -353 0
-379 -353 0
-382 -353 0
-385 -353 0
-388 -353 0
-393 -353 0
-354 -361 0
-355 -361 0
-362 -355 0
-363 -355 0
-364 -355 0
-355 -365 0
-355 -370 0
-371 -355 0
-372 -355 0
-355 -373 0
-380 -355 0
-386 -355 0
-391 -355 0
-361 -356 0
-362 -356 0
-363 -356 0
-364 -356 0
-365 -356 0
-370 -356 0
-371 -356 0
-372 -356 0
-373 -356 0
-375 -356 0
-378 -356 0
-379 -356 0
-380 -356 0
-382 -356 0
-385 -356 0
-386 -356 0
-388 -356 0
-391 -356 0
-393 -356 0
-397 -356 0
-357 -361 0
-358 -361 0
-362 -358 0
-363 -358 0
-364 -358 0
-365 -358 0
-370 -358 0
-371 -358 0
-372 -358 0
-358 -373 0
-374 -358 0
-378 -358 0
-379 -358 0
-380 -358 0
-381 -358 0
-385 -358 0
-386 -358 0
-387 -358 0
-391 -358 0
-392 -358 0
-396 -358 0
-360 -361 0
-362 -360 0
-363 -360 0
-364 -360 0
-365 -360 0
-370 -360 0
-371 -360 0
-372 -360 0
-373 -360 0
-374 -360 0
-375 -360 0
-378 -360 0
-379 -360 0
-380 -360 0
-381 -360 0
-382 -360 0
-385 -360 0
-386 -360 0
-387 -360 0
-388 -360 0
-391 -360 0
-392 -360 0
-393 -360 0
-396 -360 0
-397 -360 0
-400 -360 0
412 450 440 432 445 416 447 434 436 443 410 428 438 408 425 427 422 439 415 446 442 421 448 406 424 411 420 433 449 435 423 430 437 417 413 441 431 409 444 426 407 429 418 414 419 0
-406 1567 0
-407 1568 0
-1567 1568 0
-408 1569 0
-1568 1569 0
-409 1570 0
-1569 1570 0
-410 1571 0
-1570 1571 0
-411 1572 0
-1571 1572 0
-1572 1573 0
-1573 1574 0
-1574 1575 0
-415 1576 0
-1575 1576 0
-416 1577 0
-1576 1577 0
-417 1578 0
-1577 1578 0
-418 1579 0
-1578 1579 0
-419 1580 0
-1579 1580 0
-420 1581 0
-1580 1581 0
-421 1582 0
-1581 1582 0
-1582 1583 0
-423 1584 0
-1583 1584 0
-423 -1583 0
-424 1585 0
-1584 1585 0
-424 -1584 0
-425 1586 0
-1585 1586 0
-425 -1585 0
-426 1587 0
-1586 1587 0
-427 1588 0
-1587 1588 0
-428 1589 0
-1588 1589 0
-428 -1588 0
-1589 1590 0
-430 1591 0
-1590 1591 0
-430 -1590 0
-431 1592 0
-1591 1592 0
-431 -1591 0
-432 1593 0
-1592 1593 0
-433 1594 0
-1593 1594 0
-434 1595 0
-1594 1595 0
-1595 1596 0
-436 1597 0
-1596 1597 0
-437 1598 0
-1597 1598 0
-438 1599 0
-1598 1599 0
-438 -1598 0
-439 1600 0
-1599 1600 0
-439 -1599 0
-1600 1601 0
-441 1602 0
-1601 1602 0
-442 1603 0
-1602 1603 0
-442 -1602 0
-443 1604 0
-1603 1604 0
-443 -1603 0
-1604 1605 0
-445 1606 0
-1605 1606 0
-446 1607 0
-1606 1607 0
-446 -1606 0
-1607 1608 0
-448 1609 0
-1608 1609 0
-448 -1608 0
-1609 1610 0
-1610 -450 0
412 -901 411 410 408 409 407 414 406 413 0
-1081 0
-902 419 422 418 416 417 420 421 415 0
-415 902 0
-416 902 0
-417 902 0
-418 902 0
-419 902 0
-420 902 0
-421 902 0
-1082 406 0
-406 1082 0
-903 427 423 429 425 426 428 424 0
-1083 407 415 0
-904 432 430 435 433 434 431 0
-1084 408 423 416 0
-905 436 440 438 439 437 0
-436 905 0
-1085 409 430 417 424 0
-906 441 444 443 442 0
-442 906 0
-1086 436 410 431 418 425 0
-410 1086 0
-418 1086 0
-436 1086 0
-907 445 447 446 0
907 -445 0
907 -446 0
-1087 441 411 419 426 437 432 0
-411 1087 0
-441 1087 0
-908 449 448 0
-448 908 0
412 -1088 445 420 427 442 438 433 0
-438 1088 0
-442 1088 0
-445 1088 0
-909 450 0
909 -450 0
-1089 413 448 421 439 428 443 446 434 0
1089 -421 0
-428 1089 0
-434 1089 0
-439 1089 0
-443 1089 0
-446 1089 0
-448 1089 0
-910 0
-1090 450 422 447 435 444 429 414 440 449 0
-378 -406 0
-379 -406 0
-380 -406 0
-381 -406 0
-382 -406 0
-383 -406 0
-385 -406 0
-386 -406 0
-407 -386 0
-409 -386 0
-386 -415 0
-417 -386 0
-419 -386 0
-420 -386 0
-386 -421 0
-387 -406 0
-388 -406 0
-389 -406 0
-391 -406 0
-391 -415 0
-392 -406 0
-393 -406 0
-407 -393 0
-393 -408 0
-410 -393 0
-411 -393 0
-393 -415 0
-416 -393 0
-418 -393 0
-419 -393 0
-393 -421 0
-394 -406 0
-407 -394 0
-394 -408 0
-410 -394 0
-394 -415 0
-416 -394 0
-418 -394 0
-396 -406 0
-406 -397 0
-407 -397 0
-397 -408 0
-409 -397 0
-411 -397 0
-415 -397 0
-416 -397 0
-417 -397 0
-419 -397 0
-397 -421 0
-424 -397 0
-430 -397 0
-439 -397 0
-398 -406 0
-407 -398 0
-398 -408 0
-409 -398 0
-398 -415 0
-420 -398 0
-427 -398 0
-433 -398 0
-438 -398 0
-406 -400 0
-409 -400 0
-417 -400 0
-424 -400 0
-430 -400 0
-436 -400 0
-439 -400 0
-400 -443 0
-406 -401 0
-407 -401 0
-408 -401 0
-409 -401 0
-410 -401 0
-415 -401 0
-416 -401 0
-417 -401 0
-418 -401 0
-420 -401 0
-423 -401 0
-424 -401 0
-425 -401 0
-427 -401 0
-430 -401 0
-431 -401 0
-433 -401 0
-436 -401 0
-438 -401 0
-442 -401 0
-406 -403 0
-407 -403 0
-408 -403 0
-409 -403 0
-410 -403 0
-411 -403 0
-415 -403 0
-416 -403 0
-417 -403 0
-418 -403 0
-419 -403 0
-423 -403 0
-424 -403 0
-425 -403 0
-426 -403 0
-430 -403 0
-431 -403 0
-432 -403 0
-436 -403 0
-437 -403 0
-441 -403 0
-406 -405 0
-407 -405 0
-405 -408 0
-409 -405 0
-410 -405 0
-411 -405 0
-415 -405 0
-416 -405 0
-417 -405 0
-418 -405 0
-419 -405 0
-420 -405 0
-423 -405 0
-424 -405 0
-425 -405 0
-426 -405 0
-427 -405 0
-430 -405 0
-431 -405 0
-432 -405 0
-433 -405 0
-436 -405 0
-437 -405 0
-438 -405 0
-441 -405 0
-442 -405 0
-445 -405 0
457 456 490 455 471 495 468 494 459 452 483 469 472 482 477 475 466 488 460 493 462 454 473 474 465 463 478 487 467 480 491 476 481 484 485 486 470 451 489 461 458 492 464 479 453 0
-451 1611 0
-452 1612 0
-1611 1612 0
-453 1613 0
-1612 1613 0
-454 1614 0
-1613 1614 0
-455 1615 0
-1614 1615 0
-1615 1616 0
-1616 1617 0
-1617 1618 0
-1618 1619 0
-460 1620 0
1620 -1619 0
-461 1621 0
-1620 1621 0
-462 1622 0
-1621 1622 0
-463 1623 0
-1622 1623 0
-1623 1624 0
-465 1625 0
-1624 1625 0
-465 -1624 0
-466 1626 0
-1625 1626 0
-466 -1625 0
-467 1627 0
-1626 1627 0
-468 1628 0
-1627 1628 0
-469 1629 0
-1628 1629 0
-470 1630 0
-1629 1630 0
-470 -1629 0
-1630 1631 0
-472 1632 0
-1631 1632 0
-472 -1631 0
-473 1633 0
-1632 1633 0
-473 -1632 0
-1633 1634 0
-475 1635 0
-1634 1635 0
-475 -1634 0
-476 1636 0
-1635 1636 0
-476 -1635 0
-1636 1637 0
-478 1638 0
-1637 1638 0
-478 -1637 0
-479 1639 0
-1638 1639 0
-479 -1638 0
-1639 1640 0
-481 1641 0
-1640 1641 0
-481 -1640 0
-1641 1642 0
-483 1643 0
-1642 1643 0
-483 -1642 0
-484 1644 0
-1643 1644 0
-484 -1643 0
-1644 1645 0
-486 1646 0
-1645 1646 0
-487 1647 0
-1646 1647 0
-487 -1646 0
-488 1648 0
-1647 1648 0
-488 -1647 0
1649 -1648 0
1650 -490 0
1650 -1649 0
1651 -491 0
1651 -1650 0
-491 -1650 0
1652 -1651 0
-493 1653 0
-493 -1652 0
-1653 1654 0
-1654 -495 0
-911 457 455 453 452 454 451 458 456 459 0
-1091 0
-912 467 464 461 460 465 462 463 466 0
-1092 451 0
-451 1092 0
-913 474 471 468 469 472 470 473 0
-1093 460 452 0
-914 480 477 478 475 476 479 0
-475 914 0
-476 914 0
-1094 468 453 461 0
-915 485 482 481 483 484 0
-1095 454 475 469 462 0
-916 489 486 488 487 0
-1096 455 481 463 470 476 0
-455 1096 0
-463 1096 0
-470 1096 0
-476 1096 0
-481 1096 0
-917 492 490 491 0
917 -491 0
-1097 456 464 486 482 477 471 0
-456 1097 0
-482 1097 0
-486 1097 0
-918 494 493 0
-493 918 0
-1098 457 490 465 478 472 483 487 0
-465 1098 0
-472 1098 0
-483 1098 0
-487 1098 0
1098 -490 0
-919 495 0
-495 919 0
-1099 458 493 479 491 484 466 488 473 0
-466 1099 0
-473 1099 0
-479 1099 0
-484 1099 0
-488 1099 0
1099 -491 0
1099 -493 0
-920 0
-1100 459 492 489 480 485 474 495 494 467 0
-423 -451 0
-424 -451 0
-425 -451 0
-426 -451 0
-427 -451 0
-428 -451 0
-430 -451 0
-431 -451 0
-432 -451 0
-433 -451 0
-434 -451 0
-436 -451 0
-436 -460 0
-437 -451 0
-438 -451 0
-438 -460 0
-439 -451 0
-441 -451 0
-442 -451 0
-442 -452 0
-453 -442 0
-454 -442 0
-442 -460 0
-461 -442 0
-462 -442 0
-466 -442 0
-473 -442 0
-442 -479 0
-484 -442 0
-443 -451 0
-443 -452 0
-453 -443 0
-454 -443 0
-460 -443 0
-461 -443 0
-462 -443 0
-465 -443 0
-467 -443 0
-468 -443 0
-469 -443 0
-472 -443 0
-475 -443 0
-478 -443 0
-483 -443 0
-445 -451 0
-446 -451 0
-446 -452 0
-453 -446 0
-454 -446 0
-455 -446 0
-460 -446 0
-461 -446 0
-462 -446 0
-463 -446 0
-465 -446 0
-467 -446 0
-468 -446 0
-469 -446 0
-470 -446 0
-472 -446 0
-475 -446 0
-476 -446 0
-478 -446 0
-481 -446 0
-446 -483 0
-487 -446 0
-448 -451 0
-448 -452 0
-453 -448 0
-454 -448 0
-455 -448 0
-460 -448 0
-461 -448 0
-462 -448 0
-463 -448 0
-464 -448 0
-467 -448 0
-468 -448 0
-469 -448 0
-470 -448 0
-471 -448 0
-475 -448 0
-476 -448 0
-477 -448 0
-481 -448 0
-448 -482 0
-486 -448 0
-451 -450 0
-452 -450 0
-453 -450 0
-454 -450 0
-455 -450 0
-456 -450 0
-460 -450 0
-461 -450 0
-462 -450 0
-463 -450 0
-464 -450 0
-465 -450 0
-468 -450 0
-469 -450 0
-470 -450 0
-471 -450 0
-472 -450 0
-475 -450 0
-476 -450 0
-477 -450 0
-478 -450 0
-481 -450 0
-482 -450 0
-483 -450 0
-486 -450 0
-487 -450 0
-490 -450 0
531 509 501 538 499 502 520 496 540 533 503 498 515 507 518 535 512 516 514 504 523 532 513 519 536 506 511 510 524 525 500 521 517 529 530 526 508 505 534 497 527 537 528 539 522 0
-499 1658 0
-500 1659 0
-1658 1659 0
-1659 1660 0
-1660 1661 0
-1661 1662 0
-1662 1663 0
-505 1664 0
-1663 1664 0
-506 1665 0
-1664 1665 0
-507 1666 0
-1665 1666 0
-508 1667 0
-1666 1667 0
-509 1668 0
-1667 1668 0
-510 1669 0
-1668 1669 0
-511 1670 0
-1669 1670 0
1671 -1670 0
-513 1672 0
1672 -1671 0
-513 -1671 0
-514 1673 0
1673 -1672 0
-515 1674 0
1674 -1673 0
-516 1675 0
1675 -1674 0
-517 1676 0
1676 -1675 0
-518 1677 0
1677 -1676 0
1678 -1677 0
-520 1679 0
1679 -1678 0
-520 -1678 0
-521 1680 0
1680 -1679 0
-521 -1679 0
-522 1681 0
1681 -1680 0
-523 1682 0
1682 -1681 0
-523 -1681 0
-524 1683 0
1683 -1682 0
1684 -1683 0
-526 1685 0
1685 -1684 0
-527 1686 0
1686 -1685 0
-528 1687 0
1687 -1686 0
-528 -1686 0
-529 1688 0
1688 -1687 0
1689 -1688 0
-531 1690 0
1690 -1689 0
-532 1691 0
1691 -1690 0
-532 -1690 0
-533 1692 0
1692 -1691 0
-533 -1691 0
1693 -1692 0
-535 1694 0
1694 -1693 0
-535 -1693 0
-536 1695 0
1695 -1694 0
-536 -1694 0
1696 -1695 0
-538 -1696 0
496 498 -921 500 499 502 501 504 497 503 0
-1101 0
-922 511 512 509 508 507 510 506 505 0
-505 922 0
-506 922 0
-507 922 0
-508 922 0
922 -509 0
-510 922 0
-511 922 0
-1102 496 0
-923 514 513 518 515 516 517 519 0
-1103 497 505 0
1103 -497 0
-505 1103 0
-924 522 520 521 524 523 525 0
-1104 498 513 506 0
-513 1104 0
-925 526 529 527 528 530 0
-1105 514 507 520 499 0
-520 1105 0
-926 531 532 533 534 0
-1106 526 500 508 515 521 0
-508 1106 0
-515 1106 0
-521 1106 0
-927 537 536 535 0
-535 927 0
927 -536 0
-1107 531 509 501 516 527 522 0
-509 1107 0
-516 1107 0
-522 1107 0
-527 1107 0
-531 1107 0
-928 539 538 0
-538 928 0
-1108 517 502 535 510 532 528 523 0
-510 1108 0
-517 1108 0
-523 1108 0
-528 1108 0
-532 1108 0
-929 540 0
-540 929 0
-1109 524 538 503 511 536 533 529 518 0
-511 1109 0
-518 1109 0
-524 1109 0
-529 1109 0
-533 1109 0
-536 1109 0
-538 1109 0
-930 0
-1110 504 512 537 539 530 534 540 519 525 0
-504 1110 0
-525 1110 0
-530 1110 0
-540 1110 0
-460 -499 0
-461 -499 0
-463 -499 0
-464 -499 0
-465 -499 0
-466 -497 0
-466 -499 0
-466 -500 0
-467 -499 0
-468 -496 0
-468 -499 0
-469 -496 0
-470 -496 0
-470 -499 0
-471 -496 0
-471 -499 0
-472 -496 0
-472 -499 0
-473 -496 0
-473 -499 0
-473 -500 0
-475 -496 0
-505 -475 0
-476 -496 0
-476 -499 0
-476 -505 0
-477 -496 0
-477 -499 0
-478 -496 0
-478 -499 0
-505 -478 0
-479 -496 0
-479 -497 0
-479 -499 0
-479 -500 0
-481 -496 0
-496 -482 0
-496 -483 0
-484 -496 0
-484 -497 0
-484 -500 0
-486 -496 0
-486 -499 0
-487 -496 0
-487 -499 0
-505 -487 0
-488 -496 0
-488 -497 0
-498 -488 0
-488 -499 0
-505 -488 0
-506 -488 0
-507 -488 0
-510 -488 0
-513 -488 0
-488 -514 0
-517 -488 0
-520 -488 0
-523 -488 0
-528 -488 0
-496 -490 0
-499 -490 0
-496 -491 0
-491 -497 0
-498 -491 0
-499 -491 0
-491 -500 0
-505 -491 0
-506 -491 0
-507 -491 0
-508 -491 0
-510 -491 0
-513 -491 0
-514 -491 0
-515 -491 0
-517 -491 0
-520 -491 0
-521 -491 0
-523 -491 0
-525 -491 0
-526 -491 0
-528 -491 0
-530 -491 0
-532 -491 0
-496 -493 0
-493 -497 0
-498 -493 0
-493 -499 0
-493 -500 0
-505 -493 0
-506 -493 0
-507 -493 0
-508 -493 0
-493 -509 0
-513 -493 0
-514 -493 0
-515 -493 0
-516 -493 0
-520 -493 0
-521 -493 0
-522 -493 0
-525 -493 0
-526 -493 0
-527 -493 0
-530 -493 0
-531 -493 0
-494 -499 0
-496 -495 0
-495 -497 0
-498 -495 0
-499 -495 0
-495 -500 0
-505 -495 0
-506 -495 0
-507 -495 0
-508 -495 0
-495 -509 0
-510 -495 0
-513 -495 0
-514 -495 0
-515 -495 0
-516 -495 0
-517 -495 0
-520 -495 0
-521 -495 0
-522 -495 0
-523 -495 0
-526 -495 0
-527 -495 0
-528 -495 0
-531 -495 0
-532 -495 0
-535 -495 0
565 545 585 557 549 583 541 548 576 581 556 547 560 580 546 553 551 569 542 543 562 555 552 564 559 544 550 568 558 570 571 566 573 574 575 572 577 578 579 567 563 582 554 584 561 0
1738 -580 0
-581 1739 0
-1738 -581 0
-1739 1740 0
-583 -1740 0
-931 549 543 546 541 545 547 544 548 542 0
-1111 0
-932 552 557 556 551 550 553 555 554 0
-1112 541 0
-541 1112 0
-933 563 561 564 559 560 558 562 0
-1113 550 542 0
-934 565 570 569 566 567 568 0
-565 934 0
-1114 558 551 543 0
571 -935 572 573 574 575 0
-573 935 0
-574 935 0
-1115 565 544 552 559 0
-936 578 576 579 577 0
-577 936 0
-1116 571 545 553 560 566 0
1116 -571 0
-937 581 582 580 0
-580 937 0
937 -581 0
-1117 561 546 576 554 567 572 0
-554 1117 0
-561 1117 0
-567 1117 0
-572 1117 0
-576 1117 0
-938 583 584 0
938 -583 0
-1118 573 580 547 562 568 555 577 0
-573 1118 0
-939 585 0
939 -585 0
578 -1119 548 581 556 583 563 569 574 0
-581 1119 0
-940 0
-1120 564 582 557 575 549 579 585 584 570 0
-557 1120 0
-564 1120 0
-570 1120 0
-579 1120 0
-585 1120 0
-506 -542 0
-507 -542 0
-508 -542 0
-542 -509 0
-510 -542 0
-542 -511 0
-513 -541 0
-541 -514 0
-514 -551 0
-515 -541 0
-515 -551 0
-516 -541 0
-517 -541 0
-517 -551 0
-518 -541 0
-518 -551 0
-520 -541 0
-520 -542 0
-521 -541 0
-521 -542 0
-522 -541 0
-522 -542 0
-523 -541 0
-523 -542 0
-524 -541 0
-524 -542 0
-525 -541 0
-525 -542 0
-526 -541 0
-526 -542 0
-526 -551 0
-527 -541 0
-527 -542 0
-528 -541 0
-528 -542 0
-528 -551 0
-529 -541 0
-529 -542 0
-529 -551 0
-530 -541 0
-530 -542 0
-531 -541 0
-531 -542 0
-532 -541 0
-532 -542 0
-532 -551 0
-533 -541 0
-533 -542 0
-533 -551 0
-534 -541 0
-534 -542 0
-541 -535 0
-542 -535 0
-545 -535 0
-553 -535 0
-560 -535 0
-566 -535 0
-571 -535 0
-541 -536 0
-542 -536 0
-543 -536 0
-544 -536 0
-536 -545 0
-550 -536 0
-536 -551 0
-552 -536 0
-553 -536 0
-555 -536 0
-558 -536 0
-559 -536 0
-560 -536 0
-562 -536 0
-564 -536 0
-565 -536 0
-566 -536 0
-568 -536 0
-570 -536 0
-571 -536 0
-573 -536 0
-577 -536 0
-579 -536 0
-541 -538 0
-542 -538 0
-543 -538 0
-544 -538 0
-538 -545 0
-550 -538 0
-551 -538 0
-552 -538 0
-553 -538 0
-554 -538 0
-558 -538 0
-559 -538 0
-560 -538 0
-561 -538 0
-565 -538 0
-566 -538 0
-567 -538 0
-571 -538 0
-572 -538 0
-576 -538 0
-541 -540 0
-542 -540 0
-543 -540 0
-544 -540 0
-545 -540 0
-546 -540 0
-547 -540 0
-550 -540 0
-551 -540 0
-552 -540 0
-553 -540 0
-554 -540 0
-555 -540 0
-558 -540 0
-559 -540 0
-560 -540 0
-561 -540 0
-562 -540 0
-565 -540 0
-566 -540 0
-567 -540 0
-568 -540 0
-571 -540 0
-572 -540 0
-573 -540 0
-576 -540 0
-577 -540 0
-580 -540 0
592 608 591 617 630 593 628 599 607 615 621 586 598 625 616 594 602 596 604 597 618 605 590 609 603 610 614 611 601 587 612 595 613 619 620 588 622 623 624 589 626 627 606 629 600 0
1743 -586 0
1744 -1743 0
-587 -1743 0
-588 -1744 0
-617 1774 0
-1774 1775 0
-1775 1776 0
-1776 1777 0
-1777 1778 0
-1778 1779 0
-1779 1780 0
-1780 1781 0
1782 -1781 0
-626 1783 0
1783 -1782 0
1784 -1783 0
-628 -1784 0
-941 592 593 594 586 588 587 591 590 589 0
-1121 0
-942 600 602 599 598 596 597 595 601 0
-595 942 0
-596 942 0
-597 942 0
-598 942 0
-599 942 0
-600 942 0
-601 942 0
-602 942 0
-1122 586 0
-943 608 609 605 606 604 607 603 0
-1123 587 595 0
-944 610 614 615 613 611 612 0
-1124 603 588 596 0
-945 616 619 620 618 617 0
-1125 610 589 597 604 0
-946 621 622 623 624 0
-1126 616 590 598 611 605 0
-947 626 627 625 0
947 -625 0
-626 947 0
-1127 617 591 599 606 612 621 0
-599 1127 0
-612 1127 0
-617 1127 0
-621 1127 0
-948 628 629 0
948 -628 0
-1128 592 625 607 600 618 622 613 0
1128 -625 0
-949 630 0
-630 949 0
-1129 626 628 608 619 593 601 614 623 0
1129 -626 0
1129 -628 0
-950 0
-1130 624 615 630 620 594 627 602 629 609 0
-558 -586 0
-559 -586 0
-560 -586 0
-561 -586 0
-562 -586 0
-563 -586 0
-564 -586 0
-565 -586 0
-566 -586 0
-567 -586 0
-568 -586 0
-569 -586 0
-570 -586 0
-571 -586 0
-572 -586 0
-573 -586 0
-574 -586 0
-576 -586 0
-577 -586 0
-578 -586 0
-579 -586 0
-586 -580 0
-587 -580 0
-588 -580 0
-589 -580 0
-590 -580 0
-594 -580 0
-595 -580 0
-596 -580 0
-597 -580 0
-598 -580 0
-601 -580 0
-602 -580 0
-603 -580 0
-604 -580 0
-605 -580 0
-609 -580 0
-610 -580 0
-611 -580 0
-614 -580 0
-616 -580 0
-619 -580 0
-623 -580 0
-581 -586 0
-587 -581 0
-588 -581 0
-589 -581 0
-590 -581 0
-594 -581 0
-595 -581 0
-596 -581 0
-597 -581 0
-598 -581 0
-600 -581 0
-602 -581 0
-603 -581 0
-604 -581 0
-605 -581 0
-607 -581 0
-609 -581 0
-581 -610 0
-611 -581 0
-613 -581 0
-616 -581 0
-618 -581 0
-622 -581 0
-586 -583 0
-587 -583 0
-588 -583 0
-589 -583 0
-590 -583 0
-583 -591 0
-595 -583 0
-596 -583 0
-597 -583 0
-598 -583 0
-599 -583 0
-603 -583 0
-604 -583 0
-605 -583 0
-606 -583 0
-609 -583 0
-610 -583 0
-611 -583 0
-612 -583 0
-616 -583 0
-583 -617 0
-583 -621 0
-586 -585 0
-587 -585 0
-588 -585 0
-589 -585 0
-590 -585 0
-585 -591 0
-595 -585 0
-596 -585 0
-597 -585 0
-598 -585 0
-599 -585 0
-600 -585 0
-603 -585 0
-604 -585 0
-605 -585 0
-606 -585 0
-607 -585 0
-610 -585 0
-611 -585 0
-612 -585 0
-613 -585 0
-616 -585 0
-585 -617 0
-618 -585 0
-585 -621 0
-622 -585 0
-585 -625 0
636 673 639 668 675 670 671 654 642 657 655 649 652 638 644 641 647 640 634 650 632 631 633 635 648 656 645 658 659 660 661 662 663 664 665 666 667 637 669 651 646 672 653 674 643 0
-640 1796 0
-1796 1797 0
-1797 1798 0
-1798 1799 0
-1799 1800 0
-1800 1801 0
1802 -1801 0
1803 -1802 0
1804 -648 0
1804 -1803 0
-648 -1803 0
1805 -1804 0
1806 -1805 0
1807 -1806 0
1808 -1807 0
1809 -1808 0
1810 -1809 0
1811 -1810 0
-655 -1810 0
1812 -1811 0
-656 -1811 0
1813 -1812 0
-657 -1812 0
1814 -1813 0
1815 -1814 0
1816 -1815 0
1817 -1816 0
-661 -1816 0
-662 -1817 0
1827 -671 0
1828 -1827 0
-673 -1828 0
-951 635 636 634 633 637 632 638 631 639 0
-1131 0
-952 643 641 644 645 642 646 640 647 0
-1132 631 0
-954 659 656 657 655 660 658 0
-1134 633 648 641 0
1134 -648 0
-955 664 665 662 663 661 0
-1135 634 655 642 649 0
-956 668 666 669 667 0
-669 956 0
-1136 635 661 643 650 656 0
-957 671 670 672 0
-1137 636 666 651 644 657 662 0
-644 1137 0
-651 1137 0
-657 1137 0
-662 1137 0
-666 1137 0
-958 673 674 0
-1138 637 670 667 645 652 658 663 0
-959 675 0
-1139 638 673 668 671 664 646 653 659 0
-960 0
-1140 654 647 639 675 665 669 672 674 660 0
-665 1140 0
-601 -632 0
-603 -631 0
-604 -631 0
-605 -631 0
-606 -631 0
-607 -631 0
-609 -631 0
-610 -631 0
-610 -640 0
-611 -631 0
-611 -640 0
-612 -631 0
-612 -640 0
-613 -631 0
-613 -640 0
-614 -631 0
-614 -632 0
-631 -615 0
-616 -631 0
-631 -617 0
-640 -617 0
-631 -618 0
-619 -631 0
-619 -632 0
-631 -621 0
-640 -621 0
-622 -631 0
-623 -631 0
-623 -632 0
-631 -625 0
-632 -625 0
-633 -625 0
-634 -625 0
-635 -625 0
-640 -625 0
-641 -625 0
-642 -625 0
-643 -625 0
-646 -625 0
-648 -625 0
-649 -625 0
-650 -625 0
-653 -625 0
-654 -625 0
-655 -625 0
-656 -625 0
-659 -625 0
-660 -625 0
-661 -625 0
-664 -625 0
-631 -626 0
-632 -626 0
-633 -626 0
-634 -626 0
-635 -626 0
-640 -626 0
-641 -626 0
-642 -626 0
-643 -626 0
-645 -626 0
-648 -626 0
-649 -626 0
-650 -626 0
-652 -626 0
-654 -626 0
-655 -626 0
-656 -626 0
-658 -626 0
-660 -626 0
-661 -626 0
-663 -626 0
-667 -626 0
-669 -626 0
-631 -628 0
-632 -628 0
-633 -628 0
-634 -628 0
-635 -628 0
-640 -628 0
-641 -628 0
-642 -628 0
-643 -628 0
-644 -628 0
-647 -628 0
-648 -628 0
-649 -628 0
-650 -628 0
-651 -628 0
-654 -628 0
-655 -628 0
-656 -628 0
-657 -628 0
-660 -628 0
-661 -628 0
-662 -628 0
-666 -628 0
-669 -628 0
-631 -630 0
-632 -630 0
-633 -630 0
-634 -630 0
-635 -630 0
-640 -630 0
-641 -630 0
-642 -630 0
-643 -630 0
-644 -630 0
-645 -630 0
-648 -630 0
-649 -630 0
-650 -630 0
-651 -630 0
-652 -630 0
-655 -630 0
-656 -630 0
-657 -630 0
-658 -630 0
-661 -630 0
-662 -630 0
-663 -630 0
-666 -630 0
-667 -630 0
-630 -670 0
677 676 716 678 692 711 696 720 707 683 715 708 706 693 685 691 684 703 694 712 687 682 698 699 688 701 679 681 704 705 697 718 680 709 710 695 689 713 714 700 686 717 690 719 702 0
1844 -689 0
1845 -1844 0
1846 -1845 0
1847 -1846 0
1848 -1847 0
-693 -1847 0
1849 -1848 0
-694 -1848 0
1850 -1849 0
-695 -1849 0
1851 -1850 0
-1850 -696 0
-697 -1851 0
-700 1855 0
-701 1856 0
-1855 1856 0
-1856 1857 0
-1857 1858 0
-1858 1859 0
-1859 1860 0
-1860 1861 0
-1861 1862 0
-708 1863 0
-1862 1863 0
-1863 1864 0
-1864 1865 0
-1865 1866 0
-712 1867 0
-1866 1867 0
-1867 1868 0
-1868 1869 0
-1869 -715 0
1871 -716 0
1872 -1871 0
-718 -1872 0
-961 676 681 677 684 680 679 682 683 678 0
-1141 0
-962 685 692 689 690 688 686 687 691 0
-1142 676 0
-963 695 699 696 697 694 693 698 0
-696 963 0
1143 -685 0
-964 703 705 700 701 704 702 0
-1144 678 693 686 0
1144 -693 0
-965 706 710 707 708 709 0
-1145 679 700 687 694 0
-966 712 714 713 711 0
-1146 680 688 695 706 701 0
1146 -706 0
-967 715 717 716 0
-1147 681 696 689 711 702 707 0
-681 1147 0
-689 1147 0
-696 1147 0
-702 1147 0
-707 1147 0
-711 1147 0
-968 718 719 0
-1148 682 715 712 708 690 697 703 0
-969 720 0
-1149 683 698 709 716 718 704 691 713 0
-970 0
-1150 719 699 714 710 720 705 684 717 692 0
-646 -677 0
-678 -646 0
-679 -646 0
-680 -646 0
-681 -646 0
-682 -646 0
-684 -646 0
-648 -676 0
-649 -676 0
-650 -676 0
-651 -676 0
-652 -676 0
-653 -676 0
-654 -676 0
-655 -676 0
-656 -676 0
-657 -676 0
-658 -676 0
-659 -676 0
-660 -676 0
-661 -676 0
-662 -676 0
-663 -676 0
-664 -676 0
-666 -676 0
-667 -676 0
-668 -676 0
-669 -676 0
-670 -676 0
-677 -670 0
-678 -670 0
-679 -670 0
-680 -670 0
-685 -670 0
-686 -670 0
-687 -670 0
-688 -670 0
-693 -670 0
-694 -670 0
-695 -670 0
-700 -670 0
-701 -670 0
-706 -670 0
-671 -676 0
-677 -671 0
-678 -671 0
-679 -671 0
-680 -671 0
-682 -671 0
-684 -671 0
-685 -671 0
-686 -671 0
-687 -671 0
-688 -671 0
-690 -671 0
-692 -671 0
-693 -671 0
-694 -671 0
-695 -671 0
-697 -671 0
-699 -671 0
-700 -671 0
-701 -671 0
-703 -671 0
-705 -671 0
-706 -671 0
-708 -671 0
-710 -671 0
-712 -671 0
-714 -671 0
-673 -676 0
-673 -677 0
-678 -673 0
-679 -673 0
-680 -673 0
-681 -673 0
-685 -673 0
-686 -673 0
-687 -673 0
-688 -673 0
-689 -673 0
-693 -673 0
-694 -673 0
-695 -673 0
-696 -673 0
-700 -673 0
-701 -673 0
-702 -673 0
-706 -673 0
-707 -673 0
-711 -673 0
-675 -676 0
-675 -677 0
-678 -675 0
-679 -675 0
-680 -675 0
-681 -675 0
-682 -675 0
-685 -675 0
-686 -675 0
-687 -675 0
-688 -675 0
-689 -675 0
-690 -675 0
-693 -675 0
-694 -675 0
-695 -675 0
-696 -675 0
-697 -675 0
-700 -675 0
-701 -675 0
-702 -675 0
-703 -675 0
-706 -675 0
-707 -675 0
-708 -675 0
-711 -675 0
-712 -675 0
-675 -715 0
730 721 733 765 739 722 741 760 729 745 757 763 728 736 731 751 737 726 740 742 734 735 743 744 753 746 725 727 748 749 750 752 723 754 755 756 761 758 759 724 732 762 747 764 738 0
1884 -730 0
-731 1885 0
1885 -1884 0
1886 -1885 0
-732 -1885 0
1887 -1886 0
1888 -1887 0
1889 -1888 0
1890 -1889 0
1891 -1890 0
-738 1892 0
1892 -1891 0
-738 -1891 0
-739 1893 0
1893 -1892 0
-739 -1892 0
-740 1894 0
1894 -1893 0
-740 -1893 0
-741 1895 0
1895 -1894 0
-741 -1894 0
-742 1896 0
1896 -1895 0
-742 -1895 0
1897 -1896 0
-743 -1896 0
1898 -1897 0
-744 -1897 0
1899 -745 0
1899 -1898 0
-745 -1898 0
-746 1900 0
1900 -1899 0
-746 -1899 0
-747 1901 0
1901 -1900 0
-747 -1900 0
1902 -1901 0
1903 -1902 0
1904 -1903 0
1905 -1904 0
-751 -1904 0
1906 -1905 0
-752 -1905 0
1907 -1906 0
-753 -1906 0
1908 -1907 0
1909 -1908 0
-756 1910 0
1910 -1909 0
-756 -1909 0
-757 1911 0
1911 -1910 0
-757 -1910 0
1912 -1911 0
1913 -1912 0
1914 -1913 0
-760 -1913 0
1915 -1914 0
1916 -1915 0
-763 -1916 0
-972 730 733 731 732 735 734 737 736 0
-1152 721 0
-973 738 743 741 740 742 739 744 0
973 -738 0
973 -739 0
-746 974 0
-976 758 756 757 759 0
-1156 725 751 740 733 746 0
-977 762 760 761 0
977 -760 0
-1157 734 756 752 726 747 741 0
-978 764 763 0
978 -763 0
-1158 727 757 735 753 742 748 760 0
-979 765 0
-1159 728 763 758 761 743 754 749 736 0
-980 0
729 -1160 737 765 762 744 759 755 764 750 0
-689 -722 0
-689 -724 0
-731 -696 0
-702 -730 0
-703 -730 0
-706 -730 0
-707 -730 0
-707 -738 0
-708 -730 0
-708 -738 0
-711 -721 0
-711 -722 0
-723 -711 0
-711 -730 0
-711 -731 0
-732 -711 0
-711 -738 0
-711 -739 0
-711 -745 0
-712 -730 0
-712 -738 0
-721 -715 0
-722 -715 0
-723 -715 0
-724 -715 0
-725 -715 0
-715 -730 0
-731 -715 0
-732 -715 0
-715 -733 0
-738 -715 0
-739 -715 0
-740 -715 0
-745 -715 0
-746 -715 0
-751 -715 0
-721 -716 0
-722 -716 0
-723 -716 0
-724 -716 0
-725 -716 0
-716 -727 0
-716 -730 0
-731 -716 0
-732 -716 0
-716 -733 0
-716 -735 0
-738 -716 0
-739 -716 0
-740 -716 0
-716 -742 0
-745 -716 0
-746 -716 0
-751 -716 0
-716 -753 0
-757 -716 0
-721 -718 0
-722 -718 0
-723 -718 0
-724 -718 0
-725 -718 0
-718 -730 0
-731 -718 0
-732 -718 0
-734 -718 0
-738 -718 0
-739 -718 0
-740 -718 0
-741 -718 0
-745 -718 0
-746 -718 0
-747 -718 0
-752 -718 0
-756 -718 0
-721 -720 0
-722 -720 0
-723 -720 0
-724 -720 0
-725 -720 0
-726 -720 0
-727 -720 0
-720 -730 0
-731 -720 0
-732 -720 0
-720 -733 0
-734 -720 0
-735 -720 0
-738 -720 0
-720 -739 0
-740 -720 0
-741 -720 0
-742 -720 0
-745 -720 0
-746 -720 0
-747 -720 0
-748 -720 0
-751 -720 0
-752 -720 0
-753 -720 0
-756 -720 0
-757 -720 0
-760 -720 0
766 775 768 769 770 771 772 773 774 767 776 777 778 779 780 781 782 805 784 785 786 787 788 789 790 791 792 793 794 795 808 797 798 799 800 796 802 803 804 801 806 807 783 809 810 0
1928 -775 0
1929 -1928 0
1930 -1929 0
1931 -1930 0
1932 -1931 0
1933 -1932 0
1934 -1933 0
1935 -1934 0
1936 -783 0
1936 -1935 0
-1935 -783 0
1937 -1936 0
1938 -1937 0
1939 -1938 0
1940 -1939 0
1941 -1940 0
1942 -1941 0
1943 -790 0
1943 -1942 0
-1942 -790 0
1944 -1943 0
1945 -1944 0
1946 -1945 0
1947 -1946 0
1948 -1947 0
1949 -796 0
1949 -1948 0
-1948 -796 0
1950 -1949 0
1951 -1950 0
1952 -1951 0
1953 -1952 0
1954 -801 0
-1953 -801 0
1955 -1954 0
1956 -1955 0
1957 -1956 0
-1957 -805 0
-982 775 776 777 778 779 780 781 782 0
982 -775 0
-1162 766 0
-1163 775 767 0
1163 -775 0
-984 790 791 792 793 794 795 0
987 -805 0
1167 -801 0
-988 808 809 0
-989 810 0
-1169 808 781 788 794 799 803 806 773 0
-990 0
-1170 810 782 789 795 800 804 807 809 774 0
-738 -766 0
-739 -766 0
-740 -766 0
-741 -766 0
-742 -766 0
-743 -766 0
-744 -766 0
-745 -766 0
-745 -775 0
-746 -766 0
-746 -775 0
-747 -766 0
-747 -775 0
-748 -766 0
-748 -775 0
-749 -766 0
-750 -766 0
-750 -775 0
-751 -766 0
-751 -775 0
-751 -783 0
-752 -766 0
-752 -775 0
-752 -783 0
-753 -766 0
-753 -775 0
-753 -783 0
-754 -766 0
-754 -783 0
-755 -766 0
-755 -783 0
-756 -766 0
-756 -775 0
-756 -783 0
-756 -790 0
-757 -766 0
-757 -775 0
-757 -783 0
-757 -790 0
-758 -766 0
-759 -766 0
-760 -766 0
-760 -775 0
-760 -783 0
-760 -790 0
-761 -766 0
-761 -775 0
-761 -783 0
-761 -790 0
-761 -796 0
-762 -766 0
-763 -766 0
-763 -775 0
-763 -783 0
-763 -790 0
-763 -796 0
-763 -801 0
-764 -766 0
-765 -766 0
-765 -775 0
-765 -783 0
-765 -790 0
-765 -796 0
-765 -801 0
-765 -805 0
-1967 815 995 0
-1968 996 816 0
-1969 817 997 0
-1970 818 998 0
-1971 999 819 0
-1972 1000 820 0
-1968 -31 0
-1971 -34 0
-1971 -43 0
-1977 825 1967 1005 0
-1979 827 1007 1969 0
-1980 1008 1970 828 0
-1981 1009 1971 829 0
1010 -1982 830 1972 0
-1981 -83 1968 1971 0
-1981 -88 1970 1971 0
-1987 835 1977 1015 0
-1989 837 1979 1017 0
-1990 838 1980 1018 0
-1991 1019 1981 839 0
1020 -1992 1982 840 0
-1988 -121 1978 1977 0
-1991 1978 -128 1981 0
-1991 -131 1981 1979 0
-1991 -133 1980 1981 0
-1997 1987 845 1025 0
-1999 1989 847 1027 0
-2000 1990 848 1028 0
-2001 1991 1029 849 0
1030 -2002 1992 850 0
-2001 -173 1991 1988 0
-2001 1991 -176 1989 0
-2001 -178 1990 1991 0
-2007 1997 855 1035 0
-2009 1999 857 1037 0
-2010 2000 858 1038 0
-2011 2001 1039 859 0
1040 -2012 2002 860 0
-2011 -218 1998 2001 0
-2011 1999 -221 2001 0
-2011 -223 2001 2000 0
-2017 2007 865 1045 0
-2019 2009 867 1047 0
-2020 2010 868 1048 0
-2011 2021 869 1049 0
-2021 2011 869 1049 0
-2022 1050 2012 870 0
-2018 -256 2007 2008 0
-263 -2021 2008 2011 0
-2021 2011 -266 2009 0
-2021 -268 2010 2011 0
-2027 2017 875 1055 0
-2028 2018 876 1056 0
-2029 2019 877 1057 0
-2030 2020 878 1058 0
-2021 2031 1059 879 0
-2031 2021 879 1059 0
1060 -2022 2032 880 0
-2032 1060 2022 880 0
-2028 -301 2018 2017 0
-2031 -308 2018 2021 0
-2031 2019 -311 2021 0
-2031 2020 -313 2021 0
-2021 -315 2032 0
-2038 2028 886 1066 0
-2039 2029 887 1067 0
-2030 -1068 2040 0
-2031 2041 1069 889 0
-2041 2031 1069 889 0
-2031 2041 -1069 0
1070 -2032 2042 890 0
-2042 1070 2032 890 0
-2038 -352 2030 0
-353 -2041 2028 2031 0
-2041 2029 -356 2031 0
-2030 -358 2041 0
-2031 -360 2042 0
-2048 2038 896 1076 0
-2038 -1076 2048 0
-2049 2039 897 1077 0
-2040 2050 898 1078 0
-2041 2051 899 1079 0
-2051 2041 899 1079 0
-2041 2051 -1079 0
1080 -2042 2052 900 0
-2052 1080 2042 900 0
-2048 -373 2034 2038 0
-2037 -391 2048 0
-398 -2051 2038 2041 0
-2051 2041 -401 2039 0
-2051 2040 -403 2041 0
-2041 -405 2052 0
-2046 2056 1084 904 0
-1084 -2046 2056 0
-2058 2048 906 1086 0
-2049 2059 907 1087 0
-2059 2049 907 1087 0
-2049 2059 -1087 0
-2051 2061 909 1089 0
-2061 2051 909 1089 0
-2051 -1089 2061 0
1090 -2052 2062 910 0
-2062 1090 2052 910 0
-2048 -443 2061 0
-443 -2061 2048 2051 0
-446 -2061 2049 2051 0
-2050 -448 2061 0
-2051 -450 2062 0
-2056 2066 1094 914 0
-1094 -2056 2066 0
-2058 2068 1096 916 0
-1096 -2058 2068 0
-2059 2069 1097 917 0
-2069 2059 917 1097 0
-2059 2069 -1097 0
-2061 2071 919 1099 0
-2071 2061 1099 919 0
-2061 2071 -1099 0
1100 -2062 2072 920 0
-2072 1100 2062 920 0
2072 -1100 -2062 0
-486 -2058 2069 0
-488 -2058 2071 0
-488 -2071 2058 2061 0
-2071 2059 -491 2061 0
-2066 2076 924 1104 0
-1104 -2066 2076 0
-2068 2078 926 1106 0
-2069 2079 1107 927 0
-2079 2069 1107 927 0
-2069 2079 -1107 0
-2071 2081 929 1109 0
-2081 2071 929 1109 0
-2071 2081 -1109 0
1110 -2072 2082 930 0
1110 -2082 2072 930 0
-2081 -536 2069 2071 0
-2070 -538 2081 0
-2071 -540 2082 0
-2076 2086 1114 934 0
-1114 -2076 2086 0
-2078 936 2088 1116 0
-2079 2089 937 1117 0
-2079 -1117 2089 0
-2091 2081 939 1119 0
-2081 2091 -1119 0
1120 2092 -2082 940 0
-2092 1120 2082 940 0
-1120 2092 -2082 0
-2081 -585 2092 0
-2086 2096 1124 944 0
-1124 -2086 2096 0
-2088 2098 946 1126 0
-2089 2099 1127 947 0
-2089 -1127 2099 0
-2101 2091 949 1129 0
1130 -2092 2102 950 0
-2102 1130 2092 950 0
-2091 -630 2102 0
-2099 1137 957 2109 0
-1137 -2099 2109 0
1140 -2102 2112 960 0
-2109 967 2119 1147 0
-2109 -1147 2119 0
1150 -2112 2122 970 0
-2109 -716 2121 0
-2118 1156 2128 976 0
-2118 -1156 2128 0
-2119 1157 977 2129 0
-2119 -1157 2129 0
-2120 1158 2130 978 0
-2120 -1158 2130 0
-2121 1159 2131 979 0
-2121 -1159 2131 0
1160 -2122 2132 980 0
-756 -2118 2129 0
-757 -2118 2130 0
-759 -2118 2132 0
-2119 -760 2130 0
-2119 -761 2131 0
-2120 -763 2131 0
-2121 -765 2132 0
1170 -2132 990 0
-2133 811 991 0
-2134 812 992 0
-2135 813 993 0
-2135 -813 0
-2136 814 994 0
-2136 -814 0
2137 815 995 0
2137 -995 0
-2138 996 816 0
-816 -2138 0
-2139 817 997 0
-2140 818 998 0
-2140 -818 0
-2141 999 819 0
-2142 1000 820 0
-2136 -18 0
-2138 -20 0
-2140 -22 0
-2141 -23 0
-2138 -26 0
-2140 -28 0
-2141 -29 0
-2137 -31 0
2138 -31 0
-2137 -33 0
2140 -33 0
-2137 -34 0
2141 -34 0
-2140 -37 0
-2138 -38 0
-2141 -38 0
-2141 -41 0
-2141 -43 0
821 -2143 1001 2133 0
-2143 -821 2133 0
-2144 822 1002 2134 0
-2145 823 2135 1003 0
-823 -2145 2135 0
-2146 824 1004 2136 0
-2146 -824 2136 0
825 2147 -2137 1005 0
-2147 2137 1005 825 0
-2147 -825 2137 0
2147 -1005 -2137 0
2148 826 -2138 1006 0
-2148 826 2138 1006 0
-826 -2148 2138 0
2148 -1006 -2138 0
-2149 827 1007 2139 0
-2140 2150 828 1008 0
-2150 1008 2140 828 0
-2150 -828 2140 0
-2140 2150 -1008 0
-2141 2151 829 1009 0
-2151 1009 829 2141 0
-829 -2151 2141 0
2151 -2141 -1009 0
1010 -2152 830 2142 0
-2145 -47 2133 2135 0
-2146 -48 2133 2136 0
-2147 2137 2133 -49 0
-2148 -50 2133 2138 0
-53 -2151 2141 2133 0
-54 -2152 2133 2142 0
-2146 -63 2135 2136 0
-64 -2147 2135 2137 0
-65 -2148 2135 2138 0
-67 -2150 2135 2140 0
-68 -2151 2141 2135 0
-70 2137 2136 -2147 0
-71 -2148 2138 2136 0
-73 -2150 2136 2140 0
-74 -2151 2136 2141 0
-76 -2147 2138 0
-76 2148 -2137 0
-76 -2148 2137 2138 0
-2147 -78 2140 0
-78 2150 -2137 0
-78 2137 2140 -2150 0
-2147 -79 2141 0
-79 2151 -2137 0
-79 -2151 2137 2141 0
-82 -2148 2140 0
-82 2150 -2138 0
-2150 -82 2138 2140 0
-83 -2148 2141 0
-83 2151 -2138 0
-83 -2151 2138 2141 0
-2151 -86 2141 2139 0
-2150 -88 2141 0
-2140 -88 2151 0
-88 -2151 2140 2141 0
-90 -2152 2141 2142 0
831 -2153 2143 1011 0
-2153 -831 2143 0
-2154 1012 832 2144 0
-2155 833 2145 1013 0
-2155 -833 2145 0
-2156 834 2146 1014 0
-2156 -834 2146 0
2157 835 -2147 1015 0
-2157 1015 2147 835 0
-2157 -835 2147 0
-1015 2157 -2147 0
2158 836 -2148 1016 0
-2158 836 2148 1016 0
-2158 -836 2148 0
-1016 2158 -2148 0
-2159 837 2149 1017 0
-2150 2160 838 1018 0
-2160 838 2150 1018 0
-2160 -838 2150 0
-2150 -1018 2160 0
-2151 2161 839 1019 0
-2161 1019 2151 839 0
2161 -2151 -1019 0
1020 -2162 2152 840 0
-2154 -91 2143 2144 0
-2155 -92 2143 2145 0
-2156 -93 2146 2143 0
-94 -2157 2143 2147 0
-2158 -95 2143 2148 0
-103 -2158 2148 2144 0
-108 -2156 2145 2146 0
-109 -2157 2145 2147 0
-110 -2158 2145 2148 0
-2160 -112 2145 2150 0
-113 -2161 2145 2151 0
-2157 -115 2146 2147 0
-116 -2158 2148 2146 0
-118 -2160 2146 2150 0
-119 -2161 2146 2151 0
-2157 -121 2148 0
-121 2158 -2147 0
-2158 -121 2147 2148 0
-2157 -123 2150 0
-123 2160 -2147 0
-123 -2160 2147 2150 0
-2157 -124 2151 0
-124 2161 -2147 0
-124 -2161 2147 2151 0
-125 -2157 2152 0
-2158 -127 2150 0
-127 2160 -2148 0
-2160 -127 2150 2148 0
-2158 -128 2151 0
-128 -2151 -2148 2158 0
-128 2161 -2148 0
-128 -2161 2151 2148 0
-2161 -131 2151 2149 0
-2160 -133 2151 0
-133 -2150 -2151 2160 0
-133 -2150 2161 0
-133 -2161 2150 2151 0
-135 2151 2152 -2162 0
841 -2163 2153 1021 0
-2163 -841 2153 0
-2164 2154 842 1022 0
-2164 -842 2154 0
-2165 2155 1023 843 0
-843 -2165 2155 0
-2166 2156 1024 844 0
-844 -2166 2156 0
-2157 2167 845 1025 0
-2167 2157 1025 845 0
-2167 -845 2157 0
-1025 -2157 2167 0
-2158 2168 846 1026 0
-2168 2158 846 1026 0
-2168 -846 2158 0
-2158 2168 -1026 0
-2169 2159 847 1027 0
-2160 2170 848 1028 0
-2170 2160 1028 848 0
-2170 -848 2160 0
-2160 2170 -1028 0
-2161 2171 849 1029 0
2161 -2171 1029 849 0
-2161 2171 -1029 0
1030 -2172 2162 850 0
-2164 -136 2153 2154 0
-2165 -137 2153 2155 0
-2166 -138 2153 2156 0
-2167 -139 2157 2153 0
-2168 -140 2153 2158 0
-2165 -145 2154 2155 0
-146 -2166 2154 2156 0
-2167 -147 2154 2157 0
-148 -2168 2154 2158 0
-2170 -150 2154 2160 0
-151 -2171 2161 2154 0
-153 -2166 2155 2156 0
-154 -2167 2155 2157 0
-155 -2168 2155 2158 0
-157 -2170 2155 2160 0
-158 -2171 2161 2155 0
-160 -2167 2156 2157 0
-161 -2168 2156 2158 0
-163 -2170 2160 2156 0
-164 -2171 2156 2161 0
-2167 -166 2158 0
-166 -2157 2168 0
-2168 -166 2157 2158 0
-168 -2167 2160 0
-168 -2157 2170 0
-168 -2170 2157 2160 0
-2167 -169 2161 0
-2157 -169 2171 0
-169 -2171 2161 2157 0
-2168 -172 2160 0
-2158 -172 2170 0
-2170 -172 2158 2160 0
-2168 -173 2161 0
-2158 -173 2171 0
-2171 -173 2161 2158 0
-2171 -176 2161 2159 0
-2170 -178 2161 0
-2160 -178 -2161 2170 0
-2160 -178 2171 0
-178 -2171 2161 2160 0
-180 2161 2162 -2172 0
851 -2173 2163 1031 0
-2173 -851 2163 0
-2174 2164 852 1032 0
-2174 2164 -852 0
-2175 2165 853 1033 0
-2175 -853 2165 0
-2176 2166 854 1034 0
-2176 -854 2166 0
-2167 2177 855 1035 0
-2177 2167 855 1035 0
-2177 2167 -855 0
-2167 -1035 2177 0
-2168 2178 856 1036 0
-2178 2168 1036 856 0
-2178 -856 2168 0
-2168 -1036 2178 0
-2179 2169 857 1037 0
-2170 2180 858 1038 0
-2180 2170 858 1038 0
-2180 -858 2170 0
-2170 2180 -1038 0
-2171 2181 859 1039 0
2171 -2181 1039 859 0
-2171 2181 -1039 0
1040 -2182 2172 860 0
-2174 -181 2163 2164 0
-2175 -182 2163 2165 0
-2176 -183 2163 2166 0
-2177 -184 2167 2163 0
-2178 -185 2168 2163 0
-190 -2175 2164 2165 0
-2176 2164 -191 2166 0
-192 -2177 2164 2167 0
-193 -2178 2164 2168 0
-195 -2180 2170 2164 0
-196 2171 -2181 2164 0
-198 -2176 2165 2166 0
-199 -2177 2165 2167 0
-2178 -200 2165 2168 0
-202 -2180 2165 2170 0
-203 2171 -2181 2165 0
-205 -2177 2166 2167 0
-206 -2178 2166 2168 0
-208 -2180 2170 2166 0
-209 2171 -2181 2166 0
-211 -2177 2168 0
-211 -2167 2178 0
-211 -2178 2167 2168 0
-213 -2177 2170 0
-213 -2167 2180 0
-213 -2180 2167 2170 0
-2177 2171 -214 0
-2167 2181 -214 0
-2181 2171 -214 2167 0
-215 -2177 2172 0
-217 -2178 2170 0
-217 -2168 2180 0
-217 -2180 2170 2168 0
-218 -2178 2171 0
-218 -2168 2181 0
-218 -2181 2171 2168 0
2171 -2181 -221 2169 0
-2180 -223 2171 0
-2170 -223 -2171 2180 0
-2170 -223 2181 0
-223 2171 -2181 2170 0
2171 -225 2172 -2182 0
-2183 861 2173 1041 0
-861 2173 -2183 0
-2184 2174 862 1042 0
-2184 -862 2174 0
-2185 2175 863 1043 0
-863 -2185 2175 0
-2186 2176 864 1044 0
-864 -2186 2176 0
-2177 2187 865 1045 0
-2187 2177 865 1045 0
-2187 -865 2177 0
-1045 -2177 2187 0
-2178 2188 866 1046 0
-2188 2178 1046 866 0
-2188 -866 2178 0
-2178 -1046 2188 0
-2189 2179 867 1047 0
-2180 2190 868 1048 0
-2190 2180 1048 868 0
-2190 -868 2180 0
-2180 2190 -1048 0
2191 -2181 869 1049 0
-2191 2181 1049 869 0
2191 -1049 -2181 0
1050 -2192 2182 870 0
-2184 -226 2173 2174 0
-2185 -227 2173 2175 0
-2186 -228 2173 2176 0
-2187 -229 2173 2177 0
-230 -2188 2173 2178 0
-235 -2185 2174 2175 0
-236 -2186 2174 2176 0
-2187 -237 2174 2177 0
-2188 -238 2174 2178 0
-240 -2190 2180 2174 0
-241 -2191 2174 2181 0
-243 -2186 2175 2176 0
-244 -2187 2175 2177 0
-245 -2188 2175 2178 0
-247 -2190 2180 2175 0
-248 -2191 2181 2175 0
-250 -2187 2176 2177 0
-251 -2188 2176 2178 0
-253 -2190 2180 2176 0
-254 -2191 2176 2181 0
-256 -2187 2178 0
-256 -2177 2188 0
-256 -2188 2177 2178 0
-2187 -258 2180 0
-258 -2177 2190 0
-258 -2190 2177 2180 0
-2187 -259 2181 0
-2177 -259 2191 0
-259 -2191 2181 2177 0
-262 -2188 2180 0
-262 -2178 -2180 2188 0
-262 -2178 2190 0
-262 -2190 2178 2180 0
-2188 -263 2181 0
-263 2188 -2181 -2178 0
-2178 -263 2191 0
-263 -2191 2178 2181 0
-2191 2181 -266 2179 0
-2190 -268 2181 0
-2180 -268 -2181 2190 0
-2180 -268 2191 0
-2191 -268 2181 2180 0
2181 2182 -270 -2192 0
871 -2193 2183 1051 0
2183 -871 -2193 0
-2194 2184 1052 872 0
-2194 -872 2184 0
-2195 2185 873 1053 0
-2195 -873 2185 0
-2196 2186 874 1054 0
-874 -2196 2186 0
-2187 2197 875 1055 0
-2197 2187 875 1055 0
-875 -2197 2187 0
-2187 -1055 2197 0
-2188 2198 876 1056 0
-2198 2188 876 1056 0
-876 -2198 2188 0
-2188 2198 -1056 0
-2199 2189 877 1057 0
-2190 2200 878 1058 0
-2200 2190 878 1058 0
-2200 2190 -878 0
-2190 2200 -1058 0
-2191 2201 879 1059 0
-2201 2191 1059 879 0
-2191 2201 -1059 0
1060 -2202 2192 880 0
-2194 -271 2183 2184 0
-2195 -272 2183 2185 0
-2196 -273 2183 2186 0
-274 -2197 2183 2187 0
-2198 -275 2188 2183 0
-280 -2195 2184 2185 0
-281 -2196 2184 2186 0
-282 -2197 2184 2187 0
-283 -2198 2184 2188 0
-285 -2200 2184 2190 0
-286 -2201 2184 2191 0
-2196 -288 2185 2186 0
-2197 2185 -289 2187 0
-290 -2198 2185 2188 0
-292 -2200 2185 2190 0
-293 -2201 2191 2185 0
-295 -2197 2186 2187 0
-296 -2198 2186 2188 0
-298 -2200 2186 2190 0
-299 -2201 2191 2186 0
-301 -2197 2188 0
-2187 -301 2198 0
-303 -2197 2190 0
-303 -2190 2197 -2187 0
-2187 -303 2200 0
-303 -2200 2187 2190 0
-2187 -304 2201 0
-304 -2201 2191 2187 0
-307 -2198 2190 0
-307 -2188 2200 0
-307 -2200 2188 2190 0
-2198 -308 2191 0
-2188 -308 -2191 2198 0
-2188 -308 2201 0
-308 -2201 2191 2188 0
-2201 2191 -311 2189 0
-2200 2191 -313 0
-2190 -2191 -313 2200 0
-2190 2201 -313 0
-2201 2190 -313 2191 0
2191 -315 -2202 2192 0
881 -2203 2193 1061 0
-2204 2194 882 1062 0
-2204 2194 -882 0
-2205 2195 883 1063 0
-2205 -883 2195 0
-2206 2196 884 1064 0
-2206 -884 2196 0
-2197 2207 885 1065 0
-2207 2197 885 1065 0
-2207 -885 2197 0
-1065 -2197 2207 0
-2198 2208 886 1066 0
-2208 2198 886 1066 0
-2208 -886 2198 0
-1066 -2198 2208 0
-2209 2199 887 1067 0
-2209 2199 -887 0
2210 -2200 888 1068 0
-2210 2200 1068 888 0
-2210 2200 -888 0
-1068 -2200 2210 0
-2201 2211 889 1069 0
-2211 2201 1069 889 0
-2211 -889 2201 0
-2201 2211 -1069 0
1070 2212 -2202 890 0
-2212 2202 1070 890 0
-320 -2208 2198 2193 0
-325 -2205 2194 2195 0
-326 -2206 2194 2196 0
-328 -2208 2194 2198 0
-330 -2210 2200 2194 0
-331 -2211 2194 2201 0
-2206 -333 2195 2196 0
-335 -2208 2195 2198 0
-337 -2210 2200 2195 0
-338 -2211 2201 2195 0
-2208 -341 2198 2196 0
-343 -2210 2196 2200 0
-344 -2211 2196 2201 0
-346 -2207 2198 0
-346 -2198 2207 -2197 0
-346 -2197 2208 0
-346 -2208 2197 2198 0
-2197 -347 2209 0
-2207 -348 2200 0
-2197 -348 2207 -2200 0
-2197 -348 2210 0
-2210 -348 2200 2197 0
-349 -2197 -2201 2207 0
-2197 -349 2211 0
-349 -2211 2197 2201 0
-2208 -352 2200 0
-2198 -352 -2200 2208 0
-2198 -352 2210 0
-2210 -352 2198 2200 0
-2208 -353 2201 0
-2198 -353 2208 -2201 0
-2198 -353 2211 0
-353 -2211 2198 2201 0
-2199 -2201 -356 2209 0
-2211 2199 -356 2201 0
-2210 -358 2201 0
-358 -2201 -2200 2210 0
-358 -2200 2211 0
-358 -2211 2200 2201 0
-2211 -360 2202 0
2201 -360 -2212 2202 0
-2204 2214 892 1072 0
-2205 2215 893 1073 0
-2206 2216 894 1074 0
-2216 2206 894 1074 0
-2207 2217 895 1075 0
-1075 -2207 2217 0
-2208 2218 896 1076 0
-2218 2208 1076 896 0
-2208 -1076 2218 0
-2209 2219 1077 897 0
-2219 2209 1077 897 0
-2210 2220 1078 898 0
-2220 2210 1078 898 0
-2220 2210 -898 0
-2210 -1078 2220 0
-2211 2221 1079 899 0
-2221 2211 1079 899 0
-2211 2221 -1079 0
1080 -2212 2222 900 0
1080 -2222 2212 900 0
-365 -2218 2203 2208 0
-2218 -373 2204 2208 0
-2220 -375 2204 2210 0
-376 -2221 2211 2204 0
-380 -2218 2205 2208 0
-382 -2220 2205 2210 0
-383 -2221 2211 2205 0
-386 -2218 2206 2208 0
-388 -2220 2206 2210 0
-389 -2221 2211 2206 0
-391 -2217 2208 0
-391 -2208 2217 -2207 0
-391 -2207 2218 0
-392 -2207 2219 0
-393 -2217 2210 0
-393 -2210 2217 -2207 0
-393 -2207 2220 0
-393 -2220 2207 2210 0
-2207 -394 2221 0
-394 -2221 2207 2211 0
-396 -2208 2219 0
-2218 -397 2210 0
-2210 -397 2218 -2208 0
-2208 -397 2220 0
-2220 -397 2208 2210 0
-398 -2218 2211 0
-398 -2208 -2211 2218 0
-2208 -398 2221 0
-398 -2221 2208 2211 0
-2219 -400 2210 0
-2209 -400 2220 0
-2221 2211 -401 2209 0
-2220 2211 -403 0
-2210 -2211 -403 2220 0
-2210 2221 -403 0
-2221 2211 -403 2210 0
2211 -405 2212 -2222 0
-2214 2224 902 1082 0
-2215 2225 1083 903 0
-2216 2226 904 1084 0
-2217 2227 905 1085 0
-1085 -2217 2227 0
-2218 2228 906 1086 0
-2228 2218 1086 906 0
-1086 -2218 2228 0
-2219 2229 907 1087 0
-2229 2219 907 1087 0
-2229 2219 -907 0
-2220 2230 1088 908 0
-2230 2220 1088 908 0
-908 -2230 2220 0
-2220 2230 -1088 0
-2221 2231 909 1089 0
-2231 2221 1089 909 0
-2231 2221 -909 0
-2221 -1089 2231 0
1090 -2232 2222 910 0
-436 -2217 -2218 2227 0
-436 -2217 2228 0
-438 -2227 2220 0
-438 -2220 -2217 2227 0
-438 -2217 2230 0
-439 -2217 2231 0
-441 -2218 2229 0
-442 -2228 2220 0
-442 -2220 -2218 2228 0
-442 -2218 2230 0
-442 -2230 2220 2218 0
-2228 -443 2221 0
-2218 -443 -2221 2228 0
-2218 -443 2231 0
-443 -2231 2218 2221 0
-2231 2221 2219 -446 0
-448 -2230 2221 0
-448 -2221 -2220 2230 0
-448 -2220 2231 0
-448 -2231 2221 2220 0
-2221 -450 -2222 2231 0
2221 -450 2222 -2232 0
-2224 2234 912 1092 0
-2225 2235 913 1093 0
-2226 2236 1094 914 0
-2227 2237 915 1095 0
-1095 -2227 2237 0
-2228 2238 916 1096 0
-2238 2228 1096 916 0
-1096 -2228 2238 0
-2229 2239 1097 917 0
-2239 2229 917 1097 0
-2239 2229 -917 0
-2230 2240 918 1098 0
-2240 2230 1098 918 0
-2230 2240 -1098 0
-2231 2241 919 1099 0
-2241 2231 1099 919 0
-2231 2241 -1099 0
1100 -2242 2232 920 0
-481 -2227 2238 0
-2227 -482 2239 0
-2227 -483 -2230 2237 0
-2227 -483 2240 0
-483 -2240 2227 2230 0
-484 -2227 2237 -2231 0
-484 -2227 2241 0
-2228 -486 2239 0
-487 -2238 2230 0
-487 -2228 -2230 2238 0
-487 -2228 2240 0
-487 -2240 2228 2230 0
-2228 -488 -2231 2238 0
-488 -2241 2228 2231 0
-2241 2231 -491 2229 0
-2240 -493 2231 0
-2230 -493 -2231 2240 0
-2230 -493 2241 0
-2241 -493 2230 2231 0
-2241 -495 2232 0
2231 -495 2232 -2242 0
-2234 2244 922 1102 0
-2235 2245 923 1103 0
-2236 2246 924 1104 0
-2237 2247 925 1105 0
-2237 -1105 2247 0
-2238 2248 926 1106 0
-2248 2238 926 1106 0
-2238 2248 -1106 0
-2239 2249 927 1107 0
-2249 2239 1107 927 0
-2249 2239 -927 0
-2240 2250 1108 928 0
-2250 2240 1108 928 0
-2240 -1108 2250 0
-2241 2251 929 1109 0
-2251 2241 929 1109 0
-2241 2251 -1109 0
1110 2252 -2242 930 0
1110 -2252 2242 930 0
-526 -2237 2248 0
-527 -2237 2249 0
-528 -2237 2250 0
-2238 -531 2249 0
-532 -2238 2250 0
-533 -2248 2241 0
-533 -2251 2238 2241 0
-2251 2241 2239 -536 0
-2240 -538 -2241 2250 0
-2240 -538 2251 0
-2251 -538 2240 2241 0
-2241 -540 -2242 2251 0
2241 -540 2242 -2252 0
-2247 935 2257 1115 0
-1115 -2247 2257 0
-2248 2258 936 1116 0
-2258 936 2248 1116 0
-936 -2258 2248 0
-1116 -2248 2258 0
-2249 2259 937 1117 0
-2259 2249 -937 0
-2249 -1117 2259 0
-2250 2260 1118 938 0
-2250 -1118 2260 0
-2251 2261 939 1119 0
-2261 2251 1119 939 0
-2251 2261 -1119 0
1120 2262 -2252 940 0
1120 -2262 2252 940 0
-571 -2247 2258 0
-572 -2247 2259 0
-573 -2247 2260 0
-574 -2247 2261 0
-576 -2248 2259 0
-2249 -580 2260 0
-2249 -2251 -581 2259 0
2251 -2261 2249 -581 0
-2250 -583 2261 0
-2261 -585 2252 0
-2251 -585 -2252 2261 0
-585 2251 2252 -2262 0
-2257 2267 1125 945 0
-1125 -2257 2267 0
-2258 2268 946 1126 0
-2268 2258 946 1126 0
-2258 -1126 2268 0
-2259 2269 1127 947 0
-2259 2269 -1127 0
-2260 2270 1128 948 0
-2260 2270 -1128 0
-2261 2271 1129 949 0
-2271 2261 949 1129 0
-2261 -1129 2271 0
1130 -2272 2262 950 0
-616 -2257 2268 0
-2257 2269 -617 0
-2258 -621 2269 0
-622 -2258 2270 0
-2259 2270 -625 0
-2259 -626 2271 0
-2260 -628 2271 0
-2261 -2262 -630 2271 0
-630 2261 2262 -2272 0
-2267 1135 2277 955 0
-1135 -2267 2277 0
-2268 1136 2278 956 0
-2268 -1136 2278 0
-2269 1137 2279 957 0
-2269 -1137 2279 0
-2270 1138 958 2280 0
-2270 -1138 2280 0
2271 -2281 1139 959 0
1140 -2282 2272 960 0
-2265 -648 2276 0
-661 -2267 2278 0
-2267 -662 2279 0
-663 -2267 2280 0
-666 -2268 2279 0
-667 -2268 2280 0
-2269 -670 2280 0
2271 -675 2272 -2282 0
-2276 1144 964 2286 0
-2277 1145 965 2287 0
-2278 1146 966 2288 0
-2279 967 2289 1147 0
-2279 -1147 2289 0
-2280 1148 2290 968 0
-1148 -2280 2290 0
-2292 1150 2282 970 0
-2279 -716 2291 0
-2280 -718 2291 0
2281 -720 -2292 2282 0
-2303 811 991 0
-2304 812 992 0
-2305 813 993 0
-2305 -813 0
-2306 814 994 0
-2306 -814 0
-2307 815 995 0
-2307 -815 0
2308 996 816 0
2308 -996 0
-2309 817 997 0
-2310 818 998 0
-2310 -818 0
-2311 999 819 0
-2312 1000 820 0
-2306 -18 0
-2307 -19 0
-2310 -22 0
-2311 -23 0
-2307 -25 0
-2310 -28 0
-2311 -29 0
-2310 -33 0
-2311 -34 0
-2308 -37 0
2310 -37 0
-2308 -38 0
2311 -38 0
-2311 -43 0
-2313 821 1001 2303 0
-2313 -821 2303 0
-2314 822 1002 2304 0
-2315 823 2305 1003 0
-2315 -823 2305 0
-2316 824 2306 1004 0
-2316 -824 2306 0
-2317 825 2307 1005 0
-2317 -825 2307 0
2318 826 -2308 1006 0
-2318 2308 1006 826 0
-2318 -826 2308 0
2318 -1006 -2308 0
-2319 827 1007 2309 0
-2310 2320 1008 828 0
-2320 1008 2310 828 0
-2320 -828 2310 0
-2310 2320 -1008 0
-2311 2321 829 1009 0
-2321 1009 2311 829 0
-2311 2321 -1009 0
1010 -2322 830 2312 0
-2315 -47 2303 2305 0
-2316 -48 2303 2306 0
-2317 -49 2303 2307 0
-2318 2308 2303 -50 0
-2316 -63 2305 2306 0
-64 -2317 2305 2307 0
-65 -2318 2308 2305 0
-67 -2320 2305 2310 0
-68 -2321 2311 2305 0
-2317 -70 2306 2307 0
-71 -2318 2308 2306 0
-73 -2320 2310 2306 0
-74 -2321 2306 2311 0
-2320 -78 2310 2307 0
-79 -2321 2307 2311 0
-2318 -82 2310 0
-82 2320 -2308 0
-2318 -83 2311 0
-83 2321 -2308 0
-2321 -86 2311 2309 0
-2320 -88 2311 0
-2310 -88 2321 0
-88 -2321 2311 2310 0
831 -2323 2313 1011 0
-2323 -831 2313 0
-2324 1012 832 2314 0
-2325 833 2315 1013 0
-2325 -833 2315 0
-2326 834 2316 1014 0
-2326 -834 2316 0
-2327 1015 2317 835 0
-2327 -835 2317 0
2328 836 -2318 1016 0
2318 -2328 836 1016 0
2318 -836 -2328 0
-1016 2328 -2318 0
-2329 837 2319 1017 0
-2320 2330 1018 838 0
-2330 838 2320 1018 0
-2330 -838 2320 0
-2320 -1018 2330 0
-2321 2331 839 1019 0
-2331 1019 2321 839 0
2331 -2321 -1019 0
1020 -2332 2322 840 0
-2324 -91 2313 2314 0
-2325 -92 2313 2315 0
-2326 -93 2316 2313 0
-2327 -94 2313 2317 0
-95 -2328 2313 2318 0
-108 -2326 2315 2316 0
-109 -2327 2315 2317 0
-110 2318 -2328 2315 0
-2330 -112 2320 2315 0
-113 -2331 2315 2321 0
-2327 -115 2316 2317 0
-116 2318 -2328 2316 0
-118 -2330 2320 2316 0
-119 -2331 2321 2316 0
-121 -2328 2317 2318 0
-2317 -123 2330 0
-123 -2330 2317 2320 0
-124 -2331 2317 2321 0
-127 -2328 2320 0
-127 2330 -2318 0
-128 -2328 2321 0
-128 2331 -2318 0
-129 -2328 2322 0
-2331 -131 2321 2319 0
-2330 -133 2321 0
-2320 -133 2331 0
-133 -2331 2321 2320 0
-135 2321 2322 -2332 0
841 -2333 2323 1021 0
-2333 2323 -841 0
-2334 2324 842 1022 0
-2335 2325 843 1023 0
-2336 2326 1024 844 0
-2337 2327 845 1025 0
-2337 -845 2327 0
-2328 2338 846 1026 0
-2338 2328 846 1026 0
-2338 -846 2328 0
-2328 2338 -1026 0
-2339 2329 847 1027 0
-2330 2340 848 1028 0
-2340 2330 1028 848 0
-2340 -848 2330 0
-2330 2340 -1028 0
-2331 2341 849 1029 0
2331 -2341 1029 849 0
-2331 2341 -1029 0
1030 -2342 2332 850 0
-2334 -136 2323 2324 0
-2337 -139 2323 2327 0
-2338 2328 -140 2323 0
-2337 -147 2324 2327 0
-148 -2338 2328 2324 0
-2340 2330 -150 2324 0
-151 -2341 2324 2331 0
-2335 -153 2326 0
-154 -2337 2325 2327 0
-155 -2338 2328 2325 0
-157 -2340 2330 2325 0
-158 -2341 2325 2331 0
-160 -2337 2326 2327 0
-161 -2338 2326 2328 0
-163 -2340 2326 2330 0
-164 -2341 2326 2331 0
-2338 -166 2328 2327 0
-168 -2340 2330 2327 0
-169 -2341 2327 2331 0
-2338 -172 2330 0
-172 -2330 -2328 2338 0
-172 -2328 2340 0
-172 -2340 2328 2330 0
-2338 -173 2331 0
-173 -2328 -2331 2338 0
-173 -2328 2341 0
-2341 2331 -176 2329 0
-2340 -178 2331 0
-2330 -178 -2331 2340 0
-2330 -178 2341 0
-178 -2341 2331 2330 0
2331 -180 2332 -2342 0
-2343 -851 2333 0
-2344 2334 852 1032 0
-2344 2334 -852 0
-2347 2337 855 1035 0
-2347 2337 -855 0
-2338 2348 856 1036 0
2338 -2348 1036 856 0
-856 2338 -2348 0
-2338 -1036 2348 0
-2349 2339 857 1037 0
-2349 2339 -857 0
-2340 2350 858 1038 0
-2350 2340 858 1038 0
-2340 2350 -1038 0
-2341 2351 859 1039 0
2341 -2351 859 1039 0
-2341 2351 -1039 0
1040 -2352 2342 860 0
-2344 -181 2333 2334 0
-185 2338 -2348 2333 0
-193 2338 -2348 2334 0
-195 -2350 2334 2340 0
-200 2338 -2348 2335 0
-202 -2350 2335 2340 0
-206 2338 -2348 2336 0
-208 -2350 2336 2340 0
-211 2338 -2348 2337 0
-213 -2350 2340 2337 0
-2351 2337 -214 2341 0
-2338 -216 2349 0
-217 2340 -2348 0
-217 -2338 -2340 2348 0
-217 -2338 2350 0
-218 2341 -2348 0
-218 -2341 2348 -2338 0
-218 -2338 2351 0
2342 -2348 -219 0
2341 -2351 -221 2339 0
-223 -2350 2341 0
-223 -2341 2350 -2340 0
-223 -2340 2351 0
-223 2341 -2351 2340 0
2341 -225 -2352 2342 0
-2354 2344 862 1042 0
-2354 -862 2344 0
-2357 2347 1045 865 0
-2357 -865 2347 0
2358 -2348 866 1046 0
-2358 2348 866 1046 0
-2358 -866 2348 0
-1046 2358 -2348 0
-2349 2359 1047 867 0
-2359 2349 1047 867 0
-2350 2360 868 1048 0
-2360 2350 868 1048 0
-2350 2360 -1048 0
2361 -2351 869 1049 0
-2361 2351 1049 869 0
2361 -1049 -2351 0
-2362 2352 1050 870 0
-2354 2343 -226 2344 0
-258 -2360 2347 2350 0
-2357 -259 2351 0
-2347 -259 2361 0
-259 -2361 2347 2351 0
-261 -2358 2349 0
-262 -2358 2350 0
-262 -2350 -2348 2358 0
-262 2360 -2348 0
-263 -2358 2351 0
-263 -2351 -2348 2358 0
-263 2361 -2348 0
-263 -2361 2348 2351 0
-2358 -264 2352 0
-2361 2351 -266 2349 0
-2360 2351 -268 0
-2350 -268 -2351 2360 0
-2350 2361 -268 0
-2361 -268 2350 2351 0
2351 -270 2352 -2362 0
-2367 2357 875 1055 0
2368 876 -2358 1056 0
-1056 2368 -2358 0
-2359 2369 877 1057 0
-2369 2359 877 1057 0
-2360 2370 878 1058 0
-2370 2360 1058 878 0
-2370 2360 -878 0
-2360 2370 -1058 0
-2361 2371 879 1059 0
-2371 2361 1059 879 0
-2361 2371 -1059 0
1060 -2362 2372 880 0
1060 -2372 2362 880 0
-303 -2370 2357 2360 0
-304 -2371 2361 2357 0
-306 -2358 2369 0
-307 2360 -2368 0
-307 -2360 -2358 2368 0
-307 -2358 2370 0
-307 -2370 2360 2358 0
2361 -308 -2368 0
-308 -2361 2368 -2358 0
2371 -308 -2358 0
-2371 2361 -311 2359 0
-2370 2361 -313 0
-2360 -2361 -313 2370 0
-2360 2371 -313 0
-2371 2361 -313 2360 0
-315 2362 -2372 2361 0
-2377 2367 885 1065 0
2378 886 -2368 1066 0
-2378 2368 886 1066 0
-2378 -886 2368 0
-1066 2378 -2368 0
-2369 2379 887 1067 0
-2379 2369 887 1067 0
-2379 2369 -887 0
-2369 2379 -1067 0
-2370 1068 2380 888 0
-2380 2370 1068 888 0
-2380 2370 -888 0
-2370 -1068 2380 0
-2371 2381 1069 889 0
-2381 2371 1069 889 0
-2381 -889 2371 0
-2371 2381 -1069 0
1070 2382 -2372 890 0
-2382 2372 1070 890 0
-2380 -348 2367 2370 0
-351 2379 -2368 0
-2378 -352 2370 0
-352 2378 -2368 -2370 0
-352 2380 -2368 0
-2378 -353 2371 0
-353 2378 -2368 -2371 0
-353 2381 -2368 0
-2369 -355 2380 0
-2381 2371 -356 2369 0
-358 -2380 2371 0
-2371 -358 -2370 2380 0
-358 -2370 2381 0
-358 -2381 2371 2370 0
2371 -360 -2382 2372 0
-2378 2388 896 1076 0
-2388 1076 2378 896 0
-2388 -896 2378 0
-2378 -1076 2388 0
-2379 2389 1077 897 0
-2389 2379 1077 897 0
-2389 2379 -897 0
-2379 -1077 2389 0
-2380 2390 1078 898 0
-2390 2380 1078 898 0
-2390 -898 2380 0
-2380 -1078 2390 0
-2381 2391 1079 899 0
2381 -2391 1079 899 0
-2381 2391 -1079 0
1080 -2382 2392 900 0
1080 -2392 2382 900 0
-391 -2388 2378 2377 0
-393 -2390 2377 2380 0
-2378 -396 2389 0
-2388 -397 2380 0
-2378 -2380 -397 2388 0
-2378 -397 2390 0
-398 -2388 2381 0
-398 -2381 -2378 2388 0
-398 -2378 2391 0
-2379 -400 2390 0
-2391 2379 -401 2381 0
-2390 2381 -403 0
-2381 -2380 -403 2390 0
-2380 2391 -403 0
-2391 -403 2380 2381 0
2381 -405 -2392 2382 0
-2388 2398 906 1086 0
-1086 -2388 2398 0
-2389 2399 907 1087 0
-2399 2389 907 1087 0
-2399 2389 -907 0
-2389 2399 -1087 0
-2390 2400 1088 908 0
-2400 2390 1088 908 0
-2400 -908 2390 0
-2390 2400 -1088 0
-2391 2401 909 1089 0
2391 -2401 1089 909 0
-2391 -1089 2401 0
1090 -2402 2392 910 0
-441 -2388 2399 0
-442 -2388 -2390 2398 0
-442 -2388 2400 0
-2398 -443 2391 0
-2388 -443 -2391 2398 0
-2388 -443 2401 0
-443 -2401 2388 2391 0
-2389 -445 2400 0
-446 -2401 2389 2391 0
-2400 -448 2391 0
-2390 -448 -2391 2400 0
-2390 -448 2401 0
-448 -2401 2390 2391 0
-2391 -450 -2392 2401 0
2391 -450 2392 -2402 0
-2398 2408 916 1096 0
-2398 -1096 2408 0
-2399 2409 1097 917 0
-2409 2399 917 1097 0
-2409 2399 -917 0
-2399 2409 -1097 0
-2400 2410 918 1098 0
-2410 2400 1098 918 0
-2410 -918 2400 0
-2400 2410 -1098 0
-2401 2411 919 1099 0
2401 -2411 919 1099 0
-2401 2411 -1099 0
-2412 2402 1100 920 0
-486 -2398 2409 0
-487 -2398 -2400 2408 0
-487 -2398 2410 0
-488 -2401 -2398 2408 0
-488 -2398 2411 0
-488 -2411 2401 2398 0
-2399 2410 -490 0
-2399 -2401 -491 2409 0
-2411 2399 -491 2401 0
-2400 -493 -2401 2410 0
-2400 -493 2411 0
-2411 -493 2400 2401 0
2401 -495 2402 -2412 0
-2408 2418 926 1106 0
-2408 2418 -1106 0
-2409 2419 927 1107 0
-2419 2409 1107 927 0
-2419 2409 -927 0
-2409 2419 -1107 0
-2410 2420 1108 928 0
-2410 -1108 2420 0
-2411 2421 929 1109 0
-2421 2411 1109 929 0
-2411 2421 -1109 0
1110 -2412 2422 930 0
1110 -2422 2412 930 0
-531 -2408 2419 0
-532 -2408 2420 0
-533 -2408 -2411 2418 0
-533 -2408 2421 0
-2409 -535 2420 0
-2409 -536 -2411 2419 0
-2409 -536 2421 0
-536 -2421 2409 2411 0
-2410 -538 -2411 2420 0
-2410 -538 2421 0
-2421 -538 2410 2411 0
2412 -540 2411 -2422 0
-2418 936 2428 1116 0
-2418 -1116 2428 0
-2419 2429 937 1117 0
-2429 2419 -937 0
-2419 -1117 2429 0
-2420 2430 1118 938 0
-2420 -1118 2430 0
-2421 2431 939 1119 0
-2431 2421 1119 939 0
-2421 2431 -1119 0
1120 2432 -2422 940 0
1120 -2432 2422 940 0
-576 -2418 2429 0
-577 -2418 2430 0
-2419 2430 -580 0
-2419 -581 2429 -2421 0
-2431 2421 2419 -581 0
-2421 -2420 -583 2430 0
-2421 -585 -2422 2431 0
2421 -585 2422 -2432 0
-2428 2438 946 1126 0
-2428 -1126 2438 0
-2429 2439 1127 947 0
-2429 2439 -1127 0
-2430 2440 1128 948 0
-2430 2440 -1128 0
-2441 2431 1129 949 0
1130 -2442 2432 950 0
-2428 -621 2439 0
-622 -2428 2440 0
-2429 2440 -625 0
-2430 -628 2441 0
-2431 -630 -2432 2441 0
2431 -630 2432 -2442 0
-2438 1136 2448 956 0
-2438 -1136 2448 0
-2439 1137 957 2449 0
-2439 -1137 2449 0
-2440 1138 2450 958 0
-2440 -1138 2450 0
2441 -2451 1139 959 0
1140 -2452 2442 960 0
-2435 -648 2446 0
-666 -2438 2449 0
-667 -2438 2450 0
-2439 -670 2450 0
2441 -675 2442 -2452 0
-2446 1144 964 2456 0
-2448 1146 966 2458 0
-2449 967 2459 1147 0
-2449 -1147 2459 0
-2450 1148 2460 968 0
-2450 -1148 2460 0
-2449 -716 2461 0
-2450 -718 2461 0
2451 2452 -2462 -720 0
-2475 813 993 0
-2475 -813 0
-2476 814 994 0
-2477 815 995 0
-2477 -815 0
-2478 996 816 0
2479 817 997 0
-2480 818 998 0
-2480 -818 0
-2481 999 819 0
-2482 1000 820 0
-2477 -19 0
-2481 -23 0
-2477 -25 0
-2481 -29 0
-2478 -31 0
-2481 -34 0
-2480 -37 0
-2481 -38 0
-41 2481 0
-2481 -43 0
-2485 823 1003 2475 0
-2486 824 2476 1004 0
-2486 -824 2476 0
-2487 825 1005 2477 0
-2488 -826 2478 0
2489 827 -2479 1007 0
-2490 1008 2480 828 0
-2490 -828 2480 0
2491 -2481 829 1009 0
-2491 1009 2481 829 0
1010 -2492 830 2482 0
-2486 -70 2477 0
-2487 -70 2476 2477 0
-2488 -76 2478 2477 0
-2487 -78 2480 0
-2490 -78 2480 2477 0
-2487 -79 2481 0
-83 -2491 2481 2478 0
2491 -86 -2479 0
-90 -2491 2482 0
-2495 833 2485 1013 0
-2497 1015 2487 835 0
-2498 2488 836 1016 0
2499 837 -2489 1017 0
2489 -2499 837 1017 0
-2500 838 2490 1018 0
2501 1019 839 -2491 0
-2501 1019 2491 839 0
2501 -2491 -1019 0
1020 -2502 2492 840 0
-2495 -108 2486 0
-2495 -109 2487 0
-2495 -112 2490 0
2488 -2501 2491 -128 0
-131 -2499 2491 0
2499 -2491 -2489 -131 0
2501 -131 -2489 0
-133 -2501 2490 2491 0
-2505 -843 2495 0
-2507 2497 845 1025 0
-2508 2498 846 1026 0
2509 -2499 1027 847 0
2509 -2499 -1027 0
2500 -2510 1028 848 0
2511 -2501 1029 849 0
2501 -2511 1029 849 0
-1029 2511 -2501 0
1030 -2512 2502 850 0
-173 2498 -2511 2501 0
2510 -2499 -175 0
2501 -176 -2509 0
-176 2509 -2501 -2499 0
-176 2511 -2499 0
2501 -176 -2511 2499 0
2519 -2509 857 1037 0
-2519 2509 1037 857 0
-2509 2519 -1037 0
-2510 2520 1038 858 0
-2520 2510 1038 858 0
-2510 2520 -1038 0
2521 -2511 859 1039 0
2511 -2521 1039 859 0
2521 -2511 -1039 0
1040 -2522 2512 860 0
-213 -2520 2510 2507 0
-218 2508 -2521 2511 0
-2509 2520 -220 0
-2519 2511 -221 0
-2509 -2511 -221 2519 0
-2509 2521 -221 0
-2519 2529 867 1047 0
-2529 2519 867 1047 0
2529 -2519 -1047 0
-2520 2530 1048 868 0
-2530 2520 868 1048 0
2530 -1048 -2520 0
2531 -2521 869 1049 0
-2531 2521 1049 869 0
2531 -1049 -2521 0
1050 -2532 2522 870 0
-265 2530 -2519 0
-266 -2529 2521 0
-266 -2519 -2521 2529 0
2531 -266 -2519 0
-268 2531 -2520 0
2531 -2521 -2522 -270 0
-270 -2521 2532 0
2539 -2529 877 1057 0
-2539 877 2529 1057 0
2539 -2529 -1057 0
2540 -2530 1058 878 0
-2540 2530 -878 0
-1058 2540 -2530 0
2541 -2531 879 1059 0
-2541 1059 2531 879 0
2541 -2531 -1059 0
-2532 2542 1060 880 0
-2542 1060 2532 880 0
-310 2540 -2529 0
-2531 -2529 -311 2539 0
2541 -2529 -311 0
2531 -315 2532 -2542 0
2549 1067 887 -2539 0
-2549 2539 887 1067 0
-1067 2549 -2539 0
1068 -2540 2550 888 0
-1068 -2540 2550 0
-2541 2551 1069 889 0
-2551 2541 1069 889 0
-1069 -2541 2551 0
1070 -2542 2552 890 0
1070 -2552 2542 890 0
-355 2550 -2539 0
-2541 -356 -2539 2549 0
-356 -2539 2551 0
-360 2541 2542 -2552 0
2559 -2549 897 1077 0
-2559 1077 2549 897 0
-1077 -2549 2559 0
2560 -2550 1078 898 0
-1078 2560 -2550 0
2561 -2551 899 1079 0
1079 -2561 2551 899 0
2561 -1079 -2551 0
1080 -2552 2562 900 0
1080 -2562 2552 900 0
-400 -2559 2550 0
-400 2560 -2549 0
-400 -2560 2549 2550 0
-2559 -401 2551 0
-2551 -401 -2549 2559 0
2561 -401 -2549 0
-401 -2561 2549 2551 0
-403 -2560 2551 0
-403 -2550 -2551 2560 0
-403 -2550 2561 0
-403 -2561 2550 2551 0
-405 2551 -2562 2552 0
2569 -2559 1087 907 0
-2569 2559 907 1087 0
-1087 2569 -2559 0
2570 1088 908 -2560 0
2570 -2560 -1088 0
2571 -2561 1089 909 0
-2571 2561 1089 909 0
-1089 2571 -2561 0
1090 -2562 2572 910 0
-2572 2562 1090 910 0
-445 2570 -2559 0
-446 2569 -2559 -2561 0
-446 -2559 2571 0
-2571 -450 2562 0
-2561 -450 -2562 2571 0
2561 -450 2562 -2572 0
2579 -2569 917 1097 0
-2579 2569 917 1097 0
2579 -2569 -1097 0
2580 -2570 918 1098 0
2580 -2570 -1098 0
2581 -2571 919 1099 0
-2581 2571 1099 919 0
2581 -1099 -2571 0
1100 -2572 2582 920 0
-2582 2572 1100 920 0
2580 -2569 -490 0
-2571 -491 -2569 2579 0
2581 -491 -2569 0
-2570 -493 2581 0
-495 -2581 2572 0
-495 2571 2572 -2582 0
2589 -2579 927 1107 0
-2589 2579 1107 927 0
2589 -2579 -1107 0
2590 -2580 1108 928 0
-1108 2590 -2580 0
2591 -2581 929 1109 0
-2591 2581 1109 929 0
2591 -1109 -2581 0
1110 -2582 2592 930 0
-2592 1110 2582 930 0
-535 2590 -2579 0
-536 -2579 -2581 2589 0
-536 2591 -2579 0
-2591 -540 2582 0
2599 937 1117 -2589 0
-1117 2599 -2589 0
2600 1118 -2590 938 0
-1118 2600 -2590 0
2601 1119 -2591 939 0
2591 -2601 1119 939 0
2601 -2591 -1119 0
1120 -2592 2602 940 0
-2602 2592 1120 940 0
-580 2600 -2589 0
-581 -2589 2599 -2591 0
-581 2601 -2589 0
-585 -2601 2592 0
-585 -2591 2602 0
-585 2591 2592 -2602 0
2609 947 1127 -2599 0
-1127 2609 -2599 0
2610 1128 -2600 948 0
2610 -1128 -2600 0
2611 -2601 949 1129 0
-1129 2611 -2601 0
1130 -2602 2612 950 0
-2612 2602 1130 950 0
2610 -625 -2599 0
-626 2601 -2609 0
-626 -2601 2609 -2599 0
-626 2611 -2599 0
-628 -2600 2611 0
-630 -2601 2612 0
2601 -630 2602 -2612 0
1137 -2609 957 2619 0
-1137 -2609 2619 0
-2610 1138 958 2620 0
-1138 -2610 2620 0
1139 -2611 2621 959 0
-1139 -2611 2621 0
-2612 2622 1140 960 0
-2622 2612 1140 960 0
-2605 -648 2616 0
-670 2620 -2609 0
-671 -2609 -2611 2619 0
-2621 -671 2609 2611 0
-2616 1144 964 2626 0
-2619 967 2629 1147 0
-1147 -2619 2629 0
-2620 1148 968 2630 0
-1148 -2620 2630 0
-2621 1149 969 2631 0
-2621 -1149 2631 0
2632 -2622 1150 970 0
-715 -2619 2630 0
-716 -2619 2631 0
-720 -2632 2622 2621 0
-2629 1157 977 2639 0
-1157 -2629 2639 0
-2630 1158 2640 978 0
-1158 -2630 2640 0
1160 -2632 2642 980 0
-760 -2629 2640 0
-761 -2629 2641 0
-763 -2630 2641 0
2631 2632 -2642 -765 0
2642 1170 990 0
-2639 -805 0
-2640 -808 0
-2643 811 991 0
-2645 813 993 0
-2645 -813 0
-2646 814 994 0
-2646 -814 0
2647 815 995 0
2647 -995 0
-2648 996 816 0
-2648 -816 0
2649 817 997 0
-2650 818 998 0
-2650 -818 0
-2651 999 819 0
-2652 1000 820 0
-2646 -18 0
-2648 -20 0
-2650 -22 0
-2651 -23 0
-2648 -26 0
-2650 -28 0
-2651 -29 0
-2647 -31 0
2648 -31 0
-2647 -33 0
2650 -33 0
-2647 -34 0
2651 -34 0
-2650 -37 0
-2651 -38 0
-2651 -43 0
-2653 821 1001 2643 0
-2655 823 1003 2645 0
-2655 -823 2645 0
-2656 824 1004 2646 0
-2656 -824 2646 0
825 2657 -2647 1005 0
-2657 2647 1005 825 0
-2657 -825 2647 0
2657 -1005 -2647 0
2658 826 -2648 1006 0
-2658 826 2648 1006 0
-2658 -826 2648 0
2658 -1006 -2648 0
2659 827 1007 -2649 0
-2650 2660 828 1008 0
-2660 1008 2650 828 0
-2660 -828 2650 0
-2650 2660 -1008 0
2661 -2651 829 1009 0
-2661 1009 2651 829 0
2661 -2651 -1009 0
1010 -2662 830 2652 0
-2657 2647 2643 -49 0
-2658 -50 2643 2648 0
-64 -2657 2647 2645 0
-2658 -65 2645 2648 0
-67 -2660 2645 2650 0
-2657 -70 2647 2646 0
-2658 -71 2646 2648 0
-2660 -73 2650 2646 0
-76 2658 -2647 0
-2658 -76 2647 2648 0
2660 -78 -2647 0
-79 2661 -2647 0
-82 2660 -2648 0
-2660 -82 2648 2650 0
-83 2661 -2648 0
-83 -2661 2648 2651 0
-88 -2661 2651 2650 0
-2665 833 2655 1013 0
-2665 -833 2655 0
2667 835 -2657 1015 0
2667 -1015 -2657 0
2668 1016 -2658 836 0
-2668 836 2658 1016 0
-2668 -836 2658 0
-1016 2668 -2658 0
2669 837 -2659 1017 0
2670 -2660 838 1018 0
-2670 838 2660 1018 0
2670 -2660 -1018 0
2671 -2661 839 1019 0
-2671 1019 2661 839 0
2671 -2661 -1019 0
1020 -2672 2662 840 0
-2668 -95 2653 2658 0
-2665 -108 2656 0
-110 -2668 2658 2655 0
-2665 -112 2660 0
-2668 -116 2656 2658 0
-121 2668 -2657 0
-2668 -121 2657 2658 0
-123 2670 -2657 0
-124 2671 -2657 0
2671 -128 -2658 0
-2671 -128 2661 2658 0
2669 -131 -2661 -2659 0
-133 -2670 2661 0
-133 2671 -2660 0
-133 -2671 2660 2661 0
-2675 -843 2665 0
-2667 2677 1025 845 0
-1025 -2667 2677 0
-2668 2678 1026 846 0
-2678 2668 846 1026 0
2679 -2669 847 1027 0
2679 -2669 -1027 0
2680 -2670 848 1028 0
2670 -2680 1028 848 0
2670 -2680 -848 0
2680 -2670 -1028 0
2681 -2671 849 1029 0
-2681 2671 1029 849 0
-2671 2681 -1029 0
1030 -2682 2672 850 0
-166 2678 -2667 0
-168 2680 -2667 0
-2667 2681 -169 0
-2668 -173 2681 0
-173 -2681 2671 2668 0
2679 -176 -2671 -2669 0
2681 -176 -2669 0
2681 -2670 -178 0
2670 2671 -2681 -178 0
-2677 2687 855 1035 0
-2678 2688 856 1036 0
-2688 2678 856 1036 0
-2678 2688 -1036 0
2689 -2679 857 1037 0
2689 -2679 -1037 0
-2680 2690 858 1038 0
2680 -2690 1038 858 0
-2680 2690 -1038 0
2691 -2681 859 1039 0
2681 -2691 1039 859 0
2691 -2681 -1039 0
1040 -2692 2682 860 0
2688 -211 -2677 0
-213 -2677 2690 0
-2677 2691 -214 0
-2678 -218 2691 0
-218 2681 -2691 2678 0
2680 -2689 -220 0
-2679 -2681 -221 2689 0
2691 -2679 -221 0
-2680 -223 2691 0
2680 2681 -2691 -223 0
-225 2682 -2691 0
-2687 2697 865 1045 0
-2687 -1045 2697 0
-2688 2698 866 1046 0
2698 -2688 -1046 0
-2689 2699 1047 867 0
-2699 2689 1047 867 0
2700 -2690 868 1048 0
-2700 2690 868 1048 0
2700 -2690 -1048 0
2701 -2691 869 1049 0
-2701 2691 1049 869 0
2701 -1049 -2691 0
1050 -2702 2692 870 0
-256 -2687 2698 0
-2687 -258 2700 0
-2687 -259 2701 0
-2700 -262 2688 2690 0
-2688 -263 2701 0
2690 -2699 -265 0
2700 -2689 -265 0
-2699 2691 -266 0
-266 2699 -2691 -2689 0
-2690 -268 2701 0
-2701 2691 2690 -268 0
2692 -2701 -270 0
-2697 2707 875 1055 0
-2698 2708 876 1056 0
-2698 2708 -1056 0
2709 -2699 877 1057 0
-2709 2699 877 1057 0
-2699 2709 -1057 0
-2700 2710 878 1058 0
-2710 2700 878 1058 0
-2710 2700 -878 0
-2700 2710 -1058 0
2711 -2701 1059 879 0
2701 -2711 879 1059 0
2711 -2701 -1059 0
1060 -2712 2702 880 0
-2697 -301 2708 0
-2697 -303 2710 0
-2697 -304 2711 0
-2698 2711 -308 0
2710 -2699 -310 0
-2699 2709 -2701 -311 0
2701 2699 -311 -2711 0
-2710 2701 -313 0
-2700 -2701 -313 2710 0
-2700 2711 -313 0
2700 -2711 -313 2701 0
-2711 -315 2702 0
-2707 2717 1065 885 0
-2708 2718 1066 886 0
-2708 -1066 2718 0
2719 -2709 887 1067 0
-2709 2719 -1067 0
-2710 2720 888 1068 0
-2720 2710 1068 888 0
-2710 2720 -1068 0
2721 -2711 889 1069 0
2711 -2721 1069 889 0
2721 -1069 -2711 0
1070 -2722 2712 890 0
-2707 -346 2718 0
-2707 -348 2720 0
-2707 -349 2721 0
-2708 -353 2721 0
-2719 -355 2710 0
2719 -356 -2711 -2709 0
-2721 -356 2709 2711 0
-2710 2721 -358 0
-2717 2727 895 1075 0
-2718 2728 896 1076 0
-2728 2718 1076 896 0
-2718 2728 -1076 0
2729 -2719 1077 897 0
-2729 2719 1077 897 0
-1077 2729 -2719 0
-2720 2730 898 1078 0
2720 -2730 1078 898 0
-2720 -1078 2730 0
2731 -2721 899 1079 0
2721 -2731 899 1079 0
2731 -2721 -1079 0
-2732 2722 1080 900 0
-391 -2717 2728 0
-2717 -393 2730 0
-2717 -394 2731 0
-2718 -398 2731 0
2729 -2721 -401 -2719 0
-2719 2731 -401 0
-2720 2731 -403 0
-2731 -405 2722 0
-2727 2737 905 1085 0
-1085 -2727 2737 0
-2728 2738 906 1086 0
-2729 2739 907 1087 0
-2730 2740 908 1088 0
-2730 2740 -1088 0
2741 -2731 1089 909 0
2731 -2741 1089 909 0
2741 -1089 -2731 0
1090 -2732 2742 910 0
1090 -2742 2732 910 0
-436 -2727 2738 0
-2727 -439 2741 0
2738 -443 -2731 -2728 0
-2728 -443 2741 0
-2739 -446 2731 0
-2729 -446 -2731 2739 0
-2729 -446 2741 0
2729 -446 -2741 2731 0
-2740 -448 2731 0
-2730 -448 -2731 2740 0
-2730 -448 2741 0
-448 -2741 2730 2731 0
-2741 2732 -450 0
-2737 2747 915 1095 0
2749 -2739 1097 917 0
-2749 2739 917 1097 0
-2739 2749 -1097 0
-2740 2750 918 1098 0
-2750 2740 1098 918 0
-2740 2750 -1098 0
2751 -2741 919 1099 0
2741 -2751 919 1099 0
2751 -1099 -2741 0
1100 -2752 2742 920 0
-481 -2737 2748 0
-2738 -487 2750 0
-2738 -488 -2741 2748 0
-2738 -488 2751 0
-2749 2741 -491 0
-2739 -491 -2741 2749 0
-2750 -493 2741 0
-2740 -493 2751 0
-2751 -495 2742 0
-2747 2757 1105 925 0
-2748 2758 926 1106 0
2759 -2749 1107 927 0
-2759 2749 1107 927 0
-2759 2749 -927 0
-2750 2760 928 1108 0
-2760 2750 928 1108 0
-2760 2750 -928 0
-2750 2760 -1108 0
2761 -2751 929 1109 0
2751 -2761 1109 929 0
2761 -1109 -2751 0
1110 -2762 2752 930 0
-2748 -532 2760 0
2760 -535 -2749 0
-2759 -536 2751 0
-2749 -536 -2751 2759 0
-536 2751 2749 -2761 0
-2760 -538 2751 0
-2750 -538 2761 0
-2761 -540 2752 0
-2757 2767 1115 935 0
-2758 2768 936 1116 0
2769 -2759 937 1117 0
-2769 2759 937 1117 0
-2769 2759 -937 0
-2760 2770 1118 938 0
-2770 2760 1118 938 0
-2771 2761 1119 939 0
1120 -2772 2762 940 0
2770 -580 -2759 0
-2769 -581 2761 0
-581 -2759 -2761 2769 0
2771 -581 -2759 0
2759 -581 2761 -2771 0
2760 -583 -2771 2761 0
-585 -2771 2762 0
-2767 2777 1125 945 0
-2768 2778 946 1126 0
2779 -2769 947 1127 0
2769 -2779 1127 947 0
-2769 2779 -1127 0
-2770 2780 948 1128 0
2770 -2780 1128 948 0
2771 -2781 1129 949 0
1130 -2782 2772 950 0
2770 -2779 -625 0
2769 -626 -2781 2771 0
2770 2771 -628 -2781 0
-2781 -630 2772 0
-2777 1135 955 2787 0
-2778 1136 956 2788 0
-2779 1137 2789 957 0
-2789 2779 1137 957 0
-2780 1138 958 2790 0
2780 -2790 958 1138 0
2781 1139 -2791 959 0
2781 -959 -2791 0
-2775 -648 2786 0
2779 2781 -2791 -671 0
2780 2781 -673 -2791 0
-2791 -675 2782 0
-2789 967 2799 1147 0
2791 1149 -2801 969 0
2791 2789 -716 -2801 0
2791 2790 -718 -2801 0
2801 1159 -2811 979 0
-2805 -1163 0
2811 1169 989 0
-2805 -783 0
-2815 813 993 0
-2816 814 994 0
-2817 815 995 0
-2817 -815 0
2818 996 816 0
2818 -996 0
2819 817 997 0
-2820 818 998 0
-2820 -818 0
-2821 999 819 0
-2822 1000 820 0
-2815 -18 0
-2820 -33 0
-2821 -34 0
-2818 -37 0
2820 -37 0
-2818 -38 0
2821 -38 0
-2821 -43 0
-2825 823 2815 1003 0
-2826 824 2816 1004 0
-2826 -824 2816 0
-2827 825 1005 2817 0
2828 826 -2818 1006 0
2828 -1006 -2818 0
2829 827 1007 -2819 0
2830 -2820 1008 828 0
-2830 1008 2820 828 0
-2820 2830 -1008 0
2831 -2821 829 1009 0
-2831 1009 2821 829 0
2831 -1009 -2821 0
1010 -2832 830 2822 0
-2826 -70 2817 0
-2830 -78 2817 2820 0
-79 -2831 2821 2817 0
2830 -82 -2818 0
-83 2831 -2818 0
2831 -86 -2819 0
-2830 -88 2821 0
-2820 -88 2831 0
-88 -2831 2820 2821 0
-2835 833 2825 1013 0
-2835 -833 2825 0
-2837 1015 2827 835 0
2838 836 -2828 1016 0
2838 -1016 -2828 0
2839 837 -2829 1017 0
2840 -2830 838 1018 0
-2840 838 2830 1018 0
2840 -2830 -1018 0
2841 1019 839 -2831 0
-2841 1019 2831 839 0
2841 -2831 -1019 0
1020 -2842 2832 840 0
-2835 -108 2826 0
-2835 -112 2830 0
-2840 -123 2830 2827 0
-124 -2841 2831 2827 0
-127 2840 -2828 0
2841 -128 -2828 0
2839 -131 -2831 -2829 0
2841 -131 -2829 0
-2840 -133 2831 0
-2830 -133 2841 0
-133 -2841 2831 2830 0
-2845 -843 2835 0
-2847 2837 845 1025 0
-2838 2848 1026 846 0
-2838 2848 -1026 0
2849 -2839 847 1027 0
2849 -2839 -1027 0
-2840 2850 848 1028 0
2840 -2850 1028 848 0
-2840 2850 -1028 0
2851 -2841 849 1029 0
-2851 2841 849 1029 0
2851 -1029 -2841 0
1030 -2852 2842 850 0
-168 2840 -2850 2837 0
2837 2841 -2851 -169 0
-2838 -172 2850 0
-2838 -173 2851 0
-2839 -176 -2841 2849 0
2851 -176 -2839 0
-2840 2851 -178 0
2840 2841 -2851 -178 0
-2857 2847 855 1035 0
-2848 2858 856 1036 0
2858 -2848 -1036 0
2859 -2849 857 1037 0
2859 -2849 -1037 0
-2850 2860 858 1038 0
2850 -2860 1038 858 0
-2850 2860 -1038 0
2861 -2851 859 1039 0
2851 -2861 1039 859 0
2861 -2851 -1039 0
1040 -2862 2852 860 0
-213 -2860 2850 2847 0
2851 -2861 -214 2847 0
-217 -2848 2860 0
-2858 -218 2851 0
-218 -2848 2861 0
-2858 2852 -219 0
-2851 2859 -221 -2849 0
2861 -2849 -221 0
-2860 -223 2851 0
-2850 -223 2861 0
2850 2851 -2861 -223 0
-225 2852 -2861 0
-2867 2857 865 1045 0
-2858 2868 866 1046 0
-2858 2868 -1046 0
-2859 2869 867 1047 0
-2859 2869 -1047 0
-2860 2870 868 1048 0
-2870 2860 1048 868 0
-2860 2870 -1048 0
2871 -2861 869 1049 0
-2871 2861 1049 869 0
2871 -1049 -2861 0
1050 -2872 2862 870 0
-258 -2870 2857 2860 0
2857 -259 -2871 2861 0
-262 -2858 2870 0
-2858 -263 2871 0
2860 -2869 -265 0
-2860 -2859 -265 2869 0
-2869 2861 -266 0
-2859 -266 -2861 2869 0
2871 -2859 -266 0
-2870 -268 2861 0
-2860 -268 -2861 2870 0
-2860 2871 -268 0
-2871 2861 2860 -268 0
-2868 2878 876 1056 0
-2868 2878 -1056 0
2879 -2869 877 1057 0
-2869 2879 -1057 0
-2870 2880 878 1058 0
-2880 2870 1058 878 0
-2880 2870 -878 0
-2870 2880 -1058 0
2881 -2871 879 1059 0
2871 -2881 1059 879 0
2881 -2871 -1059 0
1060 -2882 2872 880 0
-2880 -303 2870 2867 0
-307 -2868 2880 0
-2878 2871 -308 0
-2868 2881 -308 0
-2879 2870 -310 0
-2870 -2869 -310 2879 0
2880 -2869 -310 0
-2869 2879 -2871 -311 0
2881 -2869 -311 0
-2880 2871 -313 0
-2870 -2871 -313 2880 0
-2870 2881 -313 0
-2881 2870 -313 2871 0
-2881 -315 2872 0
2871 -315 2872 -2882 0
-2878 2888 1066 886 0
-1066 -2878 2888 0
2889 -2879 887 1067 0
-2889 2879 1067 887 0
2889 -2879 -1067 0
-2880 2890 888 1068 0
-2890 2880 1068 888 0
-2880 2890 -1068 0
2891 -2881 889 1069 0
2881 -2891 889 1069 0
2891 -2881 -1069 0
1070 -2892 2882 890 0
-2878 -352 2890 0
-2888 -353 2881 0
-2878 -353 2891 0
-355 -2879 2890 0
-2889 2881 -356 0
-2879 -356 -2881 2889 0
2891 -2879 -356 0
-2890 -358 2881 0
-2880 -358 -2881 2890 0
-2880 2891 -358 0
2880 -358 -2891 2881 0
-2891 -360 2882 0
-2885 2895 893 1073 0
-2887 2897 895 1075 0
-2888 2898 896 1076 0
-2888 2898 -1076 0
2899 -2889 1077 897 0
-2899 2889 1077 897 0
-1077 2899 -2889 0
-2890 2900 898 1078 0
2890 -2900 1078 898 0
2890 -2900 -898 0
-2890 -1078 2900 0
2901 -2891 899 1079 0
2891 -2901 899 1079 0
2901 -2891 -1079 0
1080 -2902 2892 900 0
-2888 -397 2900 0
-398 -2888 2901 0
2890 -400 -2899 0
2891 -2899 -401 0
2899 -2891 -401 -2889 0
2901 -2889 -401 0
2891 2889 -401 -2901 0
-2900 2891 -403 0
2900 -403 -2891 -2890 0
-2890 2901 -403 0
2891 2890 -403 -2901 0
-2901 -405 2892 0
2891 -405 -2902 2892 0
-2895 2905 903 1083 0
-2897 2907 905 1085 0
-2898 2908 906 1086 0
-1086 -2898 2908 0
-2899 2909 907 1087 0
-2909 2899 907 1087 0
-2899 2909 -1087 0
-2900 2910 908 1088 0
-2910 2900 1088 908 0
-2900 2910 -1088 0
2911 -2901 1089 909 0
2901 -2911 1089 909 0
2911 -1089 -2901 0
1090 -2912 2902 910 0
-2898 -442 2910 0
-2898 2911 -443 0
-2900 -445 -2899 2909 0
2901 -446 -2909 0
-2899 -446 -2901 2909 0
2911 -446 -2899 0
2899 -446 -2911 2901 0
-2910 2901 -448 0
-2900 -448 -2901 2910 0
-2900 2911 -448 0
-448 -2911 2900 2901 0
-2911 2902 -450 0
2901 2902 -450 -2912 0
-2908 2918 1096 916 0
-2908 -1096 2918 0
2919 -2909 1097 917 0
-2919 2909 917 1097 0
-2909 2919 -1097 0
-2910 2920 918 1098 0
-2920 2910 1098 918 0
-2910 2920 -1098 0
2921 -2911 919 1099 0
2911 -2921 1099 919 0
2921 -1099 -2911 0
1100 -2922 2912 920 0
-2908 -487 2920 0
-2908 -488 2921 0
-2909 -491 -2911 2919 0
2921 -2909 -491 0
2911 2909 -491 -2921 0
-2910 -493 -2911 2920 0
-2910 -493 2921 0
2911 -493 2910 -2921 0
-2921 -495 2912 0
-2918 2928 1106 926 0
2929 -2919 1107 927 0
2929 -2919 -1107 0
-2920 2930 928 1108 0
-2930 2920 -928 0
-2920 2930 -1108 0
2931 -2921 929 1109 0
2931 -1109 -2921 0
1110 -2932 2922 930 0
-2918 -533 2931 0
2930 -535 -2919 0
-2929 -536 2921 0
-2919 -536 -2921 2929 0
-2919 -536 2931 0
-536 2921 2919 -2931 0
-2920 -538 -2921 2930 0
-538 2921 -2931 2920 0
-2931 -540 2922 0
-2928 2938 936 1116 0
2939 -2929 937 1117 0
-2939 2929 1117 937 0
2939 -1117 -2929 0
-2930 2940 1118 938 0
-2940 2930 1118 938 0
2941 -2931 939 1119 0
-2941 2931 1119 939 0
1120 -2942 2932 940 0
-2930 -580 -2929 2939 0
2940 -580 -2929 0
-2939 -581 2931 0
-581 -2929 -2931 2939 0
-585 -2941 2932 0
2931 -585 2932 -2942 0
-2938 2948 946 1126 0
2949 -2939 947 1127 0
2939 -2949 1127 947 0
2949 -2939 -1127 0
-2940 2950 948 1128 0
2951 -2941 949 1129 0
-2952 2942 1130 950 0
2939 -626 -2951 2941 0
-2951 -630 2942 0
-2948 1136 2958 956 0
-2949 1137 2959 957 0
-2949 -1137 2959 0
-2950 1138 958 2960 0
-2945 -648 2956 0
2949 2951 -671 -2961 0
-2959 967 2969 1147 0
-2969 1157 977 2979 0
-2975 -1163 0
-2975 -783 0
-2983 811 991 0
-2984 812 992 0
-2985 813 993 0
-2985 -813 0
-2986 814 994 0
-2986 -814 0
2987 815 995 0
2988 996 816 0
2989 817 997 0
-2990 818 998 0
-2990 -818 0
-2991 999 819 0
-2992 1000 820 0
-2986 -18 0
-2990 -22 0
-2990 -28 0
-2987 -33 0
-2987 -34 0
2991 -34 0
-2991 -43 0
-2993 821 1001 2983 0
-2993 -821 2983 0
-2994 822 1002 2984 0
-2995 823 1003 2985 0
-2996 824 2986 1004 0
-2996 -824 2986 0
2997 825 -2987 1005 0
2998 826 -2988 1006 0
2999 827 1007 -2989 0
-3000 1008 2990 828 0
-3000 -828 2990 0
3001 -2991 829 1009 0
-3001 1009 2991 829 0
1010 -3002 830 2992 0
-2996 2987 -70 0
-88 -3001 2990 2991 0
831 -3003 2993 1011 0
-3003 -831 2993 0
-3004 1012 832 2994 0
-3005 833 2995 1013 0
-3005 -833 2995 0
-3006 834 2996 1014 0
3007 835 -2997 1015 0
3008 -2998 836 1016 0
3009 837 -2999 1017 0
-3010 838 3000 1018 0
3011 -3001 839 1019 0
-3011 1019 3001 839 0
1020 -3012 3002 840 0
-3004 -91 2993 2994 0
-3005 -108 2996 0
-3005 -112 3000 0
3011 -124 -2997 0
-133 -3011 3000 3001 0
-3014 3004 842 1022 0
-3014 -842 3004 0
-3015 -843 3005 0
-3016 3006 1024 844 0
3017 -3007 845 1025 0
3018 -3008 846 1026 0
3019 -3009 847 1027 0
3010 -3020 1028 848 0
3021 -3011 849 1029 0
-3021 3011 849 1029 0
1030 -3022 3012 850 0
-3014 -136 3003 3004 0
-168 3020 -3007 0
-3008 -172 3020 0
3010 3011 -3021 -178 0
-3024 3014 852 1032 0
-3024 3014 -852 0
-3026 3016 1034 854 0
3027 -3017 855 1035 0
-3018 3028 856 1036 0
-3018 3028 -1036 0
3029 -3019 857 1037 0
-3020 3030 858 1038 0
3020 -3030 1038 858 0
3031 -3021 859 1039 0
3021 -3031 1039 859 0
1040 -3032 3022 860 0
-215 -3027 3022 0
-3028 -218 3021 0
3031 -3019 -221 0
-3020 -223 3031 0
3020 3021 -3031 -223 0
-3034 3024 1042 862 0
-3034 3024 -862 0
-3036 3026 1044 864 0
-3027 3037 865 1045 0
-3028 3038 866 1046 0
-3038 3028 1046 866 0
3038 -3028 -1046 0
3039 -3029 867 1047 0
-3030 3040 868 1048 0
-3040 3030 868 1048 0
3041 -3031 869 1049 0
3031 -3041 869 1049 0
1050 -3042 3032 870 0
-3027 -258 3040 0
-3038 -263 3031 0
-3040 3031 -268 0
3030 3031 -3041 -268 0
-3044 3034 1052 872 0
-3044 -872 3034 0
-3046 3036 1054 874 0
-3037 3047 875 1055 0
-3038 3048 876 1056 0
-3048 3038 1056 876 0
3049 -3039 877 1057 0
-3040 3050 878 1058 0
-3050 3040 1058 878 0
-3050 3040 -878 0
3051 -3041 879 1059 0
3041 -3051 1059 879 0
1060 -3052 3042 880 0
-3038 -3037 3047 -301 0
-3038 -307 3050 0
-3048 3041 -308 0
-3050 3041 -313 0
-3054 3044 882 1062 0
-3054 3044 -882 0
-3056 3046 884 1064 0
-3047 3057 1065 885 0
-3058 3048 1066 886 0
-3048 -1066 3058 0
3059 -3049 887 1067 0
3060 -3050 888 1068 0
-3060 3050 1068 888 0
3061 -3051 889 1069 0
3051 -3061 889 1069 0
1070 -3062 3052 890 0
-3050 3057 -348 -3047 0
-3060 3051 -358 0
3051 -358 3050 -3061 0
-3061 -360 3052 0
-3064 3054 1072 892 0
-3064 -892 3054 0
-3066 3056 1074 894 0
-3057 3067 895 1075 0
-3068 3058 1076 896 0
-3068 -896 3058 0
3069 -3059 1077 897 0
-3070 3060 1078 898 0
3061 -3071 899 1079 0
3071 -3061 -1079 0
-3072 3062 1080 900 0
-3058 -391 3067 -3057 0
-393 -3060 3067 -3057 0
-3068 -398 3061 0
3061 -3069 -401 0
3071 -3059 -401 0
-3070 3061 -403 0
-3060 3071 -403 0
-3071 -405 3062 0
-3076 3066 1084 904 0
-3067 3077 905 1085 0
-3078 3068 1086 906 0
-3069 3079 907 1087 0
-3080 3070 1088 908 0
3071 -3081 1089 909 0
1090 -3072 3082 910 0
1090 -3082 3072 910 0
3068 -442 -3080 3070 0
-3078 3071 -443 0
-445 -3080 3070 3069 0
3071 -446 -3079 0
3071 -448 -3080 0
-448 -3081 3070 3071 0
-3081 -450 3072 0
-3077 3087 1095 915 0
-3088 3078 1096 916 0
3089 -3079 917 1097 0
-3090 3080 1098 918 0
3081 -3091 919 1099 0
1100 -3092 3082 920 0
3080 -3090 3076 -478 0
-3088 -488 3081 0
3080 -3090 3079 -490 0
-3089 3081 -491 0
3081 -3090 -493 0
-3091 -495 3082 0
-3087 3097 1105 925 0
-3088 3098 1106 926 0
-3098 3088 926 1106 0
3090 -3100 928 1108 0
3090 -3100 -928 0
3091 -3101 1109 929 0
1110 -3102 3092 930 0
-532 -3100 3090 3088 0
3090 -3100 -535 3089 0
-3099 -536 3091 0
-538 3091 -3100 0
-3101 -540 3092 0
-3097 3107 935 1115 0
-3098 3108 1116 936 0
-3108 3098 936 1116 0
-3110 3100 1118 938 0
1120 -3112 3102 940 0
-3110 3100 3099 -580 0
-3109 -581 3101 0
-3111 -585 3102 0
-3107 3117 1125 945 0
-3108 3118 1126 946 0
-3118 3108 946 1126 0
3110 -3120 948 1128 0
3111 -3121 1129 949 0
-3122 3112 1130 950 0
3110 3109 -625 -3120 0
-3119 3111 -626 0
-3120 3111 -628 0
-3121 -630 3112 0
-3117 3127 955 1135 0
-3118 3128 956 1136 0
-3128 3118 1136 956 0
-3130 3120 1138 958 0
3121 1139 -3131 959 0
-3132 3122 1140 960 0
-3115 -648 3126 0
3118 -667 -3130 3120 0
3119 -3130 3120 -670 0
-3129 3121 -671 0
3121 -3130 -673 0
-3131 -675 3122 0
3131 1149 -3141 969 0
-3142 3132 1150 970 0
3128 -712 -3140 3130 0
3129 3130 -715 -3140 0
3131 -718 -3140 0
-720 -3141 3132 0
3141 1159 -3151 979 0
1160 -3152 3142 980 0
3151 1169 989 0
3152 -810 0
-3153 811 991 0
-3156 814 994 0
-3157 815 995 0
-3157 -815 0
-3158 996 816 0
-3159 817 997 0
-3160 818 998 0
-3160 -818 0
3161 999 819 0
3161 -999 0
-3162 1000 820 0
-3155 -18 0
-3163 821 1001 3153 0
-3165 3155 823 1003 0
-3166 824 3156 1004 0
-3166 -824 3156 0
-3167 -825 3157 0
-3168 -826 3158 0
-3169 827 1007 3159 0
-3170 1008 3160 828 0
-3170 -828 3160 0
3171 1009 -3161 829 0
3171 -1009 -3161 0
1010 -3172 830 3162 0
-3166 -70 3157 0
-3167 -70 3156 3157 0
-3167 -78 3160 0
-3175 3165 833 1013 0
-3179 837 3169 1017 0
-3180 838 3170 1018 0
3181 1019 839 -3171 0
3181 -1019 -3171 0
1020 -3182 3172 840 0
-3178 3168 -95 3163 0
-3175 -108 3166 0
-3175 -109 3167 0
-3175 -112 3170 0
-3185 -843 3175 0
-3188 3178 846 1026 0
-3189 3179 847 1027 0
-3190 3180 1028 848 0
3191 -3181 849 1029 0
3191 -1029 -3181 0
1030 -3192 3182 850 0
-3199 3189 857 1037 0
-3200 3190 858 1038 0
3201 -3191 859 1039 0
3201 -3191 -1039 0
1040 -3202 3192 860 0
-3201 3191 -221 3189 0
-3209 3199 867 1047 0
-3210 3200 868 1048 0
3211 -3201 869 1049 0
3211 -1049 -3201 0
1050 -3212 3202 870 0
3202 3201 -270 -3212 0
-3219 3209 877 1057 0
-3220 3210 -878 0
-3211 3221 879 1059 0
-3211 3221 -1059 0
1060 -3222 3212 880 0
-315 3211 3212 -3222 0
-3229 3219 887 1067 0
-3221 3231 1069 889 0
-3221 3231 -1069 0
1070 -3232 3222 890 0
-3239 3229 1077 897 0
-3231 3241 899 1079 0
-3231 3241 -1079 0
1080 -3242 3232 900 0
-3249 3239 907 1087 0
-3241 3251 909 1089 0
-3241 -1089 3251 0
1090 -3252 3242 910 0
3241 -3251 3239 -446 0
3241 3242 -450 -3252 0
-3259 3249 917 1097 0
3261 -3251 919 1099 0
1100 -3262 3252 920 0
-3261 3251 -491 3249 0
3251 -495 -3262 3252 0
1110 -3272 3262 930 0
-3271 -536 3259 3261 0
3261 -540 -3272 3262 0
1120 -3282 3272 940 0
3271 -585 3272 -3282 0
-3285 -648 3296 0
-3296 1144 964 3306 0
-3326 814 994 0
-3329 817 997 0
-3331 999 819 0
3332 1000 820 0
-3328 -31 0
-3330 -33 0
-3331 -34 0
-3331 -38 0
-3331 -41 0
-3339 827 1007 3329 0
-3340 828 3330 1008 0
-3341 1009 829 3331 0
1010 3342 830 -3332 0
-1010 3342 -3332 0
-3340 3327 -78 3330 0
-3341 -86 3331 3329 0
-3349 837 3339 1017 0
-3350 3340 838 1018 0
-3351 1019 3341 839 0
1020 -3342 3352 840 0
3352 -1020 -3342 0
-3350 -123 3337 3340 0
-3351 -124 3341 3337 0
-3351 -131 3341 3339 0
-3351 -133 3340 3341 0
-3359 3349 847 1027 0
-3360 3350 848 1028 0
-3361 3351 1029 849 0
1030 -3352 3362 850 0
-1030 3362 -3352 0
-3360 -168 3347 3350 0
-3369 3359 857 1037 0
-3370 3360 1038 858 0
-3371 3361 859 1039 0
1040 -3362 3372 860 0
-1040 3372 -3362 0
-3370 -213 3357 3360 0
-3371 -218 3358 3361 0
-3379 3369 867 1047 0
-3379 -867 3369 0
-3380 3370 868 1048 0
-3381 3371 1049 869 0
1050 -3372 3382 870 0
-3372 -1050 3382 0
-3380 -258 3367 3370 0
-3381 3371 -266 3369 0
-3389 3379 877 1057 0
-3389 -877 3379 0
-3390 3380 878 1058 0
-3391 3381 879 1059 0
1060 -3382 3392 880 0
-1060 3392 -3382 0
-3388 -301 3377 3378 0
-3390 -310 3380 3379 0
-3398 3388 886 1066 0
-3399 3389 887 1067 0
3390 -3400 888 1068 0
-3401 3391 1069 889 0
1070 -3392 3402 890 0
3402 -1070 -3392 0
-3409 3399 1077 897 0
898 3410 -3400 1078 0
-3410 3400 1078 898 0
-3410 3400 -898 0
-1078 -3400 3410 0
-3411 3401 899 1079 0
1080 -3402 3412 900 0
-3402 -1080 3412 0
-3410 3401 -403 0
-403 -3400 3411 0
-3409 3419 907 1087 0
3409 -3419 907 1087 0
3409 -907 -3419 0
-3410 3420 908 1088 0
-3420 1088 3410 908 0
-3421 3411 1089 909 0
1090 -3412 3422 910 0
-3412 -1090 3422 0
3429 -3419 1097 917 0
-3429 3419 917 1097 0
-1097 3429 -3419 0
-3430 3420 1098 918 0
-3431 3421 1099 919 0
1100 -3422 3432 920 0
-3422 -1100 3432 0
-490 -3419 3430 0
-491 -3419 3431 0
-3430 -493 3421 0
-3439 1107 3429 927 0
-3440 -928 3430 0
-3441 3431 1109 929 0
1110 -3432 3442 930 0
-3432 -1110 3442 0
-3449 3439 -937 0
-3450 3440 1118 938 0
-3451 3441 939 1119 0
-3442 3452 1120 940 0
3452 -1120 -3442 0
-3452 3462 1130 950 0
3462 -1130 -3452 0
3451 -3462 3452 -630 0
-3462 3472 1140 960 0
-3472 3482 1150 970 0
3471 -3482 3472 -720 0
3481 3482 -3492 -765 0
3492 1170 990 0
3491 -810 3492 0
3493 811 991 0
-3494 812 992 0
-3495 813 993 0
-3495 -813 0
-3496 814 994 0
-3496 -814 0
-3497 815 995 0
-3497 -815 0
-3498 996 816 0
-3498 -816 0
-3499 817 997 0
-3500 818 998 0
-3500 -818 0
-3501 999 819 0
-3496 -18 0
-3497 -19 0
-3498 -20 0
-3500 -22 0
-3501 -23 0
-3497 -25 0
-3498 -26 0
-3500 -28 0
-3501 -29 0
-3498 -31 0
-3500 -33 0
-3501 -34 0
-3500 -37 0
-3501 -38 0
-3501 -43 0
3503 821 1001 -3493 0
-3504 822 1002 3494 0
-3505 823 3495 1003 0
-823 -3505 3495 0
-3506 824 1004 3496 0
-824 -3506 3496 0
825 -3507 1005 3497 0
-825 -3507 3497 0
-3508 826 3498 1006 0
-826 -3508 3498 0
-3509 827 1007 3499 0
-3510 1008 3500 828 0
-828 -3510 3500 0
-3511 1009 3501 829 0
-3503 -47 3495 0
3505 -47 -3493 0
-3503 -48 3496 0
3506 -48 -3493 0
-3503 -49 3497 0
3507 -49 -3493 0
-3503 -50 3498 0
3508 -50 -3493 0
-63 -3506 3496 3495 0
-64 3495 -3507 3497 0
-65 -3508 3495 3498 0
-67 -3510 3495 3500 0
-3511 -68 3495 3501 0
-70 3496 -3507 3497 0
-71 -3508 3498 3496 0
-73 -3510 3496 3500 0
-3511 -74 3496 3501 0
-76 -3508 3497 3498 0
-3510 -78 3497 3500 0
-3511 -79 3501 3497 0
-3510 -82 3498 3500 0
-83 -3508 3501 0
-3511 -83 3498 3501 0
-3511 -88 3500 3501 0
831 3513 -3503 1011 0
831 -3513 3503 1011 0
-3514 1012 832 3504 0
3515 833 -3505 1013 0
-3515 833 3505 1013 0
-3515 -833 3505 0
3516 1014 -3506 834 0
-3516 834 3506 1014 0
-3516 -834 3506 0
3517 835 -3507 1015 0
-3517 1015 3507 835 0
-3517 -835 3507 0
3517 -1015 -3507 0
3518 1016 -3508 836 0
-3518 836 3508 1016 0
-3518 -836 3508 0
-1016 3518 -3508 0
-3519 837 3509 1017 0
-3520 838 3510 1018 0
-3520 -838 3510 0
-3521 1019 3511 839 0
-91 3504 -3513 0
-92 3515 -3503 0
-93 3516 -3503 0
-94 3517 -3503 0
-95 3508 -3513 0
-95 3518 -3503 0
-3518 -95 3503 3508 0
-3516 -108 3506 3505 0
-3517 -109 3507 3505 0
-110 -3518 3508 3505 0
-3520 -112 3505 3510 0
-113 -3521 3505 3511 0
-3517 -115 3507 3506 0
-116 -3518 3508 3506 0
-3520 -118 3506 3510 0
-119 -3521 3506 3511 0
-3517 -121 3508 0
-121 -3518 3507 3508 0
-3517 -123 3510 0
-3520 -123 3510 3507 0
-124 -3517 3511 0
-3521 -124 3507 3511 0
-127 -3518 3510 0
-3520 -127 3508 3510 0
-3518 -128 3511 0
-3521 -128 3511 3508 0
-3519 -131 3511 0
-3521 -131 3511 3509 0
-3521 -133 3510 3511 0
841 3523 -3513 1021 0
841 -3523 3513 1021 0
-3524 3514 842 1022 0
-3515 3525 1023 843 0
3515 -3525 1023 843 0
-843 3515 -3525 0
-3516 3526 1024 844 0
3516 -3526 1024 844 0
-844 3516 -3526 0
-3517 3527 1025 845 0
3517 -3527 845 1025 0
3517 -3527 -845 0
-3518 3528 1026 846 0
3518 -3528 846 1026 0
-846 3518 -3528 0
-3518 3528 -1026 0
-3529 3519 847 1027 0
-3529 -847 3519 0
-3520 3530 848 1028 0
-3530 3520 1028 848 0
-3530 3520 -848 0
3521 -3531 1029 849 0
-3524 -136 3513 3514 0
-137 3525 -3513 0
-138 3516 -3523 0
-138 3526 -3513 0
-139 3527 -3513 0
-3518 -140 -3513 3523 0
3528 -140 -3513 0
-153 3516 -3525 0
-153 3515 -3526 3516 0
-154 -3527 3517 3515 0
-155 3518 -3528 3515 0
-3530 -157 3515 3520 0
-158 -3531 3515 3521 0
-160 -3527 3516 3517 0
-161 3518 -3528 3516 0
-3530 -163 3516 3520 0
-164 -3531 3516 3521 0
-166 -3517 3528 0
-166 3518 -3528 3517 0
-3530 -168 3517 3520 0
3531 -3517 -169 0
3521 -169 3517 -3531 0
-3529 -171 3518 3519 0
-172 3520 -3528 0
-3530 -172 3518 3520 0
3521 -173 -3528 0
3531 -3518 -173 0
3521 -173 3518 -3531 0
-3530 3520 -175 3519 0
-3529 3521 -176 0
-3531 3521 -176 3519 0
3521 3520 -3531 -178 0
851 3533 -3523 1031 0
851 -3533 3523 1031 0
-3524 3534 1032 852 0
-3534 3524 852 1032 0
-3525 3535 853 1033 0
-3535 3525 853 1033 0
-3526 3536 854 1034 0
-3527 3537 1035 855 0
-3537 3527 855 1035 0
-3537 3527 -855 0
-3528 3538 856 1036 0
-3538 3528 856 1036 0
-1036 -3528 3538 0
-3539 3529 857 1037 0
-3539 3529 -857 0
-3530 3540 1038 858 0
-3540 3530 858 1038 0
3541 -3531 1039 859 0
3531 -3541 1039 859 0
-181 3534 -3523 0
3535 -182 -3523 0
3536 -183 -3523 0
3537 -184 -3523 0
-185 3538 -3523 0
-3538 -200 3525 3528 0
-201 -3525 3539 0
-206 -3538 3526 3528 0
-207 -3526 3539 0
-211 -3527 3538 0
-3538 -211 3528 3527 0
-212 -3527 3539 0
-3540 -213 3530 3527 0
-3537 3531 -214 0
-3541 3527 -214 3531 0
-216 -3528 3539 0
-217 3540 -3528 0
-3540 -217 3530 3528 0
3541 -218 -3528 0
-218 -3541 3528 3531 0
-3540 3530 -220 3529 0
3531 -3541 -221 3529 0
3530 -223 -3541 3531 0
861 3543 -3533 1041 0
-3534 3544 862 1042 0
-3544 3534 862 1042 0
-3535 3545 863 1043 0
-3545 3535 863 1043 0
-3536 3546 864 1044 0
-3537 3547 865 1045 0
-3547 3537 1045 865 0
-3538 3548 866 1046 0
-3548 3538 1046 866 0
-3538 -1046 3548 0
-3539 3549 867 1047 0
-3549 3539 867 1047 0
-3549 -867 3539 0
-3540 3550 868 1048 0
-3550 3540 868 1048 0
3551 -3541 869 1049 0
3541 -3551 869 1049 0
-227 -3533 3545 0
-3533 -228 3546 0
-3533 -229 3547 0
-230 -3533 3548 0
-256 -3548 3537 3538 0
-3550 -258 3540 3537 0
-3551 -259 3537 3541 0
-3550 -262 3538 3540 0
-263 -3551 3538 3541 0
-3549 -265 3540 0
-3550 -265 3539 3540 0
3541 -3549 -266 0
3541 -3551 -266 3539 0
3541 -268 3540 -3551 0
871 -3543 3553 1051 0
-3544 3554 872 1052 0
-3554 3544 1052 872 0
-3545 3555 873 1053 0
-3555 3545 873 1053 0
-3546 3556 874 1054 0
-3547 3557 875 1055 0
-3557 3547 875 1055 0
-3548 3558 876 1056 0
-3558 3548 876 1056 0
-3549 3559 877 1057 0
-3559 3549 877 1057 0
-3559 3549 -877 0
-3550 3560 1058 878 0
-3560 3550 1058 878 0
-3560 3550 -878 0
3551 -3561 1059 879 0
3551 -3561 -879 0
-271 3554 -3543 0
-3543 -272 3555 0
-3543 -273 3556 0
-274 -3543 3557 0
-3543 -275 3558 0
-3558 -301 3547 3548 0
-302 -3547 3559 0
-303 -3547 3560 0
-3560 -303 3550 3547 0
3551 -304 -3561 3547 0
-307 -3548 3560 0
-3560 -307 3548 3550 0
3551 -308 3548 -3561 0
-3560 3550 -310 3549 0
3551 -3561 -311 3549 0
-3550 3561 -313 0
3551 3550 -313 -3561 0
881 -3553 3563 1061 0
-3554 3564 882 1062 0
-3555 3565 883 1063 0
-3556 3566 884 1064 0
-3557 3567 885 1065 0
-3567 3557 885 1065 0
-3558 3568 886 1066 0
-3568 3558 886 1066 0
-3559 3569 1067 887 0
-3569 3559 887 1067 0
-3569 -887 3559 0
-3560 3570 888 1068 0
-3570 3560 1068 888 0
-3560 3570 -1068 0
3561 -3571 889 1069 0
3561 -3571 -889 0
-3553 -316 3564 0
-317 -3553 3565 0
-318 -3553 3566 0
-319 -3553 3567 0
-320 -3553 3568 0
-337 -3570 3555 3560 0
-3568 -346 3558 3557 0
-3557 -347 3569 0
-3570 -348 3560 3557 0
3561 -349 -3571 3557 0
-3558 -352 3570 0
-3570 -352 3558 3560 0
3561 -353 3558 -3571 0
3561 -356 3559 -3571 0
-3570 3561 -358 0
3561 -358 3560 -3571 0
891 -3563 3573 1071 0
-3564 3574 892 1072 0
-3565 3575 893 1073 0
-3566 3576 894 1074 0
-3567 3577 895 1075 0
-3577 3567 895 1075 0
-3568 3578 1076 896 0
-3578 3568 896 1076 0
-3568 3578 -1076 0
-3569 3579 897 1077 0
-3579 3569 1077 897 0
-3579 3569 -897 0
-3570 3580 898 1078 0
-3580 3570 1078 898 0
3571 -3581 899 1079 0
3571 -3581 -899 0
-3563 -361 3574 0
-362 3575 -3563 0
-363 3576 -3563 0
-364 3577 -3563 0
-365 -3563 3578 0
-386 -3566 3578 0
-3578 -391 3568 3567 0
-393 -3580 3567 3570 0
-394 -3581 3567 3571 0
-3580 3568 -397 3570 0
-398 -3581 3568 3571 0
3571 -3581 -401 3569 0
-3580 3571 -403 0
-3581 3570 -403 3571 0
901 -3573 3583 1081 0
-3574 3584 1082 902 0
-3575 3585 903 1083 0
-3576 3586 904 1084 0
-3577 3587 905 1085 0
-3578 3588 906 1086 0
-3588 3578 906 1086 0
-3579 3589 1087 907 0
-3589 3579 907 1087 0
-3589 3579 -907 0
-3580 3590 908 1088 0
-3590 3580 908 1088 0
3581 -3591 1089 909 0
3581 -3591 -909 0
-407 -3573 3585 0
-3573 3586 -408 0
-409 -3573 3587 0
-410 -3573 3588 0
-438 -3590 3577 3580 0
-3590 -442 3578 3580 0
3581 -443 3578 -3591 0
3581 -446 3579 -3591 0
3581 -448 3580 -3591 0
911 -3583 3593 1091 0
-3584 3594 912 1092 0
-3584 3594 -1092 0
-3585 3595 913 1093 0
-3586 3596 914 1094 0
-3587 3597 915 1095 0
-3588 3598 1096 916 0
-3599 3589 917 1097 0
-3599 3589 -917 0
-3590 3600 918 1098 0
-3600 3590 1098 918 0
-3600 -918 3590 0
-3590 3600 -1098 0
3601 -3591 1099 919 0
3591 -3601 919 1099 0
3591 -3601 -919 0
-3588 -487 3600 0
-3588 -488 -3591 3598 0
-488 -3601 3588 3591 0
3591 3589 -491 -3601 0
3591 3590 -3601 -493 0
921 -3593 3603 1101 0
-3594 3604 922 1102 0
-3595 3605 923 1103 0
-3596 3606 1104 924 0
-3597 3607 1105 925 0
-3598 3608 926 1106 0
-3609 3599 1107 927 0
-3609 3599 -927 0
-3600 3610 1108 928 0
-3610 3600 928 1108 0
3601 -3611 1109 929 0
3601 -3611 -929 0
-3598 -532 3610 0
3601 -536 3599 -3611 0
3601 3600 -3611 -538 0
931 -3603 3613 1111 0
-3604 3614 1112 932 0
-3605 3615 933 1113 0
-3606 3616 934 1114 0
-3607 3617 935 1115 0
-3608 3618 936 1116 0
-3619 3609 1117 937 0
-3619 3609 -937 0
-3610 3620 1118 938 0
-3620 3610 938 1118 0
3611 -3621 -939 0
3611 -581 3609 -3621 0
-3618 3628 946 1126 0
-3629 3619 1127 947 0
-3620 3630 948 1128 0
3621 -3631 1129 949 0
3621 -3631 -949 0
3621 -3631 -626 3619 0
3621 3620 -628 -3631 0
-3630 1138 958 3640 0
-3625 -648 3636 0
3631 -671 -3641 3629 0
3641 1149 -3651 969 0
3651 1159 -3661 979 0
-3655 -1163 0
3661 1169 989 0
-3655 -783 0
-3663 811 991 0
3665 813 993 0
-3666 814 994 0
-3667 815 995 0
-3667 -815 0
-3668 996 816 0
-3669 817 997 0
-3670 818 998 0
-3670 -818 0
-3671 999 819 0
3672 1000 820 0
-3665 -18 0
3666 -18 0
-3665 -19 0
3667 -19 0
-3665 -20 0
-3665 -22 0
-3670 -33 0
-3671 -34 0
-3668 -37 0
-3670 -37 0
-3671 -43 0
-3673 821 1001 3663 0
3675 823 -3665 1003 0
-3675 3665 1003 823 0
-3666 3676 1004 824 0
-3676 824 3666 1004 0
-3676 -824 3666 0
-3677 825 1005 3667 0
-3677 -825 3667 0
-3678 826 3668 1006 0
-3679 827 1007 3669 0
-3680 1008 3670 828 0
-3681 1009 3671 829 0
1010 3682 830 -3672 0
-3678 -50 3663 3668 0
-64 3677 -3665 0
-67 3680 -3665 0
-3676 -70 3667 0
-3677 -70 3666 3667 0
-3680 -78 3667 3670 0
-3681 -79 3667 3671 0
-3678 -82 3670 0
-3680 -82 3670 3668 0
-3680 -88 3671 0
-3681 -88 3671 3670 0
831 -3683 3673 1011 0
3685 833 -3675 1013 0
-3685 3675 833 1013 0
-3676 3686 1014 834 0
-3677 3687 835 1015 0
-3687 1015 3677 835 0
-3688 3678 836 1016 0
-3688 -836 3678 0
-3689 837 3679 1017 0
-3680 3690 838 1018 0
-3690 838 3680 1018 0
-3680 3690 -1018 0
-3691 1019 3681 839 0
1020 -3682 3692 840 0
-3688 -95 3678 3673 0
-3685 -108 3676 0
-108 3686 -3675 0
-3685 -109 3677 0
-109 3687 -3675 0
-110 3688 -3675 0
-3685 -112 3680 0
-3690 -112 3675 3680 0
-3676 -118 3690 0
-3691 -124 3677 3681 0
-3685 3695 1023 843 0
-3686 3696 1024 844 0
-3687 3697 1025 845 0
-3697 3687 845 1025 0
-3697 3687 -845 0
-3687 -1025 3697 0
-3698 3688 846 1026 0
-3699 3689 847 1027 0
-3690 3700 848 1028 0
-3700 3690 1028 848 0
-3690 3700 -1028 0
3691 -3701 849 1029 0
1030 -3692 3702 850 0
-3695 3685 -137 3683 0
-3697 -139 3687 3683 0
-3695 -153 3686 0
-154 -3697 3685 3687 0
-3697 -160 3686 3687 0
-3686 -163 3700 0
-3700 -172 3690 3688 0
-3695 3705 853 1033 0
-3696 3706 1034 854 0
-3697 3707 855 1035 0
-3707 3697 855 1035 0
-3708 3698 1036 856 0
-3709 3699 857 1037 0
-3709 3699 -857 0
-3700 3710 858 1038 0
-3710 3700 858 1038 0
-3700 3710 -1038 0
3701 -3711 1039 859 0
1040 -3702 3712 860 0
-3708 -200 3695 3698 0
-3710 -213 3700 3697 0
-217 3698 3700 -3710 0
3701 -3711 3699 -221 0
-3705 3715 863 1043 0
-3706 3716 864 1044 0
-3707 3717 865 1045 0
-3717 3707 865 1045 0
-3718 3708 866 1046 0
-3719 3709 867 1047 0
-3710 3720 868 1048 0
-3720 3710 868 1048 0
-3710 3720 -1048 0
3711 -3721 869 1049 0
3711 -3721 -869 0
1050 -3712 3722 870 0
-3720 -258 3710 3707 0
-3720 -262 3708 3710 0
3708 -263 -3721 3711 0
-3715 3725 873 1053 0
-3716 3726 874 1054 0
-3717 3727 875 1055 0
-3727 3717 875 1055 0
-3718 3728 876 1056 0
-3728 3718 876 1056 0
-3729 3719 877 1057 0
-3729 -877 3719 0
-3720 3730 878 1058 0
-3730 3720 878 1058 0
-3730 3720 -878 0
-3720 3730 -1058 0
3721 -3731 1059 879 0
1060 -3722 3732 880 0
-3730 -303 3720 3717 0
-3730 -307 3720 3718 0
3721 -308 3718 -3731 0
3721 -3731 -311 3719 0
3721 3720 -313 -3731 0
-3725 3735 883 1063 0
-3726 3736 1064 884 0
-3727 3737 1065 885 0
-3737 3727 885 1065 0
-3727 -1065 3737 0
-3728 3738 1066 886 0
-3739 3729 887 1067 0
-3730 3740 888 1068 0
-3740 3730 888 1068 0
-3730 3740 -1068 0
3731 -3741 889 1069 0
3731 -3741 -889 0
1070 -3732 3742 890 0
-336 -3725 3739 0
-3738 -346 3728 3727 0
-3740 3730 -348 3727 0
-3740 -352 3728 3730 0
3728 -353 -3741 3731 0
3731 -358 -3741 3730 0
-3735 3745 893 1073 0
-3736 3746 894 1074 0
-3737 3747 895 1075 0
-3737 -1075 3747 0
-3738 3748 896 1076 0
-3748 3738 1076 896 0
-3739 3749 897 1077 0
-3749 3739 1077 897 0
-3740 3750 898 1078 0
-3750 3740 1078 898 0
-3740 3750 -1078 0
3751 -3741 899 1079 0
3741 -3751 899 1079 0
1080 -3742 3752 900 0
-3735 -378 3746 0
-393 -3750 3737 3740 0
-3750 -397 3738 3740 0
3741 -3751 -401 3739 0
-3750 3741 -403 0
3740 -3751 -403 3741 0
-3745 3755 903 1083 0
-3746 3756 904 1084 0
-3747 3757 905 1085 0
-3749 3759 907 1087 0
-3759 3749 907 1087 0
-3750 3760 908 1088 0
-3760 3750 908 1088 0
3761 -3751 909 1089 0
3751 -3761 909 1089 0
1090 -3752 3762 910 0
-443 -3761 3748 3751 0
3751 -448 3750 -3761 0
-3755 3765 1093 913 0
-3756 3766 914 1094 0
-1094 -3756 3766 0
-3757 3767 915 1095 0
-3769 3759 917 1097 0
-3769 3759 -917 0
-3760 3770 1098 918 0
3761 -3771 919 1099 0
1100 -3762 3772 920 0
-478 -3756 3770 0
3761 3759 -491 -3771 0
3761 3760 -3771 -493 0
-3765 3775 923 1103 0
-3766 3776 1104 924 0
-1104 -3766 3776 0
-3767 3777 1105 925 0
-3779 3769 1107 927 0
-3779 3769 -927 0
-3770 3780 928 1108 0
3771 -3781 1109 929 0
3771 -3781 -929 0
1110 -3772 3782 930 0
3771 -536 3769 -3781 0
-3775 3785 1113 933 0
-3776 3786 1114 934 0
-3777 3787 935 1115 0
-3789 3779 1117 937 0
-3789 3779 -937 0
-3780 3790 938 1118 0
3781 -3791 1119 939 0
3781 -3791 -939 0
-3782 3792 1120 940 0
3781 -581 3779 -3791 0
-3785 3795 943 1123 0
-3786 3796 944 1124 0
-3787 3797 1125 945 0
-3799 3789 1127 947 0
-3790 3800 948 1128 0
3791 -3801 1129 949 0
3791 -3801 -949 0
3791 -3801 -626 3789 0
-3796 1134 3806 954 0
3801 1139 -3811 959 0
-3795 -648 3806 0
3801 -671 -3811 3799 0
-3825 -1163 0
-3825 -783 0
-3836 814 994 0
3837 815 995 0
-3839 817 997 0
-3840 818 998 0
-3840 -818 0
3842 1000 820 0
-3835 -18 0
-3837 -33 0
-3837 -34 0
3841 -34 0
-3845 3835 823 1003 0
-3846 824 3836 1004 0
-3846 -824 3836 0
3847 825 -3837 1005 0
-3849 827 1007 3839 0
-3850 1008 3840 828 0
-3850 -828 3840 0
3851 -3841 829 1009 0
1010 3852 830 -3842 0
-3846 3837 -70 0
-3847 -70 3836 3837 0
-3847 -78 3840 0
-3855 3845 833 1013 0
3857 835 -3847 1015 0
-3859 837 3849 1017 0
-3860 838 3850 1018 0
3861 -3851 1019 839 0
1020 -3852 3862 840 0
-3855 -108 3846 0
-3855 -109 3847 0
-3855 -112 3850 0
3861 -124 -3847 0
-3865 -843 3855 0
-3857 3867 845 1025 0
-3869 3859 847 1027 0
-3870 3860 1028 848 0
-3861 3871 849 1029 0
1030 -3862 3872 850 0
-3867 3877 855 1035 0
-3879 3869 857 1037 0
-3880 3870 858 1038 0
3881 -3871 1039 859 0
1040 -3872 3882 860 0
-3889 3879 867 1047 0
-3890 3880 868 1048 0
3891 -3881 869 1049 0
1050 -3882 3892 870 0
-3877 -258 3890 0
-3899 3889 877 1057 0
-3890 3900 878 1058 0
-3900 3890 -878 0
3901 -3891 879 1059 0
1060 -3892 3902 880 0
-3909 3899 887 1067 0
-3900 3910 888 1068 0
3911 -3901 889 1069 0
1070 -3902 3912 890 0
-3919 3909 1077 897 0
-3910 3920 898 1078 0
3921 -3911 -1079 0
1080 -3912 3922 900 0
-3929 3919 907 1087 0
1090 -3922 3932 910 0
-3939 3929 917 1097 0
1100 -3932 3942 920 0
-3949 3939 -927 0
-3942 3952 1110 930 0
3941 -536 3939 -3951 0
-3959 3949 1117 937 0
3951 -3961 -939 0
-3961 -585 3952 0
3961 3959 -626 -3971 0
-3965 -648 3976 0
-3995 -1163 0
-3995 -783 0
-4005 813 993 0
-4006 814 994 0
4007 815 995 0
-4008 996 816 0
-4009 817 997 0
-4010 818 998 0
-4010 -818 0
-4011 999 819 0
-4005 -18 0
-4008 -20 0
-4011 -23 0
-4008 -26 0
-4011 -29 0
-4007 -33 0
-4007 -34 0
4011 -34 0
-4010 -37 0
-4011 -38 0
-4011 -43 0
-4015 823 4005 1003 0
-4016 824 4006 1004 0
-4016 -824 4006 0
4017 825 -4007 1005 0
-4019 827 1007 4009 0
-4020 1008 4010 828 0
-828 -4020 4010 0
4021 -4011 829 1009 0
-4021 1009 4011 829 0
-4016 4007 -70 0
-4020 -82 4008 4010 0
-4021 -83 4008 4011 0
-4025 833 4015 1013 0
-4025 -833 4015 0
-4029 837 4019 1017 0
-4030 838 4020 1018 0
4031 -4021 1019 839 0
-4031 1019 4021 839 0
-4025 -108 4016 0
-4025 -112 4020 0
4031 -124 -4017 0
-4031 -133 4020 4021 0
-4035 -843 4025 0
-4039 4029 847 1027 0
-4040 4030 1028 848 0
4041 -4031 849 1029 0
4031 -4041 849 1029 0
4031 -4041 4030 -178 0
-4049 4039 857 1037 0
-4050 4040 858 1038 0
4051 -4041 1039 859 0
4041 -4051 1039 859 0
-4059 4049 867 1047 0
-4060 4050 868 1048 0
4061 -4051 869 1049 0
4051 -4061 869 1049 0
-4060 4051 -268 0
-4069 4059 877 1057 0
-4069 4059 -877 0
-4070 4060 878 1058 0
-4070 4060 -878 0
4071 -4061 879 1059 0
4061 -4071 1059 879 0
4061 -4070 -313 0
4061 4060 -4071 -313 0
-4079 4069 887 1067 0
-4079 4069 -887 0
-4080 4070 1068 888 0
4081 -4071 889 1069 0
4071 -4081 889 1069 0
4071 -4080 -358 0
-4089 4079 1077 897 0
-4089 4079 -897 0
4080 -4090 1078 898 0
4081 -4091 899 1079 0
4091 -4081 -1079 0
4081 -4090 -403 0
-4099 4089 907 1087 0
-4099 4089 -907 0
4090 -4100 1088 908 0
4091 -4101 1089 909 0
4090 -445 -4100 4089 0
4091 -448 -4100 0
-4109 4099 917 1097 0
-4109 4099 -917 0
4100 -4110 918 1098 0
4100 -918 -4110 0
4101 -4111 1099 919 0
-4110 4099 -490 4100 0
4101 -493 -4110 0
-4119 4109 1107 927 0
-4119 4109 -927 0
4110 -4120 928 1108 0
4110 -4120 -535 4109 0
4111 -538 -4120 0
-4129 4119 1117 937 0
-4129 4119 -937 0
4120 -4130 938 1118 0
4120 -4130 -580 4119 0
-4139 4129 1127 947 0
-4139 4129 -947 0
4130 -4140 948 1128 0
-4140 4129 -625 4130 0
-4149 4139 -957 0
4140 -4150 958 1138 0
-4135 -648 4146 0
4140 -4150 4139 -670 0
4150 4149 -715 -4160 0
4175 813 993 0
-4176 814 994 0
4177 815 995 0
-4179 817 997 0
-4180 818 998 0
-4180 -818 0
-4181 999 819 0
4182 1000 820 0
-4175 -18 0
4176 -18 0
-4177 -33 0
-4177 -34 0
4181 -34 0
4185 823 -4175 1003 0
-4185 4175 823 1003 0
4186 -4176 1004 824 0
-4186 824 4176 1004 0
-4186 -824 4176 0
4187 825 -4177 1005 0
-4189 827 1007 4179 0
-4190 1008 4180 828 0
-4190 -828 4180 0
4191 -4181 829 1009 0
-4191 1009 4181 829 0
1010 4192 830 -4182 0
-4185 -64 4177 0
-4186 4177 -70 0
-4187 -78 4180 0
4191 -79 -4177 0
-4195 4185 833 1013 0
4196 -4186 834 1014 0
-4196 834 4186 1014 0
-4199 837 4189 1017 0
-4200 838 4190 1018 0
4201 -4191 1019 839 0
-4201 1019 4191 839 0
1020 -4192 4202 840 0
-4195 -108 4186 0
4196 -108 -4185 0
-4196 -108 4185 4186 0
-4195 -109 4187 0
-4195 -112 4190 0
4201 -124 -4187 0
-4196 4206 1024 844 0
-4209 4199 847 1027 0
-4210 4200 1028 848 0
4211 -4201 849 1029 0
4201 -4211 849 1029 0
1030 -4202 4212 850 0
-4205 -153 4196 0
-4206 4216 854 1034 0
-4219 4209 857 1037 0
-4220 4210 858 1038 0
4221 -4211 1039 859 0
4211 -4221 1039 859 0
1040 -4212 4222 860 0
-4216 4226 864 1044 0
-4229 4219 867 1047 0
-4230 4220 868 1048 0
4231 -4221 869 1049 0
4221 -4231 869 1049 0
1050 -4222 4232 870 0
-4228 -262 4220 0
4218 -262 -4230 4220 0
-4228 4221 -263 0
4218 -263 -4231 4221 0
-4226 4236 874 1054 0
-4238 4228 1056 876 0
-4239 4229 877 1057 0
-4240 4230 878 1058 0
-4240 4230 -878 0
4241 -4231 879 1059 0
4231 -4241 1059 879 0
1060 -4232 4242 880 0
-4240 4231 -313 0
-4236 4246 884 1064 0
-4249 4239 887 1067 0
-4250 4240 -888 0
4251 -4241 889 1069 0
4241 -4251 889 1069 0
1070 -4242 4252 890 0
4238 -4250 -352 4240 0
4241 4240 -4251 -358 0
-4246 4256 894 1074 0
-4259 4249 1077 897 0
-4259 4249 -897 0
4250 -4260 1078 898 0
4251 -4261 899 1079 0
4261 -4251 -1079 0
-4252 4262 1080 900 0
-4258 -398 4251 0
4251 -4261 4249 -401 0
-4256 4266 904 1084 0
-4268 4258 -906 0
-4269 4259 907 1087 0
4260 -4270 1088 908 0
4261 -4271 909 1089 0
4261 -4271 -909 0
4260 -442 -4270 4258 0
-4266 4276 914 1094 0
-4279 4269 917 1097 0
-4279 4269 -917 0
4270 -4280 918 1098 0
4271 -4281 1099 919 0
-476 -4266 4278 0
4270 -487 -4280 4268 0
4271 4269 -491 -4281 0
-4276 4286 1104 924 0
-1104 -4276 4286 0
-4278 4288 1106 926 0
-4289 4279 1107 927 0
-4289 4279 -927 0
4280 -4290 928 1108 0
4280 -4290 -535 4279 0
4281 -538 -4290 0
-4286 4296 1114 934 0
-4288 4298 1116 936 0
-4299 4289 1117 937 0
-4299 4289 -937 0
4290 -4300 938 1118 0
-4296 4306 944 1124 0
-4298 4308 1126 946 0
-4309 4299 1127 947 0
-4309 4299 -947 0
4300 -4310 948 1128 0
-4306 1134 4316 954 0
-4308 4318 956 1136 0
-4319 4309 -957 0
4310 -4320 958 1138 0
-4305 -648 4316 0
4310 -4320 4309 -670 0
4320 4319 -715 -4330 0
-4336 1164 984 0
-4336 -1164 0
-4335 -783 0
-4336 -790 0
4340 4339 -805 0
-4345 813 993 0
-4346 814 994 0
-4347 815 995 0
-4347 -815 0
-4350 818 998 0
-4350 -818 0
-4351 999 819 0
-4345 -18 0
-4351 -34 0
-4355 823 4345 1003 0
-4356 824 4346 1004 0
-4356 -824 4346 0
-4357 825 1005 4347 0
-4360 1008 4350 828 0
-4360 -828 4350 0
-4361 1009 4351 829 0
-4356 -70 4347 0
-4365 833 4355 1013 0
-4365 -833 4355 0
-4370 838 4360 1018 0
-4371 1019 4361 839 0
-4365 -108 4356 0
-4365 -112 4360 0
-4371 -124 4357 4361 0
-4375 -843 4365 0
-4380 4370 1028 848 0
4371 -4381 849 1029 0
-4390 4380 858 1038 0
4381 -4391 1039 859 0
-4400 4390 868 1048 0
4391 -4401 869 1049 0
-4410 4400 -878 0
4401 -4411 1059 879 0
4411 -4421 889 1069 0
-4430 4421 -403 0
-4475 -648 4486 0
-4505 -1163 0
-4505 -783 0
-4516 814 994 0
-4517 815 995 0
-4517 -815 0
4519 817 997 0
-4520 818 998 0
-4520 -818 0
-4521 999 819 0
4522 1000 820 0
-4515 -18 0
-4521 -34 0
-4525 4515 823 1003 0
-4526 824 4516 1004 0
-4526 -824 4516 0
-4527 825 1005 4517 0
4529 827 1007 -4519 0
-4530 1008 4520 828 0
-4530 -828 4520 0
-4531 1009 4521 829 0
1010 4532 830 -4522 0
-4526 -70 4517 0
-4527 -70 4516 4517 0
-4527 -78 4520 0
-4530 -78 4520 4517 0
-4535 4525 833 1013 0
4539 837 -4529 1017 0
-4540 838 4530 1018 0
4541 -4531 839 1019 0
-4541 1019 4531 839 0
1020 -4532 4542 840 0
-4535 -108 4526 0
-4535 -109 4527 0
-4535 -112 4530 0
-124 -4541 4527 4531 0
4541 -131 -4529 0
-4545 -843 4535 0
4549 -4539 847 1027 0
-4540 4550 848 1028 0
-4550 4540 1028 848 0
4551 -4541 849 1029 0
4541 -4551 849 1029 0
4551 -4541 -1029 0
1030 -4542 4552 850 0
4551 -176 -4539 0
4551 -180 -4541 -4542 0
4559 -4549 857 1037 0
4559 -4549 -1037 0
-4550 4560 858 1038 0
-4560 4550 858 1038 0
4561 -4551 859 1039 0
4551 -4561 1039 859 0
4561 -4551 -1039 0
1040 -4552 4562 860 0
4562 -1040 -4552 0
4561 -4549 -221 0
4561 -4551 -4552 -225 0
4569 -4559 867 1047 0
-4560 4570 868 1048 0
-4570 4560 868 1048 0
4571 -4561 869 1049 0
4561 -4571 869 1049 0
4571 -1049 -4561 0
1050 -4562 4572 870 0
-4562 -1050 4572 0
4571 -4559 -266 0
4571 -4561 -270 -4562 0
4579 -4569 877 1057 0
-4570 4580 878 1058 0
-4580 4570 -878 0
4581 -4571 879 1059 0
4571 -4581 1059 879 0
4581 -4571 -1059 0
1060 -4572 4582 880 0
4581 -4569 -311 0
4581 -315 -4572 -4571 0
4589 -4579 887 1067 0
-4580 4590 888 1068 0
4591 -4581 1069 889 0
4581 -4591 889 1069 0
4591 -1069 -4581 0
1070 -4582 4592 890 0
4591 -4579 -356 0
4581 -4591 -356 4579 0
4591 -360 -4581 -4582 0
4599 -4589 1077 897 0
-4590 4600 898 1078 0
4601 -4591 899 1079 0
4591 -4601 899 1079 0
4601 -4591 -1079 0
-4592 4602 1080 900 0
-4589 4601 -401 0
4591 4589 -401 -4601 0
-4600 4591 -403 0
-4590 4601 -403 0
4591 -4601 -403 4590 0
4601 -405 -4591 -4592 0
4609 -4599 907 1087 0
4611 -4601 909 1089 0
4611 -1089 -4601 0
1090 -4602 4612 910 0
4611 -446 -4599 0
4599 -446 -4611 4601 0
-4600 4611 -448 0
4600 4601 -4611 -448 0
4611 -4601 -450 -4602 0
4619 -4609 917 1097 0
4621 -4611 1099 919 0
4621 -1099 -4611 0
1100 -4612 4622 920 0
-4609 4619 -491 -4611 0
4621 -4609 -491 0
4621 -495 -4611 -4612 0
4629 -4619 927 1107 0
4631 -4621 1109 929 0
4631 -1109 -4621 0
-4622 4632 1110 930 0
-4619 -536 4629 -4621 0
4631 -536 -4619 0
-4620 4631 -538 0
4620 4621 -538 -4631 0
4631 -540 -4621 -4622 0
4639 -4629 1117 937 0
4641 -4631 939 1119 0
-4632 4642 1120 940 0
-4629 -581 4639 -4631 0
4641 -581 -4629 0
4641 -585 -4631 -4632 0
4649 -4639 947 1127 0
4651 1129 949 -4641 0
-626 -4639 -4641 4649 0
4651 -630 -4641 -4642 0
4661 1139 -4651 959 0
-4645 -648 4656 0
4659 -671 -4651 -4649 0
4651 4649 -671 -4661 0
-4675 -1163 0
-4675 -783 0
-4685 813 993 0
-4686 814 994 0
-4687 815 995 0
-4687 -815 0
-4690 818 998 0
-4690 -818 0
-4691 999 819 0
-4685 -18 0
-4691 -34 0
-4695 823 4685 1003 0
-4696 824 4686 1004 0
-4696 -824 4686 0
-4697 825 1005 4687 0
-4700 1008 4690 828 0
-828 -4700 4690 0
-4701 1009 4691 829 0
-4696 -70 4687 0
-4705 833 4695 1013 0
-4705 -833 4695 0
-4710 838 4700 1018 0
-4711 1019 4701 839 0
-4705 -108 4696 0
-4705 -112 4700 0
-4711 -124 4697 4701 0
-4715 -843 4705 0
-4720 4710 1028 848 0
4711 -4721 849 1029 0
-4730 4720 858 1038 0
4721 -4731 1039 859 0
-4740 4730 868 1048 0
4731 -4741 869 1049 0
-4750 4740 -878 0
4741 -4751 1059 879 0
4751 -4761 889 1069 0
-4770 4761 -403 0
-4815 -648 4826 0
-4856 814 994 0
-4857 815 995 0
-4857 -815 0
-4860 818 998 0
-4860 -818 0
-4861 999 819 0
-4855 -18 0
4856 -18 0
-4861 -34 0
-4865 4855 823 1003 0
-4856 4866 1004 824 0
-4866 824 4856 1004 0
-4866 -824 4856 0
-4867 825 1005 4857 0
-4870 1008 4860 828 0
-4870 -828 4860 0
-4871 1009 4861 829 0
-4865 -64 4857 0
-4866 -70 4857 0
-4867 -78 4860 0
-4875 4865 833 1013 0
4876 -4866 834 1014 0
-4876 834 4866 1014 0
-4880 838 4870 1018 0
-4881 1019 4871 839 0
-4875 -108 4866 0
-4876 -108 4865 4866 0
-4875 -109 4867 0
-4875 -112 4870 0
-4881 -124 4867 4871 0
-4890 4880 1028 848 0
4881 -4891 849 1029 0
-4885 -153 4876 0
-4900 4890 858 1038 0
4891 -4901 1039 859 0
-4910 4900 868 1048 0
4901 -4911 869 1049 0
-4920 4910 -878 0
4911 -4921 1059 879 0
4921 -4931 889 1069 0
-4940 4931 -403 0
-4985 -648 4996 0
-5025 813 993 0
-5025 -813 0
5026 814 994 0
5026 -994 0
-5027 815 995 0
-5027 -815 0
5029 817 997 0
-5030 818 998 0
-5030 -818 0
-5031 999 819 0
5032 1000 820 0
5027 -25 0
5028 -26 0
-5031 -34 0
-5030 -37 0
-5035 823 1003 5025 0
5036 824 -5026 1004 0
-5037 825 1005 5027 0
5038 -5028 826 1006 0
5038 -1006 -5028 0
5039 827 1007 -5029 0
-5040 1008 5030 828 0
-5040 -828 5030 0
-5041 1009 5031 829 0
1010 5042 830 -5032 0
-5035 -64 5027 0
-5036 -70 5027 0
5037 -70 -5026 0
-73 5040 -5026 0
-5045 833 5035 1013 0
-5045 -833 5035 0
5046 834 -5036 1014 0
5047 -5037 1015 835 0
5048 -1016 -5038 0
5049 837 -5039 1017 0
-5050 838 5040 1018 0
-5051 1019 5041 839 0
1020 -5042 5052 840 0
-5045 -108 5036 0
-5045 -112 5040 0
-5051 -124 5037 5041 0
-5055 -843 5045 0
5056 -5046 844 1024 0
-5048 5058 846 1026 0
5059 -5049 847 1027 0
-5060 5050 1028 848 0
5051 -5061 849 1029 0
1030 -5052 5062 850 0
5066 -5056 854 1034 0
-5058 5068 856 1036 0
5069 -5059 857 1037 0
-5070 5060 858 1038 0
5061 -5071 1039 859 0
1040 -5062 5072 860 0
5076 -5066 1044 864 0
-5068 5078 866 1046 0
5079 -5069 867 1047 0
-5080 5070 868 1048 0
5071 -5081 869 1049 0
1050 -5072 5082 870 0
5086 -5076 874 1054 0
-5078 5088 876 1056 0
5089 -5079 877 1057 0
-5090 5080 -878 0
5081 -5091 1059 879 0
1060 -5082 5092 880 0
-5078 5091 -308 0
5096 -5086 884 1064 0
-5088 5098 886 1066 0
5099 -5089 887 1067 0
5101 -5091 1069 889 0
5091 -5101 889 1069 0
1070 -5092 5102 890 0
-5088 5101 -353 0
-5096 5106 894 1074 0
-5098 5108 896 1076 0
5109 -5099 1077 897 0
5111 -5101 899 1079 0
-5102 5112 1080 900 0
-5098 5111 -398 0
-5110 5101 -403 0
-5106 5116 904 1084 0
5119 -5109 907 1087 0
5121 -5111 909 1089 0
1090 -5112 5122 910 0
-5108 5121 -443 0
-5116 5126 914 1094 0
-5122 5132 1100 920 0
5129 -491 -5121 -5119 0
5131 -5119 -491 0
-5126 5136 1104 924 0
-5129 5139 1107 927 0
5141 -540 -5131 -5132 0
-5136 5146 1114 934 0
5149 -581 -5141 -5139 0
-5146 5156 944 1124 0
-5156 1134 5166 954 0
-5155 -648 5166 0
5195 813 993 0
5196 814 994 0
-5197 815 995 0
-5197 -815 0
-5200 998 818 0
-5201 999 819 0
5195 -18 0
5196 -18 0
-5201 -34 0
-5200 -43 0
5205 823 -5195 1003 0
5206 824 -5196 1004 0
-5207 825 1005 5197 0
-5210 1008 5200 828 0
-5211 1009 5201 829 0
-5205 -64 5197 0
5207 -70 -5196 0
-73 -5206 5200 0
-5215 5205 -833 0
5216 834 -5206 1014 0
5217 -5207 1015 835 0
-5220 838 5210 1018 0
-5221 1019 5211 839 0
-5207 -109 5215 -5205 0
5217 -109 -5205 0
5220 -112 -5205 0
5220 -118 -5206 0
-5221 -124 5207 5211 0
-5225 5215 -843 0
-5230 5220 1028 848 0
5221 -5231 849 1029 0
5226 -5215 -153 0
-5240 5230 858 1038 0
5231 -5241 1039 859 0
-5250 5240 868 1048 0
5241 -5251 869 1049 0
-5260 5250 -878 0
5251 -5261 1059 879 0
5261 -5271 889 1069 0
-5280 5271 -403 0
-5325 -648 5336 0
-5363 811 991 0
-5366 814 994 0
5367 815 995 0
5367 -995 0
-5368 996 816 0
5369 817 997 0
-5370 998 818 0
-5371 999 819 0
5372 1000 820 0
-5365 -18 0
-5368 -20 0
-5370 -22 0
-5368 -26 0
-5370 -28 0
-5367 -31 0
5368 -31 0
-5367 -33 0
-5367 -34 0
5371 -34 0
-5370 -37 0
-5370 -43 0
-5375 5365 823 1003 0
-5376 824 5366 1004 0
825 5377 -5367 1005 0
5377 -1005 -5367 0
5378 826 -5368 1006 0
5378 -1006 -5368 0
5379 827 1007 -5369 0
-5380 1008 5370 828 0
-5380 -828 5370 0
5381 -5371 829 1009 0
-5381 1009 5371 829 0
1010 5382 830 -5372 0
-5377 5367 5363 -49 0
-5376 -70 5367 0
-5377 -70 5367 5366 0
-5376 -73 5370 0
-76 -5377 5368 0
5378 -76 -5367 0
-5377 -78 5370 0
5381 -83 -5368 0
-5385 5375 833 1013 0
5387 835 -5377 1015 0
5387 -1015 -5377 0
5388 836 -5378 1016 0
5388 -1016 -5378 0
5389 837 -5379 1017 0
-5390 838 5380 1018 0
5391 -5381 839 1019 0
-5391 1019 5381 839 0
1020 -5382 5392 840 0
-5385 -108 5376 0
-5385 -109 5377 0
-5385 -112 5380 0
5388 -121 -5377 0
5391 -124 -5377 0
5391 -128 -5378 0
5389 -131 -5381 -5379 0
5391 -131 -5379 0
-5395 -843 5385 0
5397 -5387 845 1025 0
5397 -1025 -5387 0
5398 -5388 846 1026 0
5398 -5388 -1026 0
5399 -5389 847 1027 0
5399 -5389 -1027 0
-5400 5390 1028 848 0
5401 -5391 849 1029 0
1030 -5392 5402 850 0
5398 -166 -5387 0
5401 -5388 -173 0
5400 -5389 -175 0
5399 -176 -5391 -5389 0
5401 -176 -5389 0
5407 -5397 855 1035 0
5407 -5397 -1035 0
-5398 5408 856 1036 0
-5398 5408 -1036 0
5409 -5399 857 1037 0
5410 -5400 858 1038 0
-5410 5400 858 1038 0
5411 -5401 859 1039 0
1040 -5402 5412 860 0
5408 -211 -5397 0
5410 -213 -5397 0
5411 -5397 -214 0
5411 -5398 -218 0
5410 -5399 -220 0
5409 -5401 -221 -5399 0
5411 -5399 -221 0
5417 -5407 865 1045 0
5418 -5408 866 1046 0
5418 -5408 -1046 0
5419 -5409 867 1047 0
5419 -5409 -1047 0
5420 -5410 868 1048 0
-5420 5410 868 1048 0
5421 -5411 869 1049 0
1050 -5412 5422 870 0
-256 5418 -5407 0
-5407 -258 5420 0
5421 -5408 -263 0
5420 -5409 -265 0
5419 -5409 -5411 -266 0
5421 -5409 -266 0
5421 -5410 -268 0
-5417 5427 875 1055 0
5428 -5418 876 1056 0
5428 -5418 -1056 0
5429 -5419 877 1057 0
5429 -5419 -1057 0
5430 -5420 878 1058 0
-5430 5420 -878 0
5430 -5420 -1058 0
5431 -5421 879 1059 0
5431 -5421 -1059 0
1060 -5422 5432 880 0
5428 -301 -5417 0
5431 -5418 -308 0
5430 -5419 -310 0
5429 -5419 -311 -5421 0
5431 -5419 -311 0
-5427 5437 885 1065 0
-5428 5438 1066 886 0
-5438 5428 1066 886 0
-5428 -1066 5438 0
5439 -5429 887 1067 0
5440 -5430 1068 888 0
5441 -5431 1069 889 0
5441 -1069 -5431 0
1070 -5432 5442 890 0
-346 5438 -5427 0
-5428 5441 -353 0
5440 -355 -5429 0
5439 -5429 -356 -5431 0
5441 -5429 -356 0
5441 -360 -5431 -5432 0
-5438 5448 896 1076 0
-5438 5448 -1076 0
5449 -5439 1077 897 0
5450 -5440 1078 898 0
5451 -5441 899 1079 0
5451 -5441 -1079 0
-5442 5452 1080 900 0
5448 -391 -5437 0
-5438 5451 -398 0
5450 -400 -5439 0
5449 -5441 -401 -5439 0
5451 -5439 -401 0
5451 -5440 -403 0
5451 -405 -5441 -5442 0
5459 -5449 907 1087 0
5460 -5450 908 1088 0
5461 -5451 909 1089 0
1090 -5452 5462 910 0
5461 -5448 -443 0
5460 -445 -5449 0
5459 -446 -5451 -5449 0
5461 -446 -5449 0
5460 -5450 -5451 -448 0
5461 -5451 -450 -5452 0
-5457 5467 915 1095 0
5469 -5459 917 1097 0
5470 -5460 918 1098 0
5471 -5461 919 1099 0
5471 -1099 -5461 0
-5462 5472 1100 920 0
5470 -5459 -490 0
-5459 5469 -491 -5461 0
5471 -5459 -491 0
5470 -5460 -5461 -493 0
5471 -495 -5461 -5462 0
-5467 5477 1105 925 0
5479 -5469 1107 927 0
-5479 5469 -927 0
5480 -5470 1108 928 0
5481 -5471 929 1109 0
-5472 5482 1110 930 0
5470 -532 -5480 5468 0
5480 -535 -5469 0
-5469 -536 5479 -5471 0
5481 -536 -5469 0
5480 -5470 -538 -5471 0
5481 -540 -5471 -5472 0
-5477 5487 935 1115 0
5489 -5479 1117 937 0
5490 -5480 1118 938 0
5491 -5481 939 1119 0
-5482 5492 1120 940 0
5490 -580 -5479 0
5489 -5479 -5481 -581 0
5490 -5480 -583 -5481 0
5491 -585 -5481 -5482 0
-5487 5497 1125 945 0
5500 -5490 948 1128 0
5501 1129 -5491 949 0
-5492 5502 1130 950 0
5499 -626 -5491 -5489 0
-5490 5500 -628 -5491 0
5501 -630 -5491 -5492 0
-5497 5507 955 1135 0
5510 -5500 958 1138 0
5510 -5500 -1138 0
5511 -5501 959 1139 0
-5502 5512 1140 960 0
-5495 -648 5506 0
-5500 -673 -5501 5510 0
5511 -675 -5501 -5502 0
-5507 965 5517 1145 0
5520 -5510 1148 968 0
5510 -5520 968 1148 0
5510 5511 -718 -5521 0
5521 -720 -5511 -5512 0
-5529 5519 -977 0
5521 1159 -5531 979 0
5518 -757 -5530 5520 0
5519 5520 -5530 -760 0
5521 5520 -763 -5531 0
5531 1169 989 0
5530 5529 -805 0
-5535 813 993 0
-5536 814 994 0
5537 815 995 0
-5540 818 998 0
-5540 -818 0
-5535 -18 0
-5537 -33 0
-5537 -34 0
5541 -34 0
-5545 823 5535 1003 0
-5546 824 5536 1004 0
-5546 -824 5536 0
5547 825 -5537 1005 0
-5550 1008 5540 828 0
-828 -5550 5540 0
5551 -5541 829 1009 0
-5546 5537 -70 0
-5555 833 5545 1013 0
-5555 -833 5545 0
-5560 838 5550 1018 0
5561 -5551 1019 839 0
-5555 -108 5546 0
-5555 -112 5550 0
5561 -124 -5547 0
-5565 -843 5555 0
-5570 5560 1028 848 0
5571 -5561 849 1029 0
-5580 5570 858 1038 0
5581 -5571 859 1039 0
-5590 5580 868 1048 0
5591 -5581 869 1049 0
-5600 5590 -878 0
5601 -5591 879 1059 0
5611 -5601 1069 889 0
5621 -5611 -1079 0
-5665 -648 5676 0
-5706 814 994 0
5707 815 995 0
-5710 818 998 0
-5710 -818 0
-5705 -18 0
5706 -18 0
-5707 -33 0
-5707 -34 0
5711 -34 0
-5715 5705 823 1003 0
5716 -5706 1004 824 0
-5716 824 5706 1004 0
-5716 -824 5706 0
5717 825 -5707 1005 0
-5720 1008 5710 828 0
-5720 -828 5710 0
5721 -5711 829 1009 0
-5715 -64 5707 0
-5716 5707 -70 0
-5717 -78 5710 0
-5725 5715 833 1013 0
5726 -5716 834 1014 0
-5726 834 5716 1014 0
-5730 838 5720 1018 0
5731 -5721 839 1019 0
-5725 -108 5716 0
-5726 -108 5715 5716 0
-5725 -109 5717 0
-5725 -112 5720 0
5731 -124 -5717 0
-5740 5730 1028 848 0
5741 -5731 849 1029 0
-5735 -153 5726 0
-5750 5740 858 1038 0
5751 -5741 859 1039 0
-5760 5750 868 1048 0
5761 -5751 869 1049 0
-5770 5760 -878 0
5771 -5761 879 1059 0
5781 -5771 1069 889 0
5791 -5781 -1079 0
-5835 -648 5846 0
-5875 813 993 0
-5875 -813 0
5876 814 994 0
5876 -994 0
5877 815 995 0
-5880 998 818 0
-5877 -33 0
-5877 -34 0
5881 -34 0
-5880 -43 0
-5885 823 1003 5875 0
5886 824 -5876 1004 0
5887 825 -5877 1005 0
-5890 1008 5880 828 0
-5890 -828 5880 0
5891 -5881 829 1009 0
-5885 -64 5877 0
5887 -70 -5876 0
-5886 -73 5880 0
-5895 833 5885 1013 0
-5895 -833 5885 0
5896 834 -5886 1014 0
5897 835 -5887 1015 0
-5900 838 5890 1018 0
5901 -5891 839 1019 0
-5895 -112 5890 0
5901 -124 -5887 0
-5905 -843 5895 0
-5910 5900 1028 848 0
5911 -5901 849 1029 0
-5920 5910 858 1038 0
5921 -5911 859 1039 0
-5930 5920 868 1048 0
5931 -5921 869 1049 0
-5940 5930 -878 0
5941 -5931 879 1059 0
5951 -5941 1069 889 0
5961 -5951 -1079 0
-6005 -648 6016 0
-6045 813 993 0
-6045 -813 0
6046 814 994 0
6046 -994 0
6047 815 995 0
-6050 998 818 0
-6047 -33 0
-6047 -34 0
6051 -34 0
-6050 -43 0
-6055 823 1003 6045 0
6056 824 -6046 1004 0
6057 825 -6047 1005 0
-6060 1008 6050 828 0
-828 -6060 6050 0
6061 -6051 829 1009 0
-6055 -64 6047 0
6057 -70 -6046 0
-6056 -73 6050 0
-6065 833 6055 1013 0
-6065 -833 6055 0
6066 834 -6056 1014 0
6067 835 -6057 1015 0
-6070 838 6060 1018 0
6071 -6061 1019 839 0
-6065 -112 6060 0
6071 -124 -6057 0
-6075 -843 6065 0
-6080 6070 1028 848 0
6081 -6071 849 1029 0
-6090 6080 858 1038 0
6091 -6081 859 1039 0
-6100 6090 868 1048 0
6101 -6091 869 1049 0
-6110 6100 -878 0
6111 -6101 879 1059 0
6121 -6111 1069 889 0
6131 -6121 -1079 0
-6175 -648 6186 0
6215 813 993 0
6216 814 994 0
6217 815 995 0
-6220 998 818 0
6215 -18 0
6216 -18 0
-6217 -33 0
-6217 -34 0
6221 -34 0
-6220 -43 0
6225 823 -6215 1003 0
6226 824 -6216 1004 0
6227 825 -6217 1005 0
-6230 1008 6220 828 0
6231 -6221 829 1009 0
-6225 -64 6217 0
6227 -70 -6216 0
-6226 -73 6220 0
-6235 6225 -833 0
6236 834 -6226 1014 0
6237 835 -6227 1015 0
6237 -1015 -6227 0
-6240 838 6230 1018 0
6241 -6231 839 1019 0
6235 -109 -6227 -6225 0
-109 6237 -6225 0
6240 -112 -6225 0
6240 -118 -6226 0
6241 -124 -6227 0
-6245 6235 -843 0
-6250 6240 1028 848 0
6251 -6241 849 1029 0
6246 -6235 -153 0
-6260 6250 858 1038 0
6261 -6251 859 1039 0
-6270 6260 868 1048 0
6271 -6261 869 1049 0
-6280 6270 -878 0
6281 -6271 879 1059 0
6291 -6281 1069 889 0
6301 -6291 -1079 0
-6345 -648 6356 0
-6385 813 993 0
-6386 814 994 0
-6387 815 995 0
-6387 -815 0
6388 996 816 0
6389 817 997 0
-6390 818 998 0
-6390 -818 0
-6391 999 819 0
6392 1000 820 0
-6385 -18 0
-6391 -34 0
-6395 823 6385 1003 0
-6396 824 6386 1004 0
-6396 -824 6386 0
-6397 825 1005 6387 0
6398 826 -6388 1006 0
6399 827 1007 -6389 0
-6400 1008 6390 828 0
-6400 -828 6390 0
-6401 1009 6391 829 0
1010 6402 830 -6392 0
-6396 -70 6387 0
-6405 833 6395 1013 0
-6405 -833 6395 0
6408 -6398 836 1016 0
6409 837 -6399 1017 0
-6410 838 6400 1018 0
-6411 1019 6401 839 0
1020 -6402 6412 840 0
-6405 -108 6396 0
-6405 -112 6400 0
-6411 -124 6397 6401 0
-6415 -843 6405 0
6418 -6408 846 1026 0
6419 -6409 847 1027 0
-6420 6410 1028 848 0
6411 -6421 849 1029 0
1030 -6412 6422 850 0
-6418 6428 856 1036 0
6429 -6419 857 1037 0
-6430 6420 858 1038 0
6421 -6431 1039 859 0
1040 -6422 6432 860 0
6439 -6429 867 1047 0
-6440 6430 868 1048 0
6431 -6441 869 1049 0
1050 -6432 6442 870 0
-6428 -262 6440 0
6449 -6439 877 1057 0
-6450 6440 -878 0
6450 -6440 -1058 0
6441 -6451 1059 879 0
1060 -6442 6452 880 0
6459 -6449 887 1067 0
-6450 6460 888 1068 0
6451 -6461 889 1069 0
1070 -6452 6462 890 0
6469 -6459 1077 897 0
-6460 6470 1078 898 0
-6462 6472 1080 900 0
-6470 6461 -403 0
6479 -6469 907 1087 0
1090 -6472 6482 910 0
-6470 6481 -448 0
6489 -6479 917 1097 0
6491 -6481 919 1099 0
-6482 6492 1100 920 0
6499 -6489 1107 927 0
6501 -6491 929 1109 0
-6492 6502 1110 930 0
-6502 6512 1120 940 0
6509 -581 -6501 -6499 0
6511 -581 -6499 0
-6509 6519 947 1127 0
6521 -630 -6511 -6512 0
-6515 -648 6526 0
-6519 6529 -671 -6521 0
-6555 813 993 0
-6556 814 994 0
-6557 815 995 0
-6557 -815 0
-6560 818 998 0
-6560 -818 0
-6561 999 819 0
-6555 -18 0
-6561 -34 0
-6565 823 6555 1003 0
-6566 824 6556 1004 0
-6566 -824 6556 0
-6567 825 1005 6557 0
-6570 1008 6560 828 0
-828 -6570 6560 0
-6571 1009 6561 829 0
-6566 -70 6557 0
-6575 833 6565 1013 0
-6575 -833 6565 0
-6580 838 6570 1018 0
-6581 1019 6571 839 0
-6575 -108 6566 0
-6575 -112 6570 0
-6581 -124 6567 6571 0
-6585 -843 6575 0
-6590 6580 1028 848 0
6581 -6591 849 1029 0
-6600 6590 858 1038 0
6591 -6601 1039 859 0
-6610 6600 868 1048 0
6601 -6611 869 1049 0
-6620 6610 -878 0
6611 -6621 1059 879 0
6621 -6631 889 1069 0
-6640 6631 -403 0
-6685 -648 6696 0
-6726 814 994 0
-6727 815 995 0
-6727 -815 0
-6730 818 998 0
-6730 -818 0
-6731 999 819 0
-6725 -18 0
6726 -18 0
-6731 -34 0
-6735 6725 823 1003 0
-6726 6736 1004 824 0
-6736 824 6726 1004 0
-6736 -824 6726 0
-6737 825 1005 6727 0
-6740 1008 6730 828 0
-6740 -828 6730 0
-6741 1009 6731 829 0
-6735 -64 6727 0
-6736 -70 6727 0
-6737 -78 6730 0
-6745 6735 833 1013 0
6746 -6736 834 1014 0
-6746 834 6736 1014 0
-6750 838 6740 1018 0
-6751 1019 6741 839 0
-6745 -108 6736 0
-6746 -108 6735 6736 0
-6745 -109 6737 0
-6745 -112 6740 0
-6751 -124 6737 6741 0
-6760 6750 1028 848 0
6751 -6761 849 1029 0
-6755 -153 6746 0
-6770 6760 858 1038 0
6761 -6771 1039 859 0
-6780 6770 868 1048 0
6771 -6781 869 1049 0
-6790 6780 -878 0
6781 -6791 1059 879 0
6791 -6801 889 1069 0
-6810 6801 -403 0
-6855 -648 6866 0
-6895 813 993 0
-6895 -813 0
6896 814 994 0
6896 -994 0
-6897 815 995 0
-6897 -815 0
-6900 818 998 0
-6900 -818 0
-6901 999 819 0
-6901 -34 0
-6905 823 1003 6895 0
6906 824 -6896 1004 0
-6907 825 1005 6897 0
-6910 1008 6900 828 0
-6910 -828 6900 0
-6911 1009 6901 829 0
-6905 -64 6897 0
-6906 -70 6897 0
6907 -70 -6896 0
6910 -73 -6896 0
-6915 833 6905 1013 0
-6915 -833 6905 0
6916 834 -6906 1014 0
6917 -6907 1015 835 0
-6920 838 6910 1018 0
-6921 1019 6911 839 0
-6915 -108 6906 0
-6915 -112 6910 0
-6921 -124 6907 6911 0
-6925 -843 6915 0
-6930 6920 1028 848 0
6921 -6931 849 1029 0
-6940 6930 858 1038 0
6931 -6941 1039 859 0
-6950 6940 868 1048 0
6941 -6951 869 1049 0
-6960 6950 -878 0
6951 -6961 1059 879 0
6961 -6971 889 1069 0
-6980 6971 -403 0
-7025 -648 7036 0
7065 813 993 0
7066 814 994 0
-7067 815 995 0
-7067 -815 0
-7070 818 998 0
-7070 -818 0
-7071 999 819 0
7065 -18 0
7066 -18 0
-7071 -34 0
7075 823 -7065 1003 0
7076 824 -7066 1004 0
-7077 825 1005 7067 0
-7080 1008 7070 828 0
-7081 1009 7071 829 0
-7075 -64 7067 0
-7076 -70 7067 0
7077 -70 -7066 0
7080 -73 -7066 0
-7085 7075 -833 0
7086 834 -7076 1014 0
7087 -7077 1015 835 0
-7090 838 7080 1018 0
-7091 1019 7081 839 0
7085 -7077 -109 -7075 0
7087 -109 -7075 0
7090 -112 -7075 0
7090 -118 -7076 0
-7091 -124 7077 7081 0
-7095 7085 -843 0
-7100 7090 1028 848 0
7091 -7101 849 1029 0
7096 -7085 -153 0
-7110 7100 858 1038 0
7101 -7111 1039 859 0
-7120 7110 868 1048 0
7111 -7121 869 1049 0
-7130 7120 -878 0
7121 -7131 1059 879 0
7131 -7141 889 1069 0
-7150 7141 -403 0
-7195 -648 7206 0
-7235 813 993 0
-7236 814 994 0
7237 815 995 0
-7240 818 998 0
-7240 -818 0
-7235 -18 0
-7237 -33 0
-7237 -34 0
7241 -34 0
-7245 823 7235 1003 0
-7246 824 7236 1004 0
-7246 -824 7236 0
7247 825 -7237 1005 0
-7250 1008 7240 828 0
-7250 -828 7240 0
7251 -7241 829 1009 0
-7246 7237 -70 0
-7255 833 7245 1013 0
-7255 -833 7245 0
-7260 838 7250 1018 0
7261 -7251 839 1019 0
-7255 -108 7246 0
-7255 -112 7250 0
7261 -124 -7247 0
-7265 -843 7255 0
-7270 7260 1028 848 0
7271 -7261 849 1029 0
-7280 7270 858 1038 0
7281 -7271 859 1039 0
-7290 7280 868 1048 0
7291 -7281 869 1049 0
-7300 7290 -878 0
7301 -7291 879 1059 0
7311 -7301 1069 889 0
7321 -7311 -1079 0
-7365 -648 7376 0
-7405 813 993 0
-7406 814 994 0
7407 815 995 0
7407 -995 0
-7410 818 998 0
-7410 -818 0
-7405 -18 0
-7407 -33 0
-7407 -34 0
7411 -34 0
-7415 823 7405 1003 0
-7416 824 7406 1004 0
-7416 -824 7406 0
7417 825 -7407 1005 0
7417 -1005 -7407 0
-7420 1008 7410 828 0
-828 -7420 7410 0
7421 -7411 829 1009 0
-7416 7407 -70 0
-7425 833 7415 1013 0
-7425 -833 7415 0
-7430 838 7420 1018 0
7431 -7421 1019 839 0
-7425 -108 7416 0
-7425 -112 7420 0
7431 -124 -7417 0
-7435 -843 7425 0
-7440 7430 1028 848 0
7441 -7431 849 1029 0
-7450 7440 858 1038 0
7451 -7441 859 1039 0
-7460 7450 868 1048 0
7461 -7451 869 1049 0
-7470 7460 -878 0
7471 -7461 879 1059 0
7481 -7471 1069 889 0
7491 -7481 -1079 0
-7535 -648 7546 0
-7573 811 991 0
-7574 812 992 0
-7576 814 994 0
7577 815 995 0
7577 -995 0
-7580 818 998 0
-7580 -818 0
-7581 999 819 0
-7575 -18 0
7576 -18 0
7577 -31 0
-7577 -33 0
-7577 -34 0
7581 -34 0
-7583 -821 7573 0
-7584 822 1002 7574 0
-7585 7575 823 1003 0
7586 -7576 1004 824 0
-7586 824 7576 1004 0
-7586 -824 7576 0
7587 825 1005 -7577 0
-7590 1008 7580 828 0
-7590 -828 7580 0
7591 -7581 829 1009 0
-7591 1009 7581 829 0
-7585 -64 7577 0
-7586 7577 -70 0
-7595 7585 833 1013 0
-7595 -833 7585 0
7596 -7586 834 1014 0
-7596 834 7586 1014 0
-7600 838 7590 1018 0
7601 -7591 839 1019 0
-7601 1019 7591 839 0
-7594 -91 7583 7584 0
-7595 -108 7586 0
-7596 -108 7585 7586 0
-7595 -112 7590 0
7601 -124 -7587 0
-7610 7600 1028 848 0
7611 -7601 849 1029 0
-7605 -153 7596 0
-7620 7610 858 1038 0
7621 -7611 859 1039 0
-7630 7620 868 1048 0
7631 -7621 869 1049 0
-7640 7630 -878 0
7641 -7631 879 1059 0
7651 -7641 1069 889 0
7661 -7651 -1079 0
-7705 -648 7716 0
-7745 813 993 0
-7745 -813 0
7746 814 994 0
7746 -994 0
7747 815 995 0
-7750 998 818 0
-7747 -33 0
-7747 -34 0
7751 -34 0
-7750 -43 0
-7755 823 1003 7745 0
7756 824 -7746 1004 0
7757 825 -7747 1005 0
-7760 1008 7750 828 0
-7760 -828 7750 0
7761 -7751 829 1009 0
-7755 -64 7747 0
7757 -70 -7746 0
-7756 -73 7750 0
-7765 833 7755 1013 0
-7765 -833 7755 0
7766 834 -7756 1014 0
7767 835 -7757 1015 0
-7770 838 7760 1018 0
7771 -7761 839 1019 0
-7765 -112 7760 0
7771 -124 -7757 0
-7775 -843 7765 0
-7780 7770 1028 848 0
7781 -7771 849 1029 0
-7790 7780 858 1038 0
7791 -7781 859 1039 0
-7800 7790 868 1048 0
7801 -7791 869 1049 0
-7810 7800 -878 0
7811 -7801 879 1059 0
7821 -7811 1069 889 0
7831 -7821 -1079 0
-7875 -648 7886 0
-7915 813 993 0
-7915 -813 0
7916 814 994 0
7916 -994 0
7917 815 995 0
-7920 998 818 0
-7921 999 819 0
-7917 -33 0
-7917 -34 0
7921 -34 0
-7920 -43 0
-7921 -43 0
-7925 823 1003 7915 0
-7925 -823 7915 0
7926 824 -7916 1004 0
7927 825 -7917 1005 0
-7930 1008 7920 828 0
7931 -7921 829 1009 0
-7931 1009 7921 829 0
7927 -70 -7916 0
-7926 -73 7920 0
-7930 -88 7921 0
-7931 -88 7920 7921 0
-7935 833 7925 1013 0
-7935 -833 7925 0
7936 834 -7926 1014 0
7937 835 -7927 1015 0
-7940 838 7930 1018 0
7941 -7931 1019 839 0
-7941 1019 7931 839 0
-7935 -112 7930 0
7941 -124 -7927 0
-133 -7941 7930 7931 0
-7945 -843 7935 0
-7950 7940 1028 848 0
7951 -7941 849 1029 0
7941 -7951 849 1029 0
7940 -178 -7951 7941 0
-7960 7950 858 1038 0
7961 -7951 859 1039 0
7951 -7961 1039 859 0
7950 7951 -223 -7961 0
-7970 7960 868 1048 0
7971 -7961 869 1049 0
7961 -7971 869 1049 0
7961 7960 -268 -7971 0
-7980 7970 878 1058 0
-7980 7970 -878 0
7981 -7971 879 1059 0
7971 -7981 1059 879 0
7971 7970 -7981 -313 0
-7990 7980 888 1068 0
7991 -7981 1069 889 0
7981 -7991 889 1069 0
7981 -358 7980 -7991 0
7991 -8001 899 1079 0
8001 -7991 -1079 0
7990 -403 -8001 7991 0
8001 -8011 1089 909 0
8011 -8021 1099 919 0
-8018 8011 -488 0
8011 -493 -8020 0
-8028 8018 -926 0
-528 -8027 8020 0
8021 -538 -8030 0
-8045 8056 -648 0
8085 813 993 0
8086 814 994 0
8087 815 995 0
-8090 998 818 0
8085 -18 0
8086 -18 0
-8087 -33 0
-8087 -34 0
8091 -34 0
-8090 -43 0
8095 823 -8085 1003 0
8096 824 -8086 1004 0
8097 825 -8087 1005 0
-8100 1008 8090 828 0
8101 -8091 829 1009 0
-8095 -64 8087 0
8097 -70 -8086 0
-8096 -73 8090 0
-8105 8095 -833 0
8106 834 -8096 1014 0
8107 835 -8097 1015 0
-8110 838 8100 1018 0
8111 -8101 839 1019 0
8105 -109 -8097 -8095 0
8107 -109 -8095 0
8110 -112 -8095 0
8110 -118 -8096 0
8111 -124 -8097 0
-8115 8105 -843 0
-8120 8110 1028 848 0
8121 -8111 849 1029 0
8116 -8105 -153 0
-8130 8120 858 1038 0
8131 -8121 859 1039 0
-8140 8130 868 1048 0
8141 -8131 869 1049 0
-8150 8140 -878 0
8151 -8141 879 1059 0
8161 -8151 1069 889 0
8171 -8161 -1079 0
-8215 8226 -648 0
-8255 813 993 0
-8256 814 994 0
-8257 815 995 0
-8257 -815 0
998 818 8260 0
-8261 999 819 0
-8255 -18 0
-8261 -34 0
-8260 -43 0
-8265 823 8255 1003 0
-8266 824 8256 1004 0
-8266 -824 8256 0
-8267 825 1005 8257 0
8270 1008 -8260 828 0
-8271 1009 8261 829 0
-8266 -70 8257 0
-8270 -88 8261 0
-8275 833 8265 1013 0
-8275 -833 8265 0
8280 838 -8270 1018 0
-8281 1019 8271 839 0
-8275 -108 8266 0
-8275 8270 -112 0
-8281 -124 8267 8271 0
-8285 -843 8275 0
-8280 8290 848 1028 0
8281 -8291 849 1029 0
-8290 8300 858 1038 0
8291 -8301 1039 859 0
-8300 8310 868 1048 0
8301 -8311 869 1049 0
8311 -8321 1059 879 0
8321 -8310 -313 0
8321 -8331 889 1069 0
-8340 8331 -403 0
-8385 -648 8396 0
-8415 -1163 0
-8415 -783 0
-8423 811 991 0
-8424 812 992 0
-8425 813 993 0
-8426 814 994 0
-8427 815 995 0
-8427 -815 0
8428 996 816 0
-8429 817 997 0
998 818 8430 0
-8431 999 819 0
-8425 -18 0
-8427 -19 0
-8431 -23 0
-8427 -25 0
-8431 -29 0
-8431 -34 0
-8430 -43 0
-8433 821 1001 8423 0
-8434 822 1002 8424 0
-8435 823 8425 1003 0
-8436 824 8426 1004 0
-8436 -824 8426 0
-8437 825 1005 8427 0
8438 826 -8428 1006 0
-8439 827 1007 8429 0
8440 1008 -8430 828 0
-8441 1009 8431 829 0
-8437 -64 8427 8425 0
-8436 -70 8427 0
-8437 -70 8426 8427 0
-8441 -79 8427 8431 0
-8440 -88 8431 0
-8443 831 8433 1011 0
-8444 1012 832 8434 0
-8445 833 8435 1013 0
-8445 -833 8435 0
-8447 1015 8437 835 0
8448 -8438 836 1016 0
8448 -1016 -8438 0
-8449 837 8439 1017 0
8450 838 -8440 1018 0
-8451 1019 8441 839 0
-8445 -108 8436 0
-8446 -108 8436 8435 0
-8447 -109 8437 8435 0
-8445 8440 -112 0
-8451 -124 8437 8441 0
841 -8453 8443 1021 0
-8454 8444 842 1022 0
-8455 8445 843 1023 0
-8455 -843 8445 0
-8456 8446 844 1024 0
-8457 8447 845 1025 0
8458 -8448 846 1026 0
-8459 8449 847 1027 0
-8450 8460 848 1028 0
8451 -8461 849 1029 0
8451 -8461 -169 8447 0
-8460 8451 -178 0
851 -8463 8453 1031 0
-8464 8454 852 1032 0
-8465 8455 853 1033 0
-8466 8456 1034 854 0
-8467 8457 855 1035 0
8468 -8458 1036 856 0
8468 -8458 -1036 0
-8469 8459 857 1037 0
8470 -8460 858 1038 0
8461 -8471 1039 859 0
-8470 -213 8460 8457 0
8461 -8471 -214 8457 0
-8473 8463 -861 0
-8474 8464 1042 862 0
-8475 8465 1043 863 0
-8476 8466 1044 864 0
-8477 8467 865 1045 0
8478 -8468 866 1046 0
8478 -8468 -1046 0
-8479 8469 867 1047 0
8480 -8470 868 1048 0
-8480 8470 868 1048 0
-8480 8470 -868 0
8471 -8481 869 1049 0
8471 -259 -8481 8467 0
8471 -8480 -268 0
-8485 8475 1053 873 0
-8486 8476 1054 874 0
-8487 8477 875 1055 0
-8487 8477 -875 0
8488 -8478 876 1056 0
-8478 8488 -1056 0
-8489 8479 877 1057 0
-8489 8479 -877 0
8490 -8480 878 1058 0
-8490 8480 878 1058 0
-8490 8480 -878 0
8481 -8491 1059 879 0
-8484 -271 8473 8474 0
8477 -304 -8491 8481 0
8481 -8490 -313 0
8491 -8480 -313 0
-8494 8484 1062 882 0
-8495 8485 1063 883 0
-8496 8486 884 1064 0
-8497 8487 1065 885 0
8498 -8488 886 1066 0
-8499 8489 887 1067 0
-8499 8489 -887 0
8500 -8490 888 1068 0
-8500 8490 1068 888 0
8491 -8501 889 1069 0
-8497 8491 -349 0
8487 -349 -8501 8491 0
8498 -352 -8488 -8490 0
8491 -8500 -358 0
-8504 8494 892 1072 0
-8505 8495 1073 893 0
8496 -8506 1074 894 0
-8507 8497 895 1075 0
-8498 8508 896 1076 0
-8498 8508 -1076 0
-8509 8499 1077 897 0
-8509 8499 -897 0
8500 -8510 1078 898 0
8501 -8511 899 1079 0
-393 8500 -8510 8497 0
8501 -394 -8511 8497 0
-8498 -8500 -397 8508 0
8501 -8510 -403 0
8505 -8515 1083 903 0
8506 -8516 1084 904 0
-8517 8507 905 1085 0
-8508 8518 1086 906 0
-8508 -1086 8518 0
-8519 8509 907 1087 0
-8519 8509 -907 0
8510 -8520 1088 908 0
8511 -8521 1089 909 0
-420 8504 -8520 8510 0
-438 8507 8510 -8520 0
8507 -439 -8521 8511 0
8510 -8520 8509 -445 0
8511 -448 -8520 0
-8518 8528 1096 916 0
-8529 8519 917 1097 0
-8529 8519 -917 0
8520 -8530 1098 918 0
8521 -8531 1099 919 0
8515 -472 -8530 8520 0
8516 -478 -8530 8520 0
8517 8520 -483 -8530 0
8520 -8530 8519 -490 0
8521 -493 -8530 0
-8528 8538 1106 926 0
-8539 8529 1107 927 0
-8539 8529 -927 0
8530 -8540 928 1108 0
8530 -8540 -928 0
8530 -8540 -535 8529 0
8531 -538 -8540 0
-8538 8548 1116 936 0
-8549 8539 1117 937 0
-8549 8539 -937 0
8540 -8550 938 1118 0
8540 -8550 -580 8539 0
-8548 8558 1126 946 0
-8559 8549 1127 947 0
-8559 8549 -947 0
8550 -8560 948 1128 0
-8560 8549 -625 8550 0
-8558 8568 956 1136 0
-8569 8559 -957 0
8560 -8570 958 1138 0
-8555 -648 8566 0
8560 -8570 8559 -670 0
-8568 966 8578 1146 0
8570 8569 -715 -8580 0
-8593 811 991 0
-8594 812 992 0
-8595 813 993 0
-8595 -813 0
-8596 814 994 0
-8596 -814 0
-8597 815 995 0
-8597 -815 0
-8598 996 816 0
-8598 -816 0
8599 817 997 0
998 818 8600 0
-998 8600 0
-8601 999 819 0
8602 1000 820 0
-8596 -18 0
-8597 -19 0
-8598 -20 0
-8601 -23 0
-8597 -25 0
-8598 -26 0
-8601 -29 0
-8598 -31 0
-8601 -34 0
-8601 -38 0
-8600 -43 0
8601 -43 0
-8603 821 1001 8593 0
-8603 -821 8593 0
-8604 822 1002 8594 0
-8605 823 1003 8595 0
-8605 -823 8595 0
-8606 824 8596 1004 0
-8606 -824 8596 0
-8607 825 8597 1005 0
-8607 -825 8597 0
-8608 826 8598 1006 0
-8608 -826 8598 0
8609 827 1007 -8599 0
8610 1008 -8600 828 0
-8610 828 8600 1008 0
8610 -1008 -8600 0
8611 1009 -8601 829 0
-8611 1009 8601 829 0
8611 -1009 -8601 0
1010 8612 830 -8602 0
-8607 -49 8593 8597 0
-8608 -50 8593 8598 0
-8607 -64 8595 8597 0
-8608 -65 8595 8598 0
-67 -8610 8600 8595 0
-8611 -68 8595 8601 0
-8607 -70 8596 8597 0
-8608 -71 8596 8598 0
-73 -8610 8600 8596 0
-8611 -74 8596 8601 0
-8608 -76 8597 8598 0
-8610 -78 8600 8597 0
-79 -8611 8601 8597 0
-8610 -82 8600 8598 0
-83 -8611 8598 8601 0
-8610 -88 8601 0
-88 8611 -8600 0
-8615 833 8605 1013 0
-8615 -833 8605 0
-8617 1015 8607 835 0
-8618 836 8608 1016 0
8619 837 -8609 1017 0
8620 838 -8610 1018 0
-8620 8610 1018 838 0
-8620 8610 -838 0
8620 -1018 -8610 0
8621 -8611 1019 839 0
-8621 1019 8611 839 0
8621 -8611 -1019 0
1020 -8612 8622 840 0
-8614 -91 8603 8604 0
-8615 -92 8603 8605 0
-8620 -112 8605 8610 0
-8620 -118 8610 8606 0
-8617 -121 8608 0
-8620 -123 8610 8607 0
-124 -8621 8607 8611 0
-8620 -127 8610 8608 0
-8621 -128 8608 8611 0
8621 -131 -8609 0
-8620 -133 8611 0
8621 -133 -8610 0
-8625 8615 843 1023 0
-8625 -843 8615 0
-8627 8617 845 1025 0
8629 -8619 847 1027 0
8630 -8620 848 1028 0
-8630 8620 1028 848 0
8630 -8620 -1028 0
8631 -8621 849 1029 0
8621 -8631 849 1029 0
8631 -8621 -1029 0
1030 -8622 8632 850 0
-168 -8630 8620 8617 0
8621 -8631 -169 8617 0
-8618 8631 -173 0
8618 -173 -8631 8621 0
8629 -176 -8621 -8619 0
8631 -176 -8619 0
-8630 8621 -178 0
8630 -178 -8621 -8620 0
8631 -8620 -178 0
8620 -178 -8631 8621 0
-8637 8627 855 1035 0
8639 -8629 857 1037 0
-8630 8640 858 1038 0
-8640 8630 1038 858 0
8640 -8630 -1038 0
8641 -8631 859 1039 0
8631 -8641 1039 859 0
8641 -8631 -1039 0
1040 -8632 8642 860 0
-213 8630 -8640 8627 0
8631 -8641 -214 8627 0
-8638 -217 8630 0
8639 -8631 -221 -8629 0
8641 -8629 -221 0
-8640 8631 -223 0
8640 -8630 -8631 -223 0
8641 -8630 -223 0
-8647 8637 865 1045 0
8649 -8639 867 1047 0
-8640 8650 868 1048 0
-8650 8640 868 1048 0
-8640 8650 -1048 0
8651 -8641 869 1049 0
8641 -8651 1049 869 0
8651 -1049 -8641 0
1050 -8642 8652 870 0
-258 -8650 8637 8640 0
8638 -263 -8651 8641 0
8649 -8639 -8641 -266 0
8651 -8639 -266 0
8641 -8650 -268 0
8650 -8640 -268 -8641 0
8651 -8640 -268 0
8640 8641 -268 -8651 0
8651 -8641 -270 -8642 0
-8657 8647 875 1055 0
8659 -8649 877 1057 0
8660 -8650 1058 878 0
-8660 8650 1058 878 0
-8660 8650 -878 0
8660 -8650 -1058 0
8661 -8651 879 1059 0
8651 -8661 1059 879 0
8661 -8651 -1059 0
1060 -8652 8662 880 0
1060 -8662 8652 880 0
8651 -8659 -311 0
8659 -8649 -311 -8651 0
8661 -8649 -311 0
-8660 8651 -313 0
8660 -8650 -8651 -313 0
8661 -8650 -313 0
8661 -8651 -315 -8652 0
-8657 8667 1065 885 0
-8667 8657 1065 885 0
8669 -8659 887 1067 0
8659 -8669 1067 887 0
-8660 8670 888 1068 0
-8670 8660 888 1068 0
-8660 8670 -1068 0
8671 -8661 1069 889 0
8661 -8671 889 1069 0
8661 -8671 -889 0
8671 -1069 -8661 0
1070 -8662 8672 890 0
-8672 8662 1070 890 0
8658 -8670 8660 -352 0
8669 -8659 -356 -8661 0
8671 -8659 -356 0
8661 -8670 -358 0
-8660 8670 -8661 -358 0
8671 -8660 -358 0
8671 -360 -8661 -8662 0
-8667 8677 895 1075 0
8679 -8669 1077 897 0
8669 -8679 -897 0
-8670 8680 898 1078 0
-8680 8670 1078 898 0
-8670 8680 -1078 0
8681 -8671 899 1079 0
8671 -8681 899 1079 0
8681 -8671 -1079 0
-8672 8682 1080 900 0
-8682 8672 1080 900 0
-393 -8680 8670 8667 0
-8680 8670 -397 8668 0
8671 -8679 -401 0
8679 -8671 -401 -8669 0
8681 -8669 -401 0
-8680 8671 -403 0
8680 -403 -8671 -8670 0
8681 -8670 -403 0
8670 -403 -8681 8671 0
8681 -405 -8671 -8672 0
-8677 8687 905 1085 0
8689 -8679 907 1087 0
8690 -8680 1088 908 0
8690 -8680 -1088 0
8691 -8681 909 1089 0
8681 -8691 1089 909 0
8691 -1089 -8681 0
1090 -8682 8692 910 0
1090 -8692 8682 910 0
-8680 8689 -8679 -445 0
8679 8680 -8690 -445 0
-8679 8689 -8681 -446 0
8691 -446 -8679 0
8681 -448 -8690 0
8690 -8680 -8681 -448 0
-8680 8691 -448 0
8691 -8681 -450 -8682 0
-8687 8697 915 1095 0
8699 -8689 917 1097 0
8700 -8690 918 1098 0
8700 -8690 -1098 0
8701 -8691 919 1099 0
8691 -8701 919 1099 0
8701 -1099 -8691 0
-8692 8702 1100 920 0
-8702 8692 1100 920 0
-8689 -8690 -490 8699 0
-8689 8700 -490 0
8699 -8689 -491 -8691 0
8701 -8689 -491 0
8700 -8690 -8691 -493 0
8701 -493 -8690 0
8701 -495 -8691 -8692 0
8709 -8699 927 1107 0
-8699 8709 -1107 0
8710 -8700 928 1108 0
8710 -8700 -1108 0
8711 -8701 929 1109 0
8711 -1109 -8701 0
-8702 8712 1110 930 0
-8700 8709 -8699 -535 0
8700 8699 -535 -8710 0
-8699 -536 8709 -8701 0
8711 -536 -8699 0
8701 -538 -8710 0
8710 -8700 -538 -8701 0
8711 -538 -8700 0
-540 -8711 8702 0
8711 -540 -8701 -8702 0
8719 -8709 1117 937 0
-8709 -1117 8719 0
8720 -8710 1118 938 0
8710 -8720 938 1118 0
8720 -1118 -8710 0
8721 1119 -8711 939 0
8721 -8711 -1119 0
-8712 8722 1120 940 0
-8709 8719 -580 -8710 0
8720 -580 -8709 0
8719 -8709 -8711 -581 0
8721 -581 -8709 0
8721 -585 -8711 -8712 0
8729 -8719 1127 947 0
8730 -8720 1128 948 0
8720 -8730 1128 948 0
8730 -8720 -1128 0
8731 -8721 949 1129 0
-8722 8732 1130 950 0
-8720 -8719 -625 8729 0
8730 -8719 -625 0
8729 -626 -8721 -8719 0
8730 -628 -8721 -8720 0
8731 -630 -8721 -8722 0
8739 -8729 1137 957 0
8740 -8730 958 1138 0
8730 -8740 958 1138 0
8740 -8730 -1138 0
8741 1139 -8731 959 0
-8732 8742 1140 960 0
-8725 -648 8736 0
-8729 8739 -670 -8730 0
8740 -8729 -670 0
8730 -8740 8729 -670 0
8739 -671 -8731 -8729 0
8740 -673 -8731 -8730 0
8741 -675 -8731 -8732 0
-8739 967 8749 1147 0
-8739 -1147 8749 0
8750 -8740 1148 968 0
8740 -8749 -715 0
-8739 -8740 -715 8749 0
-8739 8750 -715 0
8739 8740 -715 -8750 0
-8740 8750 -718 -8741 0
8751 -720 -8741 -8742 0
-8749 1157 977 8759 0
-8759 8750 -760 0
8750 -760 -8760 8749 0
-8755 -1163 0
-8754 -775 0
8760 8759 -805 0
-8766 814 994 0
-8767 815 995 0
-8767 -815 0
998 818 8770 0
-8771 999 819 0
-8765 -18 0
-8771 -34 0
-8770 -43 0
-8775 8765 823 1003 0
-8776 824 8766 1004 0
-8776 -824 8766 0
-8777 825 1005 8767 0
-8777 -825 8767 0
8780 1008 -8770 828 0
-8781 1009 8771 829 0
-8775 -64 8767 0
-8776 -70 8767 0
-8780 -88 8771 0
-8785 8775 833 1013 0
-8786 834 8776 1014 0
8790 838 -8780 1018 0
-8791 1019 8781 839 0
-8785 -108 8776 0
-8786 -108 8775 8776 0
-8785 -109 8777 0
-8785 8780 -112 0
-8791 -124 8777 8781 0
8800 -8790 1028 848 0
8791 -8801 849 1029 0
-8795 -153 8786 0
8810 -8800 858 1038 0
8801 -8811 1039 859 0
8820 -8810 868 1048 0
8811 -8821 869 1049 0
8821 -8831 1059 879 0
8831 -8820 -313 0
8831 -8841 889 1069 0
-8850 8841 -403 0
-8895 -648 8906 0
-8935 813 993 0
-8935 -813 0
8936 814 994 0
-8937 815 995 0
-8937 -815 0
998 818 8940 0
-8941 999 819 0
-8941 -34 0
-8940 -43 0
-8945 823 1003 8935 0
-8947 825 1005 8937 0
8950 1008 -8940 828 0
-8951 1009 8941 829 0
-8945 -64 8937 0
-8946 -70 8937 0
8947 -70 -8936 0
-8946 -73 8940 0
-8950 -88 8941 0
-8955 833 8945 1013 0
-8955 -833 8945 0
8957 -8947 1015 835 0
8960 838 -8950 1018 0
-8961 1019 8951 839 0
-8955 -108 8946 0
-8955 8950 -112 0
-8961 -124 8947 8951 0
-8965 -843 8955 0
8970 -8960 1028 848 0
8961 -8971 849 1029 0
8980 -8970 858 1038 0
8971 -8981 1039 859 0
8990 -8980 868 1048 0
8981 -8991 869 1049 0
8991 -9001 1059 879 0
9001 -8990 -313 0
9001 -9011 889 1069 0
-9020 9011 -403 0
-9065 -648 9076 0
9105 813 993 0
9106 814 994 0
-9107 815 995 0
-9107 -815 0
998 818 9110 0
-9111 999 819 0
9105 -18 0
9106 -18 0
-9111 -34 0
-9110 -43 0
9115 823 -9105 1003 0
9116 824 -9106 1004 0
-9117 825 1005 9107 0
9120 1008 -9110 828 0
-9121 1009 9111 829 0
-9115 -64 9107 0
-9116 -70 9107 0
9117 -70 -9106 0
9120 -73 -9106 0
-9120 -88 9111 0
-9125 9115 -833 0
9127 -9117 1015 835 0
9130 838 -9120 1018 0
-9131 1019 9121 839 0
-9117 -109 9125 -9115 0
9127 -109 -9115 0
-9125 9120 -112 0
9130 -112 -9115 0
9130 -118 -9116 0
-9131 -124 9117 9121 0
-9135 -843 9125 0
9140 -9130 1028 848 0
9131 -9141 849 1029 0
9136 -9125 -153 0
9150 -9140 858 1038 0
9141 -9151 1039 859 0
9160 -9150 868 1048 0
9151 -9161 869 1049 0
9161 -9171 1059 879 0
9171 -9160 -313 0
9171 -9181 889 1069 0
-9190 9181 -403 0
-9235 -648 9246 0
9274 992 812 0
9275 813 993 0
9276 814 994 0
-9277 815 995 0
-9277 -815 0
998 818 9280 0
-9281 999 819 0
9275 -18 0
9276 -18 0
-9281 -34 0
-9280 -43 0
9284 822 -9274 1002 0
9285 823 -9275 1003 0
9286 824 -9276 1004 0
-9287 825 1005 9277 0
9290 1008 -9280 828 0
-9291 1009 9281 829 0
-9285 -64 9277 0
-9286 -70 9277 0
9287 -70 -9276 0
-73 -9286 9280 0
-9290 -88 9281 0
9294 1012 832 -9284 0
-9295 9285 -833 0
9297 -9287 1015 835 0
9300 838 -9290 1018 0
-9301 1019 9291 839 0
-9287 -109 9295 -9285 0
9297 -109 -9285 0
-9295 9290 -112 0
9300 -112 -9285 0
9300 -118 -9286 0
-9301 -124 9287 9291 0
9304 -9294 842 1022 0
-9305 -843 9295 0
9310 -9300 1028 848 0
9301 -9311 849 1029 0
9306 -9295 -153 0
9314 -9304 852 1032 0
9320 -9310 858 1038 0
9311 -9321 1039 859 0
9324 -9314 862 1042 0
-9314 9324 -1042 0
9330 -9320 868 1048 0
9321 -9331 869 1049 0
9334 -9324 1052 872 0
9334 -1052 -9324 0
9331 -9341 1059 879 0
9341 -9330 -313 0
9344 -9334 882 1062 0
9344 -1062 -9334 0
9341 -9351 889 1069 0
-9347 9341 -349 0
9354 -9344 1072 892 0
-1072 9354 -9344 0
-9357 9347 895 1075 0
9351 -9361 899 1079 0
-9360 9351 -403 0
9364 -9354 902 1082 0
9364 -1082 -9354 0
-9367 9357 905 1085 0
9361 -9371 1089 909 0
9365 -415 -9354 0
-420 -9360 -9354 9364 0
9374 -9364 1092 912 0
9374 -1092 -9364 0
9371 -9381 1099 919 0
9375 -460 -9364 0
-461 9376 -9364 0
-462 -9377 9364 9367 0
9384 -9374 1102 922 0
9384 -1102 -9374 0
-9375 9385 -1103 0
-9376 -1104 9386 0
9377 -9387 -925 0
-505 9385 -9374 0
-9375 -513 9386 0
9394 -9384 932 1112 0
9394 -1112 -9384 0
-550 9395 -9384 0
9404 -9394 1122 942 0
9405 -595 -9394 0
9406 -596 -9394 0
9414 -9404 1132 952 0
9414 -1132 -9404 0
-9406 9416 -1134 0
-9405 9416 -648 0
-9414 1142 9424 962 0
-9414 -1142 9424 0
-9416 964 9426 1144 0
-685 -9414 9425 0
-686 -9414 9426 0
-9424 972 1152 9434 0
-731 -9424 9436 0
-9445 813 993 0
-9446 814 994 0
9447 815 995 0
998 818 9450 0
-9451 999 819 0
-9445 -18 0
9447 -33 0
-9447 -34 0
9451 -34 0
-9450 -43 0
-9455 823 9445 1003 0
-9456 824 9446 1004 0
-9456 -824 9446 0
9457 825 -9447 1005 0
9457 -1005 -9447 0
9460 1008 -9450 828 0
9461 1009 829 -9451 0
-9460 -88 9451 0
-9465 833 9455 1013 0
-9465 -833 9455 0
9467 835 -9457 1015 0
9470 838 -9460 1018 0
9471 -9461 839 1019 0
-9465 -108 9456 0
-9465 9460 -112 0
9471 -124 -9457 0
-9475 -843 9465 0
9480 -9470 1028 848 0
9481 -9471 849 1029 0
9490 -9480 858 1038 0
9491 -9481 859 1039 0
9500 -9490 868 1048 0
9501 -9491 869 1049 0
9511 -9501 879 1059 0
9511 -9500 -313 0
9521 -9511 1069 889 0
9531 -9521 -1079 0
-9575 -648 9586 0
9615 813 993 0
-9616 814 994 0
9617 815 995 0
998 818 9620 0
-9621 999 819 0
-9615 -18 0
9616 -18 0
9617 -33 0
-9617 -34 0
9621 -34 0
-9620 -43 0
-9625 9615 823 1003 0
9626 -9616 1004 824 0
-9626 824 9616 1004 0
-9626 -824 9616 0
9627 825 -9617 1005 0
9627 -1005 -9617 0
9630 1008 -9620 828 0
9631 1009 829 -9621 0
-9630 -88 9621 0
-9635 9625 833 1013 0
-9635 -833 9625 0
9636 -9626 834 1014 0
-9636 834 9626 1014 0
9637 835 -9627 1015 0
9640 838 -9630 1018 0
9641 -9631 839 1019 0
-9635 -108 9626 0
-9635 9630 -112 0
9641 -124 -9627 0
-9645 -843 9635 0
9650 -9640 1028 848 0
9651 -9641 849 1029 0
-9645 -153 9636 0
9660 -9650 858 1038 0
9661 -9651 859 1039 0
9670 -9660 868 1048 0
9671 -9661 869 1049 0
9681 -9671 879 1059 0
9681 -9670 -313 0
9691 -9681 1069 889 0
9701 -9691 -1079 0
-9745 -648 9756 0
-9785 813 993 0
-9785 -813 0
9786 814 994 0
9786 -994 0
9787 815 995 0
998 818 9790 0
-9791 999 819 0
-9787 -34 0
9791 -34 0
-9790 -43 0
-9795 823 1003 9785 0
-9795 -823 9785 0
9796 824 -9786 1004 0
9797 825 -9787 1005 0
9800 1008 -9790 828 0
9801 1009 829 -9791 0
-9795 -64 9787 0
9797 -70 -9786 0
-73 -9796 9790 0
-9800 -88 9791 0
-9805 833 9795 1013 0
-9805 -833 9795 0
9806 834 -9796 1014 0
9807 835 -9797 1015 0
9810 838 -9800 1018 0
9811 -9801 839 1019 0
-9805 9800 -112 0
9811 -124 -9797 0
-9815 -843 9805 0
9820 -9810 1028 848 0
9821 -9811 849 1029 0
9830 -9820 858 1038 0
9831 -9821 859 1039 0
9840 -9830 868 1048 0
9841 -9831 869 1049 0
9851 -9841 879 1059 0
9851 -9840 -313 0
9861 -9851 1069 889 0
9871 -9861 -1079 0
-9915 -648 9926 0
9955 813 993 0
9956 814 994 0
9957 815 995 0
998 818 9960 0
9955 -18 0
9956 -18 0
9957 -33 0
-9957 -34 0
9961 -34 0
-9960 -43 0
9965 823 -9955 1003 0
9966 824 -9956 1004 0
9967 825 -9957 1005 0
9970 1008 -9960 828 0
9971 1009 829 -9961 0
-9965 -64 9957 0
9965 -64 -9957 -9955 0
9967 -70 -9956 0
-73 -9966 9960 0
-9975 9965 -833 0
9976 834 -9966 1014 0
9977 835 -9967 1015 0
9980 838 -9970 1018 0
9981 -9971 839 1019 0
9975 -108 -9966 -9965 0
9975 -109 -9967 -9965 0
9977 -109 -9965 0
9980 -112 -9965 0
9980 -118 -9966 0
9981 -124 -9967 0
9990 -9980 1028 848 0
9991 -9981 849 1029 0
9986 -9975 -153 0
10000 -9990 858 1038 0
10001 -9991 859 1039 0
10010 -10000 868 1048 0
10011 -10001 869 1049 0
10021 -10011 879 1059 0
10021 -10010 -313 0
10031 -10021 1069 889 0
10041 -10031 -1079 0
-10085 10096 -648 0
10124 992 812 0
10125 813 993 0
10126 814 994 0
10127 815 995 0
818 998 10130 0
10130 -998 0
-10131 999 819 0
10125 -18 0
10126 -18 0
10127 -33 0
-10127 -34 0
10131 -34 0
-10130 -43 0
10134 822 -10124 1002 0
10135 823 -10125 1003 0
10136 824 -10126 1004 0
10137 825 -10127 1005 0
10140 1008 -10130 828 0
10141 1009 829 -10131 0
-10141 1009 10131 829 0
-10135 -64 10127 0
10135 -64 -10127 -10125 0
10137 -70 -10126 0
-10136 -73 10130 0
10144 1012 832 -10134 0
-10145 10135 -833 0
10146 834 -10136 1014 0
10147 835 -10137 1015 0
10150 838 -10140 1018 0
10151 -10141 839 1019 0
-10151 1019 10141 839 0
10145 -108 -10136 -10135 0
10145 -109 -10137 -10135 0
10147 -109 -10135 0
10150 -112 -10135 0
10150 -118 -10136 0
10151 -124 -10137 0
10154 -10144 842 1022 0
10160 -10150 1028 848 0
10161 -10151 849 1029 0
10151 -10161 849 1029 0
10156 -10145 -153 0
10164 -10154 852 1032 0
10170 -10160 858 1038 0
10171 -10161 859 1039 0
10161 -10171 1039 859 0
10174 -10164 1042 862 0
10180 -10170 868 1048 0
10181 -10171 869 1049 0
10171 -10181 869 1049 0
10184 -10174 1052 872 0
10191 -10181 879 1059 0
10181 -10191 1059 879 0
10191 -10180 -313 0
10194 -10184 882 1062 0
10201 -10191 1069 889 0
10191 -10201 889 1069 0
10204 -10194 1072 892 0
10201 -10211 899 1079 0
10211 -10201 -1079 0
10214 -10204 902 1082 0
10224 -10214 1092 912 0
10234 -10224 1102 922 0
10244 -10234 932 1112 0
10244 -1112 -10234 0
10258 -598 -10244 0
-10295 813 993 0
-10296 814 994 0
-10297 815 995 0
-10297 -815 0
998 818 10300 0
-10301 999 819 0
-10295 -18 0
-10301 -34 0
-10300 -43 0
-10305 823 10295 1003 0
-10306 824 10296 1004 0
-10306 -824 10296 0
-10307 825 1005 10297 0
10310 1008 -10300 828 0
-10311 1009 10301 829 0
-10306 -70 10297 0
-10310 -88 10301 0
-10315 833 10305 1013 0
-10315 -833 10305 0
10320 838 -10310 1018 0
-10321 1019 10311 839 0
-10315 -108 10306 0
-10315 10310 -112 0
-10321 -124 10307 10311 0
-10325 -843 10315 0
10330 -10320 1028 848 0
10321 -10331 849 1029 0
10340 -10330 858 1038 0
10331 -10341 1039 859 0
10350 -10340 868 1048 0
10341 -10351 869 1049 0
10351 -10361 1059 879 0
10361 -10350 -313 0
10361 -10371 889 1069 0
-10380 10371 -403 0
-10425 -648 10436 0
-10466 814 994 0
-10467 815 995 0
-10467 -815 0
998 818 10470 0
-10471 999 819 0
-10465 -18 0
-10471 -34 0
-10470 -43 0
-10475 10465 823 1003 0
-10476 824 10466 1004 0
-10476 -824 10466 0
-10477 825 1005 10467 0
-10477 -825 10467 0
10480 1008 -10470 828 0
-10481 1009 10471 829 0
-10475 -64 10467 0
-10476 -70 10467 0
-10480 -88 10471 0
-10485 10475 833 1013 0
-10486 834 10476 1014 0
10490 838 -10480 1018 0
-10491 1019 10481 839 0
-10485 -108 10476 0
-10486 -108 10475 10476 0
-10485 -109 10477 0
-10485 10480 -112 0
-10491 -124 10477 10481 0
10500 -10490 1028 848 0
10491 -10501 849 1029 0
-10495 -153 10486 0
10510 -10500 858 1038 0
10501 -10511 1039 859 0
10520 -10510 868 1048 0
10511 -10521 869 1049 0
10521 -10531 1059 879 0
10531 -10520 -313 0
10531 -10541 889 1069 0
-10550 10541 -403 0
-10595 -648 10606 0
-10635 813 993 0
-10635 -813 0
10636 814 994 0
-10637 815 995 0
-10637 -815 0
998 818 10640 0
-10641 999 819 0
-10641 -34 0
-10640 -43 0
-10645 823 1003 10635 0
-10647 825 1005 10637 0
10650 1008 -10640 828 0
-10651 1009 10641 829 0
-10645 -64 10637 0
-10646 -70 10637 0
10647 -70 -10636 0
-10646 -73 10640 0
-10650 -88 10641 0
-10655 833 10645 1013 0
-10655 -833 10645 0
10657 -10647 1015 835 0
10660 838 -10650 1018 0
-10661 1019 10651 839 0
-10655 -108 10646 0
-10655 10650 -112 0
-10661 -124 10647 10651 0
-10665 -843 10655 0
10670 -10660 1028 848 0
10661 -10671 849 1029 0
10680 -10670 858 1038 0
10671 -10681 1039 859 0
10690 -10680 868 1048 0
10681 -10691 869 1049 0
10691 -10701 1059 879 0
10701 -10690 -313 0
10701 -10711 889 1069 0
-10720 10711 -403 0
-10765 -648 10776 0
10805 813 993 0
10806 814 994 0
-10807 815 995 0
-10807 -815 0
998 818 10810 0
-10811 999 819 0
10805 -18 0
10806 -18 0
-10811 -34 0
-10810 -43 0
10815 823 -10805 1003 0
10816 824 -10806 1004 0
-10817 825 1005 10807 0
10820 1008 -10810 828 0
-10821 1009 10811 829 0
-10815 -64 10807 0
10817 -70 -10806 0
10820 -73 -10806 0
-10820 -88 10811 0
-10825 10815 -833 0
10827 -10817 1015 835 0
10830 838 -10820 1018 0
-10831 1019 10821 839 0
10825 -10817 -109 -10815 0
10827 -109 -10815 0
-10825 10820 -112 0
10830 -112 -10815 0
10830 -118 -10816 0
-10831 -124 10817 10821 0
-10835 10825 -843 0
10840 -10830 1028 848 0
10831 -10841 849 1029 0
10836 -10825 -153 0
10850 -10840 858 1038 0
10841 -10851 1039 859 0
10860 -10850 868 1048 0
10851 -10861 869 1049 0
10861 -10871 1059 879 0
10871 -10860 -313 0
10871 -10881 889 1069 0
-10890 10881 -403 0
-10935 10946 -648 0
10974 992 812 0
10975 813 993 0
10976 814 994 0
-10977 815 995 0
-10977 -815 0
998 818 10980 0
-10981 999 819 0
10975 -18 0
10976 -18 0
-10981 -34 0
-10980 -43 0
10984 822 -10974 1002 0
10985 823 -10975 1003 0
10986 824 -10976 1004 0
-10987 825 1005 10977 0
10990 1008 -10980 828 0
-10991 1009 10981 829 0
-10985 -64 10977 0
10987 -70 -10976 0
10990 -73 -10976 0
-10991 -79 10981 10977 0
-10990 -88 10981 0
10994 1012 832 -10984 0
-10995 10985 -833 0
10997 -10987 1015 835 0
-10997 1015 10987 835 0
11000 838 -10990 1018 0
-11001 1019 10991 839 0
10995 -10987 -109 -10985 0
10997 -109 -10985 0
-10995 10990 -112 0
11000 -112 -10985 0
11000 -118 -10986 0
-11001 -124 10987 10991 0
11004 -10994 842 1022 0
-11005 10995 -843 0
-11007 10997 845 1025 0
11010 -11000 1028 848 0
11001 -11011 849 1029 0
11006 -10995 -153 0
11001 -11011 -169 10997 0
11014 -11004 852 1032 0
-11017 11007 855 1035 0
11020 -11010 858 1038 0
11011 -11021 1039 859 0
11011 -11021 -214 11007 0
11024 -11014 1042 862 0
-11027 11017 865 1045 0
11030 -11020 868 1048 0
11021 -11031 869 1049 0
11017 -259 -11031 11021 0
11034 -11024 1052 872 0
-11037 11027 875 1055 0
11031 -11041 1059 879 0
11027 -304 -11041 11031 0
11041 -11030 -313 0
11044 -11034 882 1062 0
-11047 11037 1065 885 0
11041 -11051 889 1069 0
-11047 11041 -349 0
11037 -349 -11051 11041 0
11054 -11044 1072 892 0
-11057 11047 895 1075 0
11051 -11061 899 1079 0
11047 -394 -11061 11051 0
-11060 11051 -403 0
11064 -11054 902 1082 0
-11067 11057 -905 0
11061 -11071 1089 909 0
11074 -11064 1092 912 0
11067 -11077 -915 0
11071 -11081 1099 919 0
11084 -11074 1102 922 0
11077 -11087 925 1105 0
11081 -538 -11090 0
11094 -11084 932 1112 0
11094 -1112 -11084 0
11090 -11100 1118 938 0
11100 -11110 1128 948 0
11108 -598 -11094 0
11110 -11120 1138 958 0
11120 -715 -11129 0
-11145 813 993 0
-11146 814 994 0
11147 815 995 0
998 818 11150 0
-11151 999 819 0
-11145 -18 0
11147 -33 0
-11147 -34 0
11151 -34 0
-11150 -43 0
-11155 823 11145 1003 0
-11156 824 11146 1004 0
-11156 -824 11146 0
11157 825 -11147 1005 0
11157 -1005 -11147 0
11160 1008 -11150 828 0
11161 1009 829 -11151 0
-11160 -88 11151 0
-11165 833 11155 1013 0
-11165 -833 11155 0
11167 835 -11157 1015 0
11170 838 -11160 1018 0
11171 -11161 839 1019 0
-11165 -108 11156 0
-11165 11160 -112 0
11171 -124 -11157 0
-11175 -843 11165 0
11180 -11170 1028 848 0
11181 -11171 849 1029 0
11190 -11180 858 1038 0
11191 -11181 859 1039 0
11200 -11190 868 1048 0
11201 -11191 869 1049 0
11211 -11201 879 1059 0
11211 -11200 -313 0
11221 -11211 1069 889 0
11231 -11221 -1079 0
-11275 -648 11286 0
11315 813 993 0
-11316 814 994 0
11317 815 995 0
998 818 11320 0
-11321 999 819 0
-11315 -18 0
11316 -18 0
11317 -33 0
-11317 -34 0
11321 -34 0
-11320 -43 0
-11325 11315 823 1003 0
11326 -11316 1004 824 0
-11326 824 11316 1004 0
-11326 -824 11316 0
11327 825 -11317 1005 0
11327 -1005 -11317 0
11330 1008 -11320 828 0
11331 1009 829 -11321 0
-11330 -88 11321 0
-11335 11325 833 1013 0
-11335 -833 11325 0
11336 -11326 834 1014 0
-11336 834 11326 1014 0
11337 835 -11327 1015 0
11340 838 -11330 1018 0
11341 -11331 839 1019 0
-11335 -108 11326 0
-11335 11330 -112 0
11341 -124 -11327 0
-11345 11335 -843 0
11350 -11340 1028 848 0
11351 -11341 849 1029 0
-11345 -153 11336 0
11360 -11350 858 1038 0
11361 -11351 859 1039 0
11370 -11360 868 1048 0
11371 -11361 869 1049 0
11381 -11371 879 1059 0
11381 -11370 -313 0
11391 -11381 1069 889 0
11401 -11391 -1079 0
-11445 11456 -648 0
-11485 813 993 0
-11485 -813 0
11486 814 994 0
11486 -994 0
11487 815 995 0
998 818 11490 0
-11491 999 819 0
11487 -33 0
-11487 -34 0
11491 -34 0
-11490 -43 0
-11495 823 1003 11485 0
-11495 -823 11485 0
11496 824 -11486 1004 0
11497 825 -11487 1005 0
11500 1008 -11490 828 0
11501 1009 829 -11491 0
-11495 -64 11487 0
11497 -70 -11486 0
-73 -11496 11490 0
-11500 -88 11491 0
-11505 833 11495 1013 0
-11505 -833 11495 0
11506 834 -11496 1014 0
11507 835 -11497 1015 0
11510 838 -11500 1018 0
11511 -11501 839 1019 0
-11505 11500 -112 0
11511 -124 -11497 0
-11515 -843 11505 0
11520 -11510 1028 848 0
11521 -11511 849 1029 0
11530 -11520 858 1038 0
11531 -11521 859 1039 0
11540 -11530 868 1048 0
11541 -11531 869 1049 0
11551 -11541 879 1059 0
11551 -11540 -313 0
11561 -11551 1069 889 0
11571 -11561 -1079 0
-11615 11626 -648 0
11655 813 993 0
11656 814 994 0
11657 815 995 0
998 818 11660 0
11655 -18 0
11656 -18 0
11657 -33 0
-11657 -34 0
11661 -34 0
-11660 -43 0
11665 823 -11655 1003 0
11666 824 -11656 1004 0
11667 825 -11657 1005 0
11670 1008 -11660 828 0
11671 1009 829 -11661 0
-11665 -64 11657 0
11665 -64 -11657 -11655 0
11667 -70 -11656 0
-73 -11666 11660 0
-11675 11665 -833 0
11676 834 -11666 1014 0
11677 835 -11667 1015 0
11680 838 -11670 1018 0
11681 -11671 839 1019 0
11675 -108 -11666 -11665 0
11675 -109 -11667 -11665 0
11677 -109 -11665 0
11680 -112 -11665 0
11680 -118 -11666 0
11681 -124 -11667 0
11690 -11680 1028 848 0
11691 -11681 849 1029 0
11686 -11675 -153 0
11700 -11690 858 1038 0
11701 -11691 859 1039 0
11710 -11700 868 1048 0
11711 -11701 869 1049 0
11721 -11711 879 1059 0
11721 -11710 -313 0
11731 -11721 1069 889 0
11741 -11731 -1079 0
11738 -11748 906 1086 0
-431 11738 -11746 0
11738 -11747 -436 0
11788 -661 -11797 0
11817 -790 0
11825 813 993 0
11826 814 994 0
11827 815 995 0
998 818 11830 0
-11831 999 819 0
11825 -18 0
11826 -18 0
11827 -33 0
-11827 -34 0
11831 -34 0
-11830 -43 0
11835 823 -11825 1003 0
11836 824 -11826 1004 0
11837 825 -11827 1005 0
11840 1008 -11830 828 0
11841 1009 829 -11831 0
-11841 1009 11831 829 0
-11835 -64 11827 0
11835 -64 -11827 -11825 0
11837 -70 -11826 0
-73 -11836 11830 0
-11845 11835 -833 0
11846 834 -11836 1014 0
11847 835 -11837 1015 0
11850 838 -11840 1018 0
11851 -11841 839 1019 0
-11851 1019 11841 839 0
11845 -108 -11836 -11835 0
11845 -109 -11837 -11835 0
11847 -109 -11835 0
11850 -112 -11835 0
11850 -118 -11836 0
11851 -124 -11837 0
11860 -11850 1028 848 0
11861 -11851 849 1029 0
11851 -11861 849 1029 0
11856 -11845 -153 0
11870 -11860 858 1038 0
11871 -11861 859 1039 0
11861 -11871 1039 859 0
11880 -11870 868 1048 0
11881 -11871 869 1049 0
11871 -11881 869 1049 0
11891 -11881 879 1059 0
11881 -11891 1059 879 0
11891 -11880 -313 0
11901 -11891 1069 889 0
11891 -11901 889 1069 0
-11897 11891 -349 0
-11900 11891 -358 0
-11907 11897 895 1075 0
-11910 11900 1078 898 0
11901 -11911 899 1079 0
11911 -11901 -1079 0
-11908 -398 11901 0
-11910 11901 -403 0
-11918 11908 906 1086 0
11910 -11920 1088 908 0
11911 -11921 1089 909 0
-11917 -439 11911 0
-11918 11910 -442 0
-11918 11911 -443 0
11918 -11928 1096 916 0
11918 -11928 -916 0
11921 -11931 1099 919 0
-470 11918 -11925 0
11920 -487 -11928 0
11921 -488 -11928 0
11928 -11938 926 1106 0
11931 -533 -11938 0
11931 -538 -11940 0
11938 -11948 936 1116 0
-936 11938 -11948 0
11940 -11950 1118 938 0
11948 -11958 1126 946 0
11948 -11958 -946 0
11950 -11960 1128 948 0
11958 1136 956 -11968 0
-956 11958 -11968 0
-650 11958 -11965 0
-656 11958 -11966 0
11958 -661 -11967 0
11968 1146 -11978 966 0
11968 -966 -11978 0
11978 1156 976 -11988 0
11978 -976 -11988 0
11978 -740 -11985 0
11978 -746 -11986 0
-751 11978 -11987 0
11988 -796 0
-12165 813 993 0
-12166 814 994 0
-12167 815 995 0
-12167 -815 0
-12169 817 997 0
-12170 818 998 0
-12170 -818 0
12171 999 819 0
12171 -999 0
-12165 -18 0
-12170 -33 0
-12175 823 12165 1003 0
-12176 824 12166 1004 0
-12176 -824 12166 0
-12177 825 1005 12167 0
-12177 -825 12167 0
-12179 827 1007 12169 0
-12180 1008 12170 828 0
-828 -12180 12170 0
12181 1009 -12171 829 0
-12176 -70 12167 0
-12180 -78 12167 12170 0
-12185 833 12175 1013 0
-12185 -833 12175 0
-12187 1015 12177 835 0
-12189 837 12179 1017 0
-12190 838 12180 1018 0
12191 1019 -12181 839 0
12191 -1019 -12181 0
-12185 -108 12176 0
-12185 -112 12180 0
-12190 -123 12180 12177 0
-12195 -843 12185 0
-12197 12187 845 1025 0
-12199 12189 847 1027 0
-12200 12190 1028 848 0
12201 -12191 849 1029 0
-12200 -168 12190 12187 0
-12207 12197 855 1035 0
-12209 12199 857 1037 0
-12210 12200 858 1038 0
12211 -12201 1039 859 0
-12210 -213 12200 12197 0
-12217 12207 865 1045 0
-12219 12209 867 1047 0
-12220 12210 868 1048 0
-12220 12210 -868 0
12221 -12211 869 1049 0
-12220 -258 12210 12207 0
-12227 12217 875 1055 0
-12229 12219 877 1057 0
-12229 12219 -877 0
-12230 12220 878 1058 0
-12230 12220 -878 0
12231 -12221 879 1059 0
-12230 12220 -303 12217 0
-12239 12229 887 1067 0
-12239 12229 -887 0
-12240 12230 888 1068 0
12241 -12231 889 1069 0
-12240 12230 -348 12227 0
-12249 12239 1077 897 0
-12249 12239 -897 0
12240 -12250 1078 898 0
12240 -12250 -898 0
12251 -12241 -1079 0
-12259 12249 907 1087 0
-12259 12249 -907 0
12250 -12260 1088 908 0
12250 -908 -12260 0
12250 -12260 12249 -445 0
-12269 12259 917 1097 0
-12269 12259 -917 0
12260 -12270 1098 918 0
12260 -918 -12270 0
12260 12259 -490 -12270 0
-12279 12269 1107 927 0
-12279 12269 -927 0
12270 -12280 928 1108 0
12270 -12280 -928 0
-12289 12279 1117 937 0
-12289 12279 -937 0
12280 -12290 938 1118 0
12280 -12290 -580 12279 0
-12299 12289 1127 947 0
-12299 12289 -947 0
12290 -12300 948 1128 0
12290 12289 -625 -12300 0
-12309 12299 -957 0
12300 -12310 958 1138 0
-12295 -648 12306 0
12300 -12310 12299 -670 0
12310 12309 -715 -12320 0
-12336 814 994 0
-12337 815 995 0
-12337 -815 0
-12338 996 816 0
-12339 817 997 0
-12340 818 998 0
-12340 -818 0
12341 999 819 0
12341 -999 0
-12335 -18 0
12336 -18 0
-12345 12335 823 1003 0
-12336 12346 1004 824 0
-12346 824 12336 1004 0
-12346 -824 12336 0
-12347 825 1005 12337 0
-12347 -825 12337 0
-12348 826 12338 1006 0
-12349 827 1007 12339 0
-12350 1008 12340 828 0
-12350 -828 12340 0
12351 1009 -12341 829 0
-12345 -64 12337 0
-12346 -70 12337 0
-12347 -78 12340 0
-12355 12345 833 1013 0
12356 -12346 834 1014 0
-12356 834 12346 1014 0
-12357 1015 12347 835 0
-12358 12348 836 1016 0
-12359 837 12349 1017 0
-12360 838 12350 1018 0
12361 1019 -12351 839 0
12361 -1019 -12351 0
-12355 -108 12346 0
-12356 -108 12345 12346 0
-12355 -109 12347 0
-12355 -112 12350 0
-12367 12357 845 1025 0
-12369 12359 847 1027 0
-12370 12360 1028 848 0
12371 -12361 849 1029 0
-12365 -153 12356 0
-12370 -172 12360 12358 0
-12377 12367 855 1035 0
-12379 12369 857 1037 0
-12380 12370 858 1038 0
12381 -12371 1039 859 0
-12387 12377 865 1045 0
-12389 12379 867 1047 0
-12390 12380 868 1048 0
12391 -12381 869 1049 0
-12397 12387 875 1055 0
-12399 12389 877 1057 0
-12400 12390 878 1058 0
-12400 12390 -878 0
12401 -12391 879 1059 0
-12407 12397 885 1065 0
-12409 12399 887 1067 0
-12410 12400 888 1068 0
12411 -12401 889 1069 0
-12417 12407 -895 0
-12419 12409 1077 897 0
12421 -12411 -1079 0
-12420 -393 12410 12407 0
-12418 12410 -397 0
12408 -12420 -397 12410 0
-12427 12417 1085 905 0
-12428 12418 1086 906 0
-12429 12419 907 1087 0
12420 -12430 -908 0
12421 -12430 -448 0
-12439 12429 917 1097 0
12430 -483 -12440 12427 0
12430 -487 12428 -12440 0
-12436 12446 1104 924 0
-12449 12439 -927 0
12440 -12450 928 1108 0
12441 -12451 12439 -536 0
-12446 12456 1114 934 0
-12459 12449 1117 937 0
12450 -12460 1118 938 0
12451 -12461 -939 0
12452 -12461 -585 0
-12456 12466 944 1124 0
-12469 12459 -947 0
12460 -12470 1128 948 0
12461 12459 -626 -12471 0
-12466 1134 12476 954 0
-12465 -648 12476 0
12470 -12480 -670 12469 0
-12505 813 993 0
-12506 814 994 0
12507 815 995 0
-12508 996 816 0
-12509 817 997 0
-12510 818 998 0
-12510 -818 0
12511 999 819 0
12511 -999 0
12512 1000 820 0
-12505 -18 0
12508 -31 0
-12507 -33 0
12507 -34 0
-12515 823 12505 1003 0
-12515 -823 12505 0
-12516 -824 12506 0
12517 825 -12507 1005 0
12517 -1005 -12507 0
12518 826 -12508 1006 0
-12518 826 12508 1006 0
-12519 827 1007 12509 0
-12520 1008 12510 828 0
-12520 -828 12510 0
12521 1009 -12511 829 0
12521 -1009 -12511 0
1010 12522 830 -12512 0
-12516 12507 -70 0
12518 -83 -12508 -12511 0
-12525 833 12515 1013 0
-12525 -833 12515 0
12527 835 -12517 1015 0
12527 -1015 -12517 0
12528 836 -12518 1016 0
-12529 837 12519 1017 0
-12530 838 12520 1018 0
12531 1019 -12521 839 0
12531 -1019 -12521 0
1020 -12522 12532 840 0
-12525 -108 12516 0
-12525 -112 12520 0
-12535 -843 12525 0
12537 -12527 845 1025 0
12537 -1025 -12527 0
12538 -12528 846 1026 0
-12539 12529 847 1027 0
-12540 12530 1028 848 0
12541 -12531 849 1029 0
12541 -1029 -12531 0
1030 -12532 12542 850 0
12538 -166 -12527 0
12547 -12537 855 1035 0
12547 -12537 -1035 0
-12538 12548 856 1036 0
-12549 12539 857 1037 0
-12550 12540 858 1038 0
12551 -12541 1039 859 0
12551 -12541 -1039 0
1040 -12542 12552 860 0
12548 -211 -12537 0
12547 -12541 -214 -12537 0
12557 -12547 1045 865 0
12557 -1045 -12547 0
12558 -12548 1046 866 0
12558 -12548 -1046 0
-12559 12549 867 1047 0
-12560 12550 868 1048 0
12561 -12551 869 1049 0
12561 -1049 -12551 0
1050 -12552 12562 870 0
-256 -12547 12558 0
12557 -12547 -259 -12551 0
-263 -12548 -12551 12558 0
12567 -12557 875 1055 0
12567 -12557 -1055 0
12568 -12558 876 1056 0
-12569 12559 877 1057 0
-12570 12560 1058 878 0
12571 -12561 879 1059 0
12571 -12561 -1059 0
1060 -12562 12572 880 0
12568 -301 -12557 0
12567 -304 -12561 -12557 0
12568 -12558 -308 -12561 0
-12567 12577 885 1065 0
-12567 -1065 12577 0
-12568 12578 886 1066 0
-12579 12569 887 1067 0
-12580 12570 1068 888 0
12581 -12571 889 1069 0
1070 -12572 12582 890 0
-12567 -346 12578 0
12577 -12567 -349 -12571 0
-12568 12578 -353 -12571 0
-12577 12587 895 1075 0
-12578 12588 896 1076 0
-12589 12579 1077 897 0
12591 -12581 899 1079 0
12591 -12581 -1079 0
-12582 12592 1080 900 0
-391 -12577 12588 0
-12588 12580 -397 0
-12590 12578 -397 12580 0
-12587 12597 905 1085 0
-12588 12598 1086 906 0
-12598 12588 906 1086 0
-12599 12589 907 1087 0
12590 -12600 -908 0
12601 -12591 909 1089 0
1090 -12592 12602 910 0
-12588 -443 12598 -12591 0
-12597 12607 915 1095 0
-12597 -1095 12607 0
-12598 12608 1096 916 0
-12598 -1096 12608 0
-12609 12599 917 1097 0
-12609 12599 -917 0
-12602 12612 1100 920 0
-481 -12597 12608 0
12600 -487 12598 -12610 0
-12598 -488 12608 -12601 0
-12607 12617 1105 925 0
-12607 -1105 12617 0
-12608 12618 1106 926 0
-12608 12618 -1106 0
-12619 12609 1107 927 0
-12619 12609 -927 0
12610 -12620 928 1108 0
-12612 12622 1110 930 0
-526 -12607 12618 0
-528 -12607 -12610 12617 0
12611 -12621 12609 -536 0
-12617 12627 1115 935 0
-12618 12628 1116 936 0
-12629 12619 1117 937 0
-12629 12619 -937 0
12620 -12630 938 1118 0
12621 -939 -12631 0
12621 -581 12619 -12631 0
-12627 12637 945 1125 0
-12628 12638 946 1126 0
-12639 12629 -947 0
12630 -12640 948 1128 0
12630 12629 -625 -12640 0
12631 -12641 12629 -626 0
-12637 12647 955 1135 0
-12638 12648 956 1136 0
-12635 -648 12646 0
12640 12639 -12650 -670 0
-12647 965 12657 1145 0
-12648 966 12658 1146 0
-12675 813 993 0
-12676 814 994 0
-12679 817 997 0
-12680 818 998 0
-12680 -818 0
12681 999 819 0
-12675 -18 0
-12680 -22 0
-12677 -33 0
12677 -34 0
12681 -34 0
-12685 823 12675 1003 0
-12685 -823 12675 0
-12686 -824 12676 0
12687 -12677 -1005 0
-12689 827 1007 12679 0
-12690 1008 12680 828 0
-828 -12690 12680 0
12691 1009 -12681 829 0
-12686 12677 -70 0
-12695 833 12685 1013 0
-12695 -833 12685 0
12697 1015 -12687 835 0
-12699 837 12689 1017 0
-12700 838 12690 1018 0
12701 1019 -12691 839 0
12701 -1019 -12691 0
-12695 -108 12686 0
-12695 -112 12690 0
-12705 -843 12695 0
-12709 12699 847 1027 0
-12710 12700 1028 848 0
12711 -12701 849 1029 0
-12719 12709 857 1037 0
-12720 12710 858 1038 0
12721 -12711 1039 859 0
-12729 12719 867 1047 0
-12729 12719 -867 0
-12730 12720 868 1048 0
12731 -12721 869 1049 0
-12739 12729 877 1057 0
-12740 12730 -878 0
12741 -12731 879 1059 0
-12740 12730 -310 12729 0
-12749 12739 887 1067 0
12740 -12750 888 1068 0
12751 -12741 889 1069 0
-12759 12749 1077 897 0
12750 -12760 1078 898 0
12761 -12751 -1079 0
-12769 12759 907 1087 0
12760 -12770 1088 908 0
-12779 12769 917 1097 0
12770 -12780 1098 918 0
12780 -12790 928 1108 0
12790 -12800 1118 938 0
12800 -12810 1128 948 0
12810 1138 -12820 958 0
-12805 -648 12816 0
12845 813 993 0
-12846 814 994 0
-12850 818 998 0
-12850 -818 0
12851 999 819 0
-12845 -18 0
12846 -18 0
-12847 -33 0
12847 -34 0
12851 -34 0
-12855 12845 823 1003 0
12856 -12846 1004 824 0
-12856 824 12846 1004 0
-12856 -824 12846 0
12857 -12847 -1005 0
-12860 1008 12850 828 0
-12860 -828 12850 0
12861 1009 -12851 829 0
-64 -12855 12847 0
12855 -64 -12847 -12845 0
-12856 12847 -70 0
-12857 -78 12850 0
-12865 12855 833 1013 0
12866 -12856 834 1014 0
-12866 834 12856 1014 0
12867 -12857 1015 835 0
-12870 838 12860 1018 0
12871 1019 -12861 839 0
12871 -1019 -12861 0
-12865 -108 12856 0
12866 -108 -12855 0
-12866 -108 12855 12856 0
-12865 -109 12857 0
-12865 -112 12860 0
-12880 12870 1028 848 0
12881 -12871 849 1029 0
-12875 -153 12866 0
-12890 12880 858 1038 0
12891 -12881 1039 859 0
-12900 12890 868 1048 0
12901 -12891 869 1049 0
-12910 12900 -878 0
12911 -12901 879 1059 0
12921 -12911 889 1069 0
12931 -12921 -1079 0
-12975 -648 12986 0
13015 813 993 0
-13016 814 994 0
-13019 817 997 0
-13020 818 998 0
-13020 -818 0
13021 999 819 0
-13015 -18 0
13016 -18 0
-13020 -28 0
-13017 -33 0
13017 -34 0
13021 -34 0
13015 1003 823 -13025 0
13026 -13016 1004 824 0
-13026 824 13016 1004 0
-13026 -824 13016 0
13027 -13017 -1005 0
-13029 827 1007 13019 0
-13030 1008 13020 828 0
-828 -13030 13020 0
13031 1009 -13021 829 0
-64 -13025 13017 0
13025 -64 -13017 -13015 0
-13026 13017 -70 0
-13035 13025 833 1013 0
-13035 -833 13025 0
13036 -13026 834 1014 0
-13036 834 13026 1014 0
13037 1015 -13027 835 0
-13039 837 13029 1017 0
-13040 838 13030 1018 0
13041 1019 -13031 839 0
13041 -1019 -13031 0
-13035 -108 13026 0
13036 -108 -13025 0
-13036 -108 13025 13026 0
-13035 -112 13030 0
-13049 13039 847 1027 0
-13050 13040 1028 848 0
13051 -13041 849 1029 0
-13045 -153 13036 0
-13059 13049 857 1037 0
-13060 13050 858 1038 0
13061 -13051 1039 859 0
-13069 13059 867 1047 0
-13069 13059 -867 0
-13070 13060 868 1048 0
13071 -13061 869 1049 0
-13079 13069 877 1057 0
-13080 13070 -878 0
13081 -13071 879 1059 0
-13080 13070 -310 13069 0
-13089 13079 887 1067 0
13080 -13090 888 1068 0
13091 -13081 889 1069 0
-13099 13089 1077 897 0
13090 -13100 1078 898 0
13101 -13091 -1079 0
-13109 13099 907 1087 0
-13109 13099 -907 0
13100 -13110 1088 908 0
-13119 13109 917 1097 0
-13119 13109 -917 0
13110 -13120 918 1098 0
-13129 13119 927 1107 0
-13129 13119 -927 0
13120 -13130 928 1108 0
-13139 13129 937 1117 0
-13139 13129 -937 0
13130 -13140 1118 938 0
13139 -13149 947 1127 0
13139 -13149 -947 0
13140 -13150 1128 948 0
13149 1137 957 -13159 0
13149 -957 -13159 0
-13145 -648 13156 0
13159 967 -13169 1147 0
13159 -967 -13169 0
13169 1157 977 -13179 0
13169 -977 -13179 0
-13185 813 993 0
-13186 814 994 0
-13187 815 995 0
-13187 -815 0
13188 996 816 0
13188 -996 0
-13189 817 997 0
-13190 818 998 0
-13190 -818 0
13191 999 819 0
13191 -999 0
-13185 -18 0
-13195 823 13185 1003 0
-13196 824 13186 1004 0
-13196 -824 13186 0
-13197 825 1005 13187 0
-13197 -825 13187 0
13198 826 -13188 1006 0
13198 -1006 -13188 0
-13199 827 1007 13189 0
-13200 1008 13190 828 0
-13200 -828 13190 0
13201 1009 -13191 829 0
13201 -1009 -13191 0
-13196 -70 13187 0
-13200 -78 13190 13187 0
-13205 833 13195 1013 0
-13205 -833 13195 0
-13207 1015 13197 835 0
13208 836 -13198 1016 0
13208 -1016 -13198 0
-13209 837 13199 1017 0
-13210 838 13200 1018 0
13211 1019 -13201 839 0
13211 -1019 -13201 0
-13205 -108 13196 0
-13205 -112 13200 0
13208 -128 -13198 -13201 0
-13215 -843 13205 0
-13217 13207 845 1025 0
13218 -13208 846 1026 0
13218 -13208 -1026 0
-13219 13209 847 1027 0
-13220 13210 1028 848 0
13221 -13211 849 1029 0
13221 -1029 -13211 0
13218 -13208 -173 -13211 0
-13227 13217 855 1035 0
13228 -13218 856 1036 0
13228 -1036 -13218 0
-13229 13219 857 1037 0
-13230 13220 858 1038 0
13231 -13221 1039 859 0
13231 -13221 -1039 0
-13230 -213 13220 13217 0
13228 -218 -13218 -13221 0
-13237 13227 865 1045 0
13238 -13228 866 1046 0
13238 -13228 -1046 0
-13239 13229 867 1047 0
-13240 13230 868 1048 0
-13240 13230 -868 0
13241 -13231 869 1049 0
13241 -1049 -13231 0
-13240 -258 13230 13227 0
13238 -13228 -263 -13231 0
-13247 13237 875 1055 0
13248 -13238 876 1056 0
-13238 13248 -1056 0
-13249 13239 877 1057 0
-13249 13239 -877 0
-13250 13240 878 1058 0
-13250 13240 -878 0
13251 -13241 879 1059 0
13251 -13241 -1059 0
-13250 13240 -303 13237 0
-13238 13248 -308 -13241 0
-13257 13247 1065 885 0
13258 -13248 886 1066 0
-1066 13258 -13248 0
-13259 13249 887 1067 0
-13259 13249 -887 0
-13260 13250 888 1068 0
13261 -13251 889 1069 0
13261 -13251 -1069 0
-13260 13250 -348 13247 0
13258 -353 -13248 -13251 0
-13258 13268 896 1076 0
-13258 13268 -1076 0
-13269 13259 1077 897 0
-13269 13259 -897 0
13260 -13270 1078 898 0
13260 -13270 -898 0
13271 -13261 899 1079 0
13271 -13261 -1079 0
13260 -393 -13270 13257 0
-13258 -398 13268 -13261 0
-13268 13278 1086 906 0
-13268 -1086 13278 0
-13279 13269 907 1087 0
-13279 13269 -907 0
13270 -13280 1088 908 0
13281 -13271 909 1089 0
13281 -13271 -1089 0
-13268 -443 13278 -13271 0
13270 -13280 13269 -445 0
-13278 13288 1096 916 0
-13278 -1096 13288 0
-13289 13279 917 1097 0
-13289 13279 -917 0
13280 -13290 1098 918 0
13280 -918 -13290 0
13291 -13281 919 1099 0
13291 -13281 -1099 0
-13278 -488 13288 -13281 0
13280 13279 -490 -13290 0
-13288 13298 1106 926 0
-13288 13298 -1106 0
-13299 13289 1107 927 0
-13299 13289 -927 0
13290 -13300 928 1108 0
13290 -13300 -928 0
-13288 -533 13298 -13291 0
-13298 13308 936 1116 0
-13309 13299 1117 937 0
-13309 13299 -937 0
13300 -13310 938 1118 0
13300 -13310 -580 13299 0
-13308 13318 946 1126 0
-13319 13309 1127 947 0
-13319 13309 -947 0
13310 -13320 948 1128 0
-13318 13328 956 1136 0
-13329 13319 -957 0
13320 -13330 958 1138 0
-13315 -648 13326 0
13320 -13330 13319 -670 0
-13328 966 13338 1146 0
13330 13329 -715 -13340 0
-13353 811 991 0
-13354 812 992 0
-13355 813 993 0
-13356 814 994 0
-13356 -814 0
-13357 815 995 0
-13357 -815 0
-13358 996 816 0
-13358 -816 0
13359 817 997 0
-13360 818 998 0
-13360 -818 0
13361 999 819 0
13361 -999 0
13362 1000 820 0
-13355 -18 0
-13356 -18 0
-13358 -31 0
-13360 -33 0
-13358 -37 0
-13360 -37 0
-13363 821 1001 13353 0
-13363 -821 13353 0
-13364 822 1002 13354 0
-13365 823 13355 1003 0
-13366 824 1004 13356 0
-13367 825 1005 13357 0
-13367 -825 13357 0
-13368 826 13358 1006 0
-13368 -826 13358 0
13369 827 1007 -13359 0
-13370 1008 13360 828 0
-13370 -828 13360 0
13371 1009 -13361 829 0
13371 -1009 -13361 0
1010 13372 830 -13362 0
-13368 -50 13353 13358 0
-13366 -70 13357 0
-13367 -70 13356 13357 0
-13366 -73 13360 0
-13367 -78 13360 0
-13368 -82 13360 0
13369 -86 -13361 -13359 0
13371 -90 -13362 -13361 0
831 -13373 13363 1011 0
-13374 1012 832 13364 0
-13375 833 13365 1013 0
-13376 834 13366 1014 0
-13377 1015 13367 835 0
-13378 836 13368 1016 0
13379 837 -13369 1017 0
-13380 838 13370 1018 0
13381 1019 839 -13371 0
13381 -1019 -13371 0
-13372 1020 13382 840 0
13382 -1020 -13372 0
-13374 -91 13363 13364 0
-95 13368 -13373 0
-13375 -108 13366 0
-13375 -109 13367 0
-13375 -112 13370 0
13379 -131 -13371 -13369 0
-13383 13373 -841 0
-13384 13374 842 1022 0
-13385 -843 13375 0
-13387 13377 845 1025 0
13389 -13379 847 1027 0
13389 -13379 -1027 0
-13390 13380 1028 848 0
-13380 13390 -1028 0
13391 -13381 849 1029 0
13391 -1029 -13381 0
1030 -13382 13392 850 0
-168 -13390 13380 13377 0
-13378 -172 13390 0
13380 -13389 -175 0
13390 -13379 -175 0
13389 -176 -13379 -13381 0
-180 13391 -13382 -13381 0
-13394 13384 852 1032 0
-13397 13387 855 1035 0
13399 -13389 857 1037 0
13399 -13389 -1037 0
-13390 13400 1038 858 0
-13400 13390 1038 858 0
-13390 13400 -1038 0
13401 -13391 1039 859 0
13401 -13391 -1039 0
1040 -13392 13402 860 0
-13394 -181 13383 13384 0
-213 13390 -13400 13387 0
13390 -13399 -220 0
13400 -13389 -220 0
-13391 13399 -221 -13389 0
-13389 13401 -221 0
13400 -13390 -223 -13391 0
-13391 -225 13401 -13392 0
-13407 13397 865 1045 0
-13399 13409 1047 867 0
13409 -13399 -1047 0
13410 -13400 1048 868 0
13400 -13410 1048 868 0
-13400 13410 -1048 0
13411 -13401 869 1049 0
-1049 13411 -13401 0
-13402 1050 13412 870 0
13400 -13409 -265 0
13410 -13399 -265 0
13409 -13399 -266 -13401 0
13410 -13400 -13401 -268 0
13411 -13402 -270 -13401 0
13419 -13409 877 1057 0
13409 -13419 877 1057 0
13419 -13409 -1057 0
13420 -13410 878 1058 0
13420 -13410 -1058 0
13421 -13411 879 1059 0
13421 -13411 -1059 0
1060 -13412 13422 880 0
1060 -13422 13412 880 0
-303 13407 -13420 13410 0
13410 -13419 -310 0
13420 -13409 -310 0
13419 -13409 -311 -13411 0
-13410 -13411 -313 13420 0
13421 -315 -13412 -13411 0
13429 -13419 1067 887 0
13419 -13429 887 1067 0
13429 -13419 -1067 0
13430 -13420 888 1068 0
13420 -13430 888 1068 0
13430 -13420 -1068 0
13431 -13421 889 1069 0
13431 -13421 -1069 0
1070 -13422 13432 890 0
1070 -13432 13422 890 0
-13418 -352 13430 0
13418 -352 -13430 13420 0
-355 13420 -13429 0
-355 -13420 -13419 13429 0
-355 13430 -13419 0
-13419 -356 -13421 13429 0
-358 13430 -13421 -13420 0
-360 13431 -13422 -13421 0
-360 -13421 13432 0
-13429 13439 897 1077 0
13429 -13439 1077 897 0
13429 -13439 -897 0
-1077 13439 -13429 0
13440 -13430 898 1078 0
13430 -13440 1078 898 0
-1078 -13430 13440 0
13441 -13431 1079 899 0
13441 -13431 -1079 0
-13432 13442 1080 900 0
-13442 13432 1080 900 0
-13427 -393 13440 0
-400 13430 -13439 0
-400 -13430 13439 -13429 0
-400 -13429 13440 0
13439 -13431 -401 -13429 0
13440 -403 -13431 -13430 0
-405 13441 -13432 -13431 0
13449 -13439 1087 907 0
-13449 13439 1087 907 0
-1087 13449 -13439 0
13450 -13440 908 1088 0
13440 -13450 908 1088 0
-908 13440 -13450 0
13450 -13440 -1088 0
13451 -13441 1089 909 0
-1089 13451 -13441 0
1090 -13442 13452 910 0
-13452 13442 1090 910 0
-13438 -442 13450 0
-445 -13440 -13439 13449 0
-445 13450 -13439 0
-446 13449 -13441 -13439 0
-448 -13440 -13441 13450 0
-13451 -450 13442 0
13451 -450 -13442 -13441 0
13459 -13449 1097 917 0
-13459 13449 1097 917 0
13459 -13449 -1097 0
-13450 13460 918 1098 0
13450 -13460 918 1098 0
-13450 13460 -1098 0
13461 -13451 919 1099 0
-1099 13461 -13451 0
-13452 13462 1100 920 0
-13462 13452 1100 920 0
-13452 -1100 13462 0
13450 -13459 -490 0
13459 -13450 -490 -13449 0
13460 -13449 -490 0
-13459 -491 13451 0
-13449 13459 -491 -13451 0
-493 13460 -13451 -13450 0
-495 13461 -13452 -13451 0
-495 -13451 13462 0
13469 -13459 1107 927 0
-13469 13459 -927 0
13469 -13459 -1107 0
-13460 13470 928 1108 0
13470 -13460 -1108 0
13471 -13461 1109 929 0
-1109 13471 -13461 0
-13462 13472 1110 930 0
-13472 13462 1110 930 0
13460 -535 -13469 0
-13460 -535 -13459 13469 0
13470 -535 -13459 0
-536 13469 -13459 -13461 0
-538 -13460 -13461 13470 0
-540 13471 -13462 -13461 0
13479 -13469 937 1117 0
-13479 13469 1117 937 0
13479 -1117 -13469 0
-13470 13480 1118 938 0
-1118 -13470 13480 0
13481 -13471 939 1119 0
-939 13471 -13481 0
13481 -13471 -1119 0
13482 -13472 1120 940 0
13482 -1120 -13472 0
13479 -580 -13470 -13469 0
-580 -13469 13480 0
-581 -13479 13471 0
13479 -581 -13469 -13471 0
-583 -13471 13480 -13470 0
-585 -13481 13472 0
-585 13481 -13472 -13471 0
13489 -13479 1127 947 0
13489 -13479 -1127 0
13490 -13480 1128 948 0
13490 -13480 -1128 0
13491 1129 -13481 949 0
-1129 13491 -13481 0
-13482 13492 1130 950 0
13480 -13489 -625 0
-13480 -13479 -625 13489 0
13490 -13479 -625 0
13489 -626 -13479 -13481 0
13490 -628 -13481 -13480 0
-630 -13482 13491 -13481 0
-13486 -1134 13496 0
-13489 13499 957 1137 0
-13489 -1137 13499 0
13500 -13490 958 1138 0
-1138 13500 -13490 0
13501 1139 -13491 959 0
-1139 13501 -13491 0
-13492 13502 1140 960 0
-13485 -648 13496 0
-670 -13490 13499 -13489 0
13500 -670 -13489 0
13499 -671 -13491 -13489 0
-13501 -671 13491 13489 0
-673 -13491 13500 -13490 0
13490 -673 13491 -13501 0
-675 13501 -13492 -13491 0
-13495 -1143 13505 0
-13496 -1144 13506 0
-13498 -1146 13508 0
-13499 967 13509 1147 0
-13499 -1147 13509 0
-13500 13510 968 1148 0
-1148 13510 -13500 0
13511 -13501 969 1149 0
13501 1149 -13511 969 0
13511 -13501 -1149 0
-13494 -685 13505 0
-13495 -693 13506 0
-13497 -706 13508 0
-13499 -13500 -715 13509 0
-13499 13510 -715 0
-13499 -716 13509 -13501 0
13510 -13500 -13501 -718 0
13511 -720 -13501 -13502 0
-13509 1157 977 13519 0
-1157 -13509 13519 0
13520 -13510 1158 978 0
-1158 13520 -13510 0
13511 1159 -13521 979 0
-13509 -13510 -760 13519 0
-761 -13509 13519 -13511 0
13511 -761 13509 -13521 0
13520 -763 -13511 -13510 0
13511 13510 -763 -13521 0
-13519 -1167 0
13521 1169 989 0
-13520 -13519 -805 0
13520 -805 13519 0
-13525 813 993 0
-13526 814 994 0
-13527 815 995 0
-13527 -815 0
-13530 818 998 0
-13530 -818 0
13531 999 819 0
13531 -999 0
-13525 -18 0
-13535 823 13525 1003 0
-13536 824 13526 1004 0
-13536 -824 13526 0
-13537 -825 13527 0
-13540 1008 13530 828 0
-828 -13540 13530 0
13541 1009 -13531 829 0
-13536 -70 13527 0
-13545 833 13535 1013 0
-13545 -833 13535 0
-13550 838 13540 1018 0
13551 1019 -13541 839 0
13551 -1019 -13541 0
-13545 -108 13536 0
-13545 -112 13540 0
-13555 -843 13545 0
-13560 13550 1028 848 0
13561 -13551 849 1029 0
-13570 13560 858 1038 0
13571 -13561 859 1039 0
-13580 13570 868 1048 0
13581 -13571 869 1049 0
-13590 13580 -878 0
13591 -13581 879 1059 0
13601 -13591 1069 889 0
13611 -13601 -1079 0
-13655 -648 13666 0
-13696 814 994 0
-13697 815 995 0
-13697 -815 0
-13700 818 998 0
-13700 -818 0
13701 999 819 0
13701 -999 0
-13695 -18 0
13696 -18 0
-13705 13695 823 1003 0
-13696 13706 1004 824 0
-13706 824 13696 1004 0
-13706 -824 13696 0
-13707 -825 13697 0
-13710 1008 13700 828 0
-13710 -828 13700 0
13711 1009 -13701 829 0
-13705 -64 13697 0
-13706 -70 13697 0
-13707 -78 13700 0
-13715 13705 833 1013 0
13716 -13706 834 1014 0
-13716 834 13706 1014 0
-13720 838 13710 1018 0
13721 1019 -13711 839 0
13721 -1019 -13711 0
-13715 -108 13706 0
-13716 -108 13705 13706 0
-13715 -109 13707 0
-13715 -112 13710 0
-13730 13720 1028 848 0
13731 -13721 849 1029 0
-13725 -153 13716 0
-13740 13730 858 1038 0
13741 -13731 859 1039 0
-13750 13740 868 1048 0
13751 -13741 869 1049 0
-13760 13750 -878 0
13761 -13751 879 1059 0
13771 -13761 1069 889 0
13781 -13771 -1079 0
-13825 -648 13836 0
-13865 813 993 0
-13865 -813 0
13866 814 994 0
13866 -994 0
-13867 815 995 0
-13867 -815 0
-13870 818 998 0
-13870 -818 0
13871 999 819 0
13871 -999 0
-13875 823 1003 13865 0
13876 824 -13866 1004 0
-13877 -825 13867 0
-13880 1008 13870 828 0
-13880 -828 13870 0
13881 1009 -13871 829 0
-13875 -64 13867 0
-13876 -70 13867 0
-70 13877 -13866 0
13880 -73 -13866 0
-13885 833 13875 1013 0
-13885 -833 13875 0
13886 834 -13876 1014 0
13887 -13877 1015 835 0
-13890 838 13880 1018 0
13891 1019 -13881 839 0
13891 -1019 -13881 0
-13885 -108 13876 0
-13885 -112 13880 0
-13895 -843 13885 0
-13900 13890 1028 848 0
13901 -13891 849 1029 0
-13910 13900 858 1038 0
13911 -13901 859 1039 0
-13920 13910 868 1048 0
13921 -13911 869 1049 0
-13930 13920 -878 0
13931 -13921 879 1059 0
13941 -13931 1069 889 0
13951 -13941 -1079 0
-13995 -648 14006 0
14035 813 993 0
14036 814 994 0
-14037 -815 0
-14040 818 998 0
-14040 -818 0
14041 999 819 0
14041 -999 0
14035 -18 0
14036 -18 0
14045 823 -14035 1003 0
14046 824 -14036 1004 0
-14050 1008 14040 828 0
14051 1009 -14041 829 0
-14045 -64 14037 0
14047 -70 -14036 0
-14046 -73 14040 0
-14055 14045 -833 0
14056 834 -14046 1014 0
14057 -14047 1015 835 0
-14060 838 14050 1018 0
14061 1019 -14051 839 0
14061 -1019 -14051 0
-14047 -109 14055 -14045 0
14057 -109 -14045 0
14060 -112 -14045 0
14060 -118 -14046 0
-14065 14055 -843 0
-14070 14060 1028 848 0
14071 -14061 849 1029 0
14066 -14055 -153 0
-14080 14070 858 1038 0
14081 -14071 859 1039 0
-14090 14080 868 1048 0
14091 -14081 869 1049 0
-14100 14090 -878 0
14101 -14091 879 1059 0
14111 -14101 1069 889 0
14121 -14111 -1079 0
-14165 -648 14176 0
-14205 813 993 0
-14206 814 994 0
-14210 818 998 0
-14210 -818 0
14211 999 819 0
-14205 -18 0
-14207 -33 0
14207 -34 0
14211 -34 0
-14215 823 14205 1003 0
-14215 -823 14205 0
-14216 -824 14206 0
14217 -14207 -1005 0
-14220 1008 14210 828 0
-14220 -828 14210 0
14221 1009 -14211 829 0
-14216 14207 -70 0
-14225 833 14215 1013 0
-14225 -833 14215 0
14227 -14217 1015 835 0
-14230 838 14220 1018 0
14231 1019 839 -14221 0
14231 -1019 -14221 0
-14225 -108 14216 0
-14225 -112 14220 0
-14235 -843 14225 0
-14240 14230 1028 848 0
14241 -14231 849 1029 0
-14250 14240 858 1038 0
14251 -14241 859 1039 0
-14260 14250 868 1048 0
14261 -14251 869 1049 0
-14270 14260 -878 0
14271 -14261 879 1059 0
14281 -14271 1069 889 0
14291 -14281 -1079 0
-14335 -648 14346 0
-14375 813 993 0
-14376 814 994 0
-14380 818 998 0
-14380 -818 0
14381 999 819 0
-14375 -18 0
-14377 -33 0
14377 -34 0
14381 -34 0
-14385 823 14375 1003 0
-14385 -823 14375 0
-14386 -824 14376 0
14387 -14377 -1005 0
-14390 1008 14380 828 0
-828 -14390 14380 0
14391 1009 -14381 829 0
-14386 14377 -70 0
-14395 833 14385 1013 0
-14395 -833 14385 0
14397 1015 -14387 835 0
-14400 838 14390 1018 0
14401 1019 -14391 839 0
14401 -1019 -14391 0
-14395 -108 14386 0
-14395 -112 14390 0
-14405 -843 14395 0
-14410 14400 1028 848 0
14411 -14401 849 1029 0
-14420 14410 858 1038 0
14421 -14411 859 1039 0
-14430 14420 868 1048 0
14431 -14421 869 1049 0
-14440 14430 -878 0
14441 -14431 879 1059 0
14451 -14441 1069 889 0
14461 -14451 -1079 0
-14505 -648 14516 0
14545 813 993 0
-14546 814 994 0
-14550 818 998 0
-14550 -818 0
14551 999 819 0
-14545 -18 0
14546 -18 0
-14547 -33 0
14547 -34 0
14551 -34 0
-14555 14545 823 1003 0
14556 -14546 1004 824 0
-14556 824 14546 1004 0
-14556 -824 14546 0
14557 -14547 -1005 0
-14560 1008 14550 828 0
-14560 -828 14550 0
14561 1009 -14551 829 0
-64 -14555 14547 0
14555 -64 -14547 -14545 0
-14556 14547 -70 0
-14557 -78 14550 0
-14565 14555 833 1013 0
14566 -14556 834 1014 0
-14566 834 14556 1014 0
14567 -14557 1015 835 0
-14570 838 14560 1018 0
14571 1019 839 -14561 0
14571 -1019 -14561 0
-14565 -108 14556 0
14566 -108 -14555 0
-14566 -108 14555 14556 0
-14565 -109 14557 0
-14565 -112 14560 0
-14580 14570 1028 848 0
14581 -14571 849 1029 0
-14575 -153 14566 0
-14590 14580 858 1038 0
14591 -14581 859 1039 0
-14600 14590 868 1048 0
14601 -14591 869 1049 0
-14610 14600 -878 0
14611 -14601 879 1059 0
14621 -14611 1069 889 0
14631 -14621 -1079 0
-14675 -648 14686 0
14715 813 993 0
-14716 814 994 0
-14720 818 998 0
-14720 -818 0
14721 999 819 0
-14715 -18 0
14716 -18 0
-14717 -33 0
14717 -34 0
14721 -34 0
14715 1003 823 -14725 0
14726 -14716 1004 824 0
-14726 824 14716 1004 0
-14726 -824 14716 0
14727 -14717 -1005 0
-14730 1008 14720 828 0
-828 -14730 14720 0
14731 1009 -14721 829 0
-64 -14725 14717 0
14725 -64 -14717 -14715 0
-14726 14717 -70 0
-14735 14725 833 1013 0
-14735 -833 14725 0
14736 -14726 834 1014 0
-14736 834 14726 1014 0
14737 1015 -14727 835 0
-14740 838 14730 1018 0
14741 1019 -14731 839 0
14741 -1019 -14731 0
-14735 -108 14726 0
14736 -108 -14725 0
-14736 -108 14725 14726 0
-14735 -112 14730 0
-14750 14740 1028 848 0
14751 -14741 849 1029 0
-14745 -153 14736 0
-14760 14750 858 1038 0
14761 -14751 859 1039 0
-14770 14760 868 1048 0
14771 -14761 869 1049 0
-14780 14770 -878 0
14781 -14771 879 1059 0
14791 -14781 1069 889 0
14801 -14791 -1079 0
-14845 14856 -648 0
-14885 813 993 0
-14885 -813 0
14886 814 994 0
14886 -994 0
-14890 818 998 0
-14890 -818 0
14891 999 819 0
-14887 -33 0
14891 -34 0
-14895 823 1003 14885 0
-14895 -823 14885 0
14896 824 -14886 1004 0
-14900 1008 14890 828 0
-14900 -828 14890 0
14901 1009 -14891 829 0
14897 -70 -14886 0
-14896 -73 14890 0
-14905 833 14895 1013 0
-14905 -833 14895 0
14906 834 -14896 1014 0
14907 -14897 1015 835 0
-14910 838 14900 1018 0
14911 1019 839 -14901 0
14911 -1019 -14901 0
-14905 -112 14900 0
-14915 -843 14905 0
-14920 14910 1028 848 0
14921 -14911 849 1029 0
-14930 14920 858 1038 0
14931 -14921 859 1039 0
-14940 14930 868 1048 0
14941 -14931 869 1049 0
-14950 14940 -878 0
14951 -14941 879 1059 0
14961 -14951 1069 889 0
14971 -14961 -1079 0
-15015 -648 15026 0
-15055 813 993 0
-15055 -813 0
15056 814 994 0
15056 -994 0
-15060 818 998 0
-15060 -818 0
15061 999 819 0
-15057 -33 0
15061 -34 0
-15065 823 1003 15055 0
-15065 -823 15055 0
15066 824 -15056 1004 0
-15070 1008 15060 828 0
-828 -15070 15060 0
15071 1009 -15061 829 0
15067 -70 -15056 0
-15066 -73 15060 0
-15075 833 15065 1013 0
-15075 -833 15065 0
15076 834 -15066 1014 0
15077 1015 -15067 835 0
-15080 838 15070 1018 0
15081 1019 -15071 839 0
15081 -1019 -15071 0
-15075 -112 15070 0
-15085 -843 15075 0
-15090 15080 1028 848 0
15091 -15081 849 1029 0
-15100 15090 858 1038 0
15101 -15091 859 1039 0
-15110 15100 868 1048 0
15111 -15101 869 1049 0
-15120 15110 -878 0
15121 -15111 879 1059 0
15131 -15121 1069 889 0
15141 -15131 -1079 0
-15185 15196 -648 0
15225 813 993 0
15226 814 994 0
-15230 818 998 0
-15230 -818 0
15231 999 819 0
15225 -18 0
15226 -18 0
-15227 -33 0
15227 -34 0
15231 -34 0
15235 823 -15225 1003 0
15236 824 -15226 1004 0
-15240 1008 15230 828 0
15241 1009 -15231 829 0
15235 -64 -15225 -15227 0
15236 -15227 -70 -15226 0
15237 -70 -15226 0
-15236 -73 15230 0
15246 834 -15236 1014 0
15246 -1014 -15236 0
15247 -15237 1015 835 0
-15250 838 15240 1018 0
15251 1019 839 -15241 0
15251 -1019 -15241 0
15246 -108 -15235 0
15245 -109 -15237 -15235 0
15247 -109 -15235 0
15250 -112 -15235 0
15250 -118 -15236 0
15256 -1024 -15246 0
-15260 15250 1028 848 0
15261 -15251 849 1029 0
15256 -15245 -153 0
-15270 15260 858 1038 0
15271 -15261 859 1039 0
-15280 15270 868 1048 0
15281 -15271 869 1049 0
-15290 15280 -878 0
15291 -15281 879 1059 0
15301 -15291 1069 889 0
15311 -15301 -1079 0
-15355 15366 -648 0
15395 813 993 0
15396 814 994 0
-15400 818 998 0
-15400 -818 0
15401 999 819 0
15401 -999 0
15395 -18 0
15396 -18 0
-15397 -33 0
15397 -34 0
15405 823 -15395 1003 0
15406 824 -15396 1004 0
-15410 1008 15400 828 0
15411 1009 -15401 829 0
15405 -64 -15395 -15397 0
15406 -15397 -70 -15396 0
15407 -70 -15396 0
-15406 -73 15400 0
15416 834 -15406 1014 0
15416 -1014 -15406 0
15417 1015 -15407 835 0
-15420 838 15410 1018 0
15421 1019 -15411 839 0
15421 -1019 -15411 0
15416 -108 -15405 0
15415 -109 -15407 -15405 0
15417 -109 -15405 0
15420 -112 -15405 0
15420 -118 -15406 0
15426 -1024 -15416 0
-15430 15420 1028 848 0
15431 -15421 849 1029 0
15426 -15415 -153 0
-15440 15430 858 1038 0
15441 -15431 859 1039 0
-15450 15440 868 1048 0
15451 -15441 869 1049 0
-15460 15450 -878 0
15461 -15451 879 1059 0
15471 -15461 1069 889 0
15481 -15471 -1079 0
15528 -661 -15537 0
-15565 813 993 0
-15566 814 994 0
-15567 815 995 0
-15567 -815 0
-15570 818 998 0
-15570 -818 0
15571 999 819 0
15571 -999 0
-15565 -18 0
-15575 823 15565 1003 0
-15576 824 15566 1004 0
-15576 -824 15566 0
-15577 -825 15567 0
-15580 1008 15570 828 0
-15580 -828 15570 0
15581 1009 -15571 829 0
-15576 -70 15567 0
-15585 833 15575 1013 0
-15585 -833 15575 0
-15590 838 15580 1018 0
15591 1019 -15581 839 0
15591 -1019 -15581 0
-15585 -108 15576 0
-15585 -112 15580 0
-15595 -843 15585 0
-15600 15590 1028 848 0
15601 -15591 849 1029 0
-15610 15600 858 1038 0
15611 -15601 859 1039 0
-15620 15610 868 1048 0
15621 -15611 869 1049 0
-15630 15620 -878 0
15631 -15621 879 1059 0
15641 -15631 1069 889 0
15651 -15641 -1079 0
-15695 -648 15706 0
-15735 813 993 0
-15736 814 994 0
-15737 815 995 0
-15737 -815 0
-15740 818 998 0
-15740 -818 0
15741 999 819 0
15741 -999 0
-15735 -18 0
-15745 823 15735 1003 0
-15746 824 15736 1004 0
-15746 -824 15736 0
-15747 -825 15737 0
-15750 1008 15740 828 0
-828 -15750 15740 0
15751 1009 -15741 829 0
-15746 -70 15737 0
-15755 833 15745 1013 0
-15755 -833 15745 0
-15760 838 15750 1018 0
15761 1019 -15751 839 0
15761 -1019 -15751 0
-15755 -108 15746 0
-15755 -112 15750 0
-15765 -843 15755 0
-15770 15760 1028 848 0
15771 -15761 849 1029 0
-15780 15770 858 1038 0
15781 -15771 859 1039 0
-15790 15780 868 1048 0
15791 -15781 869 1049 0
-15800 15790 -878 0
15801 -15791 879 1059 0
15811 -15801 1069 889 0
15821 -15811 -1079 0
-15865 -648 15876 0
-15906 814 994 0
-15907 815 995 0
-15907 -815 0
-15910 818 998 0
-15910 -818 0
15911 999 819 0
15911 -999 0
-15905 -18 0
15906 -18 0
-15915 15905 823 1003 0
-15906 15916 1004 824 0
-15916 824 15906 1004 0
-15916 -824 15906 0
-15917 -825 15907 0
-15920 1008 15910 828 0
-15920 -828 15910 0
15921 1009 -15911 829 0
-15915 -64 15907 0
-15916 -70 15907 0
-15917 -78 15910 0
-15925 15915 833 1013 0
15926 -15916 834 1014 0
-15926 834 15916 1014 0
-15930 838 15920 1018 0
15931 1019 -15921 839 0
15931 -1019 -15921 0
-15925 -108 15916 0
-15926 -108 15915 15916 0
-15925 -109 15917 0
-15925 -112 15920 0
-15940 15930 1028 848 0
15941 -15931 849 1029 0
-15935 -153 15926 0
-15950 15940 858 1038 0
15951 -15941 859 1039 0
-15960 15950 868 1048 0
15961 -15951 869 1049 0
-15970 15960 -878 0
15971 -15961 879 1059 0
15981 -15971 1069 889 0
15991 -15981 -1079 0
-16035 -648 16046 0
-16075 813 993 0
-16075 -813 0
16076 814 994 0
16076 -994 0
-16077 815 995 0
-16077 -815 0
-16080 818 998 0
-16080 -818 0
16081 999 819 0
16081 -999 0
-16085 823 1003 16075 0
16086 824 -16076 1004 0
-16087 -825 16077 0
-16090 1008 16080 828 0
-16090 -828 16080 0
16091 1009 -16081 829 0
-16085 -64 16077 0
-16086 -70 16077 0
-70 16087 -16076 0
16090 -73 -16076 0
-16095 833 16085 1013 0
-16095 -833 16085 0
16096 834 -16086 1014 0
16097 -16087 1015 835 0
-16100 838 16090 1018 0
16101 1019 -16091 839 0
16101 -1019 -16091 0
-16095 -108 16086 0
-16095 -112 16090 0
-16105 -843 16095 0
-16110 16100 1028 848 0
16111 -16101 849 1029 0
-16120 16110 858 1038 0
16121 -16111 859 1039 0
-16130 16120 868 1048 0
16131 -16121 869 1049 0
-16140 16130 -878 0
16141 -16131 879 1059 0
16151 -16141 1069 889 0
16161 -16151 -1079 0
-16205 -648 16216 0
16245 813 993 0
16246 814 994 0
-16247 -815 0
-16250 818 998 0
-16250 -818 0
16251 999 819 0
16251 -999 0
16245 -18 0
16246 -18 0
-16246 -25 0
16255 823 -16245 1003 0
16256 824 -16246 1004 0
-16260 1008 16250 828 0
16261 1009 -16251 829 0
-16255 -64 16247 0
16257 -70 -16246 0
-16256 -73 16250 0
-16265 16255 -833 0
16266 834 -16256 1014 0
16267 -16257 1015 835 0
-16270 838 16260 1018 0
16271 1019 -16261 839 0
16271 -1019 -16261 0
16265 -16257 -109 -16255 0
16267 -109 -16255 0
16270 -112 -16255 0
16270 -118 -16256 0
-16275 16265 -843 0
-16280 16270 1028 848 0
16281 -16271 849 1029 0
16276 -16265 -153 0
-16290 16280 858 1038 0
16291 -16281 859 1039 0
-16300 16290 868 1048 0
16301 -16291 869 1049 0
-16310 16300 -878 0
16311 -16301 879 1059 0
16321 -16311 1069 889 0
16331 -16321 -1079 0
-16375 16386 -648 0
-16415 813 993 0
-16416 814 994 0
-16420 818 998 0
-16420 -818 0
16421 999 819 0
-16415 -18 0
-16417 -33 0
16417 -34 0
16421 -34 0
-16425 823 16415 1003 0
-16425 -823 16415 0
-16426 -824 16416 0
16427 -16417 -1005 0
-16430 1008 16420 828 0
-16430 -828 16420 0
16431 1009 -16421 829 0
-16426 16417 -70 0
-16435 833 16425 1013 0
-16435 -833 16425 0
16437 -16427 1015 835 0
-16440 838 16430 1018 0
16441 1019 839 -16431 0
16441 -1019 -16431 0
-16435 -108 16426 0
-16435 -112 16430 0
-16445 -843 16435 0
-16450 16440 1028 848 0
16451 -16441 849 1029 0
-16460 16450 858 1038 0
16461 -16451 859 1039 0
-16470 16460 868 1048 0
16471 -16461 869 1049 0
-16480 16470 -878 0
16481 -16471 879 1059 0
16491 -16481 1069 889 0
16501 -16491 -1079 0
-16545 -648 16556 0
-16585 813 993 0
-16586 814 994 0
-16590 818 998 0
-16590 -818 0
16591 999 819 0
-16585 -18 0
-16587 -33 0
16587 -34 0
16591 -34 0
-16595 823 16585 1003 0
-16595 -823 16585 0
-16596 -824 16586 0
16597 -16587 -1005 0
-16600 1008 16590 828 0
-828 -16600 16590 0
16601 1009 -16591 829 0
-16596 16587 -70 0
-16605 833 16595 1013 0
-16605 -833 16595 0
16607 1015 -16597 835 0
-16610 838 16600 1018 0
16611 1019 -16601 839 0
16611 -1019 -16601 0
-16605 -108 16596 0
-16605 -112 16600 0
-16615 -843 16605 0
-16620 16610 1028 848 0
16621 -16611 849 1029 0
-16630 16620 858 1038 0
16631 -16621 859 1039 0
-16640 16630 868 1048 0
16641 -16631 869 1049 0
-16650 16640 -878 0
16651 -16641 879 1059 0
16661 -16651 1069 889 0
16671 -16661 -1079 0
-16715 16726 -648 0
16755 813 993 0
-16756 814 994 0
-16760 818 998 0
-16760 -818 0
16761 999 819 0
-16755 -18 0
16756 -18 0
-16757 -33 0
16757 -34 0
16761 -34 0
-16765 16755 823 1003 0
16766 -16756 1004 824 0
-16766 824 16756 1004 0
-16766 -824 16756 0
16767 -16757 -1005 0
-16770 1008 16760 828 0
-16770 -828 16760 0
16771 1009 -16761 829 0
-64 -16765 16757 0
16765 -64 -16757 -16755 0
-16766 16757 -70 0
-16775 16765 833 1013 0
-16775 -833 16765 0
16776 -16766 834 1014 0
-16776 834 16766 1014 0
16777 -16767 1015 835 0
-16780 838 16770 1018 0
16781 1019 839 -16771 0
16781 -1019 -16771 0
-16775 -108 16766 0
16776 -108 -16765 0
-16776 -108 16765 16766 0
-16775 -112 16770 0
-16790 16780 1028 848 0
16791 -16781 849 1029 0
-16785 -153 16776 0
-16800 16790 858 1038 0
16801 -16791 859 1039 0
-16810 16800 868 1048 0
16811 -16801 869 1049 0
-16820 16810 -878 0
16821 -16811 879 1059 0
16831 -16821 1069 889 0
16841 -16831 -1079 0
-16885 16896 -648 0
-16924 812 992 0
16925 813 993 0
-16926 814 994 0
16927 815 995 0
16929 817 997 0
-16930 818 998 0
-16930 -818 0
16931 999 819 0
-16925 -18 0
16926 -18 0
-16927 -33 0
16927 -34 0
16931 -34 0
-16934 822 1002 16924 0
16925 1003 823 -16935 0
16936 -16926 1004 824 0
-16936 824 16926 1004 0
-16936 -824 16926 0
16937 825 -16927 1005 0
16937 -1005 -16927 0
16939 827 1007 -16929 0
-16940 1008 16930 828 0
-828 -16940 16930 0
16941 1009 -16931 829 0
16941 -1009 -16931 0
-16935 -64 16927 0
16935 -64 -16927 -16925 0
-16936 16927 -70 0
-16944 1012 832 16934 0
-16945 16935 833 1013 0
-16945 -833 16935 0
16946 -16936 834 1014 0
-16946 834 16936 1014 0
16947 835 -16937 1015 0
16949 837 -16939 1017 0
-16950 838 16940 1018 0
16951 1019 839 -16941 0
16951 -1019 -16941 0
-16945 -108 16936 0
16946 -108 -16935 0
-16946 -108 16935 16936 0
-16945 -112 16940 0
-16954 16944 842 1022 0
16957 -16947 845 1025 0
16959 -16949 847 1027 0
-16960 16950 1028 848 0
16961 -16951 849 1029 0
-16955 -153 16946 0
-16964 16954 852 1032 0
16967 -16957 855 1035 0
16969 -16959 857 1037 0
-16970 16960 858 1038 0
16971 -16961 859 1039 0
-16974 16964 1042 862 0
16977 -16967 865 1045 0
16979 -16969 867 1047 0
-16980 16970 868 1048 0
16981 -16971 869 1049 0
16978 -256 -16967 0
-16984 16974 1052 872 0
16987 -16977 875 1055 0
-16978 16988 876 1056 0
16989 -16979 877 1057 0
-16990 16980 878 1058 0
-16990 16980 -878 0
16991 -16981 879 1059 0
16988 -301 -16977 0
-16994 16984 882 1062 0
-16988 16998 886 1066 0
16999 -16989 887 1067 0
-17000 16990 888 1068 0
17001 -16991 1069 889 0
17001 -1069 -16991 0
16998 -346 -16987 0
-17004 16994 1072 892 0
17009 -16999 1077 897 0
-17010 17000 -898 0
17011 -17001 899 1079 0
17011 -17001 -1079 0
17011 -16998 -398 0
-17014 17004 1082 902 0
17019 -17009 907 1087 0
17010 -17020 1088 908 0
17021 -17011 909 1089 0
17020 -17030 1098 918 0
17030 -17040 928 1108 0
-523 17030 -17036 0
-528 17030 -17037 0
17030 -17038 -532 0
17058 -661 -17067 0
-17075 1153 17085 973 0
-17075 -1153 17085 0
17076 -974 -17086 0
17080 -978 -17090 0
-17075 -738 -17076 17085 0
17078 -746 -17086 0
17081 -763 -17090 0
17089 -987 0
-17085 -17086 -783 0
17087 -790 0
17090 -805 0
-17095 813 993 0
-17095 -813 0
17096 814 994 0
17096 -994 0
-17100 818 998 0
-17100 -818 0
17101 999 819 0
-17097 -33 0
17101 -34 0
-17105 823 1003 17095 0
-17105 -823 17095 0
17106 824 -17096 1004 0
-17110 1008 17100 828 0
-17110 -828 17100 0
17111 1009 -17101 829 0
17107 -70 -17096 0
-17106 -73 17100 0
-17115 833 17105 1013 0
-17115 -833 17105 0
17116 834 -17106 1014 0
17117 -17107 1015 835 0
-17120 838 17110 1018 0
17121 1019 839 -17111 0
17121 -1019 -17111 0
-17115 -112 17110 0
-17125 -843 17115 0
-17130 17120 1028 848 0
17131 -17121 849 1029 0
-17140 17130 858 1038 0
17141 -17131 859 1039 0
-17150 17140 868 1048 0
17151 -17141 869 1049 0
-17160 17150 -878 0
17161 -17151 879 1059 0
17171 -17161 1069 889 0
17181 -17171 -1079 0
-17225 17236 -648 0
-17265 813 993 0
-17265 -813 0
17266 814 994 0
17266 -994 0
-17270 818 998 0
-17270 -818 0
17271 999 819 0
-17267 -33 0
17271 -34 0
-17275 823 1003 17265 0
-17275 -823 17265 0
17276 824 -17266 1004 0
-17280 1008 17270 828 0
-828 -17280 17270 0
17281 1009 -17271 829 0
17277 -70 -17266 0
-17276 -73 17270 0
-17285 833 17275 1013 0
-17285 -833 17275 0
17286 834 -17276 1014 0
17287 1015 -17277 835 0
-17290 838 17280 1018 0
17291 1019 -17281 839 0
17291 -1019 -17281 0
-17285 -112 17280 0
-17295 -843 17285 0
-17300 17290 1028 848 0
17301 -17291 849 1029 0
-17310 17300 858 1038 0
17311 -17301 859 1039 0
-17320 17310 868 1048 0
17321 -17311 869 1049 0
-17330 17320 -878 0
17331 -17321 879 1059 0
17341 -17331 1069 889 0
17351 -17341 -1079 0
17398 -661 -17407 0
-17433 811 991 0
-17434 812 992 0
17435 813 993 0
17436 814 994 0
17437 815 995 0
-17440 818 998 0
-17440 -818 0
17441 999 819 0
17435 -18 0
17436 -18 0
17437 -34 0
17441 -34 0
-17443 821 1001 17433 0
-17443 -821 17433 0
-17444 822 1002 17434 0
17445 823 -17435 1003 0
17446 824 -17436 1004 0
17447 825 -17437 1005 0
-17450 1008 17440 828 0
17451 1009 -17441 829 0
17445 -64 -17437 -17435 0
17446 -70 -17436 -17437 0
17447 -70 -17436 0
-17446 -73 17440 0
-17454 1012 832 17444 0
17456 834 -17446 1014 0
17456 -1014 -17446 0
17457 835 -17447 1015 0
-17460 838 17450 1018 0
17461 1019 839 -17451 0
17461 -1019 -17451 0
17456 -108 -17445 0
17455 -109 -17447 -17445 0
17457 -109 -17445 0
17460 -112 -17445 0
17460 -118 -17446 0
-17464 17454 842 1022 0
17466 -1024 -17456 0
17467 -17457 845 1025 0
-17470 17460 1028 848 0
17471 -17461 849 1029 0
17466 -17455 -153 0
-17474 17464 852 1032 0
-17480 17470 858 1038 0
17481 -17471 859 1039 0
17480 -213 -17467 0
-17484 17474 1042 862 0
17490 -17480 868 1048 0
-17490 17480 868 1048 0
17491 -17481 869 1049 0
-17500 17490 878 1058 0
-17500 17490 -878 0
17501 -17491 879 1059 0
-17510 17500 888 1068 0
17511 -17501 1069 889 0
-17520 17510 1078 898 0
17521 -17511 -1079 0
17520 -17530 1088 908 0
17568 -661 -17577 0
17605 813 993 0
17606 814 994 0
-17610 818 998 0
-17610 -818 0
17611 999 819 0
17605 -18 0
17606 -18 0
-17606 -28 0
17607 -34 0
17611 -34 0
17615 823 -17605 1003 0
17616 824 -17606 1004 0
-17620 1008 17610 828 0
17621 1009 -17611 829 0
17615 -64 -17605 -17607 0
17616 -17607 -70 -17606 0
17617 -70 -17606 0
-17616 -73 17610 0
17626 834 -17616 1014 0
17626 -1014 -17616 0
17627 1015 -17617 835 0
-17630 838 17620 1018 0
17631 1019 -17621 839 0
17631 -1019 -17621 0
17626 -108 -17615 0
17625 -109 -17617 -17615 0
17627 -109 -17615 0
17630 -112 -17615 0
17630 -118 -17616 0
17636 -1024 -17626 0
-17640 17630 1028 848 0
17641 -17631 849 1029 0
17636 -17625 -153 0
-17650 17640 858 1038 0
17651 -17641 859 1039 0
-17660 17650 868 1048 0
17661 -17651 869 1049 0
-17670 17660 878 1058 0
-17670 17660 -878 0
17671 -17661 879 1059 0
-17680 17670 888 1068 0
-17680 17670 -888 0
17681 -17671 1069 889 0
-17678 -352 17670 0
-17690 17680 1078 898 0
17691 -17681 -1079 0
-17684 17678 -373 0
-391 -17687 17678 0
-17687 -393 17680 0
-17688 17680 -397 0
17690 -17700 1088 908 0
-17698 17690 -442 0
17700 -17707 -483 0
17707 -17717 925 1105 0
17768 -796 0
-17777 815 995 0
-17779 817 997 0
17780 818 998 0
17781 999 819 0
-17787 825 17777 1005 0
-17789 827 1007 17779 0
17790 1008 -17780 828 0
17791 1009 -17781 829 0
-17797 835 17787 1015 0
-17799 837 17789 1017 0
17800 838 -17790 1018 0
17801 1019 839 -17791 0
-17807 17797 845 1025 0
-17809 17799 847 1027 0
17810 -17800 1028 848 0
17811 -17801 849 1029 0
-17817 17807 855 1035 0
-17819 17809 857 1037 0
17820 -17810 858 1038 0
17821 -17811 1039 859 0
-17827 17817 865 1045 0
-17829 17819 867 1047 0
17830 -17820 868 1048 0
17831 -17821 869 1049 0
-17837 17827 875 1055 0
-17839 17829 877 1057 0
17840 -17830 878 1058 0
17841 -17831 879 1059 0
-17847 17837 885 1065 0
-17849 17839 887 1067 0
17850 -17840 -358 -17841 0
-17857 17847 -895 0
-17859 17849 1077 897 0
17860 -17850 1078 898 0
-17867 17857 1085 905 0
-17869 17859 907 1087 0
17870 -17860 -1088 0
-17868 -1096 17878 0
-17879 17869 917 1097 0
-17878 17888 1106 926 0
-17878 17888 -1106 0
-17889 17879 -927 0
17880 -17890 928 1108 0
17881 -17891 17879 -536 0
-17888 17898 1116 936 0
-17899 17889 1117 937 0
17890 -17900 1118 938 0
17891 -17901 -939 0
17892 -17901 -585 0
-17898 17908 1126 946 0
-17909 17899 -947 0
17900 -17910 1128 948 0
17901 17899 -626 -17911 0
-17908 17918 956 1136 0
17910 -17920 -670 17909 0
-17945 813 993 0
-17946 814 994 0
-17947 815 995 0
-17947 -815 0
17950 998 818 0
17951 999 819 0
17951 -999 0
-17945 -18 0
17950 -43 0
-17955 823 17945 1003 0
-17957 -825 17947 0
17960 1008 -17950 828 0
17960 -1008 -17950 0
17961 1009 -17951 829 0
-17955 -64 17947 0
-17956 -70 17947 0
17960 -88 -17950 -17951 0
-17965 -833 17955 0
17970 838 -17960 1018 0
17970 -1018 -17960 0
17971 1019 -17961 839 0
17971 -1019 -17961 0
-17965 -108 17956 0
-17975 -843 17965 0
17980 -17970 1028 848 0
17981 -17971 849 1029 0
17990 -17980 858 1038 0
17991 -17981 1039 859 0
18000 -17990 868 1048 0
18001 -17991 869 1049 0
18011 -18001 879 1059 0
18011 -18000 -313 0
18021 -18011 889 1069 0
18031 -18021 -1079 0
-18075 -648 18086 0
-18285 813 993 0
-18286 814 994 0
-18287 815 995 0
-18287 -815 0
18290 998 818 0
18290 -998 0
18291 999 819 0
18291 -999 0
-18285 -18 0
18290 -43 0
-18295 823 18285 1003 0
-18297 -825 18287 0
18300 1008 -18290 828 0
18300 -1008 -18290 0
18301 1009 -18291 829 0
-18295 -64 18287 0
-18296 -70 18287 0
18300 -88 -18290 -18291 0
-18305 -833 18295 0
18310 838 -18300 1018 0
18310 -1018 -18300 0
18311 1019 -18301 839 0
18311 -1019 -18301 0
-18305 -108 18296 0
-18315 -843 18305 0
18320 -18310 1028 848 0
18321 -18311 849 1029 0
18330 -18320 858 1038 0
18331 -18321 859 1039 0
18340 -18330 868 1048 0
18341 -18331 869 1049 0
18351 -18341 879 1059 0
18351 -18340 -313 0
18361 -18351 1069 889 0
18371 -18361 -1079 0
-18415 -648 18426 0
-18456 814 994 0
-18457 815 995 0
-18457 -815 0
18460 998 818 0
18461 999 819 0
18461 -999 0
-18455 -18 0
18456 -18 0
18460 -43 0
-18456 18466 1004 824 0
-18466 824 18456 1004 0
-18467 -825 18457 0
18470 1008 -18460 828 0
18470 -1008 -18460 0
18471 1009 -18461 829 0
-18466 -70 18457 0
-18467 -70 18456 18457 0
18470 -88 -18460 -18461 0
18476 -18466 834 1014 0
-18476 834 18466 1014 0
18480 838 -18470 1018 0
18480 -1018 -18470 0
18481 1019 -18471 839 0
18481 -1019 -18471 0
-18475 -108 18466 0
-18475 -109 18467 0
18480 -18466 -118 0
-18485 18475 -843 0
18490 -18480 1028 848 0
18491 -18481 849 1029 0
-18485 -153 18476 0
18500 -18490 858 1038 0
18501 -18491 859 1039 0
18510 -18500 868 1048 0
18511 -18501 869 1049 0
18521 -18511 879 1059 0
18521 -18510 -313 0
18531 -18521 1069 889 0
18541 -18531 -1079 0
-18585 -648 18596 0
-18625 813 993 0
-18625 -813 0
18626 814 994 0
18626 -994 0
-18627 815 995 0
-18627 -815 0
18630 998 818 0
18631 999 819 0
18631 -999 0
18630 -43 0
-18635 823 1003 18625 0
18636 824 -18626 1004 0
-18637 -825 18627 0
18640 1008 -18630 828 0
18640 -1008 -18630 0
18641 1009 -18631 829 0
-18635 -64 18627 0
-18636 -70 18627 0
-70 18637 -18626 0
18640 -88 -18630 -18631 0
-18645 -833 18635 0
18646 834 -18636 1014 0
18647 -18637 1015 835 0
18650 838 -18640 1018 0
18650 -1018 -18640 0
18651 1019 -18641 839 0
18651 -1019 -18641 0
-18645 -108 18636 0
18650 -118 -18636 0
-18655 -843 18645 0
18660 -18650 1028 848 0
18661 -18651 849 1029 0
18670 -18660 858 1038 0
18671 -18661 859 1039 0
18680 -18670 868 1048 0
18681 -18671 869 1049 0
18691 -18681 879 1059 0
18691 -18680 -313 0
18701 -18691 1069 889 0
18711 -18701 -1079 0
-18755 -648 18766 0
18795 813 993 0
18796 814 994 0
-18797 -815 0
18800 998 818 0
18801 999 819 0
18801 -999 0
18795 -18 0
18796 -18 0
18800 -43 0
18805 823 -18795 1003 0
18806 824 -18796 1004 0
18810 1008 -18800 828 0
18810 -1008 -18800 0
18811 1009 -18801 829 0
-18805 -64 18797 0
-18806 -70 18797 0
18807 -70 -18796 0
-18815 18805 -833 0
18816 834 -18806 1014 0
18817 -18807 1015 835 0
18820 838 -18810 1018 0
18821 1019 -18811 839 0
18821 -1019 -18811 0
-18807 -109 18815 -18805 0
18817 -109 -18805 0
18820 -112 -18805 0
18820 -118 -18806 0
-18825 18815 -843 0
18830 -18820 1028 848 0
18831 -18821 849 1029 0
18826 -18815 -153 0
18840 -18830 858 1038 0
18841 -18831 859 1039 0
18850 -18840 868 1048 0
18851 -18841 869 1049 0
18861 -18851 879 1059 0
18861 -18850 -313 0
18871 -18861 1069 889 0
18881 -18871 -1079 0
-18925 18936 -648 0
18964 992 812 0
18965 813 993 0
18966 814 994 0
-18967 815 995 0
-18967 -815 0
18970 998 818 0
18971 999 819 0
18971 -999 0
18965 -18 0
18966 -18 0
18970 -43 0
18974 822 -18964 1002 0
18975 823 -18965 1003 0
18976 824 -18966 1004 0
-18977 825 1005 18967 0
18980 1008 -18970 828 0
18980 -1008 -18970 0
18981 1009 -18971 829 0
-18975 -64 18967 0
-18976 -70 18967 0
18977 -70 -18966 0
18984 1012 832 -18974 0
-18985 18975 -833 0
18986 834 -18976 1014 0
18987 -18977 1015 835 0
-18987 1015 18977 835 0
18990 838 -18980 1018 0
18991 1019 -18981 839 0
18991 -1019 -18981 0
-18977 -109 18985 -18975 0
18987 -109 -18975 0
18990 -112 -18975 0
18990 -118 -18976 0
18994 -18984 842 1022 0
-18995 18985 -843 0
-18997 18987 845 1025 0
19000 -18990 1028 848 0
19001 -18991 849 1029 0
18996 -18985 -153 0
19004 -18994 852 1032 0
-19007 18997 855 1035 0
19010 -19000 858 1038 0
19011 -19001 859 1039 0
19014 -19004 1042 862 0
-19017 19007 865 1045 0
19020 -19010 868 1048 0
19021 -19011 869 1049 0
19024 -19014 1052 872 0
-19027 19017 875 1055 0
19031 -19021 879 1059 0
19031 -19020 -313 0
19034 -19024 882 1062 0
-19037 19027 1065 885 0
19041 -19031 1069 889 0
19044 -19034 1072 892 0
-19047 19037 895 1075 0
19051 -19041 -1079 0
19054 -19044 902 1082 0
-19057 19047 -905 0
19064 -19054 1092 912 0
19074 -19064 1102 922 0
19067 -19077 925 1105 0
19084 -19074 932 1112 0
19084 -1112 -19074 0
19098 -598 -19084 0
-19135 813 993 0
-19136 814 994 0
19140 998 818 0
19141 999 819 0
-19135 -18 0
19137 -33 0
19137 -34 0
19141 -34 0
19140 -43 0
19141 -43 0
-19145 823 19135 1003 0
-19145 -823 19135 0
19147 -19137 -1005 0
19150 1008 -19140 828 0
19150 -1008 -19140 0
19151 1009 -19141 829 0
19150 -88 -19140 -19141 0
-19155 -833 19145 0
19157 -19147 1015 835 0
19160 838 -19150 1018 0
19160 -1018 -19150 0
19161 1019 839 -19151 0
19161 -1019 -19151 0
-19165 -843 19155 0
19170 -19160 1028 848 0
19171 -19161 849 1029 0
19180 -19170 858 1038 0
19181 -19171 859 1039 0
19190 -19180 868 1048 0
19191 -19181 869 1049 0
19201 -19191 879 1059 0
19201 -19190 -313 0
19211 -19201 1069 889 0
19221 -19211 -1079 0
-19265 -648 19276 0
-19305 813 993 0
-19306 814 994 0
19310 998 818 0
19311 999 819 0
-19305 -18 0
19307 -33 0
19307 -34 0
19311 -34 0
19310 -43 0
19311 -43 0
-19315 823 19305 1003 0
-19315 -823 19305 0
19317 -19307 -1005 0
19320 1008 -19310 828 0
19320 -1008 -19310 0
19321 1009 -19311 829 0
19320 -88 -19310 -19311 0
-19325 -833 19315 0
19327 1015 -19317 835 0
19330 838 -19320 1018 0
19330 -1018 -19320 0
19331 1019 -19321 839 0
19331 -1019 -19321 0
-19335 -843 19325 0
19340 -19330 1028 848 0
19341 -19331 849 1029 0
19350 -19340 858 1038 0
19351 -19341 859 1039 0
19360 -19350 868 1048 0
19361 -19351 869 1049 0
19371 -19361 879 1059 0
19371 -19360 -313 0
19381 -19371 1069 889 0
19391 -19381 -1079 0
-19435 19446 -648 0
19475 813 993 0
-19476 814 994 0
19477 815 995 0
19480 998 818 0
19481 999 819 0
-19475 -18 0
19476 -18 0
19477 -33 0
19477 -34 0
19481 -34 0
19480 -43 0
19481 -43 0
19486 -19476 1004 824 0
-19486 824 19476 1004 0
-19486 -824 19476 0
19487 -1005 -19477 0
19490 1008 -19480 828 0
19490 -1008 -19480 0
19491 1009 -19481 829 0
19485 -64 -19477 -19475 0
19487 -78 -19480 -19477 0
19490 -88 -19480 -19481 0
19496 -19486 834 1014 0
-19496 834 19486 1014 0
19497 -19487 1015 835 0
19497 -1015 -19487 0
19500 838 -19490 1018 0
19500 -1018 -19490 0
19501 1019 839 -19491 0
19501 -1019 -19491 0
19496 -108 -19485 0
19500 -19486 -118 0
19506 -19496 -1024 0
19510 -19500 1028 848 0
19511 -19501 849 1029 0
-19505 -153 19496 0
19520 -19510 858 1038 0
19521 -19511 859 1039 0
19530 -19520 868 1048 0
19531 -19521 869 1049 0
19541 -19531 879 1059 0
19541 -19530 -313 0
19551 -19541 1069 889 0
19561 -19551 -1079 0
-19605 19616 -648 0
19645 813 993 0
-19646 814 994 0
19647 815 995 0
19650 998 818 0
19651 999 819 0
-19645 -18 0
19646 -18 0
19647 -33 0
19647 -34 0
19651 -34 0
19650 -43 0
19651 -43 0
19656 -19646 1004 824 0
-19656 -824 19646 0
19657 -1005 -19647 0
19660 1008 -19650 828 0
19660 -1008 -19650 0
19661 1009 -19651 829 0
19655 -64 -19647 -19645 0
19657 -78 -19650 -19647 0
19660 -88 -19650 -19651 0
19666 -19656 834 1014 0
-19666 19656 1014 834 0
19667 1015 -19657 835 0
19667 -1015 -19657 0
19670 838 -19660 1018 0
19670 -1018 -19660 0
19671 1019 -19661 839 0
19671 -1019 -19661 0
19666 -108 -19655 0
19670 -19656 -118 0
19676 -19666 -1024 0
19680 -19670 1028 848 0
19681 -19671 849 1029 0
-19675 -153 19666 0
19690 -19680 858 1038 0
19691 -19681 859 1039 0
19700 -19690 868 1048 0
19701 -19691 869 1049 0
19711 -19701 879 1059 0
19711 -19700 -313 0
19721 -19711 1069 889 0
19731 -19721 -1079 0
19778 -661 -19787 0
-19815 813 993 0
-19815 -813 0
19816 814 994 0
19816 -994 0
19820 818 998 0
19821 999 819 0
19821 -34 0
19821 -43 0
-19825 823 1003 19815 0
-19825 -823 19815 0
19826 824 -19816 1004 0
19830 1008 -19820 828 0
19831 1009 -19821 829 0
19827 -70 -19816 0
19830 -73 -19816 0
19830 -88 -19820 -19821 0
-19835 -833 19825 0
19836 834 -19826 1014 0
19837 -19827 1015 835 0
19840 838 -19830 1018 0
19840 -1018 -19830 0
19841 1019 839 -19831 0
19841 -1019 -19831 0
19840 -118 -19826 0
-19845 -843 19835 0
19850 -19840 1028 848 0
19851 -19841 849 1029 0
19860 -19850 858 1038 0
19861 -19851 859 1039 0
19870 -19860 868 1048 0
19871 -19861 869 1049 0
19881 -19871 879 1059 0
19881 -19870 -313 0
19891 -19881 1069 889 0
19901 -19891 -1079 0
-19945 19956 -648 0
-19985 813 993 0
-19985 -813 0
19986 814 994 0
19986 -994 0
19990 818 998 0
19991 999 819 0
19991 -34 0
19991 -43 0
-19995 823 1003 19985 0
-19995 -823 19985 0
19996 824 -19986 1004 0
20000 1008 -19990 828 0
20001 1009 -19991 829 0
19997 -70 -19986 0
20000 -73 -19986 0
20000 -88 -19990 -19991 0
-20005 -833 19995 0
20006 834 -19996 1014 0
20007 1015 -19997 835 0
20010 838 -20000 1018 0
20010 -1018 -20000 0
20011 1019 839 -20001 0
20011 -1019 -20001 0
20010 -118 -19996 0
-20015 -843 20005 0
20020 -20010 1028 848 0
20021 -20011 849 1029 0
20030 -20020 858 1038 0
20031 -20021 859 1039 0
20040 -20030 868 1048 0
20041 -20031 869 1049 0
20051 -20041 879 1059 0
20051 -20040 -313 0
20061 -20051 1069 889 0
20071 -20061 -1079 0
20118 -661 -20127 0
20155 813 993 0
20156 814 994 0
20160 818 998 0
20161 999 819 0
20155 -18 0
20156 -18 0
20157 -33 0
20157 -34 0
20161 -34 0
20161 -43 0
20165 823 -20155 1003 0
20166 824 -20156 1004 0
20170 1008 -20160 828 0
20171 1009 -20161 829 0
20165 -64 -20155 -20157 0
20166 -70 -20156 -20157 0
20167 -70 -20156 0
20170 -73 -20156 0
20176 834 -20166 1014 0
20177 -20167 1015 835 0
20180 838 -20170 1018 0
20181 1019 839 -20171 0
20181 -1019 -20171 0
20176 -108 -20165 0
20177 -109 -20165 0
20180 -112 -20165 0
20180 -118 -20166 0
20186 -1024 -20176 0
20190 -20180 1028 848 0
20191 -20181 849 1029 0
20200 -20190 858 1038 0
20201 -20191 859 1039 0
20210 -20200 868 1048 0
20211 -20201 869 1049 0
20221 -20211 879 1059 0
20221 -20210 -313 0
20231 -20221 1069 889 0
20241 -20231 -1079 0
20288 -661 -20297 0
-20314 -775 0
20325 813 993 0
20326 814 994 0
20330 818 998 0
20331 999 819 0
20325 -18 0
20326 -18 0
20327 -33 0
20327 -34 0
20331 -34 0
20331 -43 0
20335 823 -20325 1003 0
20336 824 -20326 1004 0
20340 1008 -20330 828 0
20341 1009 -20331 829 0
20335 -64 -20325 -20327 0
20336 -70 -20326 -20327 0
20337 -70 -20326 0
20340 -73 -20326 0
20346 834 -20336 1014 0
20347 1015 -20337 835 0
20350 838 -20340 1018 0
20351 1019 839 -20341 0
20351 -1019 -20341 0
20346 -108 -20335 0
20347 -109 -20335 0
20350 -112 -20335 0
20350 -118 -20336 0
20356 -1024 -20346 0
20360 -20350 1028 848 0
20361 -20351 849 1029 0
20370 -20360 858 1038 0
20371 -20361 859 1039 0
20380 -20370 868 1048 0
20381 -20371 869 1049 0
20391 -20381 879 1059 0
20391 -20380 -313 0
20401 -20391 1069 889 0
20411 -20401 -1079 0
20488 -796 0
20495 813 993 0
20496 814 994 0
20500 818 998 0
20501 999 819 0
20495 -18 0
20496 -18 0
20497 -33 0
20497 -34 0
20501 -34 0
20501 -43 0
20505 823 -20495 1003 0
20506 824 -20496 1004 0
20510 1008 -20500 828 0
20511 1009 -20501 829 0
20505 -64 -20495 -20497 0
20506 -70 -20496 -20497 0
20507 -70 -20496 0
20510 -73 -20496 0
20516 834 -20506 1014 0
20517 -20507 1015 835 0
20520 838 -20510 1018 0
20521 1019 839 -20511 0
20521 -1019 -20511 0
20516 -108 -20505 0
20517 -109 -20505 0
20520 -112 -20505 0
20520 -118 -20506 0
20526 -1024 -20516 0
20530 -20520 1028 848 0
20531 -20521 849 1029 0
20540 -20530 858 1038 0
20541 -20531 859 1039 0
20550 -20540 868 1048 0
20551 -20541 869 1049 0
20561 -20551 879 1059 0
20561 -20550 -313 0
20571 -20561 1069 889 0
20581 -20571 -1079 0
20658 -796 0
20663 811 991 0
20664 992 812 0
20665 813 993 0
20666 814 994 0
-994 20666 0
20667 815 995 0
20667 -995 0
-20668 996 816 0
-20668 -816 0
20670 818 998 0
20670 -998 0
20671 999 819 0
20665 -18 0
-20665 -20 0
20668 -20 0
-20666 -26 0
-20667 -31 0
20667 -33 0
20667 -34 0
20671 -34 0
20671 -43 0
20673 821 1001 -20663 0
20674 822 -20664 1002 0
20675 823 -20665 1003 0
-20675 20665 1003 823 0
20676 824 -20666 1004 0
-20676 20666 1004 824 0
20677 825 -20667 1005 0
-20677 20667 1005 825 0
-20678 826 20668 1006 0
-20678 -826 20668 0
20680 1008 -20670 828 0
20681 1009 -20671 829 0
-49 -20667 -20663 20673 0
20675 -64 -20665 -20667 0
20676 -70 -20666 -20667 0
20677 -70 -20666 0
20680 -73 -20666 0
-76 20677 -20668 -20667 0
20677 -79 -20671 -20667 0
20683 831 -20673 1011 0
20684 1012 832 -20674 0
20675 -20685 1013 833 0
20686 834 -20676 1014 0
-20686 20676 834 1014 0
20687 835 -20677 1015 0
-20687 20677 1015 835 0
-20687 -835 20677 0
-20688 20678 836 1016 0
20690 838 -20680 1018 0
20691 1019 839 -20681 0
-91 -20674 -20673 20683 0
-94 -20677 20683 -20673 0
20686 -108 -20675 0
20687 -109 -20675 0
20690 -112 -20675 0
20690 -118 -20676 0
20687 -123 -20680 -20677 0
20691 -124 -20677 0
-20683 841 20693 1021 0
20694 -20684 842 1022 0
20685 -20695 1023 843 0
20686 -20696 1024 844 0
20696 -1024 -20686 0
20687 -20697 1025 845 0
-20698 20688 846 1026 0
20700 -20690 1028 848 0
20701 -20691 849 1029 0
-136 -20684 -20683 20693 0
-139 -20687 20693 -20683 0
-20693 20703 851 1031 0
20704 -20694 852 1032 0
20695 -20705 853 1033 0
20696 -20706 854 1034 0
20696 -20706 -854 0
20697 -20707 855 1035 0
-20708 20698 856 1036 0
20698 -20708 -856 0
20710 -20700 858 1038 0
20711 -20701 859 1039 0
-181 -20694 20703 -20693 0
-206 20698 -20706 0
861 -20703 20713 1041 0
20714 -20704 1042 862 0
20706 -20716 1044 864 0
-864 20706 -20716 0
20708 -20718 866 1046 0
20708 -866 -20718 0
20720 -20710 868 1048 0
20721 -20711 869 1049 0
20713 -226 -20703 -20704 0
871 -20713 20723 1051 0
20724 -20714 1052 872 0
20716 -20726 1054 874 0
-20728 20718 1056 876 0
20718 -876 -20728 0
20731 -20721 879 1059 0
-271 -20714 20723 -20713 0
20718 -301 -20727 0
20731 -20720 -313 0
881 -20723 20733 1061 0
20734 -20724 882 1062 0
20726 -20736 1064 884 0
20727 -20737 885 1065 0
-20738 20728 1066 886 0
-20738 20728 -886 0
20741 -20731 1069 889 0
-328 20728 -20734 0
-335 20728 -20735 0
20728 -341 -20736 0
20728 -346 -20737 0
891 -20733 20743 1071 0
20734 -20744 892 1072 0
20735 -20745 1073 893 0
20736 -20746 1074 894 0
20736 -894 -20746 0
20737 -20747 1075 895 0
20737 -895 -20747 0
20738 -20748 1076 896 0
20751 -20741 -1079 0
-361 -20734 20743 -20733 0
-372 20737 -20744 0
-379 20737 -20745 0
-385 20737 -20746 0
901 -20743 20753 1081 0
20828 -796 0
-21005 813 993 0
-21006 814 994 0
-21007 815 995 0
-21007 -815 0
21010 998 818 0
21011 999 819 0
21011 -999 0
-21005 -18 0
21010 -43 0
-21015 823 21005 1003 0
-21017 825 1005 21007 0
-21017 -825 21007 0
21020 1008 -21010 828 0
21020 -1008 -21010 0
21021 1009 -21011 829 0
-21015 -64 21007 0
-21016 -70 21007 0
21020 -88 -21010 -21011 0
-21025 -833 21015 0
-21027 1015 21017 835 0
21030 838 -21020 1018 0
21030 -1018 -21020 0
21031 1019 -21021 839 0
21031 -1019 -21021 0
-21025 -108 21016 0
-21035 -843 21025 0
-21037 21027 845 1025 0
21040 -21030 1028 848 0
21041 -21031 849 1029 0
-21047 21037 855 1035 0
21050 -21040 858 1038 0
21051 -21041 859 1039 0
-21057 21047 865 1045 0
21060 -21050 868 1048 0
21061 -21051 869 1049 0
-21067 21057 875 1055 0
21071 -21061 879 1059 0
21071 -21060 -313 0
-21077 21067 1065 885 0
21081 -21071 1069 889 0
-21087 21077 895 1075 0
21091 -21081 -1079 0
-21097 21087 -905 0
-21135 21146 -648 0
-21176 814 994 0
-21177 815 995 0
-21177 -815 0
21180 998 818 0
21181 999 819 0
21181 -999 0
21176 -18 0
21180 -43 0
-21176 21186 1004 824 0
-21186 824 21176 1004 0
-21187 -825 21177 0
21190 1008 -21180 828 0
21190 -1008 -21180 0
21191 1009 -21181 829 0
-21186 -70 21177 0
-21187 -70 21176 21177 0
21190 -88 -21180 -21181 0
21196 -21186 834 1014 0
-21196 834 21186 1014 0
21200 838 -21190 1018 0
21200 -1018 -21190 0
21201 1019 -21191 839 0
21201 -1019 -21191 0
-21195 -108 21186 0
-21195 -109 21187 0
21200 -21186 -118 0
-21205 21195 -843 0
21210 -21200 1028 848 0
21211 -21201 849 1029 0
-21205 -153 21196 0
21220 -21210 858 1038 0
21221 -21211 859 1039 0
21230 -21220 868 1048 0
21231 -21221 869 1049 0
21241 -21231 879 1059 0
21241 -21230 -313 0
21251 -21241 1069 889 0
21261 -21251 -1079 0
-21305 21316 -648 0
-21345 813 993 0
-21345 -813 0
21346 814 994 0
21346 -994 0
-21347 815 995 0
-21347 -815 0
21350 998 818 0
21351 999 819 0
21351 -999 0
21350 -43 0
-21355 823 1003 21345 0
21356 824 -21346 1004 0
-21357 -825 21347 0
21360 1008 -21350 828 0
21360 -1008 -21350 0
21361 1009 -21351 829 0
-21355 -64 21347 0
-21356 -70 21347 0
-70 21357 -21346 0
21360 -88 -21350 -21351 0
-21365 -833 21355 0
21366 834 -21356 1014 0
21367 -21357 1015 835 0
21370 838 -21360 1018 0
21370 -1018 -21360 0
21371 1019 -21361 839 0
21371 -1019 -21361 0
-21365 -108 21356 0
21370 -118 -21356 0
-21375 -843 21365 0
21380 -21370 1028 848 0
21381 -21371 849 1029 0
21390 -21380 858 1038 0
21391 -21381 859 1039 0
21400 -21390 868 1048 0
21401 -21391 869 1049 0
21411 -21401 879 1059 0
21411 -21400 -313 0
21421 -21411 1069 889 0
21431 -21421 -1079 0
-21475 21486 -648 0
21515 813 993 0
21516 814 994 0
-21517 -815 0
21520 998 818 0
21521 999 819 0
21521 -999 0
21515 -18 0
21516 -18 0
21520 -43 0
21525 823 -21515 1003 0
21526 824 -21516 1004 0
21530 1008 -21520 828 0
21530 -1008 -21520 0
21531 1009 -21521 829 0
-21525 -64 21517 0
-21526 -70 21517 0
21527 -70 -21516 0
-21535 21525 -833 0
21536 834 -21526 1014 0
21537 -21527 1015 835 0
21540 838 -21530 1018 0
21541 1019 -21531 839 0
21541 -1019 -21531 0
21526 -21535 -108 0
21535 -21527 -109 -21525 0
21537 -109 -21525 0
21540 -112 -21525 0
21540 -118 -21526 0
-21545 21535 -843 0
21550 -21540 1028 848 0
21551 -21541 849 1029 0
21546 -21535 -153 0
21560 -21550 858 1038 0
21561 -21551 859 1039 0
21570 -21560 868 1048 0
21571 -21561 869 1049 0
21581 -21571 879 1059 0
21581 -21570 -313 0
21591 -21581 1069 889 0
21601 -21591 -1079 0
21648 -661 -21657 0
-21674 -775 0
-21683 811 991 0
21685 813 993 0
21686 814 994 0
-21687 815 995 0
-21687 -815 0
21689 817 997 0
21690 998 818 0
21691 999 819 0
21691 -999 0
21692 1000 820 0
21685 -18 0
21686 -18 0
21690 -43 0
-21693 821 1001 21683 0
-21693 -821 21683 0
21695 823 -21685 1003 0
21696 824 -21686 1004 0
-21697 825 1005 21687 0
-21697 -825 21687 0
21699 827 1007 -21689 0
21700 1008 -21690 828 0
21700 -1008 -21690 0
21701 1009 -21691 829 0
1010 21702 830 -21692 0
-21695 -64 21687 0
-21696 -70 21687 0
-70 21697 -21686 0
21701 -88 -21690 0
-21703 831 21693 1011 0
-21705 21695 -833 0
21706 834 -21696 1014 0
21707 -21697 1015 835 0
-21707 1015 21697 835 0
21709 837 -21699 1017 0
21710 838 -21700 1018 0
21711 1019 -21701 839 0
21711 -1019 -21701 0
-21702 21712 1020 840 0
-21705 -108 21696 0
-21705 -109 21697 0
21705 -21697 -109 -21695 0
21710 -112 -21695 0
21710 -118 -21696 0
-21713 21703 841 1021 0
-21713 21703 -841 0
-21715 21705 -843 0
-21717 21707 845 1025 0
21719 -21709 847 1027 0
21720 -21710 1028 848 0
21721 -21711 849 1029 0
1030 -21712 21722 850 0
21716 -21705 -153 0
-21723 21713 851 1031 0
-21723 -851 21713 0
-21727 21717 855 1035 0
21729 -21719 857 1037 0
21730 -21720 858 1038 0
21731 -21721 859 1039 0
1040 -21722 21732 860 0
861 -21733 21723 1041 0
-21733 -861 21723 0
-21737 21727 865 1045 0
21739 -21729 867 1047 0
21740 -21730 868 1048 0
21741 -21731 869 1049 0
-21732 21742 1050 870 0
871 -21743 21733 1051 0
-21743 -871 21733 0
-21747 21737 875 1055 0
21749 -21739 877 1057 0
21751 -21741 879 1059 0
1060 -21742 21752 880 0
21751 -21740 -313 0
881 -21753 21743 1061 0
-21753 -881 21743 0
-21757 21747 1065 885 0
-21757 21747 -885 0
21759 -21749 887 1067 0
21761 -21751 1069 889 0
1070 -21752 21762 890 0
891 -21763 21753 1071 0
21753 -21763 -891 0
-21767 21757 895 1075 0
-21767 21757 -895 0
21769 -21759 1077 897 0
21771 -21761 -1079 0
-21762 21772 1080 900 0
-21773 21763 901 1081 0
-21773 -901 21763 0
-21777 21767 905 1085 0
-21777 21767 -905 0
1090 -21772 21782 910 0
911 -21783 21773 1091 0
-21783 -911 21773 0
21777 -21787 1095 915 0
21777 -21787 -915 0
21787 -21797 925 1105 0
21787 -925 -21797 0
21787 -520 -21796 0
21848 -796 0
-22025 813 993 0
-22026 814 994 0
22030 998 818 0
22031 999 819 0
-22025 -18 0
-22026 -18 0
22027 -33 0
22027 -34 0
22031 -34 0
22030 -43 0
22031 -43 0
-22035 823 22025 1003 0
-22035 -823 22025 0
-22036 824 22026 1004 0
-22036 -824 22026 0
22037 -22027 -1005 0
22040 1008 -22030 828 0
22041 1009 -22031 829 0
22040 -88 -22030 -22031 0
-22045 -833 22035 0
-22046 834 22036 1014 0
22047 1015 -22037 835 0
22050 838 -22040 1018 0
22050 -1018 -22040 0
22051 1019 839 -22041 0
22051 -1019 -22041 0
-22055 -843 22045 0
-22056 22046 1024 844 0
22060 -22050 1028 848 0
22061 -22051 849 1029 0
-22066 22056 1034 854 0
22070 -22060 858 1038 0
22071 -22061 859 1039 0
-22076 22066 864 1044 0
22080 -22070 868 1048 0
22081 -22071 869 1049 0
-22086 22076 874 1054 0
22091 -22081 879 1059 0
22091 -22080 -313 0
-22096 22086 884 1064 0
22101 -22091 1069 889 0
-22106 22096 1074 894 0
22111 -22101 -1079 0
-22116 22106 904 1084 0
22116 -22126 914 1094 0
22126 -22136 924 1104 0
-924 22126 -22136 0
22158 -661 -22167 0
22195 813 993 0
-22196 814 994 0
22197 815 995 0
22200 998 818 0
22201 999 819 0
22196 -18 0
22197 -33 0
22197 -34 0
22201 -34 0
22200 -43 0
22201 -43 0
22205 823 -22195 1003 0
22206 -22196 1004 824 0
-22206 -824 22196 0
22207 -1005 -22197 0
22210 1008 -22200 828 0
22211 1009 -22201 829 0
22205 -64 -22197 -22195 0
22207 -78 -22200 -22197 0
22210 -88 -22200 -22201 0
22216 -22206 834 1014 0
22217 -22207 1015 835 0
22217 -1015 -22207 0
22220 838 -22210 1018 0
22220 -1018 -22210 0
22221 1019 839 -22211 0
22221 -1019 -22211 0
22216 -108 -22205 0
22215 -109 -22205 -22207 0
22220 -22206 -118 0
22226 -22216 -1024 0
22230 -22220 1028 848 0
22231 -22221 849 1029 0
22226 -22215 -153 0
22240 -22230 858 1038 0
22241 -22231 859 1039 0
22250 -22240 868 1048 0
22251 -22241 869 1049 0
22261 -22251 879 1059 0
22261 -22250 -313 0
22271 -22261 1069 889 0
22281 -22271 -1079 0
22328 -661 -22337 0
22365 813 993 0
-22366 814 994 0
-22366 -814 0
22367 815 995 0
22369 817 997 0
22370 998 818 0
22371 999 819 0
22372 1000 820 0
22366 -18 0
22367 -33 0
22367 -34 0
22371 -34 0
22370 -43 0
22371 -43 0
22375 823 -22365 1003 0
22376 -22366 1004 824 0
-22376 824 22366 1004 0
-22376 -824 22366 0
22377 825 -22367 1005 0
22377 -1005 -22367 0
22379 827 1007 -22369 0
22380 1008 -22370 828 0
22380 -1008 -22370 0
22381 1009 -22371 829 0
1010 22382 830 -22372 0
22375 -64 -22367 -22365 0
22377 -78 -22370 -22367 0
22380 -88 -22370 -22371 0
22386 -22376 834 1014 0
22387 835 -22377 1015 0
22387 -1015 -22377 0
22389 837 -22379 1017 0
22390 838 -22380 1018 0
22390 -1018 -22380 0
22391 1019 839 -22381 0
22391 -1019 -22381 0
-22382 22392 1020 840 0
-22385 -108 22376 0
22386 -108 -22375 0
22385 -109 -22375 -22377 0
22390 -22376 -118 0
22396 -22386 -1024 0
22397 -22387 845 1025 0
22399 -22389 847 1027 0
22400 -22390 1028 848 0
22401 -22391 849 1029 0
1030 -22392 22402 850 0
22396 -22385 -153 0
22407 -22397 855 1035 0
22409 -22399 857 1037 0
22410 -22400 858 1038 0
22411 -22401 859 1039 0
1040 -22402 22412 860 0
22417 -22407 865 1045 0
22419 -22409 867 1047 0
22420 -22410 868 1048 0
22421 -22411 869 1049 0
-22412 22422 1050 870 0
22420 -258 -22407 0
22427 -22417 875 1055 0
22429 -22419 877 1057 0
22430 -22420 878 1058 0
22431 -22421 879 1059 0
1060 -22422 22432 880 0
22431 -22420 -313 0
22441 -22431 1069 889 0
1070 -22432 22442 890 0
22441 -22429 -356 0
22451 -22441 -1079 0
-22465 22455 913 1093 0
22455 -22465 -913 0
22458 -22468 -916 0
-22454 -22455 -460 22464 0
22461 -488 -22468 0
-22464 22474 922 1102 0
-22475 22465 1103 923 0
22465 -22475 -923 0
22468 -22478 926 1106 0
22468 -22478 -926 0
22528 -796 0
-22533 811 991 0
22536 814 994 0
22538 -31 0
22640 -22650 -928 0
-22634 -505 22645 0
22641 -538 -22650 0
22650 -22660 1118 938 0
22660 -22670 1128 948 0
22670 -22680 1138 958 0
22680 -715 -22689 0
-22694 -775 0
-22705 813 993 0
22706 814 994 0
22706 -994 0
22707 815 995 0
22710 818 998 0
22711 999 819 0
22707 -33 0
22707 -34 0
22711 -34 0
22711 -43 0
-22715 -823 22705 0
22716 824 -22706 1004 0
22720 1008 -22710 828 0
22721 1009 -22711 829 0
22716 -70 -22706 -22707 0
22717 -70 -22706 0
22720 -73 -22706 0
22717 -78 -22710 -22707 0
22720 -88 -22710 -22711 0
-22725 -833 22715 0
22726 834 -22716 1014 0
22726 -1014 -22716 0
22727 1015 -22717 835 0
22727 -1015 -22717 0
22730 838 -22720 1018 0
22730 -1018 -22720 0
22731 1019 839 -22721 0
22731 -1019 -22721 0
22730 -118 -22716 0
22736 -1024 -22726 0
22740 -22730 848 1028 0
22741 -22731 849 1029 0
22750 -22740 858 1038 0
22751 -22741 859 1039 0
22760 -22750 868 1048 0
22761 -22751 869 1049 0
22771 -22761 879 1059 0
22771 -22760 -313 0
22781 -22771 1069 889 0
22791 -22781 -1079 0
22868 -796 0
23043 811 991 0
-23044 812 992 0
23045 813 993 0
23046 814 994 0
23047 815 995 0
23047 -995 0
23049 817 997 0
23050 818 998 0
23051 999 819 0
23052 1000 820 0
23045 -18 0
23046 -18 0
23047 -33 0
23047 -34 0
23051 -34 0
23050 -37 0
23048 -38 0
23051 -43 0
-23054 822 1002 23044 0
23055 823 -23045 1003 0
23056 824 -23046 1004 0
23057 825 -23047 1005 0
23059 827 1007 -23049 0
23060 1008 -23050 828 0
23061 1009 -23051 829 0
1010 23062 830 -23052 0
23053 -23048 -23043 -50 0
23055 -64 -23045 -23047 0
23057 -70 -23046 0
23060 -73 -23046 0
23061 -88 -23050 0
-23064 1012 832 23054 0
-832 -23064 23054 0
23066 834 -23056 1014 0
23067 835 -23057 1015 0
23069 837 -23059 1017 0
23070 838 -23060 1018 0
23071 1019 -23061 839 0
23071 -1019 -23061 0
-23062 23072 1020 840 0
-23063 -91 23054 0
-91 -23053 23064 0
23065 -108 -23056 -23055 0
23066 -108 -23055 0
23065 -109 -23057 -23055 0
23067 -109 -23055 0
23070 -112 -23055 0
23070 -118 -23056 0
23068 -127 -23058 -23060 0
-23073 23063 841 1021 0
-23073 23063 -841 0
-23074 23064 842 1022 0
-23074 -842 23064 0
23077 -23067 845 1025 0
23079 -23069 847 1027 0
23080 -23070 1028 848 0
23081 -23071 849 1029 0
23081 -23071 -1029 0
1030 -23072 23082 850 0
-136 23064 -23073 0
23076 -153 -23065 0
-23083 23073 851 1031 0
-23084 23074 852 1032 0
-23084 23074 -852 0
23087 -23077 855 1035 0
23089 -23079 857 1037 0
23090 -23080 858 1038 0
23091 -23081 859 1039 0
1040 -23082 23092 860 0
-181 23074 -23083 0
23091 -23077 -214 0
861 -23093 23083 1041 0
23094 -23084 862 1042 0
-23094 23084 862 1042 0
-862 -23094 23084 0
23097 -23087 865 1045 0
23099 -23089 867 1047 0
23100 -23090 868 1048 0
23101 -23091 869 1049 0
-23092 23102 1050 870 0
-23093 23084 -226 0
23098 -256 -23087 0
23100 -258 -23087 0
871 -23103 23093 1051 0
-23094 872 23104 1052 0
-23104 23094 872 1052 0
-872 23094 -23104 0
23107 -23097 875 1055 0
23108 -23098 876 1056 0
23109 -23099 877 1057 0
23110 -23100 878 1058 0
23111 -23101 879 1059 0
23111 -23101 -1059 0
1060 -23102 23112 880 0
-271 23094 -23103 0
23111 -23100 -313 0
881 -23113 23103 1061 0
23103 -881 -23113 0
882 23104 -23114 1062 0
-882 23104 -23114 0
23117 -23107 885 1065 0
23118 -23108 886 1066 0
23119 -23109 887 1067 0
23120 -23110 888 1068 0
23121 -23111 1069 889 0
23121 -1069 -23111 0
-23112 23122 1070 890 0
-316 23104 -23113 0
-316 23114 -23103 0
23121 -23109 -356 0
-23123 891 23113 1071 0
23113 -891 -23123 0
-23124 23114 892 1072 0
-892 -23124 23114 0
23116 -23126 1074 894 0
23116 -894 -23126 0
23129 -23119 1077 897 0
23130 -23120 898 1078 0
23131 -23121 899 1079 0
23131 -23121 -1079 0
-23132 23122 1080 900 0
-23123 -361 23114 0
23123 -361 -23113 -23114 0
-361 23114 23113 -23124 0
23123 -23115 -23113 -362 0
-23116 -363 -23113 23123 0
-364 -23117 -23113 23123 0
23116 -371 -23124 0
23116 -378 -23125 0
23118 -391 -23127 0
23128 -398 -23118 -23121 0
23131 -398 -23118 0
23130 -23120 -403 -23121 0
-23123 23133 901 1081 0
-23133 23123 901 1081 0
23123 -901 -23133 0
-23134 23124 902 1082 0
-23134 23124 -902 0
23127 -23137 1085 905 0
23128 -23138 1086 906 0
23128 -23138 -906 0
23139 -23129 907 1087 0
23140 -23130 908 1088 0
23141 -23131 909 1089 0
23141 -1089 -23131 0
-406 -23133 23124 0
-406 -23124 23133 -23123 0
23131 -443 -23138 0
23139 -446 -23129 -23131 0
23141 -448 -23130 0
-23143 23133 911 1091 0
-23144 23134 912 1092 0
-912 -23144 23134 0
-451 23144 -23133 0
-451 23133 -23144 23134 0
921 -23153 23143 1101 0
23143 -921 -23153 0
-23154 23144 922 1102 0
-23154 23144 -922 0
23150 -23160 -928 0
23151 -538 -23160 0
-23163 23153 931 1111 0
-23163 23153 -931 0
-23164 932 23154 1112 0
-932 -23164 23154 0
-541 -23163 23154 0
941 -23173 23163 1121 0
-23174 23164 1122 942 0
-942 -23174 23164 0
-23173 -586 23164 0
-23183 951 23173 1131 0
23173 -951 -23183 0
-23184 1132 23174 952 0
-952 -23184 23174 0
23174 -631 -23183 0
961 -23193 23183 1141 0
-23194 1142 962 23184 0
-962 -23194 23184 0
-23183 -676 -23184 23193 0
-676 23184 23183 -23194 0
972 1152 -23204 23194 0
-972 23194 -23204 0
-721 23203 -23193 -23194 0
-23195 -722 23203 -23193 0
23204 -982 0
-23203 -23204 -766 0
23208 -796 0
-23213 811 991 0
23214 992 812 0
23215 813 993 0
23217 815 995 0
23218 996 816 0
23219 817 997 0
23220 818 998 0
23221 999 819 0
23222 1000 820 0
23218 -31 0
-23223 821 1001 23213 0
-23223 -821 23213 0
23224 822 -23214 1002 0
23227 825 -23217 1005 0
23229 827 1007 -23219 0
23230 1008 -23220 828 0
23231 1009 -23221 829 0
1010 23232 830 -23222 0
23231 -88 -23220 0
-23233 831 23223 1011 0
-23233 -831 23223 0
23234 1012 832 -23224 0
23237 835 -23227 1015 0
23239 837 -23229 1017 0
23240 838 -23230 1018 0
23241 1019 -23231 839 0
23241 -1019 -23231 0
-23232 23242 1020 840 0
23241 -131 -23229 0
-23243 23233 841 1021 0
23233 -841 -23243 0
23244 -23234 842 1022 0
23247 -23237 845 1025 0
23249 -23239 847 1027 0
23250 -23240 1028 848 0
23251 -23241 849 1029 0
23251 -23241 -1029 0
1030 -23242 23252 850 0
23248 -166 -23237 0
23251 -176 -23239 0
-23253 23243 851 1031 0
-23253 -851 23243 0
23254 -23244 852 1032 0
23257 -23247 855 1035 0
23259 -23249 857 1037 0
23261 -23251 859 1039 0
1040 -23252 23262 860 0
23260 -213 -23247 0
23261 -23248 -218 0
23261 -23249 -221 0
861 -23263 23253 1041 0
-23263 23253 -861 0
23264 -23254 1042 862 0
23267 -23257 865 1045 0
23269 -23259 867 1047 0
23270 -23260 868 1048 0
23271 -23261 869 1049 0
23271 -1049 -23261 0
-23262 23272 1050 870 0
23268 -256 -23257 0
23271 -23259 -266 0
871 -23273 23263 1051 0
23263 -871 -23273 0
23274 -23264 1052 872 0
23277 -23267 875 1055 0
23278 -23268 876 1056 0
23279 -23269 877 1057 0
23281 -23271 879 1059 0
23281 -23271 -1059 0
1060 -23272 23282 880 0
23278 -301 -23267 0
23281 -23269 -311 0
881 -23283 23273 1061 0
23273 -881 -23283 0
23284 -23274 882 1062 0
23287 -23277 1065 885 0
23288 -23278 886 1066 0
23278 -23288 1066 886 0
23289 -23279 887 1067 0
23291 -23281 1069 889 0
23291 -1069 -23281 0
-23282 23292 1070 890 0
23288 -346 -23277 0
23290 -23277 -348 0
23291 -23279 -356 0
891 -23293 23283 1071 0
-23293 23283 -891 0
23294 -23284 1072 892 0
23298 -23288 1076 896 0
23299 -23289 1077 897 0
23301 -23291 899 1079 0
-23292 23302 1080 900 0
23288 -391 -23297 0
23301 -398 -23288 0
23301 -23289 -401 0
23301 -23290 -403 0
-23303 23293 901 1081 0
23293 -901 -23303 0
23304 -23294 1082 902 0
23297 -23307 1085 905 0
23308 -23298 1086 906 0
23298 -23308 1086 906 0
23298 -23308 -906 0
23309 -23299 1087 907 0
23311 -23301 909 1089 0
1090 -23302 23312 910 0
1090 -23312 23302 910 0
23301 -23308 -443 0
23311 -446 -23299 0
-23313 23303 911 1091 0
-23313 23303 -911 0
23314 -23304 1092 912 0
23308 -23318 -916 0
23319 -23309 917 1097 0
23321 -23311 919 1099 0
-23312 23322 1100 920 0
23311 -488 -23318 0
23321 -23308 -488 0
23321 -23309 -491 0
921 -23323 23313 1101 0
-23323 23313 -921 0
23324 -23314 1102 922 0
23318 -926 -23328 0
23320 -23330 -928 0
23331 -23321 929 1109 0
-23322 23332 1110 930 0
23331 -536 -23319 0
23321 -538 -23330 0
-23333 23323 931 1111 0
-23333 23323 -931 0
23334 -23324 932 1112 0
23341 -23331 939 1119 0
-23332 23342 1120 940 0
23341 -585 -23331 -23332 0
941 -23343 23333 1121 0
23344 -23334 942 1122 0
23351 1129 -23341 949 0
-23342 23352 1130 950 0
-23333 -586 23343 -23334 0
23354 -23344 1132 952 0
-23343 -631 -23344 23353 0
-23345 -632 -23343 23353 0
-23343 -633 -23346 23353 0
-23347 -634 -23343 23353 0
-23343 -635 -23348 23353 0
-23353 23363 961 1141 0
-23354 -676 -23353 23363 0
23383 811 991 0
23384 992 812 0
23385 813 993 0
23386 814 994 0
23387 815 995 0
23388 996 816 0
23388 -996 0
23389 817 997 0
23390 998 818 0
23390 -998 0
23391 999 819 0
23391 -999 0
23392 1000 820 0
23385 -18 0
23387 -31 0
23387 -34 0
23388 -37 0
23388 -38 0
23390 -43 0
23394 822 -23384 1002 0
23395 823 -23385 1003 0
23396 824 -23386 1004 0
23397 825 1005 -23387 0
23398 826 -23388 1006 0
23399 827 1007 -23389 0
23400 1008 -23390 828 0
23401 1009 -23391 829 0
23401 -1009 -23391 0
1010 23402 830 -23392 0
23393 -49 -23383 -23387 0
23398 -50 -23383 0
23396 -70 -23386 -23387 0
23397 -78 -23387 -23390 0
23398 -83 -23391 -23388 0
-23393 23403 831 1011 0
23404 1012 832 -23394 0
23404 -1012 -23394 0
23407 1015 -23397 835 0
23409 837 -23399 1017 0
23410 838 -23400 1018 0
23411 1019 -23401 839 0
23411 -1019 -23401 0
-23402 23412 1020 840 0
-95 -23398 -23393 23403 0
23414 -23404 842 1022 0
23417 -23407 845 1025 0
23419 -23409 847 1027 0
23420 -23410 848 1028 0
23421 -23411 849 1029 0
23421 -1029 -23411 0
-23412 1030 23422 850 0
23424 -23414 852 1032 0
23427 -23417 855 1035 0
23429 -23419 857 1037 0
23430 -23420 858 1038 0
23431 -23421 859 1039 0
23431 -23421 -1039 0
1040 -23422 23432 860 0
23428 -217 -23420 -23418 0
23434 -23424 1042 862 0
23437 -23427 1045 865 0
23439 -23429 867 1047 0
23440 -23430 868 1048 0
23441 -23431 869 1049 0
23441 -1049 -23431 0
-23432 23442 1050 870 0
23438 -23428 -23430 -262 0
23440 -23428 -262 0
23449 -23439 877 1057 0
23450 -23440 878 1058 0
23450 -1058 -23440 0
23451 1059 879 -23441 0
1060 -23442 23452 880 0
23459 -23449 887 1067 0
23460 1068 888 -23450 0
23450 -23460 -888 0
23461 -23451 1069 889 0
-23452 23462 1070 890 0
23451 -23460 -358 0
23460 -358 -23451 -23450 0
23469 -23459 1077 897 0
23470 -23460 898 1078 0
23470 -23460 -1078 0
23471 1079 -23461 899 0
-23462 23472 1080 900 0
23468 -398 -23458 -23461 0
23469 -400 -23459 -23460 0
23471 -23459 -401 0
23468 -23478 -906 0
23479 -23469 907 1087 0
23481 -23471 909 1089 0
23481 -1089 -23471 0
1090 -23472 23482 910 0
23478 -23468 -442 -23470 0
23489 -23479 917 1097 0
23491 -23481 919 1099 0
-23482 23492 1100 920 0
23490 -493 -23481 -23480 0
23499 -23489 927 1107 0
23501 -1109 -23491 0
-23492 23502 1110 930 0
23500 -538 -23490 -23491 0
23510 -23500 1118 938 0
23509 -581 -23499 -23501 0
23544 1162 982 0
23544 -982 0
23545 -775 0
-23553 -18 0
23553 -19 0
-23553 -20 0
-23553 -22 0
-23553 -23 0
23553 -25 0
-23553 -26 0
-23553 -28 0
-23553 -29 0
23553 -31 0
23553 -33 0
23553 -34 0
-23553 -37 0
-23553 -38 0
-23553 -43 0
23554 -49 -2137 0
-64 23554 -2137 0
-65 23554 -2138 0
-67 -2140 23554 0
23554 -68 -2141 0
23554 -70 -2137 0
-71 23554 -2138 0
-73 -2140 23554 0
-73 -23554 -23386 -23390 2136 2140 0
23554 -74 -2141 0
-76 23554 -2137 0
-76 23554 -2138 0
23554 -78 -2137 0
-78 23554 -2140 0
23554 -79 -2137 0
23554 -82 -2138 0
23554 -2140 -82 0
23554 -83 -2138 0
23554 -83 -2141 0
23554 -2140 -88 0
23554 -88 -2141 0
-94 23555 -2147 0
23555 -95 -2148 0
-109 23555 -2147 0
-110 23555 -2148 0
23555 -112 -2150 0
-113 23555 -2151 0
23555 -115 -2147 0
23555 -116 -2146 0
-116 23555 -2148 0
-118 23555 -2150 0
-119 23555 -2151 0
23555 -121 -2147 0
23555 -121 -2148 0
-122 23555 -2147 0
23555 -123 -2147 0
23555 -123 -2150 0
-123 -23555 2147 -23400 -23397 2150 0
23555 -124 -2147 0
23555 -127 -2148 0
23555 -127 -2150 0
23555 -128 -2148 0
23555 -128 -2151 0
23555 -133 -2150 0
23555 -133 -2151 0
-23555 -133 2150 -23401 -23400 2151 0
-23556 -136 2153 -23404 -23403 2154 0
-139 23556 -2157 0
23556 -2158 -140 0
23556 -147 -2157 0
-148 23556 -2158 0
-148 -23556 -23404 -23408 2154 2158 0
23556 -2160 -150 0
-23556 -150 -23404 -23410 2154 2160 0
23556 -151 -2161 0
-23411 -151 -23556 -23404 2154 2161 0
-154 23556 -2157 0
-155 23556 -2158 0
-155 -23405 -23556 -23408 2155 2158 0
-157 23556 -2160 0
-157 -23405 -23556 2160 2155 -23410 0
23556 -158 -2161 0
-158 -23405 -23556 -23411 2155 2161 0
-160 23556 -2157 0
-161 23556 -2158 0
-161 -23406 -23556 -23408 2156 2158 0
-163 23556 -2160 0
-163 -23406 -23556 -23410 2156 2160 0
-164 23556 -2161 0
-164 -23406 -23556 -23411 2156 2161 0
23556 -166 -2157 0
23556 -166 -2158 0
-168 23556 -2157 0
-168 23556 -2160 0
23556 -2157 -169 0
23556 -169 -2161 0
-171 23556 -2158 0
23556 -2158 -172 0
23556 -2160 -172 0
-172 -23410 2158 -23556 2160 -23408 0
23556 -2158 -173 0
23556 -173 -2161 0
-23556 -23408 2161 2158 -23411 -173 0
23556 -176 -2161 0
23556 -2160 -178 0
23556 -178 -2161 0
-23556 -178 2161 2160 -23410 -23411 0
-23413 -23557 -181 -23414 2163 2164 0
-2167 23557 -184 0
-2168 -185 23557 0
-192 -2167 23557 0
-193 -2168 23557 0
-195 23557 -2170 0
23557 -196 -2171 0
-199 -2167 23557 0
-200 -2168 23557 0
-202 23557 -2170 0
-203 23557 -2171 0
-205 -2167 23557 0
-206 -2168 23557 0
-208 23557 -2170 0
-209 23557 -2171 0
-211 -2167 23557 0
-211 -2168 23557 0
-213 -2167 23557 0
-213 23557 -2170 0
-2167 23557 -214 0
23557 -2171 -214 0
-217 -2168 23557 0
-217 23557 -2170 0
-217 -23418 -23557 2170 2168 -23420 0
-218 -2168 23557 0
-218 23557 -2171 0
-23418 -23557 2171 -218 2168 -23421 0
23557 -2171 -221 0
23557 -2170 -223 0
23557 -223 -2171 0
-23420 -223 -23557 2170 2171 -23421 0
-23558 -226 2173 -23424 -23423 2174 0
-2177 23558 -229 0
-230 -2178 23558 0
-235 -23558 -23425 -23424 2174 2175 0
-236 -23558 2176 -23424 -23426 2174 0
-2177 23558 -237 0
-237 2177 -23424 -23558 2174 -23427 0
-2178 23558 -238 0
-240 -2180 23558 0
-2174 -241 23558 0
23558 -241 -2181 0
-243 -23558 2175 -23425 2176 -23426 0
-244 -2177 23558 0
-244 -23425 2177 -23558 2175 -23427 0
-245 -2178 23558 0
-247 -2180 23558 0
-2175 -248 23558 0
-248 23558 -2181 0
-250 -2177 23558 0
-250 -23426 2177 -23558 2176 -23427 0
-251 -2178 23558 0
-253 -2180 23558 0
-2176 -254 23558 0
-254 23558 -2181 0
-256 -2177 23558 0
-256 -2178 23558 0
-258 -2177 23558 0
-258 -2180 23558 0
-2177 -259 23558 0
-259 23558 -2181 0
-262 -2178 23558 0
-262 -2180 23558 0
-262 -23558 2178 -23428 2180 -23430 0
-2178 -263 23558 0
-263 23558 -2181 0
-263 -23558 2181 2178 -23428 -23431 0
23558 -266 -2181 0
-2180 23558 -268 0
23558 -268 -2181 0
-268 -23558 -23431 2181 2180 -23430 0
23558 -2181 -270 0
23559 -273 -2183 0
-274 -2187 23559 0
23559 -2188 -275 0
-280 -23559 -23435 -23434 2184 2185 0
-2184 -281 23559 0
-281 -23559 -23436 -23434 2184 2186 0
-282 -2187 23559 0
-282 -23559 -23434 -23437 2184 2187 0
-283 23559 -2188 0
-283 -23438 2188 -23434 2184 -23559 0
-285 23559 -2190 0
-285 -23559 -23440 -23434 2184 2190 0
-2184 -286 23559 0
-286 23559 -2191 0
-23559 -286 -23434 -23441 2184 2191 0
-2185 23559 -288 0
-288 -23559 -23435 -23436 2185 2186 0
-2187 23559 -289 0
-23559 -289 -23435 -23437 2185 2187 0
-290 23559 -2188 0
-290 -23435 2188 -23438 2185 -23559 0
-292 23559 -2190 0
-292 -23559 -23440 -23435 2185 2190 0
-293 23559 -2191 0
-293 -23559 -23435 -23441 2185 2191 0
-295 -2187 23559 0
-295 -23559 -23436 -23437 2186 2187 0
-296 23559 -2188 0
-296 -23436 2188 -23438 2186 -23559 0
-298 23559 -2190 0
-298 -23559 -23440 -23436 2186 2190 0
-2186 -299 23559 0
-299 23559 -2191 0
-299 -23436 2191 -23559 2186 -23441 0
-301 -2187 23559 0
-301 23559 -2188 0
-301 -23559 -23438 2187 2188 -23437 0
-303 -2187 23559 0
-303 23559 -2190 0
-303 -23559 2190 2187 -23437 -23440 0
-2187 23559 -304 0
23559 -304 -2191 0
-307 23559 -2188 0
-307 23559 -2190 0
-307 -23559 2188 -23438 2190 -23440 0
-2188 23559 -308 0
23559 -308 -2191 0
-308 -23559 2188 -23441 -23438 2191 0
-2189 23559 -311 0
23559 -2191 -311 0
23559 -2190 -313 0
23559 -2191 -313 0
-23559 2190 -313 2191 -23440 -23441 0
23559 -2191 -315 0
-319 23560 -2197 0
-320 -2198 23560 0
-327 23560 -2197 0
-328 -2198 23560 0
-330 23560 -2200 0
-2194 -331 23560 0
-331 23560 -2201 0
-334 23560 -2197 0
-335 -2198 23560 0
-337 23560 -2200 0
-2195 23560 -338 0
23560 -338 -2201 0
-340 23560 -2197 0
-341 -2198 23560 0
-343 23560 -2200 0
-2196 23560 -344 0
23560 -344 -2201 0
-346 -2197 23560 0
-346 -2198 23560 0
-2197 23560 -348 0
23560 -348 -2200 0
-2197 -349 23560 0
-349 23560 -2201 0
-2198 23560 -352 0
23560 -352 -2200 0
-352 -23560 2200 2198 -23448 -23450 0
-2198 -353 23560 0
-353 23560 -2201 0
-353 -23560 2198 2201 -23448 -23451 0
23449 -355 23560 0
23450 -355 23560 0
-2199 23560 -356 0
23560 -2201 -356 0
23560 -358 -2200 0
23560 -358 -2201 0
-358 -23450 2200 -23560 2201 -23451 0
23560 -360 -2201 0
-364 -2207 23561 0
-2208 -365 23561 0
-372 -2207 23561 0
-2208 23561 -373 0
-375 -2210 23561 0
23460 -375 23561 0
-376 -2204 23561 0
-376 -2211 23561 0
-379 -2207 23561 0
-380 -2208 23561 0
-382 -2210 23561 0
23460 -382 23561 0
-2205 -383 23561 0
-383 -2211 23561 0
-385 -2207 23561 0
-386 -2208 23561 0
-388 -2210 23561 0
-388 23460 23561 0
-2206 -389 23561 0
-389 -2211 23561 0
-391 -2207 23561 0
-391 -2208 23561 0
-393 -2207 23561 0
-393 -2210 23561 0
23460 -393 23561 0
-2207 -394 23561 0
-394 -2211 23561 0
-2208 23561 -397 0
-2210 23561 -397 0
23460 23561 -397 0
-397 -23561 -23460 2208 -23458 2210 0
-398 -2208 23561 0
-398 -2211 23561 0
-2211 23561 -401 0
-2210 23561 -403 0
23561 -2211 -403 0
-23561 -23460 -403 2211 2210 -23461 0
23561 -2211 -405 0
-409 -2217 23562 0
-410 -2218 23562 0
23562 -2221 -413 0
-417 -2217 23562 0
-418 -2218 23562 0
-420 -2220 23562 0
23562 -2221 -421 0
-424 -2217 23562 0
-425 -2218 23562 0
-427 -2220 23562 0
23562 -428 -2221 0
-430 -2217 23562 0
-431 -2218 23562 0
-433 -2220 23562 0
-434 23562 -2221 0
-436 -2217 23562 0
-436 -2218 23562 0
-438 -2217 23562 0
-438 -2220 23562 0
-439 -2217 23562 0
-439 23562 -2221 0
-442 -2218 23562 0
-442 -2220 23562 0
-2218 23562 -443 0
23562 -443 -2221 0
23562 -446 -2221 0
-2220 -448 23562 0
23562 -448 -2221 0
-23562 -448 2221 -23471 2220 -23470 0
23562 -2221 -450 0
-23562 -23471 -450 2221 -23472 2222 0
-455 -2228 23563 0
-463 -2228 23563 0
-465 -2230 23563 0
-466 -2231 23563 0
-470 -2228 23563 0
-472 -2230 23563 0
-473 -2231 23563 0
-476 -2228 23563 0
-478 -2230 23563 0
-479 -2231 23563 0
-481 -2227 23563 0
-481 -2228 23563 0
-483 -2230 23563 0
-23563 -483 2227 -23477 2230 -23480 0
-484 -2231 23563 0
-487 -2228 23563 0
-487 -2230 23563 0
-2228 -488 23563 0
-488 -2231 23563 0
-2231 23563 -491 0
23563 -2230 -493 0
23563 -493 -2231 0
23563 -2231 -495 0
-503 23564 -2241 0
-505 -23564 2234 -23484 -23485 2235 0
-507 -2237 23564 0
-511 -2241 23564 0
-513 -23564 2236 -23485 -23486 2235 0
23564 -2237 -514 0
-518 -2241 23564 0
-520 -2237 23564 0
-524 -2241 23564 0
-526 -2237 23564 0
-529 -2241 23564 0
-2238 -533 23564 0
-533 -2241 23564 0
23564 -536 -2241 0
23564 -2240 -538 0
-2241 23564 -538 0
23564 -2241 -540 0
-556 23565 -2251 0
-563 23565 -2251 0
-569 23565 -2251 0
-574 23565 -2251 0
-578 23565 -2251 0
-2251 23565 -581 0
23565 -2250 -583 0
23565 -2251 -583 0
-2251 23565 -585 0
-2257 23566 -617 0
23566 -2261 -630 0
-634 -2267 23567 0
-642 -2267 23567 0
-649 -2267 23567 0
-655 -2267 23567 0
-661 -2267 23567 0
-2267 -662 23567 0
23567 -2271 -675 0
23568 -2281 -720 0
23568 -720 -2282 0
23571 -23553 0
23575 -23554 0
23575 -23571 0
23576 -23554 -23571 0
23579 -23555 0
23579 -23575 0
-23576 23580 0
23580 -23555 -23575 0
-23576 23581 -23555 0
23583 -23556 0
23583 -23579 0
23584 -23580 0
-23581 23585 0
23584 -23556 -23579 0
-23580 23585 -23556 0
-23581 -23556 23586 0
23587 -23557 0
23587 -23583 0
23588 -23584 0
-23585 23589 0
-23586 23590 0
23588 -23557 -23583 0
23589 -23584 -23557 0
-23585 -23557 23590 0
23591 -23558 0
23591 -23587 0
23592 -23588 0
-23589 23593 0
-23590 23594 0
23592 -23558 -23587 0
23593 -23588 -23558 0
-23589 -23558 23594 0
23595 -23559 0
23595 -23591 0
23596 -23592 0
23597 -23593 0
-23594 23598 0
23596 -23559 -23591 0
23597 -23592 -23559 0
-23593 -23559 23598 0
23599 -23560 0
23599 -23595 0
23600 -23596 0
23601 -23597 0
-23598 23602 0
23600 -23560 -23595 0
23601 -23596 -23560 0
-23597 -23560 23602 0
23603 -23561 0
23603 -23599 0
23604 -23600 0
23605 -23601 0
-23602 23606 0
23604 -23561 -23599 0
23605 -23600 -23561 0
-23601 -23561 23606 0
23607 -23562 0
23607 -23603 0
23608 -23604 0
23609 -23605 0
-23606 23610 0
23608 -23562 -23603 0
23609 -23562 -23604 0
-23562 -23605 23610 0
23611 -23563 0
23611 -23607 0
23612 -23608 0
23613 -23609 0
-23610 23614 0
23612 -23563 -23607 0
23613 -23563 -23608 0
-23609 -23563 23614 0
23616 -23612 0
23617 -23613 0
-23614 23618 0
23616 -23564 -23611 0
23617 -23612 -23564 0
-23613 -23564 23618 0
-23618 23622 0
23621 -23565 -23616 0
-23565 -23617 23622 0
23625 -23621 0
-23622 23626 0
-23566 -23621 23626 0
-23626 23630 0
-23567 -23625 23630 0
-23590 -23558 0
-23594 -23559 0
-23598 -23560 0
-23602 -23561 0
-23562 -23606 0
-23610 -23563 0
-23614 -23564 0
-23565 -23618 0
-23566 -23622 0
-23567 -23626 0
-23630 -23568 0
-23639 -19 0
23639 -20 0
23639 -26 0
23639 -31 0
-23639 -33 0
-23639 -34 0
23639 -37 0
23639 -38 0
-23639 -43 0
-23640 -47 -23383 -23385 2303 2305 0
-65 23640 -2308 0
-71 23640 -2308 0
-76 23640 -2308 0
-2310 -78 23640 0
-23640 -78 -23387 2310 -23390 2307 0
-23640 -79 -23391 2311 2307 -23387 0
-82 23640 -2308 0
23640 -83 -2308 0
-23640 -88 2310 -23391 -23390 2311 0
23641 -95 -2318 0
23641 -110 -2318 0
23641 -2320 -112 0
23641 -116 -2318 0
23641 -118 -2320 0
23641 -121 -2318 0
23641 -123 -2320 0
-123 -23641 2317 -23400 2320 -23397 0
23641 -127 -2318 0
23641 -127 -2320 0
-23641 -133 2320 -23401 2321 -23400 0
-23642 -136 2323 -23404 -23403 2324 0
23642 -2328 -140 0
-148 23642 -2328 0
23642 -2330 -150 0
-155 23642 -2328 0
23642 -157 -2330 0
-161 23642 -2328 0
-163 23642 -2330 0
23642 -166 -2328 0
-168 23642 -2330 0
23642 -172 -2328 0
23642 -172 -2330 0
23642 -173 -2328 0
23642 -2330 -178 0
-23642 -178 2330 -23411 -23410 2331 0
23643 -2338 -185 0
23643 -193 -2338 0
-195 23643 -2340 0
23643 -200 -2338 0
-202 23643 -2340 0
-206 23643 -2338 0
-208 23643 -2340 0
23643 -211 -2338 0
23643 -213 -2340 0
23643 -217 -2338 0
23643 -217 -2340 0
23643 -218 -2338 0
23643 -2341 -221 0
23643 -223 -2341 0
23644 -230 -2348 0
23644 -238 -2348 0
23644 -240 -2350 0
-245 23644 -2348 0
-247 23644 -2350 0
-251 23644 -2348 0
-253 23644 -2350 0
23644 -256 -2348 0
23644 -258 -2350 0
-259 -23644 2347 2351 -23427 -23431 0
23644 -262 -2348 0
23644 -262 -2350 0
23644 -263 -2348 0
23644 -2350 -268 0
23644 -268 -2351 0
23644 -2351 -270 0
23645 -275 -2358 0
-283 23645 -2358 0
-285 23645 -2360 0
-290 23645 -2358 0
23645 -292 -2360 0
-296 23645 -2358 0
23645 -298 -2360 0
23645 -301 -2358 0
23645 -303 -2360 0
23645 -307 -2358 0
23645 -307 -2360 0
23645 -308 -2358 0
23645 -2360 -313 0
23645 -2361 -313 0
-320 23646 -2368 0
-328 23646 -2368 0
-330 23646 -2370 0
-331 23646 -2371 0
-335 23646 -2368 0
-337 -2370 23646 0
23646 -341 -2368 0
-343 -2370 23646 0
-346 23646 -2368 0
-2370 23646 -348 0
23646 -352 -2368 0
-352 -2370 23646 0
-23646 -352 2370 2368 -23450 -23448 0
23646 -353 -2368 0
23646 -2371 -356 0
23646 -358 -2370 0
23646 -358 -2371 0
23647 -2378 -365 0
-2378 23647 -373 0
-375 -2380 23647 0
-380 -2378 23647 0
-382 -2380 23647 0
-386 -2378 23647 0
-388 -2380 23647 0
-391 -2378 23647 0
-393 -2380 23647 0
-2378 23647 -397 0
-2380 23647 -397 0
23647 -398 -2378 0
23647 -2381 -401 0
23647 -2380 -403 0
23647 -2381 -403 0
23647 -2381 -405 0
-418 23648 -2388 0
23648 -2391 -421 0
-425 23648 -2388 0
23648 -428 -2391 0
-431 23648 -2388 0
-434 23648 -2391 0
-436 23648 -2388 0
-439 23648 -2391 0
23648 -442 -2388 0
23648 -2388 -443 0
23648 -443 -2391 0
23648 -446 -2391 0
23648 -2390 -448 0
23648 -448 -2391 0
23648 -2391 -450 0
23649 -2398 -455 0
-463 23649 -2398 0
-470 23649 -2398 0
-476 23649 -2398 0
-481 23649 -2398 0
23649 -488 -2398 0
23649 -2401 -491 0
23649 -2400 -493 0
23649 -493 -2401 0
-23649 -493 2401 -23480 2400 -23481 0
23649 -2401 -495 0
23650 -2411 -536 0
23650 -2410 -538 0
23650 -2411 -540 0
23651 -2421 -581 0
23651 -2421 -585 0
23652 -2431 -630 0
23657 -23639 0
23662 -23640 0
23662 -23657 0
23663 -23640 -23657 0
23667 -23641 0
23667 -23662 0
23668 -23641 -23662 0
-23663 23669 -23641 0
23672 -23642 0
23672 -23667 0
23673 -23668 0
23673 -23642 -23667 0
23674 -23668 -23642 0
-23669 23675 -23642 0
23677 -23643 0
23677 -23672 0
23678 -23673 0
-23674 23679 0
23678 -23643 -23672 0
23679 -23673 -23643 0
23680 -23674 -23643 0
-23675 -23643 23681 0
23682 -23644 0
23682 -23677 0
23683 -23678 0
-23679 23684 0
-23680 23685 0
23683 -23644 -23677 0
23684 -23678 -23644 0
23685 -23679 -23644 0
23687 -23645 0
23687 -23682 0
23688 -23683 0
23689 -23684 0
23690 -23685 0
23688 -23645 -23682 0
23689 -23645 -23683 0
23690 -23645 -23684 0
23692 -23687 0
23693 -23688 0
23694 -23689 0
23695 -23690 0
23693 -23646 -23687 0
23694 -23646 -23688 0
23695 -23646 -23689 0
-23646 23696 -23690 0
23698 -23693 0
23699 -23694 0
23700 -23695 0
23698 -23647 -23692 0
23699 -23647 -23693 0
23700 -23647 -23694 0
-23647 -23695 23701 0
23703 -23698 0
23704 -23699 0
23705 -23700 0
23704 -23648 -23698 0
23705 -23648 -23699 0
-23648 -23700 23706 0
23709 -23704 0
23710 -23705 0
23709 -23649 -23703 0
23710 -23704 -23649 0
-23705 -23649 23711 0
23715 -23710 0
23715 -23709 -23650 0
23716 -23710 -23650 0
23721 -23651 -23715 0
-23681 -23644 0
-23647 -23696 0
-23701 -23648 0
-23706 -23649 0
-23711 -23650 0
-23716 -23651 0
-23721 -23652 0
-41 23742 0
-78 -23743 -23390 -23387 2477 2480 0
23743 -86 -2479 0
-104 -2489 23744 0
-106 23744 -2491 0
-111 -2489 23744 0
-113 23744 -2491 0
-2486 -115 23744 0
-117 -2489 23744 0
-119 23744 -2491 0
-122 -2489 23744 0
23397 -123 23744 0
23400 -123 23744 0
-124 23744 -2491 0
-126 -2489 23744 0
-2488 -128 23744 0
-128 23744 -2491 0
-130 -2489 23744 0
-131 23744 -2489 0
-131 23744 -2491 0
-133 23744 -2491 0
-135 23744 -2491 0
-141 -2499 23745 0
-143 -2501 23745 0
-149 -2499 23745 0
-151 -2501 23745 0
-2495 -153 23745 0
-156 -2499 23745 0
-158 -2501 23745 0
-2499 23745 -162 0
-164 -2501 23745 0
-167 -2499 23745 0
-169 -2501 23745 0
-171 -2499 23745 0
-2498 -173 23745 0
-173 -2501 23745 0
-2499 23745 -175 0
-176 -2499 23745 0
-176 -2501 23745 0
-178 -2501 23745 0
-180 -2501 23745 0
-187 -2510 23746 0
-188 -2511 23746 0
-2509 23746 -194 0
-195 -2510 23746 0
-196 -2511 23746 0
-201 -2509 23746 0
-202 -2510 23746 0
-203 -2511 23746 0
-207 -2509 23746 0
-208 -2510 23746 0
-209 -2511 23746 0
-212 -2509 23746 0
-213 -2510 23746 0
-2511 23746 -214 0
-216 -2509 23746 0
-217 -2510 23746 0
-218 -2511 23746 0
-2509 23746 -220 0
-2510 23746 -220 0
-2509 23746 -221 0
23746 -2511 -221 0
-223 -2511 23746 0
-225 -2511 23746 0
-232 -2520 23747 0
-233 23747 -2521 0
-239 -2519 23747 0
-240 -2520 23747 0
-241 23747 -2521 0
-246 -2519 23747 0
-247 -2520 23747 0
-248 23747 -2521 0
-252 -2519 23747 0
-253 -2520 23747 0
-254 23747 -2521 0
-257 -2519 23747 0
-258 -2520 23747 0
-259 23747 -2521 0
-261 -2519 23747 0
-262 -2520 23747 0
-263 23747 -2521 0
-265 -2519 23747 0
-265 -2520 23747 0
-266 -2519 23747 0
-266 23747 -2521 0
-268 -2520 23747 0
-268 23747 -2521 0
-269 -2520 23747 0
23747 -270 -2521 0
-277 -2530 23748 0
-278 -2531 23748 0
-284 -2529 23748 0
-285 -2530 23748 0
-286 -2531 23748 0
-291 -2529 23748 0
-292 -2530 23748 0
-293 -2531 23748 0
-297 -2529 23748 0
-298 -2530 23748 0
-299 -2531 23748 0
-302 -2529 23748 0
-303 -2530 23748 0
-304 -2531 23748 0
-306 -2529 23748 0
-307 -2530 23748 0
-308 -2531 23748 0
-310 -2529 23748 0
-310 -2530 23748 0
-2529 23748 -311 0
-2531 23748 -311 0
-2531 -313 23748 0
-2531 -315 23748 0
-321 -2539 23749 0
-322 -2540 23749 0
-323 -2541 23749 0
-329 -2539 23749 0
-330 -2540 23749 0
-331 -2541 23749 0
-336 -2539 23749 0
-337 -2540 23749 0
-338 -2541 23749 0
-342 -2539 23749 0
-343 -2540 23749 0
-344 -2541 23749 0
-347 -2539 23749 0
-348 -2540 23749 0
-349 -2541 23749 0
-351 -2539 23749 0
-352 -2540 23749 0
-353 -2541 23749 0
23448 -353 23749 0
23451 -353 23749 0
-355 -2539 23749 0
-355 -2540 23749 0
-356 -2539 23749 0
-356 -2541 23749 0
-357 -2539 23749 0
-358 -2541 23749 0
23450 -358 23749 0
23451 -358 23749 0
-360 -2541 23749 0
-366 -2549 23750 0
-367 -2550 23750 0
-368 -2551 23750 0
-369 23750 -2552 0
-374 -2549 23750 0
-375 -2550 23750 0
-376 -2551 23750 0
-377 -2552 23750 0
-381 -2549 23750 0
-382 -2550 23750 0
-383 -2551 23750 0
-384 23750 -2552 0
-387 -2549 23750 0
-388 -2550 23750 0
-389 -2551 23750 0
-390 -2552 23750 0
-392 -2549 23750 0
-393 -2550 23750 0
23457 -393 23750 0
23460 -393 23750 0
-394 -2551 23750 0
-395 -2552 23750 0
-396 -2549 23750 0
-397 -2550 23750 0
-398 -2551 23750 0
-399 -2552 23750 0
-400 -2549 23750 0
-400 -2550 23750 0
23459 -400 23750 0
23460 -400 23750 0
-2549 -401 23750 0
-2551 -401 23750 0
-402 23750 -2552 0
-403 -2550 23750 0
-403 -2551 23750 0
-404 -2550 23750 0
-404 -2552 23750 0
-405 -2551 23750 0
-405 -2552 23750 0
-411 -2559 23751 0
-413 -2561 23751 0
-414 -2562 23751 0
-419 -2559 23751 0
-420 -2560 23751 0
-421 -2561 23751 0
-426 -2559 23751 0
-427 -2560 23751 0
-428 -2561 23751 0
-429 -2562 23751 0
-432 -2559 23751 0
-433 -2560 23751 0
-434 -2561 23751 0
-435 23751 -2562 0
-437 -2559 23751 0
-438 -2560 23751 0
-439 -2561 23751 0
-440 -2562 23751 0
-441 -2559 23751 0
-442 -2560 23751 0
23470 -442 23751 0
-443 -2561 23751 0
-444 -2562 23751 0
-445 -2559 23751 0
-445 -2560 23751 0
-446 -2559 23751 0
-446 -2561 23751 0
-447 -2562 23751 0
-448 -2560 23751 0
-448 -2561 23751 0
-449 -2560 23751 0
-449 23751 -2562 0
-2561 23751 -450 0
-2562 23751 -450 0
-456 -2569 23752 0
-2570 23752 -457 0
-458 -2571 23752 0
-459 -2572 23752 0
-464 -2569 23752 0
-465 -2570 23752 0
-466 -2571 23752 0
-467 -2572 23752 0
-471 -2569 23752 0
-472 -2570 23752 0
-473 -2571 23752 0
-474 -2572 23752 0
-477 -2569 23752 0
-478 -2570 23752 0
-479 -2571 23752 0
-480 -2572 23752 0
-482 -2569 23752 0
-483 -2570 23752 0
-484 -2571 23752 0
-485 -2572 23752 0
-486 -2569 23752 0
-487 -2570 23752 0
-488 -2571 23752 0
-489 -2572 23752 0
-2569 -490 23752 0
-2570 -490 23752 0
-491 -2569 23752 0
-491 -2571 23752 0
-492 -2569 23752 0
-492 23752 -2572 0
-493 -2571 23752 0
-494 -2570 23752 0
-494 -2572 23752 0
-495 -2571 23752 0
-495 -2572 23752 0
-2579 -501 23753 0
-502 -2580 23753 0
-503 -2581 23753 0
-504 -2582 23753 0
-2579 -509 23753 0
-510 -2580 23753 0
-511 -2581 23753 0
-512 -2582 23753 0
-516 -2579 23753 0
-517 -2580 23753 0
-518 -2581 23753 0
-519 -2582 23753 0
-522 -2579 23753 0
-523 -2580 23753 0
-524 -2581 23753 0
-525 -2582 23753 0
-527 -2579 23753 0
-528 -2580 23753 0
-529 -2581 23753 0
-530 -2582 23753 0
-531 -2579 23753 0
-532 -2580 23753 0
-533 -2581 23753 0
-534 -2582 23753 0
-535 -2579 23753 0
-535 -2580 23753 0
-536 -2579 23753 0
-536 -2581 23753 0
-2579 -537 23753 0
-537 -2582 23753 0
-538 -2580 23753 0
-538 -2581 23753 0
23490 -538 23753 0
23491 -538 23753 0
-539 -2580 23753 0
-539 -2582 23753 0
-540 -2581 23753 0
-540 23753 -2582 0
-546 -2589 23754 0
-547 -2590 23754 0
-549 -2592 23754 0
-554 -2589 23754 0
-555 -2590 23754 0
-556 -2591 23754 0
-557 -2592 23754 0
-561 -2589 23754 0
-562 -2590 23754 0
-563 -2591 23754 0
-564 -2592 23754 0
-567 -2589 23754 0
-568 -2590 23754 0
-569 -2591 23754 0
-570 -2592 23754 0
-572 -2589 23754 0
-573 -2590 23754 0
-574 -2591 23754 0
-575 -2592 23754 0
-576 -2589 23754 0
-577 -2590 23754 0
-578 -2591 23754 0
-579 -2592 23754 0
-580 -2589 23754 0
-580 -2590 23754 0
-581 -2589 23754 0
-581 -2591 23754 0
-582 -2589 23754 0
-582 -2592 23754 0
-583 -2590 23754 0
-583 -2591 23754 0
-584 -2590 23754 0
-584 -2592 23754 0
-585 -2591 23754 0
-585 23754 -2592 0
-591 -2599 23755 0
-592 -2600 23755 0
-593 -2601 23755 0
-594 -2602 23755 0
-599 -2599 23755 0
-600 -2600 23755 0
-601 -2601 23755 0
-602 23755 -2602 0
-606 -2599 23755 0
-607 -2600 23755 0
-2601 23755 -608 0
-609 -2602 23755 0
-612 -2599 23755 0
-613 -2600 23755 0
-614 -2601 23755 0
-615 -2602 23755 0
-617 -2599 23755 0
-618 -2600 23755 0
-619 -2601 23755 0
-620 -2602 23755 0
-621 -2599 23755 0
-622 -2600 23755 0
-623 -2601 23755 0
-624 -2602 23755 0
-625 -2599 23755 0
-625 -2600 23755 0
-626 -2599 23755 0
-626 -2601 23755 0
-627 -2599 23755 0
-627 -2602 23755 0
-628 -2601 23755 0
-629 -2600 23755 0
-629 -2602 23755 0
-630 -2601 23755 0
-630 -2602 23755 0
-636 -2609 23756 0
-637 -2610 23756 0
-638 -2611 23756 0
-639 -2612 23756 0
-644 -2609 23756 0
-645 -2610 23756 0
-646 -2611 23756 0
-647 -2612 23756 0
-651 -2609 23756 0
-652 -2610 23756 0
-653 -2611 23756 0
-654 -2612 23756 0
-657 -2609 23756 0
-658 -2610 23756 0
-659 -2611 23756 0
-660 -2612 23756 0
-662 -2609 23756 0
-663 -2610 23756 0
-664 -2611 23756 0
-665 -2612 23756 0
-666 -2609 23756 0
-667 -2610 23756 0
-669 -2612 23756 0
-670 -2609 23756 0
-670 -2610 23756 0
-671 -2609 23756 0
-671 -2611 23756 0
-672 -2609 23756 0
-672 -2612 23756 0
-673 -2610 23756 0
-673 -2611 23756 0
-674 -2610 23756 0
-674 -2612 23756 0
-675 -2611 23756 0
-675 -2612 23756 0
-682 -2620 23757 0
-684 23757 -2622 0
-690 -2620 23757 0
-692 23757 -2622 0
-697 -2620 23757 0
-699 23757 -2622 0
-703 -2620 23757 0
-705 23757 -2622 0
-708 -2620 23757 0
-710 23757 -2622 0
-712 -2620 23757 0
-714 23757 -2622 0
-715 -2620 23757 0
-716 -2619 23757 0
-717 -2619 23757 0
-717 23757 -2622 0
-718 -2620 23757 0
-719 -2620 23757 0
-719 23757 -2622 0
-720 -2621 23757 0
-720 23757 -2622 0
-737 -2632 23758 0
-744 -2632 23758 0
-750 -2632 23758 0
-755 -2632 23758 0
-759 -2632 23758 0
-762 -2632 23758 0
-763 -2630 23758 0
-765 -2631 23758 0
-765 -2632 23758 0
-810 23759 -2642 0
-23742 23760 0
23762 -23743 0
-23760 23762 0
-23744 23764 0
23764 -23762 0
-23744 23765 -23762 0
-23745 23766 0
23766 -23764 0
-23765 23767 0
-23745 23767 -23764 0
-23746 23768 0
23768 -23766 0
-23767 23769 0
-23746 23769 -23766 0
-23747 23770 0
23770 -23768 0
23771 -23769 0
23771 -23747 -23768 0
-23748 23772 0
23772 -23770 0
23773 -23771 0
-23748 23773 -23770 0
-23749 23774 0
23774 -23772 0
23775 -23773 0
-23749 23775 -23772 0
-23750 23776 0
23776 -23774 0
23777 -23775 0
-23750 23777 -23774 0
-23751 23778 0
23778 -23776 0
23779 -23777 0
-23751 23779 -23776 0
23780 -23752 0
23780 -23778 0
23781 -23779 0
23781 -23752 -23778 0
-23753 23782 0
23782 -23780 0
23783 -23781 0
-23753 23783 -23780 0
-23754 23784 0
23784 -23782 0
23785 -23783 0
-23754 23785 -23782 0
23786 -23755 0
23786 -23784 0
23787 -23785 0
-23755 23787 -23784 0
23789 -23787 0
-23756 23789 -23786 0
23791 -23789 0
23793 -23791 0
-23765 -23745 0
-23746 -23767 0
-23769 -23747 0
-23748 -23771 0
-23749 -23773 0
-23750 -23775 0
-23751 -23777 0
-23752 -23779 0
-23753 -23781 0
-23754 -23783 0
-23755 -23785 0
-23756 -23787 0
-23757 -23789 0
-23758 -23791 0
-23759 -23793 0
23794 -34 0
-23795 -78 3160 -23390 -23387 3157 0
-3166 23796 -115 0
23796 -124 -3171 0
-3175 23797 -153 0
23797 -169 -3181 0
23798 -3191 -214 0
23798 -3191 -221 0
23799 -263 -3201 0
23799 -3201 -270 0
23800 -3211 -313 0
23800 -3211 -315 0
23801 -353 -3221 0
23801 -3221 -358 0
23802 -3231 -403 0
23803 -448 -3241 0
23804 -3251 -491 0
-3259 23805 -536 0
-3261 23805 -536 0
23805 -3261 -540 0
23806 -3271 -585 0
23812 -23794 0
23816 -23795 0
23816 -23812 0
23820 -23796 0
23820 -23816 0
23821 -23796 -23816 0
23824 -23797 0
23824 -23820 0
23825 -23821 0
23825 -23797 -23820 0
23828 -23798 0
23828 -23824 0
23829 -23825 0
-23826 -23798 23831 0
23832 -23828 0
23833 -23829 0
23836 -23832 0
23837 -23833 0
23840 -23836 0
23841 -23837 0
23841 -23801 -23836 0
23842 -23801 -23837 0
23844 -23840 0
23845 -23841 0
-23842 23846 0
23846 -23802 -23841 0
23848 -23844 0
23850 -23846 0
23850 -23803 -23845 0
23854 -23850 0
-23804 -23850 23855 0
-23854 23859 -23805 0
-23831 -23799 0
-23835 -23800 0
-23855 -23805 0
-23859 -23806 0
-54 23881 -3332 0
-69 23881 -3332 0
-75 23881 -3332 0
-3327 -78 23881 0
-3330 -78 23881 0
23387 -78 23881 0
23390 -78 23881 0
-80 23881 -3332 0
-84 23881 -3332 0
-87 23881 -3332 0
-89 23881 -3332 0
-90 23881 -3332 0
23393 -95 23882 0
23398 -95 23882 0
-99 23882 -3342 0
-107 23882 -3342 0
-114 23882 -3342 0
-120 23882 -3342 0
23397 -121 23882 0
23398 -121 23882 0
-3337 -123 23882 0
-3340 -123 23882 0
-3337 -124 23882 0
-125 23882 -3342 0
23398 -128 23882 0
-129 23882 -3342 0
-3341 -131 23882 0
-132 23882 -3342 0
-3340 -133 23882 0
-3341 -133 23882 0
23400 -133 23882 0
-135 23882 -3342 0
-136 23883 23403 0
-144 23883 -3352 0
-152 23883 -3352 0
-159 23883 -3352 0
-165 23883 -3352 0
-3347 -168 23883 0
-3350 -168 23883 0
-170 23883 -3352 0
23408 -172 23883 0
23410 -172 23883 0
23408 -173 23883 0
-174 23883 -3352 0
-177 23883 -3352 0
23410 -178 23883 0
23411 -178 23883 0
-179 23883 -3352 0
-180 23883 -3352 0
23413 -181 23884 0
23414 -181 23884 0
-189 -3362 23884 0
-197 -3362 23884 0
-204 -3362 23884 0
-210 -3362 23884 0
-3357 -213 23884 0
-3360 -213 23884 0
-215 -3362 23884 0
23418 -217 23884 0
23420 -217 23884 0
-3358 -218 23884 0
-3361 -218 23884 0
23418 -218 23884 0
-3362 23884 -219 0
-222 23884 -3362 0
-224 -3362 23884 0
-225 -3362 23884 0
23423 23885 -226 0
-234 -3372 23885 0
-242 -3372 23885 0
-249 -3372 23885 0
-255 -3372 23885 0
-3367 -258 23885 0
-3370 -258 23885 0
23427 -259 23885 0
-260 -3372 23885 0
23428 -262 23885 0
23430 -262 23885 0
23428 -263 23885 0
-264 -3372 23885 0
-3369 -266 23885 0
-3371 -266 23885 0
-267 -3372 23885 0
23430 -268 23885 0
-269 -3372 23885 0
-3372 23885 -270 0
-279 -3382 23886 0
-287 -3382 23886 0
-294 -3382 23886 0
-300 -3382 23886 0
-3377 -301 23886 0
-3378 -301 23886 0
-305 -3382 23886 0
23438 -307 23886 0
23440 -307 23886 0
-309 -3382 23886 0
-3380 -310 23886 0
-312 -3382 23886 0
23440 23886 -313 0
23441 23886 -313 0
-314 -3382 23886 0
-315 -3382 23886 0
-339 23887 -3392 0
-345 23887 -3392 0
-350 23887 -3392 0
23448 -352 23887 0
23450 -352 23887 0
-354 23887 -3392 0
-357 23887 -3392 0
23450 -358 23887 0
23451 -358 23887 0
-360 23887 -3392 0
23460 -375 23888 0
-377 23888 -3402 0
23460 -382 23888 0
-384 23888 -3402 0
-388 23460 23888 0
-390 23888 -3402 0
23460 -393 23888 0
-395 23888 -3402 0
23458 -397 23888 0
23460 -397 23888 0
23458 -398 23888 0
23461 -398 23888 0
-399 23888 -3402 0
-402 23888 -3402 0
-3401 -403 23888 0
-404 23888 -3402 0
-405 23888 -3402 0
-414 23889 -3412 0
-429 23889 -3412 0
-435 23889 -3412 0
-440 23889 -3412 0
23468 -442 23889 0
-447 23889 -3412 0
-3410 -448 23889 0
-3411 -448 23889 0
23470 -448 23889 0
23471 -448 23889 0
-449 23889 -3412 0
23889 -450 -3412 0
-467 23890 -3422 0
-474 23890 -3422 0
-480 23890 -3422 0
-485 23890 -3422 0
-3418 -488 23890 0
-3421 -488 23890 0
-489 23890 -3422 0
-492 23890 -3422 0
-3420 -493 23890 0
-3421 -493 23890 0
23480 -493 23890 0
23481 -493 23890 0
-494 23890 -3422 0
-495 23890 -3422 0
-504 -3432 23891 0
-519 -3432 23891 0
-525 -3432 23891 0
-530 -3432 23891 0
-534 -3432 23891 0
-3429 -536 23891 0
-3431 -536 23891 0
23489 -536 23891 0
-539 23891 -3432 0
-540 -3432 23891 0
-549 23892 -3442 0
-557 23892 -3442 0
-564 23892 -3442 0
-570 23892 -3442 0
-575 23892 -3442 0
-579 23892 -3442 0
23501 -581 23892 0
-582 23892 -3442 0
-584 23892 -3442 0
-585 23892 -3442 0
-594 -3452 23893 0
-602 -3452 23893 0
-609 23893 -3452 0
-615 -3452 23893 0
-620 -3452 23893 0
-624 -3452 23893 0
-627 -3452 23893 0
-629 -3452 23893 0
-630 -3452 23893 0
-639 -3462 23894 0
-647 -3462 23894 0
-654 -3462 23894 0
-660 -3462 23894 0
-665 -3462 23894 0
-669 23894 -3462 0
-672 -3462 23894 0
-674 -3462 23894 0
-675 -3462 23894 0
-684 -3472 23895 0
23524 -685 23895 0
23525 -685 23895 0
-692 -3472 23895 0
-699 -3472 23895 0
-705 23895 -3472 0
-710 -3472 23895 0
-714 -3472 23895 0
-717 -3472 23895 0
-719 -3472 23895 0
-3471 -720 23895 0
-720 -3472 23895 0
-3481 -765 23896 0
-765 -3482 23896 0
-3491 -810 23897 0
23897 -810 -3492 0
-23881 23899 0
-23882 23900 0
-23899 23900 0
-23883 23901 0
-23900 23901 0
-23884 23902 0
-23901 23902 0
-23885 23903 0
-23902 23903 0
-23886 23904 0
-23903 23904 0
-23887 23905 0
-23904 23905 0
-23888 23906 0
-23905 23906 0
23907 -23889 0
23907 -23906 0
-23890 23908 0
23908 -23907 0
-23891 23909 0
23909 -23908 0
-23892 23910 0
23910 -23909 0
-23893 23911 0
23911 -23910 0
-23894 23912 0
23912 -23911 0
-23895 23913 0
23913 -23912 0
-23896 23914 0
23914 -23913 0
-23882 -23899 0
-23900 -23883 0
-23884 -23901 0
-23885 -23902 0
-23886 -23903 0
-23904 -23887 0
-23888 -23905 0
-23906 -23889 0
-23890 -23907 0
-23891 -23908 0
-23892 -23909 0
-23893 -23910 0
-23894 -23911 0
-23895 -23912 0
-23896 -23913 0
-23897 -23914 0
23917 -91 23223 0
-92 23917 23223 0
-93 23917 23223 0
-94 23917 23223 0
-95 23917 23223 0
23919 -184 23243 0
23919 -185 23243 0
-23919 -23250 2001 -23251 2000 -223 0
23923 -362 23283 0
23923 -363 23283 0
23923 -365 23283 0
-391 -23923 -23288 -23287 2037 2038 0
-407 23924 23293 0
23924 23293 -408 0
-23924 -443 -23298 2051 -23301 2048 0
-46 23985 23044 0
23047 -78 23985 0
23050 -78 23985 0
-1968 -83 23985 0
-1971 -83 23985 0
23050 -88 23985 0
23051 -88 23985 0
-91 23986 23054 0
-100 23986 23054 0
-101 23986 23054 0
-102 23986 23054 0
-103 23986 23054 0
-104 23986 23054 0
-105 23986 23054 0
-106 23986 23054 0
-107 23986 23054 0
23057 -115 23986 0
-1977 -121 23986 0
-1978 -121 23986 0
23058 -127 23986 0
23060 -127 23986 0
-1978 -128 23986 0
-1981 -128 23986 0
-1981 23986 -131 0
-1980 -133 23986 0
-1981 -133 23986 0
-136 23987 23064 0
-145 23987 23064 0
-146 23987 23064 0
-147 23987 23064 0
-148 23987 23064 0
-149 23987 23064 0
-150 23987 23064 0
-151 23987 23064 0
-152 23987 23064 0
-1988 -173 23987 0
-1991 23987 -176 0
-1990 -178 23987 0
-1991 -178 23987 0
-181 23988 23074 0
-1998 -218 23988 0
-2001 23988 -221 0
-2000 -223 23988 0
23084 23989 -226 0
-2008 -256 23989 0
23087 -256 23989 0
-2008 -263 23989 0
-2011 -266 23989 0
-2010 -268 23989 0
-2011 -268 23989 0
-271 23094 23990 0
-280 23094 23990 0
-281 23094 23990 0
-282 23094 23990 0
-283 23094 23990 0
-284 23094 23990 0
-285 23094 23990 0
-286 23094 23990 0
-287 23094 23990 0
-2018 -301 23990 0
-2018 -308 23990 0
-2021 23990 -311 0
-2020 23990 -313 0
-316 23103 23991 0
-316 23991 23104 0
-317 23103 23991 0
-318 23103 23991 0
-319 23103 23991 0
-320 23103 23991 0
-325 23991 23104 0
-326 23991 23104 0
-327 23991 23104 0
-328 23991 23104 0
-329 23991 23104 0
-330 23991 23104 0
-331 23991 23104 0
-2031 -356 23991 0
-361 23992 23113 0
-361 23114 23992 0
-362 23992 23113 0
23115 -362 23992 0
-363 23992 23113 0
23116 -363 23992 0
-364 23992 23113 0
23117 -364 23992 0
-365 23992 23113 0
-366 23992 23113 0
-367 23992 23113 0
-368 23992 23113 0
-370 23114 23992 0
-371 23114 23992 0
-372 23114 23992 0
-2034 -373 23992 0
-373 23114 23992 0
-374 23114 23992 0
-375 23114 23992 0
-376 23114 23992 0
-377 23114 23992 0
-391 -23992 -23118 -23117 2037 2038 0
-2038 -398 23992 0
-398 -2041 23992 0
23118 -398 23992 0
23121 -398 23992 0
-2039 -401 23992 0
-2041 -401 23992 0
-2040 -403 23992 0
-2041 -403 23992 0
23120 -403 23992 0
23121 -403 23992 0
-406 23123 23993 0
-406 23124 23993 0
-407 23123 23993 0
23123 -408 23993 0
-409 23123 23993 0
-410 23123 23993 0
-411 23123 23993 0
23123 -413 23993 0
-415 23124 23993 0
-416 23124 23993 0
-417 23124 23993 0
-418 23124 23993 0
-419 23124 23993 0
-420 23124 23993 0
-421 23124 23993 0
-430 -2046 23993 0
-431 -2046 23993 0
-432 -2046 23993 0
-433 -2046 23993 0
-434 -2046 23993 0
-2048 -443 23993 0
-23993 -23128 -443 2051 2048 -23131 0
-445 -2049 23993 0
-446 -2049 23993 0
-446 -2051 23993 0
23131 -446 23993 0
23993 -450 -2052 0
23132 23993 -450 0
-451 23133 23994 0
-451 23134 23994 0
23133 -452 23994 0
-453 23133 23994 0
-454 23133 23994 0
-455 23133 23994 0
-456 23133 23994 0
23133 -458 23994 0
-460 23134 23994 0
-461 23134 23994 0
-462 23134 23994 0
-463 23134 23994 0
-464 23134 23994 0
-465 23134 23994 0
-466 23134 23994 0
-467 23134 23994 0
-475 -2056 23994 0
-476 -2056 23994 0
-477 -2056 23994 0
-478 -2056 23994 0
-479 -2056 23994 0
-487 -2058 23994 0
-488 -2058 23994 0
-488 -2061 23994 0
-2059 -490 23994 0
-2059 -491 23994 0
-2061 -491 23994 0
23141 -491 23994 0
-2061 -495 23994 0
-496 23143 23995 0
-496 23995 23144 0
23143 23995 -497 0
-498 23143 23995 0
23143 -499 23995 0
-2068 23995 -500 0
23143 23995 -500 0
23143 -502 23995 0
-503 23143 23995 0
-504 23143 23995 0
-505 23995 23144 0
-506 23995 23144 0
-507 23995 23144 0
-508 -2068 23995 0
-508 23995 23144 0
23995 23144 -509 0
-510 23995 23144 0
-511 23995 23144 0
-515 -2068 23995 0
-520 -2066 23995 0
-521 -2066 23995 0
-521 -2068 23995 0
-522 -2066 23995 0
-523 -2066 23995 0
-524 -2066 23995 0
-525 -2066 23995 0
-526 -2068 23995 0
-531 -2068 23995 0
-532 -2068 23995 0
-533 -2068 23995 0
-534 -2068 23995 0
-2069 -535 23995 0
-536 -2069 23995 0
-538 2070 -23995 -23151 -23150 2071 0
-541 23153 23996 0
-541 23996 23154 0
-542 23153 23996 0
-543 23153 23996 0
-544 23153 23996 0
23153 -545 23996 0
23153 -547 23996 0
23153 -549 23996 0
-550 23996 23154 0
-551 23996 23154 0
-552 23996 23154 0
-553 23996 23154 0
-554 23996 23154 0
-555 23996 23154 0
-556 23154 23996 0
-557 23154 23996 0
-565 -2076 23996 0
-566 -2076 23996 0
-567 -2076 23996 0
-568 -2076 23996 0
-569 -2076 23996 0
-570 -2076 23996 0
-2079 -580 23996 0
-581 -2079 23996 0
23163 -586 23997 0
-586 23164 23997 0
-587 23163 23997 0
-588 23163 23997 0
-589 23163 23997 0
-590 23163 23997 0
23163 -591 23997 0
-593 23163 23997 0
-594 23163 23997 0
-595 23164 23997 0
-596 23164 23997 0
-597 23164 23997 0
-598 23164 23997 0
-599 23164 23997 0
-600 23164 23997 0
-601 23164 23997 0
-602 23997 23164 0
-610 -2086 23997 0
-611 -2086 23997 0
-612 -2086 23997 0
-613 -2086 23997 0
-614 -2086 23997 0
-615 -2086 23997 0
-2089 -625 23997 0
-2089 -626 23997 0
-631 23998 23173 0
-631 23174 23998 0
-632 23998 23173 0
-633 23998 23173 0
-634 23998 23173 0
-635 23998 23173 0
-636 23998 23173 0
-637 23998 23173 0
-638 23998 23173 0
-640 23174 23998 0
-641 23174 23998 0
-642 23174 23998 0
-643 23174 23998 0
-644 23174 23998 0
-645 23174 23998 0
-646 23174 23998 0
-647 23174 23998 0
-2099 -670 23998 0
-2099 -671 23998 0
-676 23999 23183 0
-676 23184 23999 0
-677 23999 23183 0
-678 23999 23183 0
-679 23999 23183 0
-680 23999 23183 0
-681 23999 23183 0
-682 23999 23183 0
-683 23999 23183 0
-684 23999 23183 0
-685 23184 23999 0
-686 23184 23999 0
-687 23184 23999 0
-688 23184 23999 0
-689 23184 23999 0
-690 23184 23999 0
-691 23184 23999 0
-692 23184 23999 0
-2109 -715 23999 0
-721 23193 24000 0
-721 23194 24000 0
-722 23193 24000 0
23195 -722 24000 0
-723 23193 24000 0
-724 23193 24000 0
-725 23193 24000 0
-726 23193 24000 0
-727 23193 24000 0
-728 23193 24000 0
24001 23203 -766 0
23204 24001 -766 0
24244 -91 23054 0
24244 -131 -4529 0
24245 -136 23064 0
-4535 -153 24245 0
24245 -176 -4539 0
24245 -180 -4542 0
24246 -4549 -221 0
24246 -4551 -221 0
24246 -223 -4551 0
24246 -225 -4552 0
24247 -4559 -266 0
24247 -266 -4561 0
24247 -268 -4561 0
24247 -4561 -270 0
24248 -271 23094 0
24248 -4571 -311 0
24248 -4571 -313 0
24248 -315 -4572 0
-316 24249 23104 0
-323 24249 -4581 0
24249 -338 -4581 0
-344 24249 -4581 0
-4579 24249 -356 0
24249 -356 -4581 0
-358 24249 -4581 0
24250 -361 23114 0
-370 24250 23114 0
-371 24250 23114 0
-372 24250 23114 0
24250 -373 23114 0
-374 24250 23114 0
-375 24250 23114 0
-4589 24250 -401 0
-406 24251 23124 0
24251 -415 23124 0
-416 24251 23124 0
-417 24251 23124 0
-418 24251 23124 0
-419 24251 23124 0
-420 24251 23124 0
-4599 -446 24251 0
24251 -450 -4602 0
24252 -451 23134 0
-460 24252 23134 0
-461 24252 23134 0
-462 24252 23134 0
-463 24252 23134 0
-464 24252 23134 0
-465 24252 23134 0
-4609 24252 -491 0
24252 -495 -4612 0
-496 24253 23144 0
-505 24253 23144 0
-506 24253 23144 0
-507 24253 23144 0
-508 24253 23144 0
24253 23144 -509 0
-510 24253 23144 0
-4619 -536 24253 0
-536 24253 -4621 0
24253 -538 -4621 0
24253 -540 -4622 0
-541 24254 23154 0
-550 24254 23154 0
-551 24254 23154 0
-552 24254 23154 0
-553 24254 23154 0
-554 24254 23154 0
-555 24254 23154 0
-581 -4629 24254 0
-581 -4631 24254 0
-583 -4631 24254 0
-585 24254 -4632 0
24255 -586 23164 0
-595 24255 23164 0
-596 24255 23164 0
-597 24255 23164 0
-598 24255 23164 0
-599 24255 23164 0
-600 24255 23164 0
-626 24255 -4641 0
24255 -630 -4642 0
-631 24256 23174 0
-640 24256 23174 0
-641 24256 23174 0
-642 24256 23174 0
-643 23174 24256 0
-644 24256 23174 0
-645 24256 23174 0
-671 -4651 24256 0
-676 24257 23184 0
-683 -4661 24257 0
-685 24257 23184 0
-686 24257 23184 0
-687 24257 23184 0
-688 24257 23184 0
-689 24257 23184 0
-690 24257 23184 0
-691 -4661 24257 0
-691 24257 23184 0
-704 -4661 24257 0
-709 -4661 24257 0
-716 -4661 24257 0
-721 23194 24258 0
24258 23194 -730 0
-731 24258 23194 0
-732 24258 23194 0
-733 24258 23194 0
-734 24258 23194 0
-735 24258 23194 0
-736 24258 23194 0
23204 24259 -766 0
24268 -24244 0
24272 -24245 0
24272 -24268 0
24273 -24245 -24268 0
24276 -24246 0
24276 -24272 0
24277 -24246 -24272 0
24278 -24246 -24273 0
24280 -24247 0
24280 -24276 0
24281 -24277 0
-24278 24282 0
24281 -24247 -24276 0
24282 -24247 -24277 0
24284 -24280 0
24286 -24282 0
24286 -24248 -24281 0
-24248 -24282 24287 0
24288 -24249 0
24288 -24284 0
24290 -24286 0
-24287 24291 0
-24249 -24286 24291 0
24292 -24288 0
24294 -24290 0
-24291 24295 0
24293 -24250 -24288 0
-24250 -24290 24295 0
24296 -24251 0
24296 -24292 0
24297 -24293 0
24298 -24294 0
-24295 24299 0
24297 -24251 -24292 0
24298 -24251 -24293 0
-24251 -24294 24299 0
24300 -24252 0
24301 -24297 0
24302 -24298 0
-24299 24303 0
24301 -24252 -24296 0
-24252 -24298 24303 0
24305 -24301 0
24306 -24302 0
-24303 24307 0
24305 -24300 -24253 0
24306 -24301 -24253 0
-24253 -24302 24307 0
24309 -24305 0
24310 -24306 0
-24307 24311 0
24310 -24254 -24305 0
-24254 -24306 24311 0
24313 -24309 0
24314 -24310 0
-24311 24315 0
24314 -24255 -24309 0
-24255 -24310 24315 0
24318 -24314 0
-24315 24319 0
24318 -24313 -24256 0
-24256 -24314 24319 0
-24319 24323 0
-24257 -24318 24323 0
-24323 24327 0
-24251 -24295 0
-24299 -24252 0
-24303 -24253 0
-24254 -24307 0
-24255 -24311 0
-24256 -24315 0
-24257 -24319 0
-24258 -24323 0
-24327 -24259 0
24329 -47 23213 0
24329 -48 23213 0
24329 -49 23213 0
24329 -50 23213 0
24329 -86 -4519 0
24330 -91 23223 0
-92 24330 23223 0
-93 24330 23223 0
-94 24330 23223 0
24330 -95 23223 0
24330 -131 -4529 0
24331 -136 23233 0
24331 -137 23233 0
-138 24331 23233 0
-139 24331 23233 0
24331 -140 23233 0
-141 24331 23233 0
24331 -176 -4539 0
24332 -181 23243 0
24332 -182 23243 0
24332 -183 23243 0
24332 -184 23243 0
24332 -185 23243 0
24332 -4549 -221 0
24332 -225 -4552 0
24333 23253 -226 0
-227 24333 23253 0
24333 23253 -228 0
24333 -229 23253 0
-230 24333 23253 0
24333 -4559 -266 0
24333 -266 -4561 0
24333 -268 -4561 0
24333 -4562 -270 0
24334 -271 23263 0
24334 23263 -272 0
24334 -273 23263 0
-274 24334 23263 0
24334 23263 -275 0
-277 24334 23263 0
-4569 24334 -311 0
24334 -4571 -311 0
24334 -4571 -313 0
24334 -315 -4572 0
24335 -316 23273 0
-317 24335 23273 0
-318 24335 23273 0
-319 24335 23273 0
-320 24335 23273 0
-323 24335 23273 0
-4579 24335 -356 0
24335 -356 -4581 0
-358 -4581 24335 0
24335 -360 -4582 0
24336 -361 23283 0
-362 24336 23283 0
-363 24336 23283 0
-364 24336 23283 0
-365 24336 23283 0
24336 -4589 -401 0
24336 -4591 -401 0
-4590 24336 -403 0
24336 -403 -4591 0
24336 -405 -4592 0
24337 -406 23293 0
-407 24337 23293 0
24337 23293 -408 0
-409 24337 23293 0
-410 24337 23293 0
-411 24337 23293 0
24337 23293 -413 0
24337 -446 -4599 0
24337 -446 -4601 0
-4600 24337 -448 0
24337 -448 -4601 0
24337 -450 -4602 0
24338 23303 -451 0
24338 23303 -452 0
-453 24338 23303 0
-454 24338 23303 0
-455 24338 23303 0
24338 -4609 -491 0
24338 -491 -4611 0
24338 -493 -4611 0
24338 -495 -4612 0
24339 -496 23313 0
24339 23313 -497 0
-498 24339 23313 0
24339 23313 -499 0
24339 23313 -500 0
24339 -536 -4619 0
24339 -536 -4621 0
-4620 24339 -538 0
24339 -538 -4621 0
-24339 -538 -23320 4620 -23321 4621 0
24339 -540 -4622 0
24340 -541 23323 0
24340 -542 23323 0
-543 24340 23323 0
-544 24340 23323 0
24340 23323 -545 0
24340 -581 -4629 0
24340 -581 -4631 0
24340 -583 -4631 0
24340 -585 -4632 0
24341 23333 -586 0
-587 24341 23333 0
-588 24341 23333 0
-589 24341 23333 0
-590 24341 23333 0
24341 23333 -591 0
24341 -626 -4641 0
24341 -630 -4642 0
24342 -631 23343 0
24342 -632 23343 0
23345 24342 -632 0
-633 24342 23343 0
23346 -633 24342 0
-634 24342 23343 0
23347 -634 24342 0
-635 24342 23343 0
23348 -635 24342 0
24342 -4649 -671 0
24342 -671 -4651 0
24343 23353 -676 0
24351 -24329 0
24356 -24330 0
24356 -24351 0
24357 -24330 -24351 0
24361 -24331 0
24361 -24356 0
24362 -24357 0
24362 -24331 -24356 0
24366 -24332 0
24366 -24361 0
24367 -24362 0
24367 -24332 -24361 0
24368 -24362 -24332 0
24371 -24333 0
24371 -24366 0
24372 -24367 0
24373 -24368 0
24372 -24333 -24366 0
24373 -24367 -24333 0
-24368 24374 -24333 0
24376 -24334 0
24376 -24371 0
24377 -24372 0
24378 -24373 0
-24374 24379 0
24377 -24334 -24371 0
24378 -24334 -24372 0
-24334 -24373 24379 0
24381 -24335 0
24381 -24376 0
24382 -24377 0
24383 -24378 0
-24379 24384 0
24382 -24335 -24376 0
24383 -24335 -24377 0
-24335 -24378 24384 0
-24335 -24379 24385 0
24386 -24336 0
24386 -24381 0
24387 -24382 0
24388 -24383 0
24389 -24384 0
24387 -24336 -24381 0
24388 -24336 -24382 0
24389 -24336 -24383 0
-24336 -24384 24390 0
24391 -24337 0
24391 -24386 0
24392 -24387 0
24393 -24388 0
24394 -24389 0
24392 -24337 -24386 0
24393 -24337 -24387 0
24394 -24337 -24388 0
-24337 -24389 24395 0
24398 -24393 0
-24394 24399 0
-24395 24400 0
24397 -24338 -24391 0
24398 -24338 -24392 0
-24338 -24393 24399 0
-24394 -24338 24400 0
24403 -24398 0
-24399 24404 0
24403 -24397 -24339 0
-24398 -24339 24404 0
-24399 -24339 24405 0
-24404 24409 0
-24340 -24403 24409 0
-24340 -24404 24410 0
-24409 24414 0
-24341 -24409 24415 0
-24415 24420 0
-24414 -24342 24420 0
-24385 -24336 0
-24390 -24337 0
-24395 -24338 0
-24400 -24339 0
-24405 -24340 0
-24410 -24341 0
-24415 -24342 0
-24420 -24343 0
24654 -34 0
-3855 24657 -153 0
23065 24657 -153 0
24661 -358 -3901 0
24664 -451 23134 0
24665 -536 -3941 0
24666 -585 -3952 0
24667 -3961 -626 0
24672 -24654 0
24678 -24672 0
24684 -24678 0
24691 -24657 -24684 0
24697 -24691 0
24703 -24697 0
24709 -24703 0
24716 -24661 -24709 0
24722 -24716 0
24728 -24722 0
24735 -24664 -24728 0
-24735 24742 -24665 0
-24742 -24666 24749 0
-24749 -24667 0
25134 -31 0
25135 -76 -2647 0
25136 -91 23054 0
25137 -136 23064 0
25137 -2668 -173 0
25138 -2678 -218 0
25138 -2679 -221 0
25139 -2689 -265 0
25139 -2689 -266 0
25141 -330 -2710 0
25141 -337 -2710 0
-343 25141 -2710 0
25141 -2710 -348 0
25141 -2710 -352 0
25141 -2710 -355 0
25142 -405 -2721 0
25143 -2730 -448 0
25152 -25134 0
25159 -25135 0
25159 -25152 0
25166 -25159 0
25167 -25136 -25159 0
25174 -25137 -25166 0
25175 -25167 -25137 0
25182 -25174 -25138 0
-25175 25183 -25138 0
-25182 25190 -25139 0
-25183 25191 -25139 0
-25191 25198 0
-25198 25206 -25141 0
-25206 -25142 25214 0
-25214 -25143 0
25271 -18 0
-25271 -33 0
25272 -64 -3665 0
-3670 25272 -88 0
-88 -25272 -23220 3671 -23221 3670 0
25273 -108 -3675 0
25273 -109 -3675 0
25273 -3677 -109 0
-3677 25273 -115 0
25274 -137 23233 0
25274 -138 23233 0
25274 -139 23233 0
25274 -153 -3685 0
-3686 25274 -153 0
-154 25274 -3685 0
-155 25274 -3685 0
-3686 -160 25274 0
-3687 -160 25274 0
-23240 -25274 -178 3691 -23241 3690 0
25275 -182 23243 0
25275 -183 23243 0
25275 -184 23243 0
25275 -185 23243 0
25275 -200 -3695 0
25276 23253 -226 0
25276 -227 23253 0
25276 23253 -228 0
25276 -229 23253 0
25276 -230 23253 0
-3708 25276 -262 0
25277 -271 23263 0
25277 -3718 -307 0
25278 -317 23273 0
25278 -318 23273 0
25278 -319 23273 0
25278 -320 23273 0
-335 -3725 25278 0
-3728 25278 -346 0
-3728 25278 -352 0
-3728 25278 -353 0
25278 -3730 -358 0
25279 -361 23283 0
-3735 25279 -370 0
-379 -3735 25279 0
-380 -3735 25279 0
25279 -3740 -403 0
25279 -3741 -403 0
-3748 25280 -443 0
25280 -3750 -448 0
25281 23303 -451 0
25282 -536 -3771 0
25283 -581 -3781 0
25283 -585 -3782 0
25284 -3791 -626 0
25284 -630 -3792 0
25285 -3801 -671 0
25289 -25271 0
25296 -25272 0
25296 -25289 0
25303 -25273 0
25303 -25296 0
25304 -25273 -25296 0
25310 -25274 0
25310 -25303 0
25311 -25304 0
25311 -25274 -25303 0
25317 -25275 0
25317 -25310 0
25318 -25311 0
25318 -25275 -25310 0
25325 -25318 0
25325 -25276 -25317 0
25326 -25318 -25276 0
25332 -25325 0
25333 -25325 -25277 0
25334 -25326 -25277 0
25340 -25333 0
-25334 25341 0
25340 -25278 -25332 0
25341 -25278 -25333 0
25342 -25334 -25278 0
25348 -25341 0
25349 -25342 0
25348 -25279 -25340 0
25349 -25341 -25279 0
25355 -25348 0
25356 -25349 0
25356 -25348 -25280 0
25363 -25356 0
25363 -25355 -25281 0
25370 -25363 0
-25363 25371 -25282 0
25378 -25370 -25283 0
-25371 -25283 25379 0
-25378 -25284 25386 0
-25379 -25284 0
-25386 -25285 0
-3718 25962 -307 0
25963 -3730 -358 0
25966 -451 23134 0
25967 -536 -3771 0
25968 -585 -3782 0
25969 -3791 -626 0
-25989 25996 0
-25996 26003 0
-26003 26010 0
26018 -26010 -25962 0
26026 -25963 -26018 0
-26026 26033 0
-26033 26040 0
-26040 26048 -25966 0
-26048 26056 -25967 0
-26056 -25968 26064 0
-26064 -25969 0
26230 -31 0
26231 -76 -5367 0
26232 -91 23054 0
26233 -136 23064 0
26233 -5388 -173 0
26234 -5398 -218 0
26234 -5399 -221 0
26235 -5409 -265 0
26235 -5409 -266 0
-285 26236 -5420 0
26236 -292 -5420 0
26236 -298 -5420 0
26236 -5420 -303 0
26236 -307 -5420 0
26236 -5419 -310 0
26237 -5430 -348 0
26237 -360 -5432 0
26238 -403 -5441 0
26238 -405 -5441 0
26239 -448 -5451 0
26240 -495 -5462 0
26241 -538 -5471 0
26241 -540 -5472 0
26242 -583 -5481 0
26248 -26230 0
26255 -26231 0
26255 -26248 0
26262 -26255 0
26263 -26232 -26255 0
26270 -26233 -26262 0
26271 -26263 -26233 0
-26271 26278 0
26278 -26270 -26234 0
-26271 26279 -26234 0
26286 -26278 -26235 0
-26279 26287 -26235 0
-26286 26294 -26236 0
-26287 26295 -26236 0
-26295 26302 0
-26294 26302 -26237 0
-26295 26303 -26237 0
-26302 26309 0
-26302 -26238 26310 0
-26309 26316 0
-26316 26323 0
-26316 -26240 26324 0
-26323 26331 -26241 0
-26303 -26238 0
-26310 -26239 0
-26324 -26241 0
-26331 -26242 0
26504 -23 0
26504 -29 0
26504 -34 0
26505 -79 -13361 0
13380 -26507 -150 -23070 -23064 13374 0
-158 26507 -13381 0
-164 26507 -13381 0
26507 -169 -13381 0
26507 -173 -13381 0
26507 -178 -13381 0
26509 23084 -226 0
26513 -448 -13441 0
26515 -536 -13461 0
26516 -585 -13471 0
26517 -626 -13481 0
26518 -670 -13489 0
26522 -26504 0
26530 -26505 -26522 0
26537 -26530 0
26544 -26537 0
26551 -26544 0
26559 -26509 -26551 0
26566 -26559 0
26573 -26566 0
26580 -26573 0
26588 -26513 -26580 0
26595 -26588 0
26603 -26595 -26515 0
-26603 26611 -26516 0
-26611 -26517 26619 0
-26619 -26518 0
26953 -217 20698 0
26954 -258 -3877 0
26955 -301 20718 0
26956 20727 -319 0
26957 -361 20733 0
26958 -3920 -448 0
26960 -536 -3941 0
26961 -585 -3952 0
26962 -3961 -626 0
26999 -26953 0
27008 -26954 -26999 0
27017 -27008 -26955 0
27026 -26956 -27017 0
27035 -27026 -26957 0
-27035 27044 -26958 0
-27044 27052 0
-27052 27061 -26960 0
-27061 -26961 27070 0
-27070 -26962 0
27468 -27411 0
27469 -27468 0
-27413 -27469 0
27470 -27414 0
27471 -27470 0
-27415 -27470 0
-27416 -27471 0
27419 27417 27418 0
27472 -27417 0
27473 -27472 0
-27418 -27472 0
-27419 -27473 0
27422 27421 27420 0
-27420 27474 0
-27474 27475 0
-27474 -27421 0
-27475 -27422 0
27423 27425 27424 0
27476 -27423 0
27477 -27424 0
27477 -27476 0
-27476 -27424 0
-27425 -27477 0
27427 27428 27426 0
-27426 27478 0
27479 -27427 0
-27478 27479 0
-27478 -27427 0
-27428 -27479 0
27431 27430 27429 0
-27429 27480 0
27481 -27430 0
-27480 27481 0
-27480 -27430 0
-27481 -27431 0
27434 27433 27432 0
-27432 27482 0
-27433 27483 0
-27482 27483 0
-27482 -27433 0
-27483 -27434 0
27437 27435 27436 0
27484 -27435 0
27485 -27436 0
-27484 27485 0
-27436 -27484 0
-27485 -27437 0
27439 27440 27438 0
-27438 27486 0
27487 -27439 0
-27486 27487 0
-27486 -27439 0
-27487 -27440 0
27441 27443 27442 0
-27441 27488 0
-27442 27489 0
-27488 27489 0
-27442 -27488 0
-27489 -27443 0
27446 27445 27444 0
-27444 27490 0
-27445 27491 0
-27490 27491 0
-27490 -27445 0
-27491 -27446 0
27447 27449 27448 0
27492 -27447 0
-27448 27493 0
27493 -27492 0
-27492 -27448 0
-27493 -27449 0
27450 27452 27451 0
27494 -27450 0
27495 -27451 0
27495 -27494 0
-27494 -27451 0
-27495 -27452 0
27454 27455 27453 0
27496 -27453 0
27497 -27454 0
-27496 27497 0
-27454 -27496 0
-27497 -27455 0
27458 27457 27456 0
27499 -27457 0
-27499 -27458 0
27461 27460 27459 0
27464 27462 27463 0
-27465 27504 0
-27466 27505 0
-27504 27505 0
-27505 -27467 0
27411 0
27467 0
-6 -27411 0
-9 -27411 0
-14 -27411 0
-17 -27411 0
27414 -18 -27411 0
27414 -19 -27411 0
27414 -20 -27411 0
-21 -27411 0
27414 -22 -27411 0
27414 -23 -27411 0
-24 -27411 0
27414 -25 -27411 0
27414 -26 -27411 0
-27 -27411 0
27414 -28 -27411 0
27414 -29 -27411 0
-30 -27411 0
27414 -31 -27411 0
-32 -27411 0
27414 -33 -27411 0
27414 -34 -27411 0
-35 -27411 0
-36 -27411 0
27414 -37 -27411 0
27414 -38 -27411 0
-39 -27411 0
-40 -27411 0
27415 -41 -27411 0
-42 -27411 0
-43 27414 -27411 0
-44 -27411 0
-45 -27411 0
-46 27417 -27414 0
27417 -47 -27414 0
27417 -48 -27414 0
27417 -49 -27414 0
27417 -50 -27414 0
-51 -27414 0
-53 27417 -27414 0
-54 -27414 0
-63 -27414 27417 0
-64 -27414 27417 0
-65 27417 -27414 0
-66 -27414 0
-67 27417 -27414 0
-68 27417 -27414 0
-69 -27414 0
-70 27417 -27414 0
-71 27417 -27414 0
-72 -27414 0
-73 27417 -27414 0
-74 27417 -27414 0
-75 -27414 0
-76 27417 -27414 0
-77 -27414 0
-78 27417 -27414 0
-79 27417 -27414 0
-80 -27414 0
-81 -27414 0
-82 27417 -27414 0
-83 27417 -27414 0
-84 -27414 0
-85 -27414 0
-86 27418 -27414 0
-87 -27414 0
-88 27417 -27414 0
-89 -27414 0
-90 -27414 0
-68 -27415 0
-74 -27415 0
-79 -27415 0
-83 -27415 0
-27415 -86 0
-87 -27415 0
-88 -27415 0
-89 -27415 0
-91 27420 -27417 0
-92 -27417 27420 0
-93 -27417 27420 0
-94 -27417 27420 0
-95 -27417 27420 0
-97 27420 -27417 0
-99 -27417 0
-100 27420 -27417 0
-101 27420 -27417 0
-102 27420 -27417 0
-103 27420 -27417 0
-104 -27417 0
-105 27420 -27417 0
-106 27420 -27417 0
-107 -27417 0
-108 27420 -27417 0
-109 27420 -27417 0
-110 27420 -27417 0
-111 -27417 0
-112 27420 -27417 0
-113 27420 -27417 0
-114 -27417 0
-115 27420 -27417 0
-116 27420 -27417 0
-117 -27417 0
-118 27420 -27417 0
-119 27420 -27417 0
-120 -27417 0
-121 27420 -27417 0
-122 -27417 0
-123 27420 -27417 0
-124 27420 -27417 0
-125 -27417 0
-126 -27417 0
-127 27420 -27417 0
-128 27420 -27417 0
-129 -27417 0
-130 -27417 0
27421 -131 -27417 0
-132 -27417 0
-133 27420 -27417 0
-134 -27417 0
-135 -27417 0
-111 27421 -27418 0
-113 -27418 0
-117 27421 -27418 0
-119 -27418 0
-122 27421 -27418 0
-124 -27418 0
-126 27421 -27418 0
-128 -27418 0
-130 27421 -27418 0
-27418 -131 0
-132 -27418 0
-133 -27418 0
-27418 -134 0
-135 -27418 27422 0
-133 -27419 27422 0
-27419 -134 0
-27419 -135 0
-27420 -136 27423 0
-27420 -137 27423 0
-138 -27420 27423 0
-139 -27420 27423 0
-27420 -140 27423 0
-141 -27420 0
-27420 27423 -142 0
-144 -27420 0
-145 -27420 27423 0
-146 -27420 27423 0
-147 -27420 27423 0
-148 -27420 27423 0
-27420 -149 0
-27420 -150 27423 0
-151 -27420 27423 0
-152 -27420 0
-153 -27420 27423 0
-154 -27420 27423 0
-155 -27420 27423 0
-156 -27420 0
-157 -27420 27423 0
-158 -27420 27423 0
-27420 -159 0
-160 -27420 27423 0
-161 -27420 27423 0
-27420 -162 0
-163 -27420 27423 0
-164 -27420 27423 0
-165 -27420 0
-166 -27420 27423 0
-167 -27420 0
-168 -27420 27423 0
-27420 -169 27423 0
-170 -27420 0
-171 -27420 0
-172 -27420 27423 0
-173 -27420 27423 0
-174 -27420 0
-27420 -175 0
-27420 -176 27424 0
-27420 -177 0
-178 -27420 27423 0
-179 -27420 0
-27420 -180 0
-136 -27421 27424 0
-137 -27421 27424 0
-138 -27421 27424 0
-139 -27421 27424 0
-27421 -140 27424 0
-141 -27421 27424 0
-27421 27424 -142 0
-143 -27421 0
-144 -27421 0
-145 -27421 27424 0
-146 -27421 27424 0
-147 -27421 27424 0
-148 -27421 27424 0
-149 -27421 27424 0
-150 -27421 27424 0
-151 -27421 0
-152 -27421 0
-153 -27421 27424 0
-154 -27421 27424 0
-155 -27421 27424 0
-156 -27421 27424 0
-157 -27421 27424 0
-158 -27421 0
-159 -27421 0
-160 -27421 27424 0
-161 -27421 27424 0
-27421 -162 27424 0
-163 -27421 27424 0
-164 -27421 0
-165 -27421 0
-166 -27421 27424 0
-167 -27421 27424 0
-168 -27421 27424 0
-169 -27421 0
-170 -27421 0
-171 -27421 27424 0
-172 -27421 27424 0
-173 -27421 0
-174 -27421 0
-27421 -175 27424 0
-27421 -176 0
-27421 -177 0
-178 -27421 0
-179 -27421 0
-180 -27421 27425 0
-136 -27422 27425 0
-137 -27422 27425 0
-138 -27422 27425 0
-139 -27422 27425 0
-27422 -140 27425 0
-141 -27422 27425 0
-27422 27425 -142 0
-144 -27422 0
-145 -27422 27425 0
-146 -27422 27425 0
-147 -27422 27425 0
-148 -27422 27425 0
-149 -27422 27425 0
-150 -27422 27425 0
-152 -27422 0
-153 -27422 27425 0
-154 -27422 27425 0
-155 -27422 27425 0
-156 -27422 27425 0
-157 -27422 27425 0
-159 -27422 0
-160 -27422 27425 0
-161 -27422 27425 0
-27422 -162 27425 0
-163 -27422 27425 0
-165 -27422 0
-166 -27422 27425 0
-167 -27422 27425 0
-168 -27422 27425 0
-170 -27422 0
-171 -27422 27425 0
-172 -27422 27425 0
-174 -27422 0
-27422 -175 27425 0
-27422 -176 27425 0
-27422 -177 0
-178 -27422 27425 0
-179 -27422 0
-27422 -180 0
-181 -27423 27426 0
-182 -27423 27426 0
-27423 -183 27426 0
-184 -27423 27426 0
-185 -27423 27426 0
-189 -27423 0
-190 -27423 27426 0
-27423 27426 -191 0
-192 -27423 27426 0
-193 -27423 27426 0
-194 -27423 0
-195 -27423 27426 0
-196 -27423 27426 0
-197 -27423 0
-198 -27423 27426 0
-199 -27423 27426 0
-200 -27423 27426 0
-201 -27423 0
-202 -27423 27426 0
-203 -27423 27426 0
-204 -27423 0
-205 -27423 27426 0
-206 -27423 27426 0
-207 -27423 0
-208 -27423 27426 0
-209 -27423 27426 0
-210 -27423 0
-211 -27423 27426 0
-212 -27423 0
-213 -27423 27426 0
27426 -214 -27423 0
-215 -27423 0
-216 -27423 0
-217 -27423 27426 0
-218 -27423 27426 0
-219 -27423 0
-220 -27423 0
27427 -221 -27423 0
-222 -27423 0
-223 -27423 27426 0
-224 -27423 0
-225 -27423 0
-181 -27424 27427 0
-182 -27424 27427 0
-27424 27427 -183 0
-184 -27424 27427 0
-185 -27424 27427 0
-187 27427 -27424 0
-189 -27424 0
-190 -27424 27427 0
-27424 27427 -191 0
-192 -27424 27427 0
-193 -27424 27427 0
27427 -27424 -194 0
-195 27427 -27424 0
-196 -27424 0
-197 -27424 0
-198 -27424 27427 0
-199 -27424 27427 0
-200 -27424 27427 0
-201 27427 -27424 0
-202 27427 -27424 0
-203 -27424 0
-204 -27424 0
-205 -27424 27427 0
-206 -27424 27427 0
-207 27427 -27424 0
-208 27427 -27424 0
-209 -27424 0
-210 -27424 0
-211 -27424 27427 0
-212 27427 -27424 0
-213 27427 -27424 0
-27424 -214 0
-215 -27424 0
-216 27427 -27424 0
-217 27427 -27424 0
-218 -27424 0
-27424 -219 0
27427 -27424 -220 0
-27424 -221 0
-27424 -222 0
-223 -27424 0
-224 -27424 0
-225 -27424 27428 0
-181 -27425 27428 0
-27425 27428 -183 0
-27425 -184 27428 0
-185 -27425 27428 0
-187 -27425 27428 0
-189 -27425 0
-190 -27425 27428 0
-27425 27428 -191 0
-192 -27425 27428 0
-193 -27425 27428 0
-27425 27428 -194 0
-195 -27425 27428 0
-197 -27425 0
-198 -27425 27428 0
-199 -27425 27428 0
-200 -27425 27428 0
-201 -27425 27428 0
-202 -27425 27428 0
-204 -27425 0
-205 -27425 27428 0
-206 -27425 27428 0
-207 -27425 27428 0
-208 -27425 27428 0
-210 -27425 0
-211 -27425 27428 0
-212 -27425 27428 0
-213 -27425 27428 0
-215 -27425 0
-216 -27425 27428 0
-217 -27425 27428 0
-27425 -219 0
-27425 27428 -220 0
-27425 27428 -221 0
-27425 -222 0
-223 -27425 27428 0
-27425 -225 0
-27426 27429 -226 0
-227 -27426 27429 0
-27426 -228 27429 0
-229 -27426 27429 0
-230 -27426 27429 0
-27426 -234 0
-235 -27426 27429 0
-236 -27426 27429 0
-237 -27426 27429 0
-238 -27426 27429 0
-239 -27426 0
-240 -27426 27429 0
-241 -27426 27429 0
-242 -27426 0
-243 -27426 27429 0
-244 -27426 27429 0
-245 -27426 27429 0
-246 -27426 0
-247 -27426 27429 0
-248 -27426 27429 0
-249 -27426 0
-250 -27426 27429 0
-251 -27426 27429 0
-252 -27426 0
-253 -27426 27429 0
-254 -27426 27429 0
-255 -27426 0
-256 -27426 27429 0
-257 -27426 0
-258 -27426 27429 0
-259 -27426 27429 0
-260 -27426 0
-261 -27426 0
-262 -27426 27429 0
-263 -27426 27429 0
-264 -27426 0
-27426 -265 0
-27426 -266 27430 0
-27426 -267 0
-268 -27426 27429 0
-269 -27426 0
-27426 -270 0
27430 -27427 -226 0
-227 -27427 27430 0
-27427 -228 27430 0
-229 -27427 27430 0
-230 -27427 27430 0
-27427 -234 0
-235 -27427 27430 0
-236 -27427 27430 0
-237 -27427 27430 0
-238 -27427 27430 0
-239 -27427 27430 0
-240 -27427 27430 0
-241 -27427 0
-242 -27427 0
-243 -27427 27430 0
-244 -27427 27430 0
-245 -27427 27430 0
-246 -27427 27430 0
-247 -27427 27430 0
-248 -27427 0
-249 -27427 0
-250 -27427 27430 0
-251 -27427 27430 0
-252 -27427 27430 0
-253 -27427 27430 0
-254 -27427 0
-255 -27427 0
-256 -27427 27430 0
-257 -27427 27430 0
-258 -27427 27430 0
-259 -27427 0
-260 -27427 0
-261 -27427 27430 0
-262 -27427 27430 0
-263 -27427 0
-264 -27427 0
-265 -27427 27430 0
-266 -27427 0
-267 -27427 0
-268 -27427 0
-269 -27427 0
27431 -270 -27427 0
-27428 27431 -226 0
-227 -27428 27431 0
-228 -27428 27431 0
-229 -27428 27431 0
-230 -27428 27431 0
-232 -27428 27431 0
-27428 -234 0
-235 -27428 27431 0
-236 -27428 27431 0
-237 -27428 27431 0
-238 -27428 27431 0
-239 -27428 27431 0
-240 -27428 27431 0
-242 -27428 0
-243 -27428 27431 0
-244 -27428 27431 0
-245 -27428 27431 0
-246 -27428 27431 0
-247 -27428 27431 0
-249 -27428 0
-250 -27428 27431 0
-251 -27428 27431 0
-252 -27428 27431 0
-253 -27428 27431 0
-255 -27428 0
-256 -27428 27431 0
-257 -27428 27431 0
-258 -27428 27431 0
-260 -27428 0
-261 -27428 27431 0
-262 -27428 27431 0
-264 -27428 0
-27428 -265 27431 0
-27428 -266 27431 0
-267 -27428 0
-268 -27428 27431 0
-269 -27428 0
-270 -27428 0
-271 -27429 27432 0
-27429 -272 27432 0
-273 -27429 27432 0
-274 -27429 27432 0
-27429 -275 27432 0
-279 -27429 0
-280 -27429 27432 0
-281 -27429 27432 0
-282 -27429 27432 0
-283 -27429 27432 0
-284 -27429 0
-285 -27429 27432 0
-286 -27429 27432 0
-287 -27429 0
-288 -27429 27432 0
-27429 -289 27432 0
-290 -27429 27432 0
-27429 -291 0
-292 -27429 27432 0
-293 -27429 27432 0
-294 -27429 0
-295 -27429 27432 0
-296 -27429 27432 0
-297 -27429 0
-298 -27429 27432 0
-299 -27429 27432 0
-300 -27429 0
-301 -27429 27432 0
-302 -27429 0
-303 -27429 27432 0
-304 -27429 27432 0
-305 -27429 0
-306 -27429 0
-307 -27429 27432 0
-27429 -308 27432 0
-309 -27429 0
-27429 -310 0
-27429 -311 27433 0
-27429 -312 0
-27429 -313 27432 0
-27429 -314 0
-27429 -315 0
-271 -27430 27433 0
-272 -27430 27433 0
-273 -27430 27433 0
-274 -27430 27433 0
-275 -27430 27433 0
-277 -27430 27433 0
-278 -27430 0
-279 -27430 0
-280 27433 -27430 0
-281 27433 -27430 0
-282 27433 -27430 0
-283 27433 -27430 0
-284 27433 -27430 0
-285 27433 -27430 0
-286 -27430 0
-287 -27430 0
-288 27433 -27430 0
-289 27433 -27430 0
-290 27433 -27430 0
-291 27433 -27430 0
-292 27433 -27430 0
-293 -27430 0
-294 -27430 0
-295 27433 -27430 0
-296 27433 -27430 0
-297 27433 -27430 0
-298 27433 -27430 0
-299 -27430 0
-300 -27430 0
-301 27433 -27430 0
-302 27433 -27430 0
-303 27433 -27430 0
-304 -27430 0
-305 -27430 0
-306 27433 -27430 0
-307 27433 -27430 0
-308 -27430 0
-309 -27430 0
-310 27433 -27430 0
-27430 -311 0
-312 -27430 0
-313 -27430 0
-314 -27430 0
27434 -315 -27430 0
-271 -27431 27434 0
27434 -272 -27431 0
-273 -27431 27434 0
-274 -27431 27434 0
27434 -275 -27431 0
-277 27434 -27431 0
-279 -27431 0
-280 -27431 27434 0
-281 -27431 27434 0
-282 -27431 27434 0
-283 -27431 27434 0
-284 -27431 27434 0
-285 -27431 27434 0
-287 -27431 0
-288 -27431 27434 0
27434 -289 -27431 0
-290 -27431 27434 0
-291 27434 -27431 0
-292 -27431 27434 0
-294 -27431 0
-295 -27431 27434 0
-296 -27431 27434 0
-297 27434 -27431 0
-298 -27431 27434 0
-300 -27431 0
-301 -27431 27434 0
-302 27434 -27431 0
-303 -27431 27434 0
-305 -27431 0
-306 27434 -27431 0
-307 -27431 27434 0
-309 -27431 0
27434 -310 -27431 0
27434 -27431 -311 0
-312 -27431 0
27434 -313 -27431 0
-314 -27431 0
-315 -27431 0
-27432 -316 27435 0
-317 -27432 27435 0
-318 -27432 27435 0
-319 -27432 27435 0
-320 -27432 27435 0
-323 -27432 27435 0
-27432 -324 0
-325 -27432 27435 0
-326 -27432 27435 0
-327 -27432 27435 0
-328 -27432 27435 0
-329 -27432 0
-330 -27432 27435 0
-331 -27432 27435 0
-27432 -332 0
-333 -27432 27435 0
-334 -27432 27435 0
-335 -27432 27435 0
-336 -27432 0
-337 -27432 27435 0
-338 -27432 27435 0
-339 -27432 0
-340 -27432 27435 0
-341 -27432 27435 0
-342 -27432 0
-343 -27432 27435 0
-344 -27432 27435 0
-27432 -345 0
-346 -27432 27435 0
-27432 -347 0
-27432 -348 27435 0
-349 -27432 27435 0
-350 -27432 0
-351 -27432 0
-352 -27432 27435 0
-353 -27432 27435 0
-27432 -354 0
-355 -27432 0
-27432 -356 27436 0
-357 -27432 0
-358 -27432 27435 0
-27432 -359 0
-27432 -360 0
-316 -27433 27436 0
-317 -27433 27436 0
-318 -27433 27436 0
-319 -27433 27436 0
-320 -27433 27436 0
-323 -27433 0
-27433 -324 0
-325 -27433 27436 0
-326 -27433 27436 0
-327 -27433 27436 0
-328 -27433 27436 0
-329 -27433 27436 0
-330 -27433 27436 0
-331 -27433 0
-27433 -332 0
-333 -27433 27436 0
-334 -27433 27436 0
-335 -27433 27436 0
-336 -27433 27436 0
-337 -27433 27436 0
-338 -27433 0
-339 -27433 0
-340 -27433 27436 0
-341 -27433 27436 0
-342 -27433 27436 0
-343 -27433 27436 0
-344 -27433 0
-27433 -345 0
-346 -27433 27436 0
-347 -27433 27436 0
-348 -27433 27436 0
-349 -27433 0
-350 -27433 0
-351 -27433 27436 0
-352 -27433 27436 0
-353 -27433 0
-354 -27433 0
-355 -27433 27436 0
-27433 -356 0
-357 -27433 0
-358 -27433 0
-27433 -359 0
-27433 -360 27437 0
-316 -27434 27437 0
-317 -27434 27437 0
-318 -27434 27437 0
-319 -27434 27437 0
-320 -27434 27437 0
-27434 -324 0
-325 27437 -27434 0
-326 27437 -27434 0
-327 27437 -27434 0
-328 27437 -27434 0
-329 27437 -27434 0
-330 27437 -27434 0
-332 -27434 0
-333 27437 -27434 0
-334 27437 -27434 0
-335 27437 -27434 0
-336 27437 -27434 0
-337 27437 -27434 0
-339 -27434 0
-340 27437 -27434 0
-341 27437 -27434 0
-342 27437 -27434 0
-343 27437 -27434 0
-345 -27434 0
-346 -27434 27437 0
-347 27437 -27434 0
-348 27437 -27434 0
-350 -27434 0
-351 27437 -27434 0
-352 27437 -27434 0
-354 -27434 0
-355 27437 -27434 0
-356 27437 -27434 0
-357 -27434 0
-358 27437 -27434 0
-359 -27434 0
-360 -27434 0
-361 -27435 27438 0
-362 -27435 27438 0
-363 -27435 27438 0
-364 -27435 27438 0
-365 -27435 27438 0
-366 -27435 0
-367 -27435 27438 0
-368 -27435 27438 0
-27435 -369 0
-370 -27435 27438 0
-371 -27435 27438 0
-372 -27435 27438 0
-373 -27435 27438 0
-374 -27435 0
-375 -27435 27438 0
-376 -27435 27438 0
-377 -27435 0
-378 -27435 27438 0
-379 -27435 27438 0
-380 -27435 27438 0
-381 -27435 0
-382 -27435 27438 0
-383 -27435 27438 0
-384 -27435 0
-385 -27435 27438 0
-386 -27435 27438 0
-387 -27435 0
-388 -27435 27438 0
-389 -27435 27438 0
-390 -27435 0
-391 -27435 27438 0
-392 -27435 0
-393 -27435 27438 0
-394 -27435 27438 0
-395 -27435 0
-396 -27435 0
-397 -27435 27438 0
-398 -27435 27438 0
-399 -27435 0
-400 -27435 0
-27435 -401 27439 0
-402 -27435 0
-27435 -403 27438 0
-27435 -404 0
-405 -27435 0
-27436 -361 27439 0
-362 -27436 27439 0
-363 -27436 27439 0
-364 -27436 27439 0
-365 -27436 27439 0
-366 -27436 27439 0
-27436 -369 0
-370 -27436 27439 0
-371 -27436 27439 0
-372 -27436 27439 0
-373 -27436 27439 0
-374 -27436 27439 0
-375 -27436 27439 0
-376 -27436 0
-377 -27436 0
-378 -27436 27439 0
-379 -27436 27439 0
-380 -27436 27439 0
-381 -27436 27439 0
-382 -27436 27439 0
-383 -27436 0
-384 -27436 0
-385 -27436 27439 0
-386 -27436 27439 0
-387 -27436 27439 0
-388 -27436 27439 0
-389 -27436 0
-390 -27436 0
-391 -27436 27439 0
-392 -27436 27439 0
-393 -27436 27439 0
-394 -27436 0
-395 -27436 0
-396 -27436 27439 0
-397 -27436 27439 0
-398 -27436 0
-399 -27436 0
-400 -27436 27439 0
-27436 -401 0
-27436 -402 0
-27436 -403 0
-27436 -404 0
-27437 -361 27440 0
-362 -27437 27440 0
-363 -27437 27440 0
-364 -27437 27440 0
-365 -27437 27440 0
-366 -27437 27440 0
-367 -27437 27440 0
-27437 -369 0
-370 -27437 27440 0
-371 -27437 27440 0
-372 -27437 27440 0
-373 -27437 27440 0
-374 -27437 27440 0
-375 -27437 27440 0
-377 -27437 0
-378 -27437 27440 0
-379 -27437 27440 0
-380 -27437 27440 0
-381 -27437 27440 0
-382 -27437 27440 0
-384 -27437 0
-385 -27437 27440 0
-386 -27437 27440 0
-387 -27437 27440 0
-388 -27437 27440 0
-390 -27437 0
-391 -27437 27440 0
-392 -27437 27440 0
-393 -27437 27440 0
-395 -27437 0
-396 -27437 27440 0
-397 -27437 27440 0
-399 -27437 0
-400 -27437 27440 0
-27437 -401 27440 0
-402 -27437 0
-27437 -403 27440 0
-27437 -404 0
-27437 -405 0
-406 -27438 27441 0
-407 -27438 27441 0
-408 -27438 27441 0
-409 -27438 27441 0
-410 -27438 27441 0
-411 -27438 0
-414 -27438 0
-415 -27438 27441 0
-416 -27438 27441 0
-417 -27438 27441 0
-418 -27438 27441 0
-419 -27438 0
-420 -27438 27441 0
-27438 -421 27441 0
-27438 -422 0
-423 -27438 27441 0
-424 -27438 27441 0
-425 -27438 27441 0
-426 -27438 0
-427 -27438 27441 0
-428 -27438 27441 0
-429 -27438 0
-430 -27438 27441 0
-431 -27438 27441 0
-432 -27438 0
-433 -27438 27441 0
-434 -27438 27441 0
-27438 -435 0
-436 -27438 27441 0
-437 -27438 0
-438 -27438 27441 0
-439 -27438 27441 0
-27438 -440 0
-441 -27438 0
-442 -27438 27441 0
-443 -27438 27441 0
-27438 -444 0
-445 -27438 0
-446 -27438 27442 0
-27438 -447 0
-448 -27438 27441 0
-449 -27438 0
-27438 -450 0
-406 27442 -27439 0
-407 27442 -27439 0
-408 27442 -27439 0
-409 27442 -27439 0
-410 27442 -27439 0
-411 27442 -27439 0
-413 -27439 0
-414 -27439 0
-415 27442 -27439 0
-416 27442 -27439 0
-417 27442 -27439 0
-418 27442 -27439 0
-419 27442 -27439 0
-420 27442 -27439 0
-421 -27439 0
-422 -27439 0
-423 27442 -27439 0
-424 27442 -27439 0
-425 27442 -27439 0
-426 27442 -27439 0
-427 27442 -27439 0
-428 -27439 0
-429 -27439 0
-430 27442 -27439 0
-431 27442 -27439 0
-432 27442 -27439 0
-433 27442 -27439 0
-434 -27439 0
-435 -27439 0
-436 27442 -27439 0
-437 27442 -27439 0
-438 27442 -27439 0
-439 -27439 0
-440 -27439 0
-441 27442 -27439 0
-442 27442 -27439 0
-443 -27439 0
-444 -27439 0
-445 27442 -27439 0
-446 -27439 0
-447 -27439 0
-448 -27439 0
-449 -27439 0
27443 -27439 -450 0
-406 -27440 27443 0
-407 -27440 27443 0
-408 -27440 27443 0
-409 -27440 27443 0
-410 -27440 27443 0
-411 -27440 27443 0
-414 -27440 0
-415 -27440 27443 0
-416 -27440 27443 0
-417 -27440 27443 0
-418 -27440 27443 0
-419 -27440 27443 0
-420 -27440 27443 0
-27440 -422 0
-423 -27440 27443 0
-424 -27440 27443 0
-425 -27440 27443 0
-426 27443 -27440 0
-427 27443 -27440 0
-429 -27440 0
-430 -27440 27443 0
-431 -27440 27443 0
-432 27443 -27440 0
-433 27443 -27440 0
-435 -27440 0
-436 27443 -27440 0
-437 27443 -27440 0
-438 -27440 27443 0
-440 -27440 0
-441 27443 -27440 0
-442 -27440 27443 0
-444 -27440 0
-445 27443 -27440 0
-446 -27440 27443 0
-447 -27440 0
-448 -27440 27443 0
-449 -27440 0
-27440 -450 0
-451 -27441 27444 0
-452 -27441 27444 0
-453 -27441 27444 0
-454 -27441 27444 0
-455 -27441 27444 0
-456 -27441 0
-458 -27441 27444 0
-27441 -459 0
-460 -27441 27444 0
-461 -27441 27444 0
-462 -27441 27444 0
-463 -27441 27444 0
-464 -27441 0
-465 -27441 27444 0
-466 -27441 27444 0
-467 -27441 0
-468 -27441 27444 0
-469 -27441 27444 0
-470 -27441 27444 0
-471 -27441 0
-472 -27441 27444 0
-473 -27441 27444 0
-27441 -474 0
-475 -27441 27444 0
-476 -27441 27444 0
-477 -27441 0
-478 -27441 27444 0
-479 -27441 27444 0
-27441 -480 0
-481 -27441 27444 0
-482 -27441 0
-483 -27441 27444 0
-484 -27441 27444 0
-27441 -485 0
-486 -27441 0
-487 -27441 27444 0
-488 -27441 27444 0
-27441 -489 0
-27441 -490 0
-27441 -491 27445 0
-492 -27441 0
-493 -27441 27444 0
-494 -27441 0
-27441 -495 0
-451 -27442 27445 0
-27442 -452 27445 0
-453 -27442 27445 0
-454 -27442 27445 0
-455 -27442 27445 0
-456 -27442 27445 0
-27442 -459 0
-460 -27442 27445 0
-461 -27442 27445 0
-462 -27442 27445 0
-463 -27442 27445 0
-464 -27442 27445 0
-465 -27442 27445 0
-466 -27442 0
-467 -27442 0
-468 -27442 27445 0
-469 -27442 27445 0
-470 -27442 27445 0
-471 -27442 27445 0
-472 -27442 27445 0
-473 -27442 0
-27442 -474 0
-475 -27442 27445 0
-476 -27442 27445 0
-477 -27442 27445 0
-478 -27442 27445 0
-479 -27442 0
-27442 -480 0
-481 -27442 27445 0
-482 -27442 27445 0
-483 -27442 27445 0
-484 -27442 0
-27442 -485 0
-486 -27442 27445 0
-487 -27442 27445 0
-488 -27442 0
-27442 -489 0
-27442 -490 27445 0
-27442 -491 0
-27442 -492 0
-493 -27442 0
-494 -27442 0
-27442 27446 -495 0
-451 -27443 27446 0
-452 -27443 27446 0
-453 -27443 27446 0
-454 -27443 27446 0
-455 -27443 27446 0
-456 27446 -27443 0
27446 -457 -27443 0
-459 -27443 0
-460 -27443 27446 0
-461 -27443 27446 0
-462 -27443 27446 0
-463 -27443 27446 0
-464 27446 -27443 0
-465 -27443 27446 0
-467 -27443 0
-468 -27443 27446 0
-469 -27443 27446 0
-470 -27443 27446 0
-471 27446 -27443 0
-472 -27443 27446 0
-474 -27443 0
-475 -27443 27446 0
-476 -27443 27446 0
-477 27446 -27443 0
-478 -27443 27446 0
-480 -27443 0
-481 -27443 27446 0
-482 27446 -27443 0
-483 -27443 27446 0
-485 -27443 0
-486 -27443 27446 0
-487 -27443 27446 0
-489 -27443 0
27446 -490 -27443 0
-27443 -491 27446 0
-492 -27443 0
-493 -27443 27446 0
-494 -27443 0
-495 -27443 0
-496 -27444 27447 0
-27444 27447 -497 0
-498 -27444 27447 0
-27444 -499 27447 0
-27444 27447 -500 0
-503 -27444 27447 0
-504 -27444 0
-505 -27444 27447 0
-506 -27444 27447 0
-507 -27444 27447 0
-508 -27444 27447 0
-27444 -509 0
-510 -27444 27447 0
-511 -27444 27447 0
-27444 -512 0
-513 -27444 27447 0
-514 -27444 27447 0
-515 -27444 27447 0
-516 -27444 0
-517 -27444 27447 0
-518 -27444 27447 0
-519 -27444 0
-520 -27444 27447 0
-521 -27444 27447 0
-522 -27444 0
-523 -27444 27447 0
-524 -27444 27447 0
-525 -27444 0
-526 -27444 27447 0
-527 -27444 0
-528 -27444 27447 0
-529 -27444 27447 0
-530 -27444 0
-531 -27444 0
-532 -27444 27447 0
-533 -27444 27447 0
-534 -27444 0
-27444 -535 0
-536 -27444 27448 0
-27444 -537 0
-538 -27444 27447 0
-27444 -539 0
-27444 -540 0
-496 -27445 27448 0
-27445 27448 -497 0
-498 -27445 27448 0
-499 -27445 27448 0
-27445 -500 27448 0
-27445 -502 27448 0
-503 -27445 0
-504 -27445 0
-505 -27445 27448 0
-506 -27445 27448 0
-507 -27445 27448 0
-508 -27445 27448 0
-27445 27448 -509 0
-510 -27445 27448 0
-511 -27445 0
-27445 -512 0
-513 -27445 27448 0
-514 -27445 27448 0
-515 -27445 27448 0
-516 -27445 27448 0
-517 -27445 27448 0
-518 -27445 0
-519 -27445 0
-520 -27445 27448 0
-521 -27445 27448 0
-522 -27445 27448 0
-523 -27445 27448 0
-524 -27445 0
-525 -27445 0
-526 -27445 27448 0
-527 -27445 27448 0
-528 -27445 27448 0
-529 -27445 0
-530 -27445 0
-531 -27445 27448 0
-532 -27445 27448 0
-533 -27445 0
-534 -27445 0
-535 -27445 27448 0
-536 -27445 0
-27445 -537 0
-538 -27445 0
-27445 -539 0
-496 27449 -27446 0
27449 -27446 -497 0
-498 27449 -27446 0
-499 -27446 27449 0
-27446 -500 27449 0
27449 -501 -27446 0
-504 -27446 0
-505 27449 -27446 0
-506 27449 -27446 0
-507 27449 -27446 0
-508 27449 -27446 0
27449 -509 -27446 0
-510 27449 -27446 0
-27446 -512 0
-513 27449 -27446 0
-514 27449 -27446 0
-515 27449 -27446 0
-516 27449 -27446 0
-517 27449 -27446 0
-519 -27446 0
-520 27449 -27446 0
-521 27449 -27446 0
-522 27449 -27446 0
-523 27449 -27446 0
-525 -27446 0
-526 27449 -27446 0
-527 27449 -27446 0
-528 27449 -27446 0
-530 -27446 0
-531 27449 -27446 0
-532 27449 -27446 0
-534 -27446 0
-535 -27446 27449 0
-536 -27446 27449 0
-537 -27446 0
-538 -27446 27449 0
-539 -27446 0
-540 -27446 0
-541 27450 -27447 0
-542 27450 -27447 0
-543 27450 -27447 0
-544 27450 -27447 0
-545 27450 -27447 0
-549 -27447 0
-550 27450 -27447 0
-551 27450 -27447 0
-552 27450 -27447 0
-553 27450 -27447 0
-554 -27447 0
-555 27450 -27447 0
-556 27450 -27447 0
-557 -27447 0
-558 27450 -27447 0
-559 27450 -27447 0
-560 27450 -27447 0
-561 -27447 0
-562 27450 -27447 0
-563 27450 -27447 0
-564 -27447 0
-565 27450 -27447 0
-566 27450 -27447 0
-567 -27447 0
-568 27450 -27447 0
-569 27450 -27447 0
-570 -27447 0
-571 27450 -27447 0
-572 -27447 0
-573 27450 -27447 0
-574 27450 -27447 0
-575 -27447 0
-576 -27447 0
-577 27450 -27447 0
-578 27450 -27447 0
-579 -27447 0
-580 -27447 0
-581 -27447 27451 0
-582 -27447 0
-583 27450 -27447 0
-584 -27447 0
-585 -27447 0
-541 -27448 27451 0
-542 -27448 27451 0
-543 -27448 27451 0
-544 -27448 27451 0
-545 -27448 27451 0
-549 -27448 0
-550 -27448 27451 0
-551 -27448 27451 0
-552 -27448 27451 0
-553 -27448 27451 0
-554 -27448 27451 0
-555 -27448 27451 0
-556 -27448 0
-557 -27448 0
-558 -27448 27451 0
-559 -27448 27451 0
-560 -27448 27451 0
-561 -27448 27451 0
-562 -27448 27451 0
-563 -27448 0
-564 -27448 0
-565 -27448 27451 0
-566 -27448 27451 0
-567 -27448 27451 0
-568 -27448 27451 0
-569 -27448 0
-570 -27448 0
-571 -27448 27451 0
-572 -27448 27451 0
-573 -27448 27451 0
-574 -27448 0
-27448 -575 0
-576 -27448 27451 0
-577 -27448 27451 0
-578 -27448 0
-579 -27448 0
-27448 -580 27451 0
-27448 -581 0
-27448 -582 0
-583 -27448 0
-27448 -584 0
-27448 -585 27452 0
-541 -27449 27452 0
-542 -27449 27452 0
-543 -27449 27452 0
-544 -27449 27452 0
-545 -27449 27452 0
-546 -27449 27452 0
-547 -27449 27452 0
-549 -27449 0
-550 -27449 27452 0
-551 -27449 27452 0
-552 -27449 27452 0
-553 -27449 27452 0
-554 -27449 27452 0
-555 -27449 27452 0
-557 -27449 0
-558 -27449 27452 0
-559 -27449 27452 0
-560 -27449 27452 0
-561 -27449 27452 0
-562 -27449 27452 0
-564 -27449 0
-565 -27449 27452 0
-566 -27449 27452 0
-567 -27449 27452 0
-568 -27449 27452 0
-570 -27449 0
-571 -27449 27452 0
-572 -27449 27452 0
-573 -27449 27452 0
-27449 -575 0
-576 -27449 27452 0
-577 -27449 27452 0
-579 -27449 0
-580 -27449 27452 0
-581 -27449 27452 0
-582 -27449 0
-583 -27449 27452 0
-584 -27449 0
-585 -27449 0
-586 -27450 27453 0
-587 -27450 27453 0
-588 -27450 27453 0
-589 -27450 27453 0
-590 -27450 27453 0
-591 -27450 0
-593 -27450 27453 0
-594 -27450 0
-595 -27450 27453 0
-596 -27450 27453 0
-597 -27450 27453 0
-598 -27450 27453 0
-599 -27450 0
-600 -27450 27453 0
-601 -27450 27453 0
-602 -27450 0
-603 -27450 27453 0
-604 -27450 27453 0
-605 -27450 27453 0
-606 -27450 0
-607 -27450 27453 0
-27450 -608 27453 0
-609 -27450 0
-610 -27450 27453 0
-611 -27450 27453 0
-612 -27450 0
-613 -27450 27453 0
-614 -27450 27453 0
-615 -27450 0
-616 -27450 27453 0
-617 -27450 0
-618 -27450 27453 0
-619 -27450 27453 0
-620 -27450 0
-621 -27450 0
-622 -27450 27453 0
-623 -27450 27453 0
-624 -27450 0
-625 -27450 0
-626 27454 -27450 0
-627 -27450 0
-628 -27450 27453 0
-629 -27450 0
-630 -27450 0
-586 -27451 27454 0
-587 -27451 27454 0
-588 -27451 27454 0
-589 -27451 27454 0
-590 -27451 27454 0
-592 -27451 27454 0
-593 -27451 0
-594 -27451 0
-595 -27451 27454 0
-596 -27451 27454 0
-597 -27451 27454 0
-598 -27451 27454 0
-599 -27451 27454 0
-600 -27451 27454 0
-601 -27451 0
-602 -27451 0
-603 -27451 27454 0
-604 -27451 27454 0
-605 -27451 27454 0
-606 -27451 27454 0
-607 -27451 27454 0
-27451 -608 0
-609 -27451 0
-610 -27451 27454 0
-611 -27451 27454 0
-612 -27451 27454 0
-613 -27451 27454 0
-614 -27451 0
-615 -27451 0
-616 -27451 27454 0
-617 -27451 27454 0
-618 -27451 27454 0
-619 -27451 0
-620 -27451 0
-621 -27451 27454 0
-622 -27451 27454 0
-623 -27451 0
-27451 -624 0
-27451 27454 -625 0
-27451 -626 0
-27451 -627 0
-27451 -628 0
-27451 -629 0
-630 -27451 27455 0
-586 27455 -27452 0
-587 27455 -27452 0
-588 27455 -27452 0
-589 27455 -27452 0
-590 27455 -27452 0
-591 27455 -27452 0
-592 27455 -27452 0
-594 -27452 0
-595 27455 -27452 0
-596 27455 -27452 0
-597 27455 -27452 0
-598 27455 -27452 0
-599 27455 -27452 0
-600 27455 -27452 0
-602 -27452 0
-603 27455 -27452 0
-604 27455 -27452 0
-605 27455 -27452 0
-606 27455 -27452 0
-607 27455 -27452 0
-609 -27452 0
-610 27455 -27452 0
-611 27455 -27452 0
-612 27455 -27452 0
-613 27455 -27452 0
-615 -27452 0
-616 27455 -27452 0
-617 -27452 27455 0
-618 27455 -27452 0
-620 -27452 0
-621 27455 -27452 0
-622 27455 -27452 0
-27452 -624 0
-625 27455 -27452 0
-626 27455 -27452 0
-627 -27452 0
-628 -27452 27455 0
-629 -27452 0
-630 -27452 0
-631 -27453 27456 0
-632 -27453 27456 0
-633 -27453 27456 0
-634 -27453 27456 0
-635 -27453 27456 0
-636 -27453 0
-637 -27453 27456 0
-638 -27453 27456 0
-639 -27453 0
-640 -27453 27456 0
-641 -27453 27456 0
-642 -27453 27456 0
-643 -27453 27456 0
-644 -27453 0
-645 -27453 27456 0
-27453 -646 27456 0
-647 -27453 0
-648 -27453 27456 0
-649 -27453 27456 0
-650 -27453 27456 0
-651 -27453 0
-652 -27453 27456 0
-653 -27453 27456 0
-654 -27453 0
-655 -27453 27456 0
-656 -27453 27456 0
-657 -27453 0
-658 -27453 27456 0
-659 -27453 27456 0
-660 -27453 0
-661 -27453 27456 0
-662 -27453 0
-663 -27453 27456 0
-664 -27453 27456 0
-665 -27453 0
-666 -27453 0
-667 -27453 27456 0
-668 -27453 27456 0
-669 -27453 0
-670 -27453 0
-671 -27453 27457 0
-672 -27453 0
-673 -27453 27456 0
-674 -27453 0
-675 -27453 0
-631 -27454 27457 0
-632 -27454 27457 0
-633 -27454 27457 0
-634 -27454 27457 0
-635 -27454 27457 0
-638 -27454 0
-27454 -639 0
-640 -27454 27457 0
-641 -27454 27457 0
-642 -27454 27457 0
-643 -27454 27457 0
-644 -27454 27457 0
-645 -27454 27457 0
-27454 -646 0
-647 -27454 0
-648 -27454 27457 0
-649 -27454 27457 0
-650 -27454 27457 0
-651 -27454 27457 0
-652 -27454 27457 0
-653 -27454 0
-654 -27454 0
-655 -27454 27457 0
-656 -27454 27457 0
-657 -27454 27457 0
-658 -27454 27457 0
-659 -27454 0
-660 -27454 0
-661 -27454 27457 0
-662 -27454 27457 0
-663 -27454 27457 0
-664 -27454 0
-665 -27454 0
-666 -27454 27457 0
-667 -27454 27457 0
-668 -27454 0
-669 -27454 0
-27454 -670 27457 0
-27454 -671 0
-27454 -672 0
-673 -27454 0
-27454 -674 0
-27454 -675 27458 0
-631 -27455 27458 0
-632 -27455 27458 0
-633 -27455 27458 0
-634 -27455 27458 0
-635 -27455 27458 0
-636 -27455 27458 0
-639 -27455 0
-640 -27455 27458 0
-641 -27455 27458 0
-642 -27455 27458 0
-643 -27455 27458 0
-644 -27455 27458 0
-645 -27455 27458 0
-647 -27455 0
-648 -27455 27458 0
-649 -27455 27458 0
-650 -27455 27458 0
-651 -27455 27458 0
-652 -27455 27458 0
-654 -27455 0
-655 -27455 27458 0
-656 -27455 27458 0
-657 -27455 27458 0
-658 -27455 27458 0
-660 -27455 0
-661 -27455 27458 0
-662 -27455 27458 0
-663 -27455 27458 0
-665 -27455 0
-666 -27455 27458 0
-667 -27455 27458 0
-669 -27455 0
-27455 -670 27458 0
-27455 -671 27458 0
-27455 -672 0
-673 -27455 27458 0
-674 -27455 0
-675 -27455 0
-27456 -676 27459 0
-677 -27456 27459 0
-678 -27456 27459 0
-679 -27456 27459 0
-680 -27456 27459 0
-681 -27456 0
-682 -27456 27459 0
-683 -27456 27459 0
-684 -27456 0
-685 -27456 27459 0
-686 -27456 27459 0
-687 -27456 27459 0
-688 -27456 27459 0
-689 -27456 0
-690 -27456 27459 0
-691 -27456 27459 0
-692 -27456 0
-693 -27456 27459 0
-694 -27456 27459 0
-695 -27456 27459 0
-696 -27456 0
-697 -27456 27459 0
-27456 -698 27459 0
-699 -27456 0
-700 -27456 27459 0
-701 -27456 27459 0
-702 -27456 0
-703 -27456 27459 0
-704 -27456 27459 0
-705 -27456 0
-706 -27456 27459 0
-707 -27456 0
-708 -27456 27459 0
-709 -27456 27459 0
-710 -27456 0
-711 -27456 0
-712 -27456 27459 0
-713 -27456 27459 0
-714 -27456 0
-27456 -715 0
-27456 -716 27460 0
-27456 -717 0
-27456 -718 27459 0
-27456 -719 0
-27456 -720 0
-27457 -676 27460 0
-677 -27457 27460 0
-678 -27457 27460 0
-679 -27457 27460 0
-680 -27457 27460 0
-681 -27457 27460 0
-683 -27457 0
-684 -27457 0
-685 -27457 27460 0
-686 -27457 27460 0
-687 -27457 27460 0
-688 -27457 27460 0
-689 -27457 27460 0
-690 -27457 27460 0
-691 -27457 0
-692 -27457 0
-693 -27457 27460 0
-694 -27457 27460 0
-695 -27457 27460 0
-696 -27457 27460 0
-697 -27457 27460 0
-27457 -698 0
-699 -27457 0
-700 -27457 27460 0
-701 -27457 27460 0
-702 -27457 27460 0
-703 -27457 27460 0
-704 -27457 0
-705 -27457 0
-706 -27457 27460 0
-707 -27457 27460 0
-708 -27457 27460 0
-709 -27457 0
-710 -27457 0
-711 -27457 27460 0
-712 -27457 27460 0
-713 -27457 0
-714 -27457 0
-27457 -715 27460 0
-27457 -716 0
-717 -27457 0
-718 -27457 0
-719 -27457 0
27461 -27457 -720 0
-684 -27458 0
-692 -27458 0
-699 -27458 0
-705 -27458 0
-710 -27458 0
-714 -27458 0
-717 -27458 0
-719 -27458 0
-720 -27458 0
-27459 -721 27462 0
-722 -27459 27462 0
-723 -27459 27462 0
-724 -27459 27462 0
-725 -27459 27462 0
-726 -27459 0
-727 -27459 27462 0
-728 -27459 27462 0
-27459 -729 0
-27459 -730 27462 0
-731 -27459 27462 0
-732 -27459 27462 0
-27459 -733 27462 0
-734 -27459 0
-735 -27459 27462 0
-27459 -736 27462 0
-737 -27459 0
-738 -27459 27462 0
-27459 -739 27462 0
-740 -27459 27462 0
-741 -27459 0
-742 -27459 27462 0
-743 -27459 27462 0
-744 -27459 0
-745 -27459 27462 0
-746 -27459 27462 0
-747 -27459 0
-748 -27459 27462 0
-749 -27459 27462 0
-750 -27459 0
-751 -27459 27462 0
-752 -27459 0
-753 -27459 27462 0
-754 -27459 27462 0
-755 -27459 0
-756 -27459 0
-757 -27459 27462 0
-758 -27459 27462 0
-759 -27459 0
-27459 -760 0
-27459 -761 27463 0
-27459 -762 0
-27459 -763 27462 0
-27459 -764 0
-27459 -765 0
-721 -27460 27463 0
-722 -27460 27463 0
-723 -27460 27463 0
-724 -27460 27463 0
-725 -27460 27463 0
-726 -27460 27463 0
-727 -27460 27463 0
-728 -27460 0
-27460 -729 0
-27460 -730 27463 0
-731 -27460 27463 0
-732 -27460 27463 0
-27460 -733 27463 0
-734 -27460 27463 0
-735 -27460 27463 0
-27460 -736 0
-737 -27460 0
-738 -27460 27463 0
-27460 -739 27463 0
-740 -27460 27463 0
-741 -27460 27463 0
-742 -27460 27463 0
-743 -27460 0
-744 -27460 0
-745 -27460 27463 0
-746 -27460 27463 0
-747 -27460 27463 0
-748 -27460 27463 0
-749 -27460 0
-750 -27460 0
-751 -27460 27463 0
-752 -27460 27463 0
-753 -27460 27463 0
-754 -27460 0
-755 -27460 0
-756 -27460 27463 0
-757 -27460 27463 0
-758 -27460 0
-759 -27460 0
-27460 -760 27463 0
-27460 -761 0
-27460 -762 0
-27460 -763 0
-27460 -764 0
-27461 -729 0
-737 -27461 0
-744 -27461 0
-750 -27461 0
-755 -27461 0
-759 -27461 0
-762 -27461 0
-764 -27461 0
-765 -27461 0
-27462 -766 27465 0
-775 -27462 27465 0
-783 -27462 27465 0
-790 -27462 27465 0
-796 -27462 27465 0
-801 -27462 0
-805 -27462 0
-808 -27462 27465 0
-810 -27462 0
-27463 -766 27466 0
-27463 -775 27466 0
-27463 -783 27466 0
-27463 -790 27466 0
-27463 -796 27466 0
-801 -27463 27466 0
-805 -27463 27466 0
-27463 -808 0
-810 -27464 0
-27746 27413 0
-27748 27416 0
27749 -131 0
-27750 27419 0
27750 -27419 -27749 0
27751 -176 0
-178 27751 0
-27752 27422 0
-27422 -27751 27752 0
27753 -221 0
-223 27753 0
-27754 27425 0
-27425 -27753 27754 0
-27755 268 233 241 248 263 266 254 259 0
27755 -266 0
27755 -268 0
-27756 27428 0
-27756 27755 0
-27428 -27755 27756 0
-27757 278 311 308 286 304 313 293 299 0
-311 27757 0
-313 27757 0
-27758 27431 0
-27431 -27757 27758 0
-27759 338 356 358 353 323 349 331 344 0
-356 27759 0
-358 27759 0
-27760 27434 0
-27760 27759 0
-27759 -27434 27760 0
368 -27761 401 403 389 398 394 376 383 0
27761 -401 0
-403 27761 0
-27762 27437 0
-27762 27761 0
-27437 -27761 27762 0
-27763 413 448 428 443 439 421 446 434 0
-446 27763 0
-448 27763 0
-27764 27440 0
-27764 27763 0
-27763 -27440 27764 0
-27765 458 493 479 491 466 484 488 473 0
27765 -491 0
27765 -493 0
-27766 27443 0
-27766 27765 0
-27765 -27443 27766 0
-27767 511 503 536 538 533 529 524 518 0
-511 27767 0
-518 27767 0
-524 27767 0
-529 27767 0
-533 27767 0
-536 27767 0
27767 -538 0
-27768 27446 0
-27768 27767 0
-27767 -27446 27768 0
578 -27769 548 581 556 583 563 569 574 0
27769 -581 0
27769 -583 0
-27770 27449 0
-27449 -27769 27770 0
-27771 626 628 608 619 593 601 614 623 0
27771 -626 0
27771 -628 0
-27772 27452 0
-27771 -27452 27772 0
-27773 638 668 673 671 664 653 646 659 0
27773 -671 0
27773 -673 0
-27774 27455 0
-27774 27773 0
-27455 -27773 27774 0
27775 -716 0
-718 27775 0
-27775 -27458 27776 0
-761 27777 0
27777 -763 0
-27777 -27461 27778 0
27779 -808 0
-27464 27780 -27779 0
27750 27748 27752 27754 27756 27758 27760 27762 27764 27766 27768 27770 27772 27774 27776 27778 27780 27746 0
-23985 27782 0
-23986 27783 0
-27782 27783 0
-23987 27784 0
-27783 27784 0
-23988 27785 0
-27784 27785 0
-23989 27786 0
-27785 27786 0
-23990 27787 0
-27786 27787 0
-23991 27788 0
-27787 27788 0
-23992 27789 0
-27788 27789 0
-23993 27790 0
-27789 27790 0
-23994 27791 0
-27790 27791 0
27792 -23995 0
-27791 27792 0
-23996 27793 0
27793 -27792 0
-23997 27794 0
27794 -27793 0
-23998 27795 0
27795 -27794 0
27796 -23999 0
27796 -27795 0
27797 -27796 0
-23988 -27784 0
-23989 -27785 0
-23990 -27786 0
-23991 -27787 0
-23992 -27788 0
-23993 -27789 0
-23994 -27790 0
-27791 -23995 0
-23996 -27792 0
-23997 -27793 0
-23998 -27794 0
-23999 -27795 0
-24000 -27796 0
-24001 -27797 0
-27752 27801 0
-27754 27802 0
-27801 27802 0
-27756 27803 0
-27802 27803 0
-27756 -27802 0
-27758 27804 0
-27803 27804 0
-27803 -27758 0
-27760 27805 0
-27804 27805 0
-27760 -27804 0
-27762 27806 0
-27805 27806 0
-27762 -27805 0
-27764 27807 0
-27806 27807 0
-27764 -27806 0
-27766 27808 0
-27807 27808 0
-27766 -27807 0
-27768 27809 0
-27808 27809 0
-27768 -27808 0
-27770 27810 0
-27809 27810 0
-27770 -27809 0
-27772 27811 0
-27810 27811 0
-27772 -27810 0
-27774 27812 0
-27811 27812 0
-27774 -27811 0
-27776 27813 0
-27812 27813 0
-27812 -27776 0
-27778 27814 0
-27813 27814 0
-27778 -27813 0
-27814 -27780 0
-143 -27422 0
-151 -27422 0
-158 -27422 0
-164 -27422 0
-169 -27422 0
-173 -27422 0
-27425 -188 0
-196 -27425 0
-203 -27425 0
-209 -27425 0
-27425 -214 0
-218 -27425 0
-233 -27428 0
-241 -27428 0
-248 -27428 0
-254 -27428 0
-259 -27428 0
-263 -27428 0
-278 -27431 0
-286 -27431 0
-293 -27431 0
-299 -27431 0
-304 -27431 0
-308 -27431 0
-323 -27434 0
-331 -27434 0
-338 -27434 0
-344 -27434 0
-349 -27434 0
-353 -27434 0
-368 -27437 0
-376 -27437 0
-383 -27437 0
-389 -27437 0
-394 -27437 0
-398 -27437 0
-413 -27440 0
-27440 -421 0
-428 -27440 0
-434 -27440 0
-439 -27440 0
-443 -27440 0
-458 -27443 0
-466 -27443 0
-473 -27443 0
-479 -27443 0
-484 -27443 0
-488 -27443 0
-503 -27446 0
-511 -27446 0
-518 -27446 0
-524 -27446 0
-529 -27446 0
-533 -27446 0
-556 -27449 0
-563 -27449 0
-569 -27449 0
-574 -27449 0
-578 -27449 0
-593 -27452 0
-601 -27452 0
-27452 -608 0
-614 -27452 0
-619 -27452 0
-623 -27452 0
-638 -27455 0
-646 -27455 0
-653 -27455 0
-659 -27455 0
-664 -27455 0
-668 -27455 0
-683 -27458 0
-691 -27458 0
-27458 -698 0
-704 -27458 0
-709 -27458 0
-713 -27458 0
-728 -27461 0
-736 -27461 0
-743 -27461 0
-749 -27461 0
-754 -27461 0
-758 -27461 0
-27815 43 0
27815 -43 -27411 0
-27816 88 0
-88 -27414 27816 0
-27817 133 0
-133 27817 -27417 0
-27818 178 0
-178 -27420 27818 0
-27819 223 0
-223 27819 -27423 0
-27820 27426 0
-27820 268 0
-268 -27426 27820 0
-27821 27429 0
-27821 313 0
-27429 -313 27821 0
-27822 27432 0
-27822 358 0
-358 -27432 27822 0
-27823 27435 0
-27823 403 0
-27435 -403 27823 0
-27824 27438 0
-27824 448 0
-448 -27438 27824 0
-27825 27441 0
-27825 493 0
-493 -27441 27825 0
-27826 27444 0
-27826 538 0
-538 -27444 27826 0
-27827 27447 0
-27827 583 0
-583 27827 -27447 0
-27828 27450 0
-27828 628 0
-628 27828 -27450 0
-27829 27453 0
-27829 673 0
-27830 27456 0
-27831 27459 0
-27832 27462 0
27817 27815 -27833 27822 27816 27818 27819 27820 27824 27825 27827 27823 27826 27821 27828 27829 27830 27831 27832 0
27833 -27815 0
27833 -27816 0
27833 -27817 0
-27818 27833 0
-27819 27833 0
-27820 27833 0
-27821 27833 0
-27822 27833 0
-27823 27833 0
-27824 27833 0
-27825 27833 0
-27826 27833 0
-27827 27833 0
27833 -27428 -266 0
27833 -27431 -311 0
27833 -356 -27434 0
27833 -27437 -401 0
-446 27833 -27440 0
27833 -491 -27443 0
-536 27833 -27446 0
27833 -581 -27449 0
27833 -626 -27452 0
27833 -27455 -671 0
27833 -716 -27458 0
27833 -761 -27461 0
27838 27839 0
27841 27840 0
27875 -27840 0
-27875 -27841 0
27843 27842 0
-27842 27876 0
-27876 -27843 0
27844 27845 0
27877 -27844 0
-27845 -27877 0
27846 27847 0
-27846 27878 0
-27878 -27847 0
27848 27849 0
27879 -27848 0
-27849 -27879 0
27851 27850 0
27880 -27850 0
-27880 -27851 0
27852 27853 0
27854 27855 0
27856 27857 0
27859 27858 0
27860 27861 0
27885 -27860 0
-27861 -27885 0
27863 27862 0
27886 -27862 0
-27886 -27863 0
27864 27865 0
27887 -27864 0
-27887 -27865 0
27867 27866 0
-27866 27888 0
-27888 -27867 0
27868 27869 0
-27870 27890 0
-27890 -27871 0
27834 0
27871 0
-10 -27834 0
-11 -27834 0
-12 -27834 0
-13 -27834 0
-15 -27834 0
-16 -27834 0
27836 -18 -27834 0
27836 -19 -27834 0
27836 -20 -27834 0
27836 -22 -27834 0
27836 -23 -27834 0
27836 -25 -27834 0
27836 -26 -27834 0
27836 -28 -27834 0
27836 -29 -27834 0
27836 -31 -27834 0
27836 -33 -27834 0
27836 -34 -27834 0
27836 -37 -27834 0
27836 -38 -27834 0
27836 -41 -27834 0
27836 -43 -27834 0
27838 -47 -27836 0
27838 -48 -27836 0
27838 -49 -27836 0
27838 -50 -27836 0
-55 -27836 0
-56 -27836 0
-57 -27836 0
-58 -27836 0
-59 -27836 0
-60 -27836 0
-61 -27836 0
-62 -27836 0
27838 -63 -27836 0
-64 27838 -27836 0
-65 27838 -27836 0
-67 27838 -27836 0
27838 -68 -27836 0
27838 -70 -27836 0
-71 27838 -27836 0
-73 27838 -27836 0
27838 -74 -27836 0
-76 27838 -27836 0
27838 -78 -27836 0
27838 -79 -27836 0
-82 27838 -27836 0
-83 27838 -27836 0
27838 -86 -27836 0
27838 -88 -27836 0
-91 27841 -27838 0
-92 -27838 27840 0
-93 -27838 27840 0
-94 -27838 27840 0
-95 -27838 27840 0
-100 -27838 0
-101 -27838 0
-102 -27838 0
-103 -27838 0
-104 -27838 0
-105 -27838 0
-106 -27838 0
-107 -27838 0
-108 27840 -27838 0
-109 27840 -27838 0
-110 27840 -27838 0
-111 27840 -27838 0
-112 27840 -27838 0
-113 27840 -27838 0
-115 27840 -27838 0
-116 27840 -27838 0
-117 27840 -27838 0
-118 27840 -27838 0
-119 27840 -27838 0
-121 27840 -27838 0
-122 27840 -27838 0
-123 27840 -27838 0
-124 27840 -27838 0
-126 27840 -27838 0
-127 27840 -27838 0
-128 27840 -27838 0
-130 27840 -27838 0
27840 -131 -27838 0
-133 27840 -27838 0
27840 -135 -27838 0
-27839 -91 0
-136 -27840 27843 0
-27840 -137 27842 0
-138 -27840 27842 0
-139 -27840 27842 0
-27840 -140 27842 0
-141 -27840 27842 0
-145 -27840 0
-146 -27840 0
-147 -27840 0
-148 -27840 0
-27840 -149 0
-27840 -150 0
-151 -27840 0
-152 -27840 0
-153 -27840 27842 0
-154 -27840 27842 0
-155 -27840 27842 0
-156 -27840 27842 0
-157 -27840 27842 0
-158 -27840 27842 0
-159 -27840 27842 0
-160 -27840 27842 0
-161 -27840 27842 0
-27840 -162 27842 0
-163 -27840 27842 0
-164 -27840 27842 0
-165 -27840 27842 0
-166 -27840 27842 0
-167 -27840 27842 0
-168 -27840 27842 0
-169 -27840 27842 0
-170 -27840 27842 0
-171 -27840 27842 0
-172 -27840 27842 0
-173 -27840 27842 0
-174 -27840 27842 0
-27840 -175 27842 0
-27840 -176 27842 0
-27840 -178 27842 0
-179 -27840 27842 0
-27840 -180 27842 0
-27841 -136 0
-27841 -137 0
-138 -27841 0
-139 -27841 0
-145 -27841 27843 0
-146 -27841 27843 0
-147 -27841 27843 0
-148 -27841 27843 0
-150 -27841 27843 0
-151 -27841 27843 0
-153 -27841 27843 0
-154 -27841 27843 0
-155 -27841 27843 0
-157 -27841 27843 0
-158 -27841 27843 0
-160 -27841 27843 0
-161 -27841 27843 0
-163 -27841 27843 0
-164 -27841 27843 0
-166 -27841 27843 0
-168 -27841 27843 0
-27841 -169 27843 0
-172 -27841 27843 0
-173 -27841 27843 0
-27841 -176 27843 0
-178 -27841 27843 0
-181 -27842 27845 0
-182 -27842 27844 0
27844 -27842 -183 0
-184 -27842 27844 0
-185 -27842 27844 0
-187 27844 -27842 0
-190 -27842 0
-27842 -191 0
-192 -27842 0
-193 -27842 0
-194 -27842 0
-195 -27842 0
-196 -27842 0
-197 -27842 0
-198 -27842 27844 0
-199 27844 -27842 0
-200 27844 -27842 0
-201 27844 -27842 0
-202 27844 -27842 0
-203 27844 -27842 0
-204 27844 -27842 0
-205 -27842 27844 0
-206 -27842 27844 0
-207 27844 -27842 0
-208 27844 -27842 0
-209 27844 -27842 0
-210 27844 -27842 0
-211 27844 -27842 0
-212 27844 -27842 0
-213 27844 -27842 0
-27842 27844 -214 0
-215 27844 -27842 0
-216 27844 -27842 0
-217 27844 -27842 0
-218 27844 -27842 0
27844 -27842 -219 0
27844 -27842 -220 0
27844 -221 -27842 0
-223 27844 -27842 0
-224 27844 -27842 0
-225 27844 -27842 0
-181 -27843 0
-182 -27843 0
-183 -27843 0
-184 -27843 0
-185 -27843 0
-187 -27843 0
-190 -27843 27845 0
27845 -191 -27843 0
-192 -27843 27845 0
-193 -27843 27845 0
-194 -27843 27845 0
-195 -27843 27845 0
-196 -27843 27845 0
-197 -27843 27845 0
-198 -27843 27845 0
-199 -27843 27845 0
-200 -27843 27845 0
-201 -27843 27845 0
-202 -27843 27845 0
-203 -27843 27845 0
-204 -27843 27845 0
-205 -27843 27845 0
-206 -27843 27845 0
-207 -27843 27845 0
-208 -27843 27845 0
-209 -27843 27845 0
-210 -27843 27845 0
-211 -27843 27845 0
-212 -27843 27845 0
-213 -27843 27845 0
-214 -27843 27845 0
-215 -27843 27845 0
-216 -27843 27845 0
-217 -27843 27845 0
-218 -27843 27845 0
-219 -27843 27845 0
-220 -27843 27845 0
-221 -27843 27845 0
-223 -27843 27845 0
-224 -27843 27845 0
-225 -27843 27845 0
27847 -226 -27844 0
-227 27846 -27844 0
-228 27846 -27844 0
-229 27846 -27844 0
-230 27846 -27844 0
-235 -27844 0
-236 -27844 0
-237 -27844 0
-238 -27844 0
-239 -27844 0
-240 -27844 0
-241 -27844 0
-242 -27844 0
-243 27846 -27844 0
-244 27846 -27844 0
-245 27846 -27844 0
-246 27846 -27844 0
-247 27846 -27844 0
-248 27846 -27844 0
-249 27846 -27844 0
-250 27846 -27844 0
-251 27846 -27844 0
-252 27846 -27844 0
-253 27846 -27844 0
-254 27846 -27844 0
-255 27846 -27844 0
-256 27846 -27844 0
-257 27846 -27844 0
-258 27846 -27844 0
-259 27846 -27844 0
-260 27846 -27844 0
-261 27846 -27844 0
-262 27846 -27844 0
-263 27846 -27844 0
-264 27846 -27844 0
-265 27846 -27844 0
-266 27846 -27844 0
-268 27846 -27844 0
-269 27846 -27844 0
-270 27846 -27844 0
-27845 -226 0
-227 -27845 0
-228 -27845 0
-229 -27845 0
-230 -27845 0
-234 -27845 0
-235 27847 -27845 0
-236 27847 -27845 0
27847 -237 -27845 0
-238 27847 -27845 0
-239 -27845 27847 0
-240 27847 -27845 0
-241 27847 -27845 0
-242 27847 -27845 0
-243 27847 -27845 0
-244 27847 -27845 0
-245 27847 -27845 0
-246 -27845 27847 0
-247 27847 -27845 0
-248 27847 -27845 0
-249 27847 -27845 0
-250 27847 -27845 0
-251 27847 -27845 0
-252 -27845 27847 0
-253 27847 -27845 0
-254 27847 -27845 0
-255 27847 -27845 0
-256 27847 -27845 0
-257 -27845 27847 0
-258 27847 -27845 0
-259 27847 -27845 0
-260 27847 -27845 0
-261 -27845 27847 0
-262 27847 -27845 0
-263 27847 -27845 0
-264 27847 -27845 0
-265 -27845 27847 0
-266 -27845 27847 0
-268 27847 -27845 0
-269 27847 -27845 0
27847 -270 -27845 0
-271 -27846 27849 0
27848 -272 -27846 0
27848 -273 -27846 0
-274 27848 -27846 0
27848 -275 -27846 0
-277 27848 -27846 0
-279 27848 -27846 0
-280 -27846 0
-281 -27846 0
-282 -27846 0
-283 -27846 0
-284 -27846 0
-285 -27846 0
-286 -27846 0
-287 -27846 0
27848 -288 -27846 0
27848 -289 -27846 0
-290 27848 -27846 0
27848 -291 -27846 0
-292 27848 -27846 0
-293 27848 -27846 0
-294 27848 -27846 0
-295 27848 -27846 0
-296 27848 -27846 0
-297 27848 -27846 0
-298 27848 -27846 0
-299 27848 -27846 0
-300 27848 -27846 0
-301 27848 -27846 0
-302 27848 -27846 0
-303 27848 -27846 0
-304 27848 -27846 0
-305 27848 -27846 0
-306 27848 -27846 0
-307 27848 -27846 0
27848 -308 -27846 0
-309 27848 -27846 0
27848 -310 -27846 0
27848 -311 -27846 0
27848 -313 -27846 0
27848 -314 -27846 0
27848 -315 -27846 0
-271 -27847 0
-272 -27847 0
-273 -27847 0
-274 -27847 0
-275 -27847 0
-279 -27847 0
-280 27849 -27847 0
-281 27849 -27847 0
-282 27849 -27847 0
-283 27849 -27847 0
-284 27849 -27847 0
-285 27849 -27847 0
-286 27849 -27847 0
-287 27849 -27847 0
-288 27849 -27847 0
27849 -289 -27847 0
-290 27849 -27847 0
-291 27849 -27847 0
-292 27849 -27847 0
-293 27849 -27847 0
-294 27849 -27847 0
-295 27849 -27847 0
-296 27849 -27847 0
-297 27849 -27847 0
-298 27849 -27847 0
-299 27849 -27847 0
-300 27849 -27847 0
-301 27849 -27847 0
-302 27849 -27847 0
-303 27849 -27847 0
-304 27849 -27847 0
-305 27849 -27847 0
-306 27849 -27847 0
-307 27849 -27847 0
-308 27849 -27847 0
-309 27849 -27847 0
27849 -310 -27847 0
27849 -311 -27847 0
27849 -313 -27847 0
-314 27849 -27847 0
27849 -315 -27847 0
-316 27851 -27848 0
-320 27850 -27848 0
-325 -27848 0
-326 -27848 0
-327 -27848 0
-328 -27848 0
-329 -27848 0
-330 -27848 0
-331 -27848 0
-333 27850 -27848 0
-334 27850 -27848 0
-335 27850 -27848 0
-336 27850 -27848 0
-337 27850 -27848 0
-340 27850 -27848 0
-341 27850 -27848 0
-342 27850 -27848 0
-343 27850 -27848 0
-346 27850 -27848 0
-347 27850 -27848 0
-348 27850 -27848 0
-351 27850 -27848 0
-353 27850 -27848 0
-355 27850 -27848 0
27850 -27848 -356 0
27850 -358 -27848 0
27850 -360 -27848 0
-316 -27849 0
-317 -27849 0
-318 -27849 0
-319 -27849 0
-320 -27849 0
-328 27851 -27849 0
-330 27851 -27849 0
-346 27851 -27849 0
-353 27851 -27849 0
-27850 -370 0
-372 -27850 0
-27850 -373 0
-374 -27850 0
-375 -27850 0
-27851 -361 0
-364 -27851 0
-365 -27851 0
-372 -27851 27853 0
27853 -373 -27851 0
-410 27854 -27852 0
-27853 -406 0
-27853 -410 0
-27854 -452 27856 0
-488 -27854 27856 0
-27855 -452 0
27858 -497 -27856 0
-532 -27856 27858 0
-536 -27856 27858 0
-538 -27856 27858 0
-496 -27857 0
-27857 -497 0
-541 27861 -27858 0
-543 27860 -27858 0
-544 27860 -27858 0
27860 -545 -27858 0
-550 -27858 0
-551 -27858 0
-552 -27858 0
-553 -27858 0
-554 -27858 0
-555 -27858 0
-556 -27858 0
-558 27860 -27858 0
-562 27860 -27858 0
-563 27860 -27858 0
-564 27860 -27858 0
-565 27860 -27858 0
-566 27860 -27858 0
-567 27860 -27858 0
-568 27860 -27858 0
-569 27860 -27858 0
-570 27860 -27858 0
-571 27860 -27858 0
-572 27860 -27858 0
-573 27860 -27858 0
-574 27860 -27858 0
-576 27860 -27858 0
-577 27860 -27858 0
-578 27860 -27858 0
-579 27860 -27858 0
27860 -580 -27858 0
27860 -581 -27858 0
27860 -583 -27858 0
27860 -585 -27858 0
-541 -27859 0
-542 -27859 0
-543 -27859 0
-544 -27859 0
-545 -27859 0
-550 27861 -27859 0
-551 27861 -27859 0
-552 27861 -27859 0
-553 27861 -27859 0
-554 27861 -27859 0
-555 27861 -27859 0
-586 27863 -27860 0
-607 27862 -27860 0
-609 27862 -27860 0
-613 27862 -27860 0
-614 -27860 27862 0
-27860 -617 27862 0
-618 27862 -27860 0
-619 -27860 27862 0
-622 27862 -27860 0
-623 -27860 27862 0
27862 -27860 -625 0
-27860 -626 27862 0
-27860 -630 27862 0
-27861 -586 0
-587 -27861 0
-588 -27861 0
-589 -27861 0
-590 -27861 0
-27861 -591 0
-593 -27861 0
-27862 -631 27865 0
-27862 -640 0
-641 -27862 0
-642 -27862 0
-643 -27862 0
-644 -27862 0
-645 -27862 0
-27862 -646 0
-27862 -670 27864 0
-27862 -671 27864 0
-631 -27863 0
-640 -27863 27865 0
-641 -27863 27865 0
-642 -27863 27865 0
-643 -27863 27865 0
27867 -27864 -676 0
-677 -27864 27866 0
-678 -27864 27866 0
-679 -27864 27866 0
-680 -27864 27866 0
-681 -27864 27866 0
-682 -27864 27866 0
-683 -27864 27866 0
-685 -27864 0
-686 -27864 0
-687 -27864 0
-688 -27864 0
-689 -27864 0
-690 -27864 0
-691 -27864 0
-692 -27864 0
-693 -27864 27866 0
-694 -27864 27866 0
-695 -27864 27866 0
-696 -27864 27866 0
-697 -27864 27866 0
-27864 -698 27866 0
-700 -27864 27866 0
-701 -27864 27866 0
-702 -27864 27866 0
-703 -27864 27866 0
-704 -27864 27866 0
-705 -27864 27866 0
-706 -27864 27866 0
-707 -27864 27866 0
-708 -27864 27866 0
-710 -27864 27866 0
-711 -27864 27866 0
-712 -27864 27866 0
-715 27866 -27864 0
-716 27866 -27864 0
-718 -27864 27866 0
-720 27866 -27864 0
-27865 -676 0
-677 -27865 0
-678 -27865 0
-679 -27865 0
-680 -27865 0
-681 -27865 0
-682 -27865 0
-683 -27865 0
-684 -27865 0
-685 -27865 27867 0
-686 -27865 27867 0
-687 -27865 27867 0
-688 -27865 27867 0
-689 -27865 27867 0
-690 -27865 27867 0
-691 -27865 27867 0
-692 -27865 27867 0
-693 -27865 27867 0
-694 -27865 27867 0
-695 -27865 27867 0
-696 -27865 27867 0
-697 -27865 27867 0
-699 -27865 27867 0
-700 -27865 27867 0
-701 -27865 27867 0
-702 -27865 27867 0
-703 -27865 27867 0
-704 -27865 27867 0
-705 -27865 27867 0
-706 -27865 27867 0
-707 -27865 27867 0
-708 -27865 27867 0
-709 -27865 27867 0
-710 -27865 27867 0
-711 -27865 27867 0
-712 -27865 27867 0
-713 -27865 27867 0
-714 -27865 27867 0
-27865 -715 27867 0
-27865 -716 27867 0
-27865 -718 27867 0
-27865 -720 27867 0
-721 -27866 27869 0
-722 -27866 27868 0
-723 -27866 27868 0
-724 -27866 27868 0
-725 -27866 27868 0
-27866 -730 0
-731 -27866 0
-732 -27866 0
-27866 -733 0
-734 -27866 0
-735 -27866 0
-27866 -736 0
-737 -27866 0
-738 -27866 27868 0
-739 -27866 27868 0
-740 -27866 27868 0
-741 -27866 27868 0
-742 -27866 27868 0
-743 -27866 27868 0
-744 -27866 27868 0
-745 -27866 27868 0
-746 -27866 27868 0
-747 -27866 27868 0
-748 -27866 27868 0
-749 -27866 27868 0
-750 -27866 27868 0
-751 -27866 27868 0
-752 -27866 27868 0
-753 -27866 27868 0
-754 -27866 27868 0
-755 -27866 27868 0
-756 -27866 27868 0
-757 -27866 27868 0
-759 -27866 27868 0
-760 -27866 27868 0
-761 -27866 27868 0
-763 -27866 27868 0
-765 -27866 27868 0
-721 -27867 0
-722 -27867 0
-723 -27867 0
-724 -27867 0
-725 -27867 0
-726 -27867 0
-727 -27867 0
-728 -27867 0
-730 -27867 27869 0
-27868 -775 0
-27868 -783 27870 0
-27868 -790 27870 0
-27868 -796 27870 0
-27868 -801 27870 0
-27868 -805 27870 0
-27868 -808 27870 0
-27869 -766 0
17075 28352 -730 0
17075 -738 28352 0
17076 28352 -738 0
-28352 -746 -17076 -17078 2116 2118 0
-28352 -753 -17080 -17077 2117 2120 0
-28352 -763 2121 -17080 2120 -17081 0
28353 -783 17085 0
17086 28353 -783 0
-28353 -796 2128 -17087 -17088 2127 0
2129 -801 -28353 -17088 -17089 2128 0
2129 -805 -28353 -17090 -17089 2130 0
-91 28629 17443 0
-92 28629 17443 0
-93 28629 17443 0
-94 28629 17443 0
-95 28629 17443 0
29449 -775 21674 0
2129 -801 -29449 -21679 -21678 2128 0
-460 30007 22454 0
-460 22455 30007 0
-30007 -22458 -488 -22461 2058 2061 0
-505 22634 30094 0
-521 -30094 -22636 -22638 2066 2068 0
-30094 -22640 2070 -538 -22641 2071 0
30100 -775 22694 0
-30100 -808 2130 -22701 -22700 2131 0
-147 -23067 -30737 -23064 2154 2157 0
-154 -23067 2157 -30737 2155 -23065 0
-160 -23067 -30737 -23066 2156 2157 0
-168 -23070 2157 -30737 -23067 2160 0
30737 -2158 -173 0
-76 30872 -2308 0
-30872 -78 -23050 2310 2307 -23047 0
30872 -83 -2308 0
-30872 -88 2310 -23050 -23051 2311 0
33148 20314 -775 0
-33148 -796 3488 -20318 -20317 3487 0
33834 -49 22533 0
-71 -22538 -33834 -22536 3326 3328 0
34199 23263 -275 0
-34199 -23270 -313 -23271 3381 3380 0
34203 23303 -451 0
-488 -34203 -23308 3418 -23311 3421 0
34296 -18 0
34297 -64 -3665 0
34297 -67 -3665 0
34298 -108 -3675 0
34298 -109 -3675 0
-3677 -109 34298 0
34298 -112 -3675 0
-3676 34298 -115 0
-3677 34298 -115 0
-115 -34298 -23397 -23396 3676 3677 0
-3676 -118 34298 0
-3677 34298 -121 0
-3683 34299 -137 0
34299 -3685 -137 0
-3686 34299 -138 0
-3687 34299 -139 0
-3686 34299 -153 0
-154 34299 -3685 0
-154 -3687 34299 0
-3686 -160 34299 0
-3687 -160 34299 0
-161 -3686 34299 0
-3686 -163 34299 0
-3687 34299 -166 0
-3690 34299 -172 0
-3696 34300 -183 0
-3697 34300 -184 0
-3696 -198 34300 0
-199 -3697 34300 0
34300 -200 -3695 0
-205 -3696 34300 0
-205 -3697 34300 0
-206 -3696 34300 0
-208 -3696 34300 0
-3697 34300 -211 0
-3700 34300 -213 0
-3700 34300 -217 0
-3706 34301 -228 0
-3707 34301 -229 0
-236 -3706 34301 0
-3707 34301 -237 0
-3706 34301 -243 0
-244 -3707 34301 0
-250 -3706 34301 0
-250 -3707 34301 0
-251 -3706 34301 0
-253 -3706 34301 0
-3707 34301 -256 0
34301 -3710 -258 0
-3708 34301 -262 0
34301 -3710 -262 0
-3708 34301 -263 0
-3716 34302 -273 0
-3717 34302 -274 0
-281 -3716 34302 0
-282 -3717 34302 0
-3716 34302 -288 0
-3717 34302 -289 0
-295 -3716 34302 0
-295 -3717 34302 0
-296 -3716 34302 0
-3716 34302 -298 0
-3717 34302 -301 0
34302 -3720 -303 0
-3718 34302 -307 0
-3718 34302 -308 0
34302 -3720 -313 0
34302 -3721 -313 0
-3726 34303 -318 0
-3727 34303 -319 0
-326 -3726 34303 0
-327 -3727 34303 0
-3726 34303 -333 0
-334 -3727 34303 0
-340 -3726 34303 0
-340 -3727 34303 0
-3726 34303 -341 0
-343 -3726 34303 0
-3727 34303 -346 0
34303 -3730 -348 0
-3728 34303 -352 0
-3728 34303 -353 0
34303 -3730 -358 0
34304 -3736 -363 0
34304 -3736 -371 0
34304 -376 -3741 0
34304 -3736 -378 0
-385 34304 -3736 0
-386 34304 -3736 0
-388 34304 -3736 0
-3737 -391 34304 0
34304 -3740 -393 0
34304 -3738 -397 0
34304 -398 -3741 0
34304 -3740 -403 0
34304 -3741 -403 0
34305 -3746 -408 0
-416 34305 -3746 0
-423 34305 -3746 0
-430 34305 -3746 0
-431 34305 -3746 0
-433 34305 -3746 0
34305 -446 -3751 0
34305 -3750 -448 0
34305 -448 -3751 0
-461 34306 -3756 0
-467 34306 -3762 0
34306 -3756 -468 0
-3756 -475 34306 0
-476 -3756 34306 0
34306 -478 -3756 0
34306 -3757 -483 0
34306 -3761 -491 0
-3760 34306 -493 0
34306 -493 -3761 0
34306 -495 -3762 0
34307 -536 -3771 0
34307 -540 -3772 0
34308 -581 -3781 0
34308 -585 -3782 0
34309 -3791 -626 0
34309 -630 -3792 0
34310 -3801 -671 0
34314 -34296 0
34320 -34297 0
34320 -34314 0
34326 -34298 0
34326 -34320 0
34327 -34320 -34298 0
34332 -34299 0
34332 -34326 0
-34327 34333 0
34333 -34299 -34326 0
34338 -34332 0
-34333 34339 0
34339 -34300 -34332 0
-34333 34340 -34300 0
34344 -34338 0
-34339 34345 0
-34340 34346 0
34345 -34301 -34338 0
-34339 34346 -34301 0
34350 -34344 0
34351 -34345 0
-34346 34352 0
34351 -34302 -34344 0
34352 -34345 -34302 0
-34346 34353 -34302 0
34356 -34350 0
34357 -34351 0
34358 -34352 0
-34353 34359 0
34357 -34303 -34350 0
34358 -34303 -34351 0
34359 -34303 -34352 0
34363 -34357 0
34364 -34358 0
-34359 34365 0
34363 -34304 -34356 0
34364 -34304 -34357 0
34365 -34304 -34358 0
34370 -34364 0
-34365 34371 0
34370 -34305 -34363 0
34371 -34305 -34364 0
-34371 34377 0
34377 -34370 -34306 0
-34371 34378 -34306 0
-34377 34383 0
-34377 34384 -34307 0
-34378 -34307 34385 0
-34383 34390 -34308 0
-34384 -34308 34391 0
-34390 -34309 34397 0
-34385 -34308 0
-34391 -34309 0
-34397 -34310 0
34690 -18 0
34690 -33 0
-34690 -41 0
34691 -64 -4175 0
4177 -70 -23387 -34691 4176 -23386 0
34691 -79 -4177 0
34692 -108 -4185 0
34692 -109 -4185 0
-4218 34695 -262 0
-4218 34695 -263 0
34696 -4231 -313 0
34697 -4240 -352 0
34698 -4251 -401 0
34699 -4262 -450 0
34700 -4271 -491 0
34701 -4280 -535 0
-34707 4336 -783 4335 -23545 -23546 0
-34707 -790 4337 -23547 4336 -23546 0
-34707 -796 -23548 4338 -23547 4337 0
-4339 -805 34707 0
-4340 -805 34707 0
34708 -34690 0
34716 -34708 0
34717 -34708 -34691 0
34725 -34717 0
34725 -34716 -34692 0
34733 -34725 0
34741 -34733 0
34750 -34695 -34741 0
-34750 34759 -34696 0
-34759 34768 -34697 0
-34768 34777 -34698 0
-34777 34786 -34699 0
-34786 -34700 34795 0
-34795 -34701 0
36265 -26 0
36267 -121 -5038 0
-5078 36271 -308 0
-5088 36272 -353 0
36273 -5098 -398 0
-5108 36274 -443 0
36275 -5119 -491 0
36276 -540 -5132 0
36277 -581 -5141 0
36278 -5149 -599 0
36278 -5149 -606 0
36278 -5149 -612 0
36278 -5149 -617 0
36278 -5149 -625 0
36283 -36265 0
36289 -36283 0
36296 -36267 -36289 0
36302 -36296 0
36308 -36302 0
36314 -36308 0
36320 -36314 0
36321 -36271 -36314 0
36326 -36320 0
36327 -36321 0
36327 -36272 -36320 0
36332 -36326 0
36333 -36327 0
36333 -36273 -36326 0
36339 -36333 0
36339 -36274 -36332 0
36346 -36275 -36339 0
-36346 36353 -36276 0
-36353 -36277 36360 0
-36360 -36278 0
36385 -19 0
36385 -25 0
36385 -31 0
36385 -34 0
-64 36386 -5367 0
36386 -70 -5367 0
36386 -76 -5367 0
36386 -83 -5368 0
36387 -94 -5377 0
36387 -95 -5378 0
-109 36387 -5377 0
36387 -110 -5378 0
-5376 36387 -115 0
36387 -115 -5377 0
36387 -121 -5377 0
36387 -121 -5378 0
36387 -128 -5378 0
36387 -131 -5379 0
36388 -139 -5387 0
36388 -147 -5387 0
-5385 -153 36388 0
-154 36388 -5387 0
-156 36388 -5389 0
-160 36388 -5387 0
36388 -5389 -162 0
36388 -166 -5387 0
36388 -171 -5389 0
36388 -5388 -173 0
36388 -5389 -175 0
36388 -176 -5389 0
36388 -176 -5391 0
36389 -5397 -184 0
-192 36389 -5397 0
-199 36389 -5397 0
-205 36389 -5397 0
36389 -211 -5397 0
-213 36389 -5397 0
36389 -5397 -214 0
-5398 36389 -218 0
36389 -5399 -220 0
36389 -5399 -221 0
-5407 36390 -229 0
-230 -5408 36390 0
-5407 36390 -237 0
-5408 36390 -238 0
-244 -5407 36390 0
-245 -5408 36390 0
-246 36390 -5409 0
-250 -5407 36390 0
-251 -5408 36390 0
-252 36390 -5409 0
-256 -5407 36390 0
-256 -5408 36390 0
-257 36390 -5409 0
-258 -5407 36390 0
-5407 36390 -259 0
36390 -261 -5409 0
-5408 -263 36390 0
36390 -5409 -265 0
36390 -5409 -266 0
36390 -5410 -268 0
-5417 36391 -274 0
-282 -5417 36391 0
-283 -5418 36391 0
-284 36391 -5419 0
-5417 36391 -289 0
-290 -5418 36391 0
36391 -291 -5419 0
-295 -5417 36391 0
-296 -5418 36391 0
-297 36391 -5419 0
-301 -5417 36391 0
-302 36391 -5419 0
-306 36391 -5419 0
-5418 36391 -308 0
36391 -5419 -310 0
36391 -5420 -310 0
36391 -5419 -311 0
-319 -5427 36392 0
-327 -5427 36392 0
-334 -5427 36392 0
-340 -5427 36392 0
-346 -5427 36392 0
-5428 -346 36392 0
36392 -5427 -348 0
-5428 36392 -353 0
36392 -355 -5429 0
-5430 36392 -355 0
36392 -5429 -356 0
36392 -358 -5431 0
36392 -360 -5432 0
-5438 36393 -365 0
-5438 36393 -373 0
-380 -5438 36393 0
-386 -5438 36393 0
-391 36393 -5437 0
-5438 -391 36393 0
-5438 36393 -398 0
36393 -398 -5441 0
36393 -400 -5439 0
36393 -5439 -401 0
36393 -5441 -401 0
36393 -5440 -403 0
36393 -403 -5441 0
36393 -405 -5442 0
-5448 36394 -443 0
36394 -445 -5449 0
36394 -446 -5451 0
36394 -448 -5451 0
36394 -5451 -450 0
36394 -450 -5452 0
-465 36395 -5460 0
-472 36395 -5460 0
-478 36395 -5460 0
36395 -5460 -483 0
-487 36395 -5460 0
36395 -5459 -490 0
36395 -5460 -490 0
36395 -5459 -491 0
36395 -491 -5461 0
36395 -493 -5461 0
36395 -495 -5462 0
-510 36396 -5470 0
-517 36396 -5470 0
-523 36396 -5470 0
-528 36396 -5470 0
-5468 -532 36396 0
-532 36396 -5470 0
36396 -535 -5469 0
36396 -5470 -535 0
36396 -536 -5469 0
36396 -536 -5471 0
36396 -538 -5471 0
36396 -540 -5472 0
-554 36397 -5479 0
-555 36397 -5480 0
-561 36397 -5479 0
-562 36397 -5480 0
-567 36397 -5479 0
-568 36397 -5480 0
-572 36397 -5479 0
-573 36397 -5480 0
-576 36397 -5479 0
-577 36397 -5480 0
36397 -580 -5479 0
36397 -5480 -580 0
36397 -581 -5481 0
36397 -583 -5481 0
36397 -585 -5482 0
36398 -600 -5490 0
-607 -5490 36398 0
-613 -5490 36398 0
36398 -618 -5490 0
-622 -5490 36398 0
36398 -5489 -625 0
36398 -5490 -625 0
36398 -626 -5491 0
36398 -628 -5491 0
36398 -630 -5492 0
-645 36399 -5500 0
-652 36399 -5500 0
-658 36399 -5500 0
-663 36399 -5500 0
-5500 -667 36399 0
-5499 36399 -670 0
36399 -5500 -670 0
36399 -673 -5501 0
36399 -675 -5501 0
36399 -675 -5502 0
-5510 -690 36400 0
-5510 36400 -697 0
-703 -5510 36400 0
-708 -5510 36400 0
-712 -5510 36400 0
-5510 36400 -715 0
36400 -5510 -718 0
36400 -718 -5511 0
36400 -720 -5511 0
36401 -735 -5520 0
36401 -742 -5520 0
36401 -753 -5520 0
-5518 -757 36401 0
-5520 -757 36401 0
-5519 36401 -760 0
36401 -5520 -760 0
36401 -5520 -763 0
36401 -763 -5521 0
-5529 36402 -805 0
36402 -805 -5530 0
36403 -36385 0
36409 -36386 0
36409 -36403 0
36410 -36386 -36403 0
36415 -36387 0
36415 -36409 0
36416 -36410 0
36416 -36387 -36409 0
36417 -36410 -36387 0
36421 -36388 0
36421 -36415 0
36422 -36416 0
36422 -36388 -36415 0
36423 -36388 -36416 0
-36417 36424 -36388 0
36427 -36389 0
36427 -36421 0
36428 -36422 0
-36424 36430 0
36428 -36389 -36421 0
36429 -36389 -36422 0
-36423 36430 -36389 0
36433 -36390 0
36433 -36427 0
36434 -36428 0
36435 -36429 0
-36430 36436 0
36434 -36390 -36427 0
36435 -36390 -36428 0
36436 -36429 -36390 0
36439 -36391 0
36439 -36433 0
36440 -36434 0
36441 -36435 0
36442 -36436 0
36440 -36391 -36433 0
36441 -36391 -36434 0
36442 -36391 -36435 0
36443 -36436 -36391 0
36445 -36392 0
36445 -36439 0
36446 -36440 0
36447 -36441 0
36448 -36442 0
36449 -36443 0
36446 -36392 -36439 0
36447 -36392 -36440 0
36448 -36392 -36441 0
36449 -36392 -36442 0
36451 -36393 0
36451 -36445 0
36452 -36446 0
36453 -36447 0
36454 -36448 0
-36449 36455 0
36452 -36393 -36445 0
36453 -36393 -36446 0
36454 -36393 -36447 0
36455 -36393 -36448 0
-36449 -36393 36456 0
36458 -36452 0
36459 -36453 0
36460 -36454 0
-36455 36461 0
36458 -36394 -36451 0
36459 -36394 -36452 0
36460 -36394 -36453 0
36461 -36394 -36454 0
-36455 -36394 36462 0
36464 -36458 0
36465 -36459 0
36466 -36460 0
36467 -36461 0
-36462 36468 0
36465 -36395 -36458 0
36466 -36395 -36459 0
36467 -36460 -36395 0
-36461 -36395 36468 0
36472 -36466 0
36473 -36467 0
-36468 36474 0
36471 -36396 -36464 0
36472 -36465 -36396 0
36473 -36466 -36396 0
-36467 -36396 36474 0
36478 -36472 0
36479 -36473 0
-36474 36480 0
36478 -36397 -36471 0
36479 -36397 -36472 0
-36473 -36397 36480 0
36484 -36478 0
-36480 36486 0
36485 -36398 -36478 0
-36479 -36398 36486 0
36490 -36484 0
-36486 36492 0
36491 -36399 -36484 0
-36485 -36399 36492 0
-36492 36498 0
-36490 -36400 36497 0
-36491 -36400 36498 0
-36498 36504 0
-36497 -36401 36504 0
-36456 -36394 0
-36462 -36395 0
-36468 -36396 0
-36474 -36397 0
-36480 -36398 0
-36486 -36399 0
-36492 -36400 0
-36498 -36401 0
-36504 -36402 0
36664 -6428 -262 0
36665 -6440 -303 0
36668 -6470 -448 0
36671 -581 -6499 0
36672 -630 -6512 0
36673 -671 -6521 0
-6529 36674 -715 0
36684 -36660 0
36691 -36684 0
36698 -36691 0
36705 -36698 0
36713 -36664 -36705 0
36721 -36665 -36713 0
36728 -36721 0
36735 -36728 0
36743 -36668 -36735 0
36750 -36743 0
36757 -36750 0
36765 -36671 -36757 0
-36765 36773 -36672 0
-36773 -36673 36781 0
-36781 -36674 0
37071 -49 23213 0
-65 -23215 -37071 -23218 8595 8598 0
-37224 -19 0
37224 -22 0
37224 -28 0
-37224 -31 0
37224 -33 0
-37224 -34 0
37224 -37 0
37224 -41 0
37224 -43 0
-67 37225 -8600 0
37225 -68 -8601 0
-73 37225 -8600 0
37225 -74 -8601 0
-76 -37225 -23388 -23387 8597 8598 0
37225 -78 -8600 0
-79 -37225 -23391 8601 -23387 8597 0
37225 -82 -8600 0
37225 -83 -8601 0
-37225 -83 8598 8601 -23391 -23388 0
37225 -88 -8600 0
37226 -112 -8610 0
-113 37226 -8611 0
37226 -118 -8610 0
-119 37226 -8611 0
-37226 -121 8607 -23398 8608 -23397 0
-123 37226 -8610 0
-124 37226 -8611 0
37226 -127 -8610 0
37226 -128 -8611 0
-37226 -128 8608 -23401 8611 -23398 0
37226 -133 -8610 0
37226 -133 -8611 0
37227 -8620 -150 0
-157 37227 -8620 0
37227 -158 -8621 0
-163 37227 -8620 0
-164 37227 -8621 0
-168 37227 -8620 0
37227 -169 -8621 0
8621 -37227 -169 -23407 8617 -23411 0
37227 -8620 -172 0
-8618 37227 -173 0
37227 -173 -8621 0
8618 -23408 -37227 -23411 8621 -173 0
37227 -176 -8619 0
37227 -8620 -178 0
37227 -178 -8621 0
-195 37228 -8630 0
37228 -196 -8631 0
37228 -201 -8629 0
-202 37228 -8630 0
37228 -203 -8631 0
37228 -207 -8629 0
-208 37228 -8630 0
-209 37228 -8631 0
37228 -212 -8629 0
37228 -213 -8630 0
37228 -8631 -214 0
37228 -217 -8630 0
37228 -218 -8631 0
37228 -8629 -220 0
37228 -8629 -221 0
37228 -8630 -223 0
37228 -223 -8631 0
-239 37229 -8639 0
-240 -8640 37229 0
37229 -241 -8641 0
-246 37229 -8639 0
-247 -8640 37229 0
-248 37229 -8641 0
-252 37229 -8639 0
-253 -8640 37229 0
37229 -254 -8641 0
-257 37229 -8639 0
-8637 -258 37229 0
-258 -8640 37229 0
-259 37229 -8641 0
-261 37229 -8639 0
-262 -8640 37229 0
37229 -263 -8641 0
37229 -8639 -265 0
-8640 37229 -265 0
37229 -8639 -266 0
37229 -266 -8641 0
37229 -8640 -268 0
37229 -268 -8641 0
37229 -8641 -270 0
-284 37230 -8649 0
-285 -8650 37230 0
-286 37230 -8651 0
37230 -291 -8649 0
-292 -8650 37230 0
-293 37230 -8651 0
-297 37230 -8649 0
-298 -8650 37230 0
-299 37230 -8651 0
-302 37230 -8649 0
-8650 -303 37230 0
37230 -304 -8651 0
-306 37230 -8649 0
-307 -8650 37230 0
37230 -308 -8651 0
37230 -8649 -310 0
37230 -8650 -310 0
37230 -8649 -311 0
37230 -8651 -311 0
-8650 37230 -313 0
37230 -8651 -313 0
37231 -329 -8659 0
-330 37231 -8660 0
-331 37231 -8661 0
-336 37231 -8659 0
-337 37231 -8660 0
37231 -338 -8661 0
-342 37231 -8659 0
-343 37231 -8660 0
37231 -344 -8661 0
37231 -347 -8659 0
37231 -8660 -348 0
37231 -349 -8661 0
-351 37231 -8659 0
-8658 37231 -352 0
37231 -8660 -352 0
37231 -353 -8661 0
37231 -355 -8659 0
37231 -8659 -356 0
37231 -356 -8661 0
37231 -8660 -358 0
37231 -358 -8661 0
37231 -360 -8662 0
-374 37232 -8669 0
37232 -375 -8670 0
-376 37232 -8671 0
-381 37232 -8669 0
-382 37232 -8670 0
-383 37232 -8671 0
-387 37232 -8669 0
-388 37232 -8670 0
-389 37232 -8671 0
37232 -392 -8669 0
-393 37232 -8670 0
-394 37232 -8671 0
37232 -396 -8669 0
-8668 37232 -397 0
37232 -8670 -397 0
-398 37232 -8671 0
37232 -400 -8669 0
37232 -8669 -401 0
37232 -8671 -401 0
37232 -8670 -403 0
37232 -403 -8671 0
37232 -405 -8672 0
-419 -8679 37233 0
-420 -8680 37233 0
37233 -421 -8681 0
-426 -8679 37233 0
-427 -8680 37233 0
37233 -428 -8681 0
-432 -8679 37233 0
-433 -8680 37233 0
-434 37233 -8681 0
-437 -8679 37233 0
-438 -8680 37233 0
-439 37233 -8681 0
-441 -8679 37233 0
-442 -8680 37233 0
37233 -443 -8681 0
37233 -445 -8679 0
37233 -446 -8679 0
37233 -446 -8681 0
-8680 37233 -448 0
37233 -448 -8681 0
37233 -8681 -450 0
37233 -450 -8682 0
-464 37234 -8689 0
-465 37234 -8690 0
-466 37234 -8691 0
-471 37234 -8689 0
-472 37234 -8690 0
-473 37234 -8691 0
-477 37234 -8689 0
-478 37234 -8690 0
-479 37234 -8691 0
37234 -482 -8689 0
37234 -483 -8690 0
-484 37234 -8691 0
37234 -486 -8689 0
-487 37234 -8690 0
-488 37234 -8691 0
37234 -8689 -490 0
37234 -8689 -491 0
37234 -491 -8691 0
37234 -493 -8690 0
37234 -493 -8691 0
37234 -495 -8692 0
37235 -8699 -509 0
37235 -511 -8701 0
-516 37235 -8699 0
-518 37235 -8701 0
-522 37235 -8699 0
-524 37235 -8701 0
-527 37235 -8699 0
-529 37235 -8701 0
-531 37235 -8699 0
-532 37235 -8700 0
-533 37235 -8701 0
37235 -535 -8699 0
37235 -8700 -535 0
37235 -536 -8699 0
37235 -536 -8701 0
37235 -538 -8700 0
37235 -538 -8701 0
37235 -540 -8701 0
37235 -540 -8702 0
-554 -8709 37236 0
-561 -8709 37236 0
-567 -8709 37236 0
-572 -8709 37236 0
-576 -8709 37236 0
37236 -580 -8709 0
37236 -581 -8709 0
37236 -581 -8711 0
37236 -583 -8711 0
37236 -585 -8711 0
37236 -585 -8712 0
-593 37237 -8721 0
37237 -599 -8719 0
-600 -8720 37237 0
-601 37237 -8721 0
-606 -8719 37237 0
-607 -8720 37237 0
-612 -8719 37237 0
-613 -8720 37237 0
-614 37237 -8721 0
37237 -8719 -617 0
37237 -618 -8720 0
-619 37237 -8721 0
37237 -621 -8719 0
-622 -8720 37237 0
-623 37237 -8721 0
37237 -8719 -625 0
37237 -8720 -625 0
37237 -626 -8721 0
37237 -628 -8721 0
37237 -630 -8721 0
-644 -8729 37238 0
-645 -8730 37238 0
-651 -8729 37238 0
-652 -8730 37238 0
-8729 -657 37238 0
-658 -8730 37238 0
-8729 -662 37238 0
-663 -8730 37238 0
-666 -8729 37238 0
37238 -667 -8730 0
-8729 37238 -670 0
-8730 37238 -670 0
37238 -671 -8731 0
37238 -673 -8731 0
37238 -675 -8731 0
37238 -675 -8732 0
-681 -8739 37239 0
-8739 37239 -689 0
37239 -690 -8740 0
-8739 37239 -696 0
-8740 37239 -697 0
-702 -8739 37239 0
-703 -8740 37239 0
-707 -8739 37239 0
-708 -8740 37239 0
-711 -8739 37239 0
37239 -712 -8740 0
-8739 37239 -715 0
37239 -8740 -715 0
37239 -716 -8741 0
37239 -718 -8741 0
37239 -720 -8742 0
-8749 37240 -734 0
37240 -735 -8750 0
-8749 -741 37240 0
37240 -742 -8750 0
-8749 37240 -747 0
-752 -8749 37240 0
37240 -753 -8750 0
-756 -8749 37240 0
37240 -757 -8750 0
-8749 37240 -760 0
37240 -760 -8750 0
37240 -761 -8751 0
37240 -763 -8751 0
-37241 -775 8755 -23545 -23544 8754 0
-8759 37241 -805 0
37241 -805 -8760 0
37242 -37224 0
37248 -37225 0
37248 -37242 0
37249 -37225 -37242 0
37254 -37226 0
37254 -37248 0
37255 -37249 0
37255 -37226 -37248 0
37256 -37249 -37226 0
37260 -37227 0
37260 -37254 0
37261 -37255 0
-37256 37262 0
37261 -37227 -37254 0
37262 -37227 -37255 0
-37256 37263 -37227 0
37266 -37228 0
37266 -37260 0
37267 -37261 0
-37262 37268 0
-37263 37269 0
37267 -37228 -37260 0
37268 -37228 -37261 0
37269 -37262 -37228 0
-37263 -37228 37270 0
37272 -37229 0
37272 -37266 0
37273 -37267 0
37274 -37268 0
-37269 37275 0
-37270 37276 0
37273 -37229 -37266 0
37274 -37229 -37267 0
37275 -37268 -37229 0
-37269 -37229 37276 0
37278 -37230 0
37278 -37272 0
37279 -37273 0
37280 -37274 0
37281 -37275 0
-37276 37282 0
37279 -37230 -37272 0
37280 -37230 -37273 0
37281 -37230 -37274 0
-37275 -37230 37282 0
37284 -37231 0
37284 -37278 0
37285 -37279 0
37286 -37280 0
37287 -37281 0
-37282 37288 0
37285 -37231 -37278 0
37286 -37231 -37279 0
37287 -37231 -37280 0
-37231 -37281 37288 0
-37231 -37282 37289 0
37290 -37232 0
37290 -37284 0
37291 -37285 0
37292 -37286 0
37293 -37287 0
-37288 37294 0
37291 -37232 -37284 0
37292 -37232 -37285 0
37293 -37232 -37286 0
-37232 -37287 37294 0
-37232 -37288 37295 0
37296 -37233 0
37296 -37290 0
37297 -37291 0
37298 -37292 0
37299 -37293 0
-37294 37300 0
37297 -37233 -37290 0
37298 -37233 -37291 0
37299 -37233 -37292 0
-37233 -37293 37300 0
-37233 -37294 37301 0
37302 -37296 0
37303 -37297 0
37304 -37298 0
37305 -37299 0
-37300 37306 0
37303 -37234 -37296 0
37304 -37234 -37297 0
37305 -37234 -37298 0
-37299 -37234 37306 0
-37300 -37234 37307 0
37309 -37303 0
37310 -37304 0
37311 -37305 0
-37306 37312 0
37309 -37235 -37302 0
37310 -37235 -37303 0
37311 -37304 -37235 0
-37305 -37235 37312 0
-37306 -37235 37313 0
37317 -37311 0
-37312 37318 0
-37313 37319 0
37316 -37236 -37309 0
37317 -37236 -37310 0
-37236 -37311 37318 0
-37236 -37312 37319 0
37323 -37317 0
-37318 37324 0
-37319 37325 0
37323 -37237 -37316 0
-37237 -37317 37324 0
-37237 -37318 37325 0
37329 -37323 0
-37324 37330 0
-37325 37331 0
-37238 -37323 37330 0
-37238 -37324 37331 0
-37330 37336 0
-37331 37337 0
-37329 37336 -37239 0
-37330 -37239 37337 0
-37337 37343 0
-37336 -37240 37343 0
-37289 -37232 0
-37295 -37233 0
-37301 -37234 0
-37307 -37235 0
-37313 -37236 0
-37319 -37237 0
-37325 -37238 0
-37331 -37239 0
-37240 -37337 0
-37343 -37241 0
37652 -18 0
37652 -22 0
37652 -23 0
37652 -29 0
37653 -79 -12341 0
-12360 37655 -172 0
37660 -12410 -393 0
37660 -12408 -397 0
37661 -448 -12421 0
37662 -12430 -483 0
37662 -487 -12430 0
37663 -536 -12441 0
37664 -585 -12452 0
37665 -12461 -626 0
-12470 37666 -670 0
37670 -37652 0
37678 -37670 0
37679 -37653 -37670 0
37686 -37678 0
37687 -37679 0
37695 -37687 0
37695 -37655 -37686 0
37703 -37695 0
37711 -37703 0
37719 -37711 0
37727 -37719 0
37736 -37660 -37727 0
37745 -37661 -37736 0
37754 -37662 -37745 0
-37754 37763 -37663 0
-37763 37772 -37664 0
-37772 -37665 37781 0
-37781 -37666 0
37806 -19 0
37806 -25 0
37806 -34 0
37807 -64 -12507 0
37807 -70 -12507 0
37807 -79 -12511 0
-108 -37808 12516 12515 -23396 -23395 0
37808 -109 -12517 0
-37808 -116 12516 -23398 -23396 12518 0
37808 -121 -12517 0
37811 -12547 -229 0
-244 37811 -12547 0
-250 37811 -12547 0
37811 -256 -12547 0
37814 -12578 -397 0
37814 -12581 -403 0
37815 -448 -12591 0
37816 -487 -12600 0
37816 -12601 -491 0
37817 -536 -12611 0
37817 -540 -12612 0
37818 -581 -12621 0
37818 -585 -12622 0
37819 -12630 -625 0
37819 -12631 -626 0
-12640 37820 -670 0
37824 -37806 0
37833 -37807 -37824 0
37841 -37833 0
37842 -37833 -37808 0
37849 -37841 0
-37842 37850 0
37857 -37849 0
-37850 37858 0
37865 -37857 0
-37858 37867 -37811 0
37873 -37865 0
-37867 37875 0
37881 -37873 0
-37875 37883 0
-37883 37891 0
37890 -37814 -37881 0
-37883 37892 -37814 0
-37892 37900 0
37899 -37815 -37890 0
-37891 37900 -37815 0
-37900 37908 0
37908 -37899 -37816 0
-37900 37909 -37816 0
-37908 37917 -37817 0
-37909 37918 -37817 0
-37917 37926 -37818 0
-37918 -37818 37927 0
-37926 -37819 37935 0
-37927 -37819 0
-37935 -37820 0
37960 -23 0
37960 -29 0
-37960 -31 0
37960 -34 0
-37960 -37 0
37960 -38 0
37960 -43 0
23385 37961 -47 0
-37961 -49 -23383 -23387 13353 13357 0
-37961 -50 -23383 13358 13353 -23388 0
-68 37961 -13361 0
-74 37961 -13361 0
23387 -78 37961 0
-78 -37961 13360 -23387 -23390 13357 0
37961 -79 -13361 0
-82 -37961 -23390 13358 -23388 13360 0
-83 37961 -13361 0
-86 37961 -13361 0
-88 37961 -13361 0
-111 37962 -13369 0
-113 37962 -13371 0
-13366 37962 -115 0
23396 37962 -115 0
23397 37962 -115 0
-117 37962 -13369 0
-119 37962 -13371 0
-122 37962 -13369 0
37962 -124 -13371 0
37962 -126 -13369 0
-127 -37962 13370 -23398 -23400 13368 0
37962 -128 -13371 0
-130 37962 -13369 0
37962 -131 -13369 0
37962 -131 -13371 0
37962 -133 -13371 0
-37963 -136 13373 -23404 -23403 13374 0
-141 37963 -13379 0
-148 13378 -37963 -23408 -23404 13374 0
37963 -149 -13379 0
37963 -151 -13381 0
-13375 -153 37963 0
-155 13375 -37963 -23405 -23408 13378 0
-156 37963 -13379 0
37963 -158 -13381 0
-161 13378 -37963 -23406 -23408 13376 0
37963 -13379 -162 0
-164 37963 -13381 0
-167 37963 -13379 0
-13380 -168 37963 0
37963 -169 -13381 0
-171 37963 -13379 0
13378 -172 -37963 -23410 -23408 13380 0
37963 -173 -13381 0
37963 -13379 -175 0
37963 -176 -13381 0
37963 -178 -13381 0
37963 -180 -13382 0
37964 -196 -13391 0
-197 37964 -13392 0
37964 -201 -13389 0
-202 -13390 37964 0
-203 37964 -13391 0
-204 37964 -13392 0
37964 -207 -13389 0
-208 -13390 37964 0
-209 37964 -13391 0
-210 37964 -13392 0
37964 -212 -13389 0
-213 -13390 37964 0
37964 -13391 -214 0
37964 -216 -13389 0
-217 -13390 37964 0
-218 37964 -13391 0
37964 -13392 -219 0
37964 -13389 -220 0
-13390 37964 -220 0
37964 -13391 -221 0
37964 -223 -13391 0
-239 37965 -13399 0
-241 37965 -13401 0
-246 37965 -13399 0
-247 -13400 37965 0
-248 37965 -13401 0
-252 37965 -13399 0
-253 -13400 37965 0
-254 37965 -13401 0
-257 37965 -13399 0
-258 -13400 37965 0
-259 37965 -13401 0
-261 37965 -13399 0
-262 -13400 37965 0
-263 37965 -13401 0
37965 -13399 -265 0
-13400 37965 -265 0
37965 -266 -13401 0
37965 -268 -13401 0
37965 -13402 -270 0
-277 37966 -13410 0
-284 37966 -13409 0
-285 37966 -13410 0
-286 37966 -13411 0
37966 -291 -13409 0
-292 37966 -13410 0
-293 37966 -13411 0
-297 37966 -13409 0
-298 37966 -13410 0
-299 37966 -13411 0
-302 37966 -13409 0
-303 37966 -13410 0
-303 -37966 -23440 13410 -23437 13407 0
-304 37966 -13411 0
-306 37966 -13409 0
-307 37966 -13410 0
37966 -308 -13411 0
37966 -13409 -310 0
37966 -13410 -310 0
37966 -13411 -311 0
37966 -13411 -313 0
-329 37967 -13419 0
-330 -13420 37967 0
-331 37967 -13421 0
-336 37967 -13419 0
-337 -13420 37967 0
-338 37967 -13421 0
-342 37967 -13419 0
-343 -13420 37967 0
-344 37967 -13421 0
-347 37967 -13419 0
-13420 -348 37967 0
-349 37967 -13421 0
-351 37967 -13419 0
-13418 -352 37967 0
-352 -13420 37967 0
13418 -352 -37967 13420 -23450 -23448 0
-353 37967 -13421 0
-355 37967 -13419 0
-355 -13420 37967 0
37967 -356 -13421 0
-358 37967 -13421 0
37967 -360 -13421 0
-374 37968 -13429 0
-375 37968 -13430 0
-376 37968 -13431 0
-381 37968 -13429 0
-382 37968 -13430 0
-383 37968 -13431 0
-387 37968 -13429 0
-388 37968 -13430 0
-389 37968 -13431 0
-392 37968 -13429 0
-393 37968 -13430 0
13427 -393 -37968 -23460 -23457 13430 0
-394 37968 -13431 0
-396 37968 -13429 0
37968 -397 -13430 0
-398 37968 -13431 0
-400 -13429 37968 0
-400 37968 -13430 0
-13429 37968 -401 0
37968 -13431 -401 0
37968 -403 -13431 0
37968 -405 -13431 0
-411 37969 -13439 0
-419 37969 -13439 0
-420 -13440 37969 0
37969 -421 -13441 0
-426 37969 -13439 0
-427 -13440 37969 0
-428 37969 -13441 0
-432 37969 -13439 0
-433 -13440 37969 0
-434 37969 -13441 0
-437 37969 -13439 0
-438 -13440 37969 0
-439 37969 -13441 0
-441 37969 -13439 0
-442 -13440 37969 0
13438 -442 -37969 -23468 -23470 13440 0
-443 37969 -13441 0
-445 37969 -13439 0
-445 -13440 37969 0
-446 37969 -13439 0
-446 37969 -13441 0
-448 -13440 37969 0
-448 37969 -13441 0
37969 -13441 -450 0
37969 -450 -13442 0
-464 37970 -13449 0
-465 -13450 37970 0
-466 37970 -13451 0
-471 37970 -13449 0
-472 37970 -13450 0
-473 37970 -13451 0
-477 37970 -13449 0
-478 -13450 37970 0
-479 37970 -13451 0
-482 37970 -13449 0
-483 -13450 37970 0
-484 37970 -13451 0
-486 37970 -13449 0
-487 -13450 37970 0
-488 37970 -13451 0
37970 -13449 -490 0
-13450 37970 -490 0
-13449 37970 -491 0
37970 -491 -13451 0
-493 37970 -13451 0
37970 -495 -13451 0
37970 -495 -13452 0
37971 -13459 -509 0
-510 -13460 37971 0
-511 37971 -13461 0
-516 37971 -13459 0
-517 -13460 37971 0
-518 37971 -13461 0
-522 37971 -13459 0
-523 -13460 37971 0
-524 37971 -13461 0
-527 37971 -13459 0
-528 -13460 37971 0
-529 37971 -13461 0
-531 37971 -13459 0
-532 -13460 37971 0
-533 37971 -13461 0
-535 37971 -13459 0
-13460 -535 37971 0
-536 -13459 37971 0
-536 37971 -13461 0
-538 37971 -13461 0
-540 37971 -13461 0
-540 -13462 37971 0
-554 37972 -13469 0
-555 37972 -13470 0
-556 37972 -13471 0
-561 37972 -13469 0
-562 37972 -13470 0
-563 37972 -13471 0
-567 37972 -13469 0
-568 37972 -13470 0
-569 37972 -13471 0
-572 37972 -13469 0
-573 37972 -13470 0
-574 37972 -13471 0
-576 37972 -13469 0
-577 37972 -13470 0
-578 37972 -13471 0
37972 -580 -13469 0
37972 -580 -13470 0
37972 -581 -13469 0
37972 -581 -13471 0
37972 -583 -13471 0
37972 -585 -13471 0
37972 -585 -13472 0
37973 -591 -13479 0
-593 37973 -13481 0
-599 37973 -13479 0
-600 37973 -13480 0
-601 37973 -13481 0
-606 37973 -13479 0
-607 37973 -13480 0
-612 37973 -13479 0
-613 37973 -13480 0
-614 37973 -13481 0
-13479 37973 -617 0
-618 37973 -13480 0
-619 37973 -13481 0
37973 -621 -13479 0
-622 37973 -13480 0
-623 37973 -13481 0
37973 -13479 -625 0
37973 -13480 -625 0
37973 -626 -13479 0
37973 -626 -13481 0
37973 -628 -13481 0
37973 -630 -13481 0
37973 -630 -13482 0
-638 37974 -13491 0
-644 -13489 37974 0
-645 37974 -13490 0
37974 -646 -13491 0
13485 -648 -37974 -23515 -23516 13486 0
-651 -13489 37974 0
-652 37974 -13490 0
-653 37974 -13491 0
-657 -13489 37974 0
-658 37974 -13490 0
-659 37974 -13491 0
-662 -13489 37974 0
-663 37974 -13490 0
-664 37974 -13491 0
-666 -13489 37974 0
-667 37974 -13490 0
37974 -668 -13491 0
-670 37974 -13489 0
37974 -670 -13490 0
37974 -671 -13489 0
37974 -671 -13491 0
37974 -673 -13490 0
37974 -673 -13491 0
37974 -675 -13491 0
37974 -675 -13492 0
-681 -13499 37975 0
-682 37975 -13500 0
-685 13494 -23524 -23525 -37975 13495 0
-689 -13499 37975 0
-690 37975 -13500 0
-691 37975 -13501 0
-693 13495 -37975 -23525 -23526 13496 0
-13499 37975 -696 0
37975 -697 -13500 0
-702 -13499 37975 0
-703 37975 -13500 0
-704 37975 -13501 0
-706 13498 -37975 -23527 -23528 13497 0
-707 -13499 37975 0
-708 37975 -13500 0
-709 37975 -13501 0
-711 -13499 37975 0
-712 37975 -13500 0
-13499 37975 -715 0
37975 -13500 -715 0
37975 -716 -13501 0
37975 -718 -13500 0
37975 -718 -13501 0
37975 -720 -13501 0
37975 -720 -13502 0
-727 -13510 37976 0
-735 37976 -13510 0
-742 37976 -13510 0
37976 -13510 -748 0
-753 37976 -13510 0
-756 -13509 37976 0
-757 37976 -13510 0
-13509 37976 -760 0
37976 -13510 -760 0
37976 -761 -13509 0
-761 37976 -13511 0
37976 -13510 -763 0
37976 -763 -13511 0
-13519 37977 -805 0
37977 -13520 -805 0
37977 -13520 -808 0
37978 -37960 0
37984 -37961 0
37984 -37978 0
37985 -37961 -37978 0
37990 -37962 0
37990 -37984 0
37991 -37985 0
37991 -37962 -37984 0
37992 -37985 -37962 0
37996 -37963 0
37996 -37990 0
37997 -37991 0
37998 -37992 0
37997 -37963 -37990 0
37998 -37991 -37963 0
37999 -37992 -37963 0
38002 -37964 0
38002 -37996 0
38003 -37997 0
38004 -37998 0
-37999 38005 0
38003 -37964 -37996 0
38004 -37964 -37997 0
38005 -37964 -37998 0
38008 -37965 0
38008 -38002 0
38009 -38003 0
38010 -38004 0
38011 -38005 0
38009 -37965 -38002 0
38010 -37965 -38003 0
38011 -38004 -37965 0
-38005 -37965 38012 0
38014 -37966 0
38014 -38008 0
38015 -38009 0
38016 -38010 0
38017 -38011 0
-38012 38018 0
38015 -37966 -38008 0
38016 -37966 -38009 0
38017 -37966 -38010 0
-37966 -38011 38018 0
-37966 -38012 38019 0
38020 -37967 0
38020 -38014 0
38021 -38015 0
38022 -38016 0
38023 -38017 0
-38018 38024 0
-38019 38025 0
38021 -37967 -38014 0
38022 -37967 -38015 0
38023 -37967 -38016 0
-37967 -38017 38024 0
-37967 -38018 38025 0
38026 -37968 0
38026 -38020 0
38027 -38021 0
38028 -38022 0
38029 -38023 0
-38024 38030 0
-38025 38031 0
38027 -37968 -38020 0
38028 -37968 -38021 0
38029 -37968 -38022 0
-37968 -38023 38030 0
-37968 -38024 38031 0
38032 -37969 0
38032 -38026 0
38033 -38027 0
38034 -38028 0
38035 -38029 0
-38030 38036 0
-38031 38037 0
38033 -37969 -38026 0
38034 -37969 -38027 0
38035 -38028 -37969 0
-38029 -37969 38036 0
-38030 -37969 38037 0
38038 -37970 0
38038 -38032 0
38039 -38033 0
38040 -38034 0
38041 -38035 0
-38036 38042 0
-38037 38043 0
38039 -37970 -38032 0
38040 -37970 -38033 0
38041 -37970 -38034 0
-37970 -38035 38042 0
-38036 -37970 38043 0
38044 -37971 0
38044 -38038 0
38045 -38039 0
38046 -38040 0
38047 -38041 0
-38042 38048 0
-38043 38049 0
38045 -37971 -38038 0
38046 -37971 -38039 0
38047 -38040 -37971 0
-38041 -37971 38048 0
-38042 -37971 38049 0
38052 -38046 0
38053 -38047 0
-38048 38054 0
-38049 38055 0
38051 -37972 -38044 0
38052 -37972 -38045 0
38053 -37972 -38046 0
-37972 -38047 38054 0
-37972 -38048 38055 0
38058 -38052 0
38059 -38053 0
-38054 38060 0
-38055 38061 0
38058 -37973 -38051 0
38059 -37973 -38052 0
-37973 -38053 38060 0
-37973 -38054 38061 0
38065 -38059 0
-38060 38066 0
-38061 38067 0
38065 -38058 -37974 0
-38059 38066 -37974 0
-38060 -37974 38067 0
-38066 38072 0
-38067 38073 0
-38065 38072 -37975 0
-38066 -37975 38073 0
-38073 38079 0
-38072 -37976 38079 0
-37968 -38025 0
-38031 -37969 0
-38037 -37970 0
-38043 -37971 0
-37972 -38049 0
-37973 -38055 0
-38061 -37974 0
-38067 -37975 0
-37976 -38073 0
-38079 -37977 0
38091 -536 -17881 0
38092 -585 -17892 0
38093 -17901 -626 0
-17910 38094 -670 0
-38182 38191 -38091 0
-38191 38200 -38092 0
-38200 -38093 38209 0
-38209 -38094 0
38244 38247 38241 38245 38242 38243 38246 0
38373 -38241 0
38374 -38373 0
-38242 -38373 0
38375 -38374 0
38376 -38375 0
-38245 -38376 0
38254 38253 38252 38248 38251 38249 38250 0
-38248 38379 0
-38379 38380 0
-38380 38381 0
-38250 -38380 0
-38251 38382 0
-38381 38382 0
-38251 -38381 0
-38252 38383 0
-38382 38383 0
-38383 -38253 0
38259 38256 38261 38257 38258 38260 38255 0
-38260 38390 0
-38390 -38261 0
38268 38262 38267 38266 38265 38263 38264 0
-38262 38391 0
-38263 38392 0
-38391 38392 0
38393 -38264 0
-38392 38393 0
-38265 38394 0
38394 -38393 0
38395 -38266 0
38395 -38394 0
-38267 -38395 0
38273 38275 38274 38270 38269 38271 38272 0
-38274 38402 0
-38402 -38275 0
38282 38281 38276 38277 38278 38280 38279 0
38289 38287 38288 38286 38285 38284 38283 0
38296 38290 38295 38293 38292 38294 38291 0
38303 38302 38297 38301 38299 38300 38298 0
38426 -38302 0
-38426 -38303 0
38309 38304 38310 38305 38306 38308 38307 0
38312 38311 38317 38316 38315 38314 38313 0
38324 38323 38318 38321 38322 38320 38319 0
38331 38330 38325 38328 38329 38326 38327 0
38338 38337 38332 38333 38335 38336 38334 0
38344 38339 38345 38340 38342 38343 38341 0
38352 38346 38351 38347 38350 38349 38348 0
38358 38355 38354 38353 38359 38356 38357 0
-38360 38475 0
-38361 38476 0
-38475 38476 0
-38362 38477 0
-38476 38477 0
-38363 38478 0
-38477 38478 0
-38364 38479 0
-38478 38479 0
-38365 38480 0
-38479 38480 0
-38480 -38366 0
38234 0
38366 0
-1 -38234 0
-2 -38234 0
-3 -38234 0
-4 -38234 0
-5 -38234 0
-7 -38234 0
-8 -38234 0
38241 -18 -38234 0
38241 -19 -38234 0
38242 -20 -38234 0
38241 -22 -38234 0
38241 -23 -38234 0
38241 -25 -38234 0
38243 -26 -38234 0
38241 -28 -38234 0
38241 -29 -38234 0
38244 -31 -38234 0
38241 -33 -38234 0
38241 -34 -38234 0
38245 -37 -38234 0
38245 -38 -38234 0
38241 -41 -38234 0
38241 -43 -38234 0
-46 -38241 0
-38241 -47 0
-48 -38241 0
-38241 -49 0
-38241 -50 0
-51 -38241 0
-52 -38241 0
-53 -38241 0
-63 -38241 38248 0
-64 -38241 38248 0
-65 38249 -38241 0
-67 38248 -38241 0
-68 38248 -38241 0
-70 -38241 38248 0
-71 38250 -38241 0
-73 38248 -38241 0
-74 38248 -38241 0
-76 -38241 38251 0
-78 38248 -38241 0
-79 38248 -38241 0
-82 38252 -38241 0
-83 38252 -38241 0
-88 38248 -38241 0
-46 -38242 0
38253 -38242 -47 0
-38242 -48 0
-38242 -49 0
-50 -38242 0
-51 -38242 0
-52 -38242 0
-53 -38242 0
-54 -38242 0
-55 -38242 0
-56 -38242 0
-57 -38242 0
-58 -38242 0
-59 -38242 0
-60 -38242 0
-61 -38242 0
-62 -38242 0
-63 -38242 0
-64 -38242 0
-65 -38242 0
-66 -38242 0
-67 -38242 0
-68 -38242 0
-69 -38242 0
-70 38249 -38242 0
-71 38249 -38242 0
-72 38249 -38242 0
-73 38249 -38242 0
-74 38249 -38242 0
-75 38249 -38242 0
-76 38249 -38242 0
-77 38249 -38242 0
-78 38249 -38242 0
-79 38249 -38242 0
-80 38249 -38242 0
-81 38249 -38242 0
-82 38249 -38242 0
-83 38249 -38242 0
-84 38249 -38242 0
-85 38249 -38242 0
-86 38249 -38242 0
-87 38249 -38242 0
-88 38249 -38242 0
-89 38249 -38242 0
-90 38249 -38242 0
38253 -38243 -48 0
-38243 -49 0
-38243 -50 0
-52 -38243 0
-63 -38243 0
-65 38250 -38243 0
-70 -38243 0
-71 -38243 0
-76 38250 -38243 0
-78 38250 -38243 0
-79 38250 -38243 0
-82 38250 -38243 0
-83 38250 -38243 0
38253 -38244 -49 0
-38244 -50 0
-52 -38244 0
-64 -38244 0
-65 38251 -38244 0
-70 -38244 0
-71 38251 -38244 0
-76 -38244 0
-78 -38244 0
-79 -38244 0
-82 38251 -38244 0
-83 38251 -38244 0
-86 38251 -38244 0
-88 38251 -38244 0
-38245 -47 0
-38245 -48 0
-38245 -49 0
38253 -38245 -50 0
-52 -38245 0
-53 -38245 0
-65 -38245 0
-68 38252 -38245 0
-71 -38245 0
-74 -38245 38252 0
-76 -38245 0
-78 -38245 38252 0
-79 -38245 38252 0
-82 -38245 0
-83 -38245 0
-88 -38245 38252 0
-38246 -49 0
-38246 -50 0
-38246 -52 0
-38247 -49 0
-38247 -50 0
-38247 -52 0
-91 -38248 0
-92 -38248 0
-93 -38248 0
-94 -38248 0
-95 -38248 0
-38248 -96 0
-38248 -97 0
-38248 -98 0
-99 -38248 0
-102 -38248 0
-108 -38248 38255 0
-109 -38248 38255 0
-110 -38248 38256 0
-112 -38248 38255 0
-113 -38248 38255 0
-115 -38248 38255 0
-116 -38248 38257 0
-118 -38248 38255 0
-119 -38248 38255 0
-121 -38248 38258 0
-124 -38248 38255 0
-127 38259 -38248 0
-133 -38248 38255 0
-38249 -91 0
-38249 -92 38260 0
-93 -38249 0
-94 -38249 0
-38249 -95 0
-38249 -96 0
-38249 -97 0
-38249 -98 0
-38249 -102 0
-108 -38249 0
-109 -38249 0
-110 -38249 0
-38249 -112 0
-113 -38249 0
-38249 -115 38256 0
-116 -38249 38256 0
-118 -38249 38256 0
-119 -38249 38256 0
-38249 -121 38256 0
-38249 -123 38256 0
-38249 -124 38256 0
-38249 -128 38256 0
-38250 -91 0
-92 -38250 0
-93 -38250 38260 0
-94 -38250 0
-38250 -95 0
-38250 -96 0
-38250 -97 0
-38250 -98 0
-108 -38250 0
-110 -38250 38257 0
-38250 -112 38257 0
-38250 -115 0
-116 -38250 0
-118 -38250 0
-119 -38250 0
-121 -38250 38257 0
-124 -38250 38257 0
-38250 -128 38257 0
-91 -38251 0
-92 -38251 0
-93 -38251 0
-94 -38251 38260 0
-95 -38251 0
-38251 -96 0
-38251 -97 0
-38251 -98 0
-102 -38251 0
-108 -38251 38258 0
-109 -38251 0
-110 -38251 38258 0
-112 -38251 38258 0
-113 -38251 38258 0
-115 -38251 0
-116 -38251 38258 0
-118 -38251 38258 0
-119 38258 -38251 0
-121 -38251 0
-123 -38251 0
-124 -38251 0
-127 -38251 38258 0
-128 -38251 38258 0
-38251 -131 38258 0
-133 -38251 38258 0
-38252 -91 0
-92 -38252 0
-93 -38252 0
-94 -38252 0
-38252 -95 38260 0
-38252 -96 0
-38252 -97 0
-38252 -98 0
-108 -38252 38259 0
-110 -38252 0
-112 -38252 38259 0
-116 -38252 0
-118 -38252 38259 0
-121 -38252 0
-123 -38252 38259 0
-124 -38252 38259 0
-127 -38252 0
-38252 -128 0
-133 -38252 38259 0
-91 38261 -38253 0
-92 -38253 0
-93 -38253 0
-94 -38253 0
-95 -38253 0
-96 -38253 0
-97 -38253 0
-98 -38253 0
-100 -38253 0
-101 -38253 0
-102 -38253 0
-103 -38253 0
-104 -38253 0
-105 -38253 0
-106 -38253 0
-107 -38253 0
-108 38260 -38253 0
-109 38260 -38253 0
-110 38260 -38253 0
-111 38260 -38253 0
-112 38260 -38253 0
-113 38260 -38253 0
-114 38260 -38253 0
-115 38260 -38253 0
-116 38260 -38253 0
-117 38260 -38253 0
-118 38260 -38253 0
-119 38260 -38253 0
-120 38260 -38253 0
-121 38260 -38253 0
-122 38260 -38253 0
-123 38260 -38253 0
-124 38260 -38253 0
-125 38260 -38253 0
-126 38260 -38253 0
-127 38260 -38253 0
-128 38260 -38253 0
-129 38260 -38253 0
-130 38260 -38253 0
-131 38260 -38253 0
-133 38260 -38253 0
-38254 -91 0
-38254 -92 0
-38254 -93 0
-38254 -94 0
-38254 -95 0
-38254 -96 0
-97 -38254 0
-98 -38254 0
-108 38261 -38254 0
-38254 -112 38261 0
-38254 -121 38261 0
-38254 -124 38261 0
-38254 -128 38261 0
-38255 -137 0
-38255 -138 0
-38255 -139 0
-38255 -140 0
-38255 -141 0
-38255 -142 0
-143 -38255 0
-38255 -153 38262 0
-156 -38255 38262 0
-161 -38255 38264 0
-38255 -162 38262 0
-38255 -166 38265 0
-38255 -167 38262 0
-38255 -168 38262 0
-38255 -169 38262 0
-136 -38256 0
-38256 -137 38267 0
-138 -38256 0
-139 -38256 0
-38256 -140 0
-141 -38256 0
-38256 -142 0
-143 -38256 0
-145 -38256 0
-146 -38256 0
-147 -38256 0
-148 -38256 0
-38256 -150 0
-151 -38256 0
-153 -38256 0
-154 -38256 0
-155 -38256 0
-156 -38256 0
-157 -38256 0
-158 -38256 0
-160 -38256 38263 0
-161 -38256 38263 0
-38256 -162 38263 0
-166 -38256 38263 0
-167 -38256 38263 0
-168 -38256 38263 0
-169 -38256 38263 0
-38257 -136 0
-38257 -137 0
-138 -38257 38267 0
-139 -38257 0
-38257 -140 0
-38257 -141 0
-38257 -142 0
-38257 -143 0
-38257 -145 0
-146 -38257 0
-38257 -147 0
-148 -38257 0
-38257 -149 0
-38257 -150 0
-38257 -151 0
-153 -38257 0
-154 -38257 38264 0
-156 -38257 38264 0
-160 -38257 0
-161 -38257 0
-38257 -162 0
-163 -38257 0
-164 -38257 0
-38257 -166 38264 0
-167 -38257 38264 0
-168 -38257 38264 0
-38257 -169 38264 0
-38258 -136 0
-38258 -137 0
-38258 -138 0
-38258 -139 38267 0
-38258 -140 0
-38258 -141 0
-38258 -142 0
-38258 -143 0
-153 -38258 38265 0
-156 -38258 38265 0
-38258 -162 38265 0
-38258 -166 0
-167 -38258 0
-168 -38258 0
-38258 -169 0
-171 -38258 38265 0
-136 -38259 0
-137 -38259 0
-138 -38259 0
-139 -38259 0
-38259 -140 38267 0
-141 -38259 0
-38259 -142 0
-143 -38259 0
-144 -38259 0
-145 -38259 0
-146 -38259 0
-147 -38259 0
-148 -38259 0
-149 -38259 0
-150 -38259 0
-151 -38259 0
-152 -38259 0
-153 -38259 38266 0
-154 -38259 38266 0
-155 -38259 0
-156 -38259 38266 0
-157 -38259 38266 0
-158 -38259 38266 0
-159 -38259 38266 0
-160 -38259 38266 0
-161 -38259 0
-162 -38259 38266 0
-163 -38259 38266 0
-166 -38259 0
-167 -38259 38266 0
-168 -38259 38266 0
-169 -38259 38266 0
-171 -38259 0
-172 -38259 0
-173 -38259 0
-174 -38259 0
-175 -38259 38266 0
-176 -38259 38266 0
-178 -38259 38266 0
-179 -38259 38266 0
-38260 -136 38268 0
-38260 -137 0
-138 -38260 0
-139 -38260 0
-38260 -140 0
-141 -38260 0
-38260 -142 0
-143 -38260 0
-145 -38260 0
-146 -38260 0
-147 -38260 0
-148 -38260 0
-38260 -149 0
-151 -38260 0
-153 -38260 38267 0
-154 -38260 38267 0
-155 -38260 38267 0
-156 -38260 38267 0
-157 -38260 38267 0
-158 -38260 38267 0
-160 -38260 38267 0
-161 -38260 38267 0
-162 -38260 38267 0
-163 -38260 38267 0
-164 -38260 38267 0
-166 -38260 38267 0
-167 -38260 38267 0
-168 -38260 38267 0
-38260 -169 38267 0
-171 -38260 38267 0
-172 -38260 38267 0
-173 -38260 38267 0
-38260 -175 38267 0
-38260 -176 38267 0
-38260 -178 38267 0
-136 -38261 0
-137 -38261 0
-138 -38261 0
-139 -38261 0
-38261 -140 0
-141 -38261 0
-38261 -142 0
-143 -38261 0
-144 -38261 0
-145 -38261 38268 0
-146 -38261 38268 0
-147 -38261 38268 0
-148 -38261 38268 0
-149 -38261 38268 0
-150 -38261 38268 0
-151 -38261 38268 0
-152 -38261 38268 0
-153 -38261 38268 0
-154 38268 -38261 0
-155 38268 -38261 0
-156 38268 -38261 0
-157 38268 -38261 0
-158 38268 -38261 0
-159 -38261 38268 0
-160 -38261 38268 0
-161 -38261 38268 0
-162 -38261 38268 0
-163 -38261 38268 0
-164 -38261 38268 0
-165 -38261 38268 0
-166 -38261 38268 0
-167 38268 -38261 0
-168 38268 -38261 0
-169 38268 -38261 0
-170 -38261 38268 0
-171 38268 -38261 0
-172 38268 -38261 0
-173 38268 -38261 0
-174 -38261 38268 0
-175 38268 -38261 0
-176 38268 -38261 0
-177 -38261 38268 0
-178 38268 -38261 0
-179 -38261 38268 0
-180 38268 -38261 0
-38262 -181 0
-38262 -182 0
-38262 -183 0
-38262 -184 0
-38262 -185 0
-38262 -186 0
-38262 -187 0
-38262 -188 0
-38262 -194 0
-38262 -198 38269 0
-38262 -200 38270 0
-38262 -201 38269 0
-38262 -213 38269 0
-38263 -181 0
-38263 -182 38274 0
-38263 -183 0
-38263 -184 0
-185 -38263 0
-38263 -186 0
-187 -38263 0
-38263 -188 0
-190 -38263 0
-38263 -191 0
-192 -38263 0
-193 -38263 0
-38263 -194 0
-195 -38263 0
-196 -38263 0
-197 -38263 0
-198 -38263 0
-199 -38263 0
-200 -38263 0
-201 -38263 0
-202 -38263 0
-203 -38263 0
-204 -38263 0
-205 38270 -38263 0
-206 38270 -38263 0
-207 -38263 38270 0
-208 38270 -38263 0
-209 38270 -38263 0
-210 38270 -38263 0
-211 38270 -38263 0
-212 -38263 38270 0
-213 38270 -38263 0
-38263 -214 38270 0
-215 38270 -38263 0
-216 -38263 38270 0
-217 38270 -38263 0
-218 38270 -38263 0
-38263 -219 38270 0
-38263 -220 38270 0
-38263 -221 38270 0
-223 38270 -38263 0
-38263 -225 38270 0
-181 -38264 0
-182 -38264 0
-38264 -183 38274 0
-184 -38264 0
-185 -38264 0
-186 -38264 0
-187 -38264 0
-188 -38264 0
-194 -38264 0
-198 -38264 0
-199 38271 -38264 0
-200 38271 -38264 0
-201 -38264 38271 0
-205 -38264 0
-206 -38264 0
-211 38271 -38264 0
-213 38271 -38264 0
-38265 -181 0
-38265 -182 0
-38265 -183 0
-38265 -185 0
-38265 -186 0
-187 -38265 0
-38265 -188 0
-38265 -194 0
-198 38272 -38265 0
-200 38272 -38265 0
-201 -38265 38272 0
-213 -38265 0
-181 -38266 0
-182 -38266 0
-38266 -183 0
-184 -38266 0
-185 -38266 38274 0
-186 -38266 0
-187 -38266 0
-188 -38266 0
-189 -38266 0
-190 -38266 0
-38266 -191 0
-192 -38266 0
-193 -38266 0
-38266 -194 0
-195 -38266 0
-196 -38266 0
-197 -38266 0
-198 38273 -38266 0
-199 38273 -38266 0
-200 -38266 0
-201 -38266 38273 0
-202 38273 -38266 0
-203 -38266 38273 0
-204 -38266 38273 0
-205 38273 -38266 0
-206 -38266 0
-207 -38266 38273 0
-208 38273 -38266 0
-209 -38266 38273 0
-210 -38266 38273 0
-211 -38266 0
-212 -38266 38273 0
-213 38273 -38266 0
-215 -38266 38273 0
-216 -38266 0
-217 -38266 0
-218 -38266 0
-219 -38266 0
-220 -38266 38273 0
-221 -38266 38273 0
-222 -38266 38273 0
-223 38273 -38266 0
-224 -38266 38273 0
-225 38273 -38266 0
-38267 -181 38275 0
-182 -38267 0
-38267 -183 0
-184 -38267 0
-185 -38267 0
-38267 -186 0
-187 -38267 0
-38267 -188 0
-190 -38267 0
-38267 -191 0
-192 -38267 0
-193 -38267 0
-38267 -194 0
-195 -38267 0
-196 -38267 0
-197 -38267 0
-198 -38267 38274 0
-199 -38267 38274 0
-200 -38267 38274 0
-201 -38267 38274 0
-202 -38267 38274 0
-203 -38267 38274 0
-204 -38267 38274 0
-205 -38267 38274 0
-206 -38267 38274 0
-207 -38267 38274 0
-208 -38267 38274 0
-209 -38267 38274 0
-210 -38267 38274 0
-211 -38267 38274 0
-212 -38267 38274 0
-213 -38267 38274 0
-38267 -214 38274 0
-215 -38267 38274 0
-216 -38267 38274 0
-217 -38267 38274 0
-218 -38267 38274 0
-38267 -219 38274 0
-38267 -220 38274 0
-38267 -221 38274 0
-223 -38267 38274 0
-38267 -225 38274 0
-181 -38268 0
-182 -38268 0
-38268 -183 0
-184 -38268 0
-185 -38268 0
-186 -38268 0
-187 -38268 0
-188 -38268 0
-189 -38268 0
-190 -38268 38275 0
38275 -38268 -191 0
-192 -38268 38275 0
-193 -38268 38275 0
-38268 -194 38275 0
-195 -38268 38275 0
-196 -38268 38275 0
-197 -38268 38275 0
-198 -38268 38275 0
-199 -38268 38275 0
-200 -38268 38275 0
-201 -38268 38275 0
-202 -38268 38275 0
-203 -38268 38275 0
-204 -38268 38275 0
-205 -38268 38275 0
-206 -38268 38275 0
-207 -38268 38275 0
-208 -38268 38275 0
-209 -38268 38275 0
-210 -38268 38275 0
-211 -38268 38275 0
-212 -38268 38275 0
-213 -38268 38275 0
-215 -38268 38275 0
-216 -38268 38275 0
-217 -38268 38275 0
-218 -38268 38275 0
-220 -38268 38275 0
-38268 -221 38275 0
-222 38275 -38268 0
-223 -38268 38275 0
-224 -38268 38275 0
-225 -38268 38275 0
-38269 -227 0
-38269 -228 0
-38269 -229 0
-38269 -231 0
-38269 -232 0
-38269 -233 0
-38269 -258 38276 0
-38270 -228 0
-38270 -229 0
-230 -38270 0
-38270 -231 0
-38270 -232 0
-38270 -233 0
-243 -38270 0
-245 -38270 0
-248 -38270 0
-258 -38270 38277 0
-262 -38270 38277 0
-227 -38271 0
-228 -38271 38281 0
-38271 -229 0
-230 -38271 0
-38271 -231 0
-38271 -232 0
-38271 -233 0
-243 -38271 0
-245 -38271 38278 0
-248 -38271 38278 0
-258 -38271 38278 0
-262 -38271 38278 0
-38272 -227 0
-38272 -228 0
-38272 -229 38281 0
-38272 -231 0
-38272 -232 0
-38272 -233 0
-38272 -258 0
-38272 -262 38279 0
-38273 -227 0
-38273 -228 0
-38273 -229 0
-38273 -231 0
-38273 -232 0
-38273 -233 0
-38273 -238 0
-38273 -258 38280 0
-38273 -262 0
-227 -38274 0
-38274 -228 0
-38274 -229 0
-230 -38274 0
-231 -38274 0
-232 -38274 0
-233 -38274 0
-235 -38274 0
-236 -38274 0
-38274 -237 0
-38274 -238 0
-239 -38274 0
-240 -38274 0
-241 -38274 0
-242 -38274 0
-243 -38274 38281 0
-244 -38274 38281 0
-245 -38274 38281 0
-247 -38274 38281 0
-248 -38274 38281 0
-250 -38274 38281 0
-251 -38274 38281 0
-253 -38274 38281 0
-254 -38274 38281 0
-256 -38274 38281 0
-258 38281 -38274 0
-259 -38274 38281 0
-262 -38274 38281 0
-263 -38274 38281 0
-38274 -268 38281 0
-38274 -270 38281 0
-226 -38275 0
-227 -38275 0
-228 -38275 0
-229 -38275 0
-38275 -231 0
-232 -38275 0
-233 -38275 0
-258 38282 -38275 0
-262 38282 -38275 0
38282 -270 -38275 0
-271 -38276 0
-38276 -272 0
-273 -38276 0
-274 -38276 0
-275 -38276 0
-38276 -276 0
-277 -38276 0
-278 -38276 0
-292 38283 -38276 0
-301 38286 -38276 0
-303 38283 -38276 0
-271 -38277 0
-38277 -272 38288 0
-273 -38277 0
-274 -38277 0
-38277 -275 0
-38277 -276 0
-277 -38277 0
-278 -38277 0
-279 -38277 0
-280 -38277 0
-281 -38277 0
-282 -38277 0
-283 -38277 0
-284 -38277 0
-285 -38277 0
-286 -38277 0
-287 -38277 0
-288 -38277 0
-38277 -289 0
-290 -38277 0
-38277 -291 0
-292 -38277 0
-293 -38277 0
-294 -38277 0
-295 -38277 38284 0
-296 -38277 38284 0
-297 -38277 38284 0
-298 -38277 38284 0
-299 -38277 38284 0
-300 -38277 38284 0
-301 -38277 38284 0
-302 -38277 38284 0
-303 -38277 38284 0
-304 -38277 38284 0
-305 -38277 38284 0
-306 -38277 38284 0
-307 -38277 38284 0
-308 -38277 38284 0
-309 -38277 38284 0
-38277 38284 -310 0
-38277 38284 -311 0
-38277 38284 -313 0
-38277 -314 38284 0
-38277 38284 -315 0
-38278 -271 0
-38278 -272 0
-38278 -273 38288 0
-274 -38278 0
-38278 -275 0
-38278 -276 0
-38278 -277 0
-38278 -278 0
-292 -38278 38285 0
-301 -38278 38285 0
-303 -38278 38285 0
-38279 -271 0
-38279 -272 0
-38279 -273 0
-38279 -274 38288 0
-38279 -275 0
-38279 -276 0
-38279 -277 0
-38279 -278 0
-292 -38279 38286 0
-301 -38279 0
-303 -38279 0
-38280 -271 0
-38280 -272 0
-38280 -273 0
-38280 -274 0
-38280 -275 38288 0
-38280 -276 0
-38280 -277 0
-38280 -278 0
-292 -38280 38287 0
-301 -38280 0
-303 -38280 38287 0
-38281 -272 0
-38281 -273 0
-274 -38281 0
-38281 -275 0
-38281 -276 0
-277 -38281 0
-278 -38281 0
-280 -38281 0
-281 -38281 0
-282 -38281 0
-283 -38281 0
-288 -38281 38288 0
38288 -38281 -289 0
-290 -38281 38288 0
-292 -38281 38288 0
-295 -38281 38288 0
-296 -38281 38288 0
-298 -38281 38288 0
-301 -38281 38288 0
-303 -38281 38288 0
-307 -38281 38288 0
-38281 -308 38288 0
-38281 38288 -313 0
-38282 -271 0
-38282 -272 0
-38282 -273 0
-38282 -274 0
-38282 -275 0
-38282 -276 0
-277 -38282 0
-278 -38282 0
38289 -292 -38282 0
38289 -301 -38282 0
38289 -303 -38282 0
-38283 -317 0
-38283 -319 0
-38283 -321 0
-38283 -322 0
-38283 -323 0
-38283 -348 38290 0
-38284 -316 0
-38284 -319 0
-38284 -320 0
-38284 -321 0
-38284 -322 0
-38284 -323 0
-38284 -348 38291 0
-38284 -353 38291 0
-38285 -317 0
-38285 -319 0
-38285 -321 0
-38285 -322 0
-38285 -323 0
-38285 -348 38292 0
-38285 -353 38292 0
-38286 -317 0
-38286 -321 0
-38286 -322 0
-38286 -323 0
-38286 -348 0
-38286 -353 38293 0
-38287 -317 0
-38287 -319 0
-38287 -321 0
-38287 -322 0
-38287 -323 0
-38287 -348 38294 0
-38287 -352 0
-317 -38288 0
-318 -38288 0
-319 -38288 0
-320 -38288 0
-38288 -321 0
-38288 -322 0
-323 -38288 0
-325 -38288 0
-326 -38288 0
-327 -38288 0
-328 -38288 0
-329 -38288 0
-330 -38288 0
-331 -38288 0
-333 -38288 38295 0
-334 -38288 38295 0
-335 -38288 38295 0
-336 -38288 38295 0
-337 -38288 38295 0
-340 -38288 38295 0
-341 -38288 38295 0
-342 -38288 38295 0
-343 -38288 38295 0
-38288 -348 38295 0
-351 -38288 38295 0
-38288 -352 38295 0
-353 -38288 38295 0
-38289 -317 0
-38289 -319 0
-321 -38289 0
-38289 -322 0
-323 -38289 0
38296 -348 -38289 0
-38289 -353 38296 0
-38290 -361 0
-38290 -364 0
-38290 -365 0
-366 -38290 0
-38290 -367 0
-38290 -368 0
-38291 -361 0
-38291 -364 0
-38291 -365 0
-38291 -366 0
-38291 -367 0
-38291 -368 0
-38292 -361 0
-38292 -364 0
-38292 -365 0
-38292 -366 0
-38292 -367 0
-38292 -368 0
-38293 -361 0
-38293 -365 0
-366 -38293 0
-367 -38293 0
-368 -38293 0
-38294 -361 0
-38294 -364 0
-38294 -365 38302 0
-38294 -366 0
-38294 -367 0
-38294 -368 0
-38295 38303 -361 0
-38295 -362 0
-363 -38295 0
-364 -38295 0
-38295 -365 0
-38295 -366 0
-38295 -367 0
-38295 -368 0
-372 -38295 0
-38295 -373 0
-374 -38295 0
-375 -38295 0
-379 -38295 38302 0
-380 -38295 38302 0
-382 -38295 38302 0
-383 -38295 38302 0
-385 -38295 38302 0
-386 -38295 38302 0
-388 -38295 38302 0
-389 -38295 38302 0
-391 -38295 38302 0
-393 -38295 38302 0
-394 -38295 38302 0
-38295 -397 38302 0
-398 -38295 38302 0
-38296 -361 0
-38296 -364 0
-38296 -365 0
-366 -38296 0
-367 -38296 0
-368 -38296 0
-38297 -411 0
-38297 -412 0
-38297 -413 0
-38298 -411 0
-38298 -412 0
-38298 -413 0
-38299 -411 0
-38299 -412 0
-38299 -413 0
-38300 -411 0
-38300 -412 0
-38300 -413 0
-38301 -411 0
-38301 -412 0
-38301 -413 0
-38302 -411 0
-38302 -412 0
-38302 -413 0
-38302 -415 0
-38302 -443 38309 0
-38303 -411 0
-38303 -412 0
-413 -38303 0
-38304 -451 0
-456 -38304 0
-38304 -457 0
-38304 -458 0
-482 -38304 38311 0
-38304 -483 38311 0
-38305 -451 0
-38305 -452 38316 0
-453 -38305 0
-454 -38305 0
-455 -38305 0
-456 -38305 0
-38305 -457 0
-38305 -458 0
-460 -38305 0
-461 -38305 0
-462 -38305 0
-463 -38305 0
-464 -38305 0
-465 -38305 0
-466 -38305 0
-467 -38305 0
-468 -38305 0
-469 -38305 0
-470 -38305 0
-471 -38305 0
-472 -38305 0
-473 -38305 0
-475 -38305 38312 0
-476 -38305 38312 0
-482 -38305 38312 0
-483 -38305 38312 0
-38306 -451 0
-455 -38306 0
-38306 -456 0
-38306 -457 0
-38306 -458 0
-463 -38306 0
-465 -38306 0
-470 -38306 38313 0
-472 -38306 38313 0
-476 -38306 0
-478 -38306 0
-481 -38306 38313 0
-38306 -482 38313 0
-483 -38306 38313 0
-486 -38306 38313 0
-487 -38306 38313 0
-490 -38306 38313 0
-38307 -451 0
-38307 -456 0
-38307 -457 0
-38307 -458 0
-38307 -482 0
-38307 -483 0
-38308 -451 0
-38308 -456 0
-38308 -457 0
-38308 -458 0
-38308 -482 38315 0
-38308 -483 38315 0
-38309 -451 38317 0
-38309 -456 0
-38309 -457 0
-38309 -458 0
-463 -38309 0
-38309 -482 38316 0
-38309 -483 38316 0
-38310 -451 0
-38310 -452 0
-453 -38310 0
-454 -38310 0
-455 -38310 0
-456 -38310 0
-38310 -457 0
-458 -38310 0
-460 -38310 38317 0
-461 38317 -38310 0
-462 38317 -38310 0
-463 -38310 38317 0
-464 38317 -38310 0
-465 -38310 38317 0
-466 -38310 38317 0
-467 38317 -38310 0
-468 -38310 38317 0
-469 -38310 38317 0
-470 -38310 38317 0
-471 -38310 38317 0
-472 -38310 38317 0
-473 -38310 38317 0
-475 -38310 38317 0
-476 -38310 38317 0
-477 38317 -38310 0
-478 -38310 38317 0
-479 -38310 38317 0
-481 -38310 38317 0
-482 38317 -38310 0
-483 -38310 38317 0
-484 -38310 38317 0
-486 -38310 38317 0
-487 -38310 38317 0
-488 -38310 38317 0
-38310 -490 38317 0
-38310 -491 38317 0
-493 -38310 38317 0
-38310 -495 38317 0
-38311 -499 0
-38311 -500 0
-38311 -501 0
-38311 -502 0
-38311 -503 0
-499 -38312 0
-500 -38312 0
-501 -38312 0
-502 -38312 0
-503 -38312 0
-38313 -499 0
-38313 -500 0
-38313 -501 0
-38313 -502 0
-38313 -503 0
-38314 -500 0
-38314 -501 0
-38314 -502 0
-503 -38314 0
-38315 -499 0
-38315 -500 38323 0
-38315 -501 0
-502 -38315 0
-503 -38315 0
-38316 -499 0
-38316 -500 0
-38316 -501 0
-38316 -502 0
-503 -38316 0
-38317 -499 0
-38317 -500 0
-38317 -501 0
-502 -38317 0
-503 -38317 0
-38318 -541 0
-38318 -546 0
-38318 -547 0
-38318 -548 0
-38319 -541 0
-38319 -546 0
-38319 -547 0
-38319 -548 0
-38320 -541 0
-38320 -546 0
-38320 -547 0
-38320 -548 0
-38321 -541 0
-38321 -546 0
-38321 -547 0
-38321 -548 0
-38322 -541 0
-38322 -546 0
-38322 -547 0
-38322 -548 0
-542 -38323 0
-543 -38323 0
-544 -38323 0
-38323 -545 0
-38323 -546 0
-547 -38323 0
-38323 -548 0
-550 -38323 0
-551 -38323 0
-552 -38323 0
-553 -38323 0
-554 -38323 0
-555 -38323 0
-556 -38323 0
-557 -38323 0
-541 -38324 0
-546 -38324 0
-547 -38324 0
-38324 -548 0
-38325 -586 0
-38325 -591 0
-38325 -592 0
-38326 -586 0
-38326 -591 0
-38326 -592 0
-38327 -586 0
-38327 -591 0
-38327 -592 0
-38328 -586 0
-38328 -591 0
-38328 -592 0
-38329 -586 0
-38329 -591 0
-38329 -592 0
-589 -38330 0
-590 -38330 0
-38330 -591 0
-38330 -592 0
-593 -38330 0
-594 -38330 0
-586 -38331 0
-38331 -591 0
-38331 -592 0
-38332 -636 0
-38332 -637 0
-38333 -636 0
-38333 -637 0
-38334 -636 0
-38334 -637 0
-38335 -636 0
-38335 -637 0
-38336 -636 0
-38336 -637 0
-38337 -636 0
-38337 -637 0
-636 -38338 0
-637 -38338 0
-38339 -682 0
-38340 -682 0
-38341 -682 0
-38342 -682 0
-38343 -682 0
-682 -38344 0
-38345 -682 0
-38346 -721 0
-38346 -726 0
-38346 -727 0
-38347 -721 0
-726 -38347 0
-38347 -727 0
-38348 -721 0
-38348 -726 0
-38348 -727 0
-38348 -747 0
-38349 -721 0
-38349 -726 0
-38349 -727 0
-38350 -721 0
-38350 -726 0
-38350 -727 0
-726 -38351 0
-38351 -727 0
-38352 -721 0
-726 -38352 0
-38352 -727 0
-38353 -766 0
-38353 -775 0
-38353 -783 38360 0
-38353 -790 38360 0
-38353 -796 38363 0
-38353 -801 38364 0
-38353 -805 38360 0
-38353 -808 38360 0
-38354 -766 0
-38354 -775 0
-38354 -783 0
-38354 -790 38361 0
-38354 -796 38361 0
-38354 -801 38361 0
-38354 -805 38361 0
-38354 -808 38361 0
-38355 -766 0
-38355 -775 0
-38355 -796 38362 0
-38355 -805 38362 0
-38356 -766 0
-38356 -775 0
-38356 -796 0
-38356 -805 38363 0
-38357 -766 0
-38357 -775 0
-38357 -783 38364 0
-38357 -790 38364 0
-38357 -796 0
-38357 -801 0
-38357 -805 38364 0
-38357 -808 38364 0
-38358 -775 0
-38358 -796 38365 0
-38358 -805 38365 0
-38359 -766 0
38643 0
38644 0
38645 0
38646 0
38647 0
38648 0
38649 0
38650 0
38651 0
38634 766 -38643 768 769 770 771 772 773 774 767 0
-38635 -775 0
38635 775 -38644 769 770 771 772 773 774 767 776 777 778 779 780 781 782 768 0
-38636 -783 0
38636 783 769 770 771 772 773 774 -38645 777 778 779 780 781 782 768 784 785 786 787 788 789 776 0
38637 790 770 771 772 773 774 777 778 779 780 781 782 -38646 785 786 787 788 789 769 791 792 793 794 795 784 0
38638 796 771 772 773 774 778 779 780 781 782 785 786 787 788 789 -38647 792 793 794 795 770 797 798 799 800 791 0
38639 801 772 773 774 779 780 781 782 786 787 788 789 792 793 794 795 -38648 798 799 800 771 802 803 804 797 0
-38640 -805 0
38640 805 773 774 780 781 782 787 788 789 793 794 795 798 799 800 -38649 803 804 772 806 807 802 0
38641 808 774 781 782 788 789 794 795 799 800 803 804 -38650 807 773 809 806 0
38642 810 782 789 795 800 804 807 -38651 774 809 0
-767 -38644 -38643 0
-768 -38644 -38643 0
-769 -38644 -38643 0
-770 -38644 -38643 0
-771 -38644 -38643 0
-772 -38644 -38643 0
-773 -38644 -38643 0
-774 -38644 -38643 0
-776 -38645 -38644 0
-777 -38645 -38644 0
-778 -38645 -38644 0
-779 -38645 -38644 0
-780 -38645 -38644 0
-781 -38645 -38644 0
-782 -38645 -38644 0
-784 -38646 -38645 0
-785 -38646 -38645 0
-786 -38646 -38645 0
-787 -38646 -38645 0
-788 -38646 -38645 0
-789 -38646 -38645 0
-791 -38647 -38646 0
-792 -38647 -38646 0
-793 -38647 -38646 0
-794 -38647 -38646 0
-795 -38647 -38646 0
-797 -38648 -38647 0
-798 -38648 -38647 0
-799 -38648 -38647 0
-800 -38648 -38647 0
-802 -38649 -38648 0
-803 -38649 -38648 0
-804 -38649 -38648 0
-806 -38650 -38649 0
-807 -38650 -38649 0
-809 -38651 -38650 0
-38625 38634 0
-721 -38625 0
-722 -38625 0
-723 -38625 0
-724 -38625 0
-725 -38625 0
721 -38634 38625 728 723 725 722 727 726 729 724 0
-38626 38635 0
-38626 -730 0
-731 -38626 0
-732 -38626 0
-38626 -735 0
730 38626 -38635 733 726 731 735 728 729 727 723 734 724 722 725 736 737 732 0
-38627 38636 0
-724 -38627 0
-732 -38627 0
-38627 -734 0
-741 -38627 0
-38627 -742 0
729 38627 738 744 733 726 -38636 731 724 727 725 728 723 736 737 732 735 741 734 740 742 743 739 0
38628 729 748 745 -38637 726 733 736 727 732 735 739 728 724 746 725 742 737 744 743 740 734 741 749 750 747 0
-38629 38638 0
-38629 -742 0
-38629 -747 0
-752 -38629 0
729 38629 751 -38638 747 733 736 753 726 728 737 740 735 727 725 742 746 744 743 748 749 741 750 752 754 755 734 0
38630 729 756 -38639 747 736 743 726 727 753 748 737 742 728 735 744 750 734 749 754 755 757 741 758 759 752 0
-38631 38640 0
-38631 -735 0
-38631 -742 0
-38631 -753 0
-757 -38631 0
-38631 -761 0
729 -38640 38631 760 743 761 736 742 728 748 737 749 750 753 754 755 735 758 759 744 757 762 727 0
-38632 38641 0
-38632 -761 0
-38632 -763 0
729 -38641 38632 763 754 761 737 744 750 743 755 758 759 728 762 749 764 736 0
-737 -38633 0
-744 -38633 0
-750 -38633 0
-755 -38633 0
-759 -38633 0
729 737 38633 -38642 762 755 759 765 764 750 744 0
-723 -38635 -38636 0
-724 -38634 -38636 0
-724 -38636 -38635 0
-726 -38638 -38639 0
-727 -38634 -38635 0
-728 -38634 -38635 0
-731 -38635 -38636 0
-732 -38635 -38636 0
-732 -38635 -38637 0
-732 -38636 -38637 0
-733 -38635 -38637 0
-733 -38636 -38638 0
-734 -38636 -38635 0
-734 -38635 -38638 0
-734 -38636 -38637 0
-734 -38638 -38639 0
-735 -38636 -38635 0
-735 -38635 -38637 0
-735 -38635 -38640 0
-735 -38636 -38638 0
-736 -38635 -38638 0
-736 -38635 -38641 0
-737 -38635 -38642 0
-737 -38640 -38641 0
-737 -38642 -38641 0
-739 -38636 -38637 0
-740 -38636 -38637 0
-740 -38636 -38638 0
-740 -38637 -38638 0
-741 -38636 -38639 0
-741 -38637 -38638 0
-741 -38638 -38639 0
-742 -38636 -38638 0
-742 -38637 -38639 0
-743 -38637 -38641 0
-744 -38641 -38640 0
-744 -38641 -38642 0
-746 -38637 -38638 0
-747 -38637 -38638 0
-747 -38637 -38639 0
-747 -38638 -38639 0
-748 -38638 -38637 0
-748 -38637 -38639 0
-748 -38638 -38639 0
-749 -38637 -38641 0
-750 -38641 -38640 0
-750 -38641 -38642 0
-752 -38638 -38639 0
-753 -38638 -38639 0
-753 -38638 -38640 0
-753 -38639 -38640 0
-755 -38641 -38640 0
-755 -38641 -38642 0
-759 -38641 -38640 0
-759 -38641 -38642 0
-761 -38641 -38640 0
-38616 38625 0
-38616 -677 0
-678 -38616 0
-679 -38616 0
-680 -38616 0
-681 -38616 0
-684 -38616 0
-38625 678 38616 676 681 680 677 682 683 684 679 0
-684 -38617 0
-38617 -691 0
-38626 38617 685 678 689 690 682 683 679 677 684 688 680 681 687 691 692 686 0
-689 -38618 0
-693 -38618 0
-38618 -696 0
38618 -38627 693 680 690 682 683 684 678 689 679 687 681 691 692 688 694 695 696 697 698 699 686 0
682 -38628 699 689 700 683 684 687 702 679 690 691 692 681 694 696 697 698 38619 695 701 688 703 704 705 680 0
38620 682 706 -38629 683 684 702 689 701 691 692 708 690 697 698 699 695 681 703 704 705 680 688 696 709 710 707 0
38621 682 -38630 711 684 702 683 691 692 690 689 698 699 703 696 704 705 697 681 709 710 712 708 713 714 707 0
-38622 38631 0
-38631 38622 692 716 683 715 703 682 698 699 691 684 704 705 709 708 712 713 714 690 710 717 697 0
-38623 38632 0
-684 -38623 0
-691 -38623 0
-692 -38623 0
-699 -38623 0
-704 -38623 0
-705 -38623 0
-710 -38623 0
-714 -38623 0
-38623 -716 0
-38623 -718 0
-38632 38623 692 716 718 698 683 691 699 705 710 713 714 704 717 709 719 684 0
-38624 -720 0
-38633 720 38624 710 714 684 699 719 717 692 705 0
-678 -38626 -38625 0
-679 -38626 -38625 0
-680 -38626 -38625 0
-681 -38626 -38625 0
-681 -38628 -38630 0
-683 -38632 -38631 0
-684 -38625 -38633 0
-686 -38626 -38627 0
-687 -38626 -38627 0
-687 -38626 -38628 0
-688 -38626 -38627 0
-688 -38626 -38628 0
-688 -38629 -38628 0
-689 -38627 -38626 0
-689 -38629 -38626 0
-689 -38626 -38630 0
-689 -38629 -38627 0
-689 -38627 -38630 0
-689 -38629 -38628 0
-689 -38629 -38630 0
-690 -38626 -38627 0
-690 -38626 -38628 0
-690 -38626 -38631 0
-690 -38627 -38628 0
-690 -38629 -38628 0
-690 -38628 -38631 0
-690 -38630 -38631 0
-691 -38626 -38627 0
-694 -38627 -38628 0
-695 -38627 -38628 0
-696 -38627 -38628 0
-696 -38629 -38627 0
-696 -38627 -38630 0
-696 -38629 -38628 0
-696 -38628 -38630 0
-696 -38629 -38630 0
-697 -38627 -38628 0
-697 -38627 -38631 0
-697 -38628 -38631 0
-697 -38630 -38631 0
-702 -38628 -38629 0
-702 -38628 -38630 0
-702 -38629 -38630 0
-703 -38628 -38631 0
-703 -38630 -38631 0
-704 -38628 -38630 0
-704 -38632 -38631 0
-707 -38629 -38630 0
-708 -38629 -38630 0
-708 -38630 -38631 0
-709 -38632 -38631 0
-712 -38630 -38631 0
-716 -38632 -38631 0
-38607 38616 0
-38607 -631 0
-38607 -632 0
-633 -38607 0
-634 -38607 0
-635 -38607 0
38607 -38616 632 631 634 633 636 637 638 639 635 0
-38608 38617 0
-644 -38608 0
-38617 634 646 644 38608 636 637 638 639 635 641 642 643 645 633 632 647 640 0
-38618 635 653 38609 636 637 648 639 638 651 650 643 642 633 647 645 634 652 641 654 649 644 646 0
-38619 636 655 38610 637 638 639 645 634 643 642 657 647 635 649 650 651 653 654 652 656 644 658 659 660 646 0
38611 636 661 -38620 638 639 651 637 645 635 647 650 644 652 653 654 662 643 658 659 660 656 657 663 664 665 646 0
-38622 671 639 637 38613 638 647 667 653 654 646 670 659 660 664 665 645 668 669 658 652 672 663 0
-38614 38623 0
-38614 -646 0
-653 -38614 0
-654 -38614 0
-659 -38614 0
-660 -38614 0
-664 -38614 0
-668 -38614 0
-669 -38614 0
-38614 -671 0
-38614 -673 0
671 639 38614 -38623 673 653 668 647 660 638 665 664 669 659 672 654 674 646 0
-38615 38624 0
-675 -38615 0
-38624 654 38615 639 675 665 647 672 674 669 660 0
-38617 -632 -38616 0
-633 -38617 -38616 0
-634 -38617 -38616 0
-635 -38617 -38616 0
-38618 -38617 -641 0
-38618 -38617 -642 0
-643 -38618 -38617 0
-644 -38618 -38617 0
-645 -38618 -38617 0
-645 -38622 -38621 0
-38618 -38617 -646 0
-38622 -646 -38623 0
-647 -38623 -38624 0
-649 -38619 -38618 0
-650 -38619 -38618 0
-650 -38620 -38618 0
-651 -38619 -38618 0
-652 -38619 -38618 0
-652 -38620 -38618 0
-652 -38621 -38618 0
-652 -38621 -38622 0
-653 -38622 -38623 0
-654 -38623 -38624 0
-656 -38619 -38620 0
-657 -38619 -38620 0
-658 -38619 -38620 0
-658 -38621 -38620 0
-658 -38622 -38621 0
-659 -38622 -38623 0
-660 -38623 -38624 0
-38621 -662 -38620 0
-663 -38621 -38620 0
-663 -38622 -38621 0
-664 -38622 -38623 0
-38621 -667 -38622 0
-668 -38622 -38623 0
-669 -38623 -38624 0
-38622 -671 -38623 0
-38598 38607 0
-38598 -586 0
-587 -38598 0
-588 -38598 0
-589 -38598 0
-590 -38598 0
-38607 38598 594 586 588 589 591 592 593 587 590 0
-38599 38608 0
-38599 -599 0
-38608 592 38599 596 598 595 588 599 593 589 590 594 591 600 597 601 602 587 0
-38609 38600 606 591 603 592 593 594 590 596 597 589 598 601 602 600 604 605 588 607 608 609 599 0
-38601 -599 0
-38601 -606 0
-38610 38601 591 611 592 598 593 590 594 607 610 597 602 600 604 601 605 608 609 589 606 612 613 614 615 599 0
-38613 592 38604 600 626 593 625 602 608 594 609 614 615 607 619 620 622 623 624 601 618 627 613 0
-38605 38614 0
-38605 -626 0
-38605 -628 0
-38614 602 38605 628 626 608 619 593 615 609 620 594 624 614 627 601 629 623 0
-38606 38615 0
-38606 -630 0
-38615 624 38606 630 602 620 615 627 629 594 609 0
-596 -38608 -38609 0
-597 -38609 -38608 0
-597 -38610 -38608 0
-597 -38610 -38609 0
-598 -38608 -38609 0
-38611 -598 -38608 0
-598 -38609 -38610 0
-599 -38608 -38609 0
-38610 -599 -38608 0
-38611 -599 -38608 0
-38610 -599 -38609 0
-600 -38609 -38608 0
-600 -38610 -38608 0
-600 -38610 -38609 0
-601 -38609 -38608 0
-604 -38610 -38609 0
-605 -38610 -38609 0
-606 -38610 -38609 0
-607 -38610 -38609 0
-38613 -38614 -626 0
-38589 38598 0
-541 -38589 0
-542 -38589 0
-543 -38589 0
-544 -38589 0
-38589 -545 0
-38598 549 545 541 542 543 544 547 548 546 38589 0
-38590 38599 0
-38599 545 38590 554 555 546 547 548 549 551 550 552 553 542 543 544 557 556 0
-38600 561 38591 544 546 547 548 549 555 552 553 558 545 551 557 543 559 560 554 562 563 564 556 0
-38601 545 38592 546 547 548 549 567 552 553 555 544 557 559 560 554 562 563 564 565 566 561 568 569 570 556 0
-38604 581 548 549 38595 580 563 557 547 564 556 569 570 573 574 575 577 578 579 568 562 582 555 0
-38596 38605 0
-581 -38596 0
-38596 -583 0
-38605 583 548 549 38596 557 563 570 581 574 575 578 579 569 582 556 584 564 0
-38597 38606 0
-585 -38597 0
-38606 38597 564 585 549 575 557 582 584 579 570 0
-38600 -554 -38599 0
-38604 -581 -38605 0
-38580 38589 0
-38580 -496 0
-38580 -497 0
-498 -38580 0
-38580 -499 0
-38580 -500 0
-38589 497 38580 499 496 500 501 502 503 504 498 0
-38581 38590 0
-38590 505 38581 499 508 509 503 501 504 506 510 507 497 500 498 511 512 502 0
-38591 38582 499 498 501 502 503 504 515 517 513 510 507 500 512 511 516 508 506 514 518 519 509 0
-38592 38583 499 504 502 503 501 520 523 511 524 507 512 522 508 521 510 518 519 514 515 516 517 500 525 509 0
-38586 -502 0
-503 -38586 0
-504 -38586 0
-510 -38586 0
-511 -38586 0
-517 -38586 0
-518 -38586 0
-519 -38586 0
-523 -38586 0
-524 -38586 0
-525 -38586 0
-528 -38586 0
-529 -38586 0
-530 -38586 0
-532 -38586 0
-533 -38586 0
-534 -38586 0
-38586 -535 0
-536 -38586 0
-38595 535 38586 528 504 518 512 536 503 519 532 524 525 502 529 530 523 533 534 510 517 537 511 0
-538 -38587 0
-38596 519 38587 539 512 536 538 525 511 504 530 529 534 524 537 518 503 533 0
-38588 38597 0
-525 -38588 0
-530 -38588 0
-540 -38588 0
-38597 38588 504 512 539 540 534 537 519 525 530 0
-38590 -38589 -497 0
-498 -38590 -38589 0
-38590 -38589 -499 0
-38590 -38589 -500 0
-506 -38591 -38590 0
-507 -38591 -38590 0
-508 -38591 -38590 0
-510 -38591 -38590 0
-38591 -38590 -511 0
-38592 -38591 -514 0
-515 -38592 -38591 0
-38592 -517 -38591 0
-38592 -518 -38591 0
-536 -38595 -38596 0
-38571 38580 0
-38571 -451 0
-38571 -452 0
-453 -38571 0
-454 -38571 0
-455 -38571 0
-38580 38571 456 451 454 453 452 457 458 459 455 0
-38572 38581 0
-38572 -464 0
-467 -38572 0
-38581 38572 453 465 456 464 457 458 459 460 455 466 452 454 463 462 467 461 0
-38582 38573 455 456 471 457 458 459 461 468 469 464 473 465 467 472 462 453 466 470 454 474 463 0
-38583 38574 455 477 457 458 459 478 472 467 456 470 471 466 464 462 473 475 474 469 463 465 476 479 480 454 0
-38586 38577 457 459 458 465 478 488 490 474 467 484 480 491 483 485 466 487 489 479 473 492 472 0
-38578 -491 0
-38587 38578 459 489 493 491 474 473 480 467 485 488 492 466 458 484 494 479 0
-38579 38588 0
-38579 -495 0
-38588 38579 489 459 480 485 474 492 494 495 467 0
-453 -38581 -38580 0
-453 -38582 -38580 0
-454 -38581 -38580 0
-454 -38582 -38580 0
-454 -38583 -38580 0
-455 -38580 -38581 0
-38582 -455 -38580 0
-38583 -455 -38580 0
-38582 -38581 -455 0
-461 -38582 -38581 0
-462 -38582 -38581 0
-462 -38583 -38581 0
-462 -38582 -38583 0
-463 -38582 -38581 0
-463 -38583 -38581 0
-463 -38583 -38582 0
-465 -38582 -38581 0
-465 -38583 -38581 0
-465 -38582 -38583 0
-466 -38582 -38581 0
-466 -38586 -38587 0
-469 -38583 -38582 0
-470 -38583 -38582 0
-472 -38583 -38582 0
-473 -38586 -38587 0
-479 -38586 -38587 0
-484 -38586 -38587 0
-488 -38586 -38587 0
-38587 -38586 -491 0
-38562 38571 0
-406 -38562 0
-38571 413 38562 411 406 410 409 412 407 414 408 0
-38563 -415 0
-38572 38563 411 420 415 410 412 413 414 409 407 418 421 419 417 416 422 408 0
-38573 38564 427 410 428 412 413 414 417 408 420 411 426 421 422 416 423 409 424 425 418 429 419 0
-38574 38565 427 410 412 413 414 409 411 420 428 421 422 431 424 418 426 425 429 417 430 432 433 434 435 419 0
-38569 38578 0
-446 -38569 0
-38578 414 38569 446 422 447 413 421 440 448 429 443 444 439 435 434 449 428 0
-38570 38579 0
-38570 -450 0
-38579 450 435 38570 422 440 444 447 429 449 414 0
-407 -38572 -38571 0
-38572 -38571 -408 0
-409 -38572 -38571 0
-38572 -410 -38571 0
-416 -38573 -38572 0
-417 -38573 -38572 0
-417 -38572 -38574 0
-418 -38573 -38572 0
-418 -38572 -38574 0
-420 -38573 -38572 0
-420 -38572 -38574 0
-38573 -38572 -421 0
-38577 -38578 -421 0
-424 -38573 -38574 0
-425 -38573 -38574 0
-428 -38577 -38578 0
-434 -38577 -38578 0
-439 -38577 -38578 0
-443 -38577 -38578 0
-446 -38577 -38578 0
-38562 38553 362 365 364 363 361 367 368 369 366 0
-38563 365 38554 363 362 371 370 373 369 375 364 366 367 374 368 376 377 372 0
-38560 38569 0
-38569 403 38560 369 384 401 377 395 390 368 376 394 399 389 402 398 404 383 0
-38561 38570 0
-405 -38561 0
-38570 369 38561 402 395 390 399 384 404 377 405 0
-38563 -365 -38562 0
-38564 -38563 -373 0
-38565 -38563 -373 0
-38565 -38564 -373 0
-38565 -380 -38564 0
38553 -38544 0
-38553 320 38544 316 323 318 321 322 317 324 319 0
-38560 38551 324 358 345 356 338 331 354 332 350 353 339 323 357 349 359 344 0
-38552 38561 0
-360 -38552 0
-38561 324 359 38552 354 360 357 339 332 345 350 0
-38554 -319 -38553 0
-38535 38544 0
-271 -38535 0
-279 -38535 0
-38544 279 38535 271 273 274 276 278 277 275 272 0
-38551 313 38542 294 278 311 279 287 300 304 305 286 309 299 312 308 314 293 0
-38543 38552 0
-38552 294 38543 312 300 305 309 314 315 279 287 0
-38526 38535 0
-38535 38526 234 228 227 229 231 232 233 226 230 0
-38542 38533 234 268 233 249 266 254 255 263 260 241 264 259 267 248 269 242 0
-38543 267 255 270 260 264 234 38534 269 249 242 0
-38517 38526 0
-38517 -184 0
-38526 38517 185 184 181 189 186 183 188 187 182 0
-38534 38525 222 225 215 219 210 189 224 204 197 0
-38517 38508 139 141 136 137 138 142 143 144 140 0
-38525 180 38516 177 159 170 174 144 179 165 152 0
-38516 135 38507 129 114 125 107 120 134 99 132 0
38757 -20 0
38757 -26 0
38757 -31 0
-38757 -34 0
-38757 -41 0
-38757 -43 0
38762 -25 0
-38762 -31 0
-38762 -33 0
-38762 -37 0
-38762 -41 0
-38762 -43 0
38765 -18 0
-38765 -31 0
-38765 -43 0
-49 -38768 2133 0
-63 2135 -38768 0
-73 -38768 2136 0
-79 -2141 -38768 0
-79 38768 2141 -2137 0
-82 38768 -2138 2140 0
-83 38768 -2138 2141 0
-88 -38768 2140 0
-38769 -47 2303 0
-48 -38769 2303 0
-63 2305 -38769 0
-64 2305 -38769 0
-65 2305 -38769 0
-68 -38769 2305 0
-70 2306 -38769 0
-71 2306 -38769 0
-74 -38769 2306 0
-76 -2308 -38769 0
-79 -38769 2307 0
-82 38769 -2308 2310 0
-83 38769 -2308 2311 0
-88 -38769 2310 0
-38770 -63 2475 0
-38770 -79 2477 0
-38770 -88 2480 0
-38771 -63 2645 0
-78 38771 2650 -2647 0
-38771 -79 -2651 0
-38771 -88 2650 0
-38772 -63 2815 0
-38772 -79 2817 0
-38772 -88 2820 0
-38773 -63 2985 0
-38773 2987 -79 0
-38773 -88 2990 0
-38774 -63 3155 0
-38774 -79 3157 0
-38774 -88 3160 0
38775 -47 3495 -3493 0
38775 -48 3496 -3493 0
38775 -49 3497 -3493 0
3498 -50 38775 -3493 0
-38775 -63 3495 0
-65 -38775 3495 0
-67 -38775 3495 0
-38775 -68 3495 0
-71 -38775 3496 0
-73 -38775 3496 0
-74 -38775 3496 0
-76 -38775 3497 0
-78 -38775 3497 0
-38775 -79 3497 0
-82 -38775 3498 0
-88 -38775 3500 0
-38776 -63 3665 0
-38776 -79 3667 0
-38776 -88 3670 0
-38777 -63 3835 0
-38777 3837 -79 0
-38777 -88 3840 0
-38778 -63 4005 0
-38778 4007 -79 0
-38778 -88 4010 0
-38779 4175 -63 0
-38779 4177 -79 0
-38779 -88 4180 0
-38780 -63 4345 0
-38780 -79 4347 0
-38780 -88 4350 0
-38781 -63 4515 0
-38781 -79 4517 0
-38781 -88 4520 0
-38782 -63 4685 0
-38782 -79 4687 0
-38782 -88 4690 0
-38783 -63 4855 0
-38783 -79 4857 0
-38783 -88 4860 0
-38784 -63 5025 0
-38784 -79 5027 0
-38784 -88 5030 0
-38785 -63 -5196 0
-38785 -79 5197 0
-38785 -88 5200 0
-38786 -63 5365 0
-38786 -79 5367 0
-38786 -88 5370 0
-38787 -63 5535 0
-38787 5537 -79 0
-38787 -88 5540 0
-38788 5705 -63 0
-38788 5707 -79 0
-38788 -88 5710 0
-38789 -63 5875 0
-38789 5877 -79 0
-38789 -88 5880 0
-38790 -63 6045 0
-38790 6047 -79 0
-38790 -88 6050 0
-38791 -63 -6216 0
-38791 6217 -79 0
-38791 -88 6220 0
-38792 -63 6385 0
-38792 -79 6387 0
-38792 -88 6390 0
-38793 -63 6555 0
-38793 -79 6557 0
-38793 -88 6560 0
-38794 -63 6725 0
-38794 -79 6727 0
-38794 -88 6730 0
-38795 -63 6895 0
-38795 -79 6897 0
-38795 -88 6900 0
-38796 -63 -7066 0
-38796 -79 7067 0
-38796 -88 7070 0
-38797 -63 7235 0
-38797 7237 -79 0
-38797 -88 7240 0
-38798 -63 7405 0
-38798 7407 -79 0
-38798 -88 7410 0
-38799 7575 -63 0
-38799 7577 -79 0
-38799 -88 7580 0
-38800 -63 7745 0
-38800 7747 -79 0
-38800 -88 7750 0
-38801 -63 7915 0
-38801 7917 -79 0
-38801 -88 7920 0
-38802 -63 -8086 0
-38802 8087 -79 0
-38802 -88 8090 0
-38803 -63 8255 0
-38803 -79 8257 0
-38803 -88 8260 0
-38804 -63 8425 0
-38804 -79 8427 0
-38804 -88 8430 0
-38805 -48 8593 0
-63 -38805 8595 0
-64 -38805 8595 0
-65 -38805 8595 0
-67 -38805 8595 0
-70 -38805 8596 0
-71 -38805 8596 0
-73 -38805 -8600 0
-79 -38805 8597 0
-83 -38805 8598 0
-88 -38805 -8601 0
-88 38805 -8600 8601 0
-38806 -63 8765 0
-38806 -79 8767 0
-38806 -88 8770 0
-38807 -63 8935 0
-38807 -79 8937 0
-38807 -88 8940 0
-38808 -63 -9106 0
-38808 -79 9107 0
-38808 -88 9110 0
-38809 -63 -9276 0
-38809 -79 9277 0
-38809 -88 9280 0
-38810 -63 9445 0
-38810 9447 -79 0
-38810 -88 9450 0
-38811 9615 -63 0
-38811 9617 -79 0
-38811 -88 9620 0
-38812 -63 9785 0
-38812 9787 -79 0
-38812 -88 9790 0
-38813 -63 -9956 0
-38813 9957 -79 0
-38813 -88 9960 0
-38814 -63 -10126 0
-38814 10127 -79 0
-38814 -88 10130 0
-38815 -63 10295 0
-38815 -79 10297 0
-38815 -88 10300 0
-38816 -63 10465 0
-38816 -79 10467 0
-38816 -88 10470 0
-38817 -63 10635 0
-38817 -79 10637 0
-38817 -88 10640 0
-38818 -63 -10806 0
-38818 -79 10807 0
-38818 -88 10810 0
-38819 -63 -10976 0
-38819 -79 10977 0
-38819 -88 10980 0
-38820 -63 11145 0
-38820 11147 -79 0
-38820 -88 11150 0
-38821 11315 -63 0
-38821 11317 -79 0
-38821 -88 11320 0
-38822 -63 11485 0
-38822 11487 -79 0
-38822 -88 11490 0
-38823 -63 -11656 0
-38823 11657 -79 0
-38823 -88 11660 0
-38824 -63 -11826 0
-38824 11827 -79 0
-38824 -88 11830 0
-38825 -63 12165 0
-38825 -79 12167 0
-38825 -88 12170 0
-38826 -63 12335 0
-38826 -79 12337 0
-38826 -88 12340 0
-38827 -63 12505 0
-38827 -79 -12511 0
-38827 -88 -12511 0
-38828 -63 12675 0
-38828 -79 -12681 0
-38828 -88 12680 0
-38829 -63 12845 0
-38829 -79 -12851 0
-38829 -88 12850 0
-38830 -63 13015 0
-38830 -79 -13021 0
-38830 -88 13020 0
-38831 -63 13185 0
-38831 -79 13187 0
-38831 -88 13190 0
-38832 -63 13355 0
-38832 -79 -13361 0
-38832 -88 -13361 0
-38833 -63 13525 0
-38833 -79 13527 0
-38833 -88 13530 0
-38834 -63 13695 0
-38834 -79 13697 0
-38834 -88 13700 0
-38835 -63 13865 0
-38835 -79 13867 0
-38835 -88 13870 0
-38836 -63 -14036 0
-38836 -79 14037 0
-38836 -88 14040 0
-38837 -63 14205 0
-38837 -79 -14211 0
-38837 -88 14210 0
-38838 -63 14375 0
-38838 -79 -14381 0
-38838 -88 14380 0
-38839 -63 14545 0
-38839 -79 -14551 0
-38839 -88 14550 0
-38840 -63 14715 0
-38840 -79 -14721 0
-38840 -88 14720 0
-38841 -63 14885 0
-38841 -79 -14891 0
-38841 -88 14890 0
-38842 -63 15055 0
-38842 -79 -15061 0
-38842 -88 15060 0
-38843 -63 -15226 0
-38843 -79 -15231 0
-38843 -88 15230 0
-38844 -63 -15396 0
-38844 -79 -15401 0
-38844 -88 15400 0
-38845 -63 15565 0
-38845 -79 15567 0
-38845 -88 15570 0
-38846 -63 15735 0
-38846 -79 15737 0
-38846 -88 15740 0
-38847 -63 15905 0
-38847 -79 15907 0
-38847 -88 15910 0
-38848 -63 16075 0
-38848 -79 16077 0
-38848 -88 16080 0
-38849 -63 -16246 0
-38849 -79 16247 0
-38849 -88 16250 0
-38850 -63 16415 0
-38850 -79 -16421 0
-38850 -88 16420 0
-38851 -63 16585 0
-38851 -79 -16591 0
-38851 -88 16590 0
-38852 -63 16755 0
-38852 -79 -16761 0
-38852 -88 16760 0
-38853 -63 16925 0
-38853 -79 -16931 0
-38853 -88 16930 0
-38854 -63 17095 0
-38854 -79 -17101 0
-38854 -88 17100 0
-38855 -63 17265 0
-38855 -79 -17271 0
-38855 -88 17270 0
-38856 -63 -17436 0
-38856 -79 -17441 0
-38856 -88 17440 0
-38857 -63 -17606 0
-38857 -79 -17611 0
-38857 -88 17610 0
-38858 -63 17945 0
-38858 -79 17947 0
-38858 -88 -17951 0
-38859 -63 18285 0
-38859 -79 18287 0
-38859 -88 -18291 0
-38860 -63 18455 0
-38860 -79 18457 0
-38860 -88 -18461 0
-38861 -63 18625 0
-38861 -79 18627 0
-38861 -88 -18631 0
-38862 -63 -18796 0
-38862 -79 18797 0
-38862 -88 -18801 0
-38863 -63 -18966 0
-38863 -79 18967 0
-38863 -88 -18971 0
-38864 -63 19135 0
-38864 -79 -19141 0
-38864 -88 -19141 0
-38865 -63 19305 0
-38865 -79 -19311 0
-38865 -88 -19311 0
-38866 -63 19475 0
-38866 -79 -19481 0
-38866 -88 -19481 0
-38867 -63 19645 0
-38867 -79 -19651 0
-38867 -88 -19651 0
-38868 -63 19815 0
-38868 -79 -19821 0
-38868 -88 -19821 0
-38869 -63 19985 0
-38869 -79 -19991 0
-38869 -88 -19991 0
-38870 -63 -20156 0
-38870 -79 -20161 0
-38870 -88 -20161 0
-38871 -63 -20326 0
-38871 -79 -20331 0
-38871 -88 -20331 0
-38872 -63 -20496 0
-38872 -79 -20501 0
-38872 -88 -20501 0
-38873 -63 -20666 0
-38873 -79 -20671 0
-38873 -88 -20671 0
-38874 -63 21005 0
-38874 -79 21007 0
-38874 -88 -21011 0
-38875 -63 -21176 0
-38875 -79 21177 0
-38875 -88 -21181 0
-38876 -63 21345 0
-38876 -79 21347 0
-38876 -88 -21351 0
-38877 -63 -21516 0
-38877 -79 21517 0
-38877 -88 -21521 0
-38878 -63 -21686 0
-38878 -79 21687 0
-38878 -88 -21691 0
-38879 -63 22025 0
-38879 -79 -22031 0
-38879 -88 -22031 0
-38880 -63 -22196 0
-38880 -79 -22201 0
-38880 -88 -22201 0
-38881 -63 -22366 0
-38881 -79 -22371 0
-38881 -88 -22371 0
-38882 -63 -22706 0
-38882 -79 -22711 0
-38882 -88 -22711 0
-38883 -63 -23046 0
-38883 -79 -23051 0
-38883 -88 -23051 0
38778 38883 38775 38770 38804 38769 38772 38768 38810 38777 38882 38776 38780 38781 38782 38783 38779 38803 38784 38787 38788 38785 38786 38789 38792 38793 38794 38790 38791 38797 38798 38799 38800 38801 38802 38774 38773 38805 38806 38807 38795 38809 38771 38811 38812 38813 38814 38815 38816 38817 38796 38808 38820 38821 38822 38823 38824 38825 38826 38827 38828 38829 38830 38831 38832 38833 38834 38835 38836 38837 38838 38839 38840 38841 38842 38843 38844 38845 38846 38847 38848 38849 38850 38851 38852 38853 38854 38855 38856 38857 38858 38859 38860 38861 38862 38863 38818 38819 38864 38865 38866 38867 38868 38869 38870 38871 38874 38875 38876 38877 38878 38872 38873 38881 38879 38880 0
-95 -38884 2143 0
-110 -38884 2145 0
-112 -38884 2145 0
-113 -38884 2145 0
-115 -38884 2146 0
-116 -38884 2146 0
-118 -38884 2146 0
-119 -38884 2146 0
-121 -38884 -2148 0
38884 -121 -2147 2148 0
-123 -38884 2147 0
-123 38884 2150 -2147 0
38884 -124 -2147 2151 0
-38884 -127 2148 0
-38884 -128 2148 0
38884 -128 -2148 2151 0
-38884 -133 2150 0
-38885 -92 2313 0
-38885 -93 2313 0
-38885 -94 2313 0
-109 -38885 2315 0
-113 -38885 2315 0
-38885 -115 2316 0
-38885 -118 2316 0
-38885 -119 2316 0
-38885 -121 2317 0
-38885 -124 2317 0
38885 -127 -2318 2320 0
38885 -128 -2318 2321 0
-115 -38886 2486 0
-38886 -118 2486 0
-38887 -115 2656 0
-38887 -118 2656 0
-38888 -115 2826 0
-38888 -118 2826 0
-38889 -115 2996 0
-38889 -118 2996 0
-115 -38890 3166 0
-38890 -118 3166 0
38891 -92 -3503 3505 0
38891 -93 3506 -3503 0
38891 -95 3508 -3503 0
-113 -38891 3505 0
-38891 -115 3506 0
-118 -38891 3506 0
-119 -38891 3506 0
-123 -38891 3507 0
-38891 -124 3507 0
-38891 -127 3508 0
-38891 -133 3510 0
-38892 -115 3676 0
-38892 -118 3676 0
-38893 -115 3846 0
-38893 -118 3846 0
-38894 -115 4016 0
-38894 -118 4016 0
-38895 -115 4186 0
-38895 -118 4186 0
-38896 -115 4356 0
-38896 -118 4356 0
-38897 -115 4526 0
-38897 -118 4526 0
-38898 -115 4696 0
-38898 -118 4696 0
-38899 -115 4866 0
-38899 -118 4866 0
-38900 -115 5036 0
-38900 -5040 -118 0
-38901 -5207 -115 0
-38901 5206 -118 0
-38902 -115 5376 0
-38902 -118 5376 0
-38903 -115 5546 0
-38903 -118 5546 0
-38904 -115 5716 0
-38904 -118 5716 0
-38905 -115 -5887 0
-38905 5886 -118 0
-38906 -115 -6057 0
-38906 6056 -118 0
-38907 -115 -6227 0
-38907 6226 -118 0
-38908 -115 6396 0
-38908 -118 6396 0
-38909 -115 6566 0
-38909 -118 6566 0
-38910 -115 6736 0
-38910 -118 6736 0
-38911 -115 6906 0
-38911 -118 -6910 0
-38912 -115 7076 0
-38912 -118 -7080 0
-38913 -115 7246 0
-38913 -118 7246 0
-38914 -115 7416 0
-38914 -118 7416 0
-38915 -115 7586 0
-38915 -118 7586 0
-38916 -115 -7757 0
-38916 7756 -118 0
-38917 -115 -7927 0
-38917 7926 -118 0
-38918 -115 -8097 0
-38918 8096 -118 0
-38919 -115 8266 0
-38919 -118 8266 0
-38920 -115 8436 0
-38920 -118 8436 0
-38921 -115 8606 0
-118 -38921 8606 0
-38921 -121 8607 0
38921 -133 -8610 8611 0
-38922 -115 8776 0
-38922 -118 8776 0
-38923 -115 8946 0
-38923 -118 8946 0
-38924 -115 9116 0
-38924 -118 -9120 0
-38925 -115 9286 0
-38925 -118 9286 0
-38926 -115 9456 0
-38926 -118 9456 0
-38927 -115 9626 0
-38927 -118 9626 0
-38928 -115 -9797 0
-38928 9796 -118 0
-38929 -115 -9967 0
-38929 9966 -118 0
-38930 -115 -10137 0
-38930 10136 -118 0
-38931 -115 10306 0
-38931 -118 10306 0
-38932 -115 10476 0
-38932 -118 10476 0
-38933 -115 10646 0
-38933 -118 10646 0
-38934 -10817 -115 0
-38934 -118 -10820 0
-38935 -10987 -115 0
-38935 -118 -10990 0
-38936 -115 11156 0
-38936 -118 11156 0
-38937 -115 11326 0
-38937 -118 11326 0
-38938 -115 -11497 0
-38938 11496 -118 0
-38939 -115 -11667 0
-38939 11666 -118 0
-38940 -115 -11837 0
-38940 11836 -118 0
-38941 -115 12176 0
-38941 -118 12176 0
-38942 -115 12346 0
-38942 -118 12346 0
-38943 -115 12516 0
-38943 -118 12516 0
-38944 -115 12686 0
-38944 -118 12686 0
-38945 -115 12856 0
-38945 -118 12856 0
-38946 -115 13026 0
-38946 -118 13026 0
-38947 -115 13196 0
-38947 -118 13196 0
-38948 -115 13366 0
-38948 -118 13366 0
-38949 -115 13536 0
-38949 -118 13536 0
-38950 -115 13706 0
-38950 -118 13706 0
-38951 -115 13876 0
-38951 -13880 -118 0
-38952 -14047 -115 0
-38952 14046 -118 0
-38953 -115 14216 0
-38953 -118 14216 0
-38954 -115 14386 0
-38954 -118 14386 0
-38955 -115 14556 0
-38955 -118 14556 0
-38956 -115 14726 0
-38956 -118 14726 0
-38957 -14897 -115 0
-38957 14896 -118 0
-38958 -115 -15067 0
-38958 15066 -118 0
-38959 -15237 -115 0
-38959 15236 -118 0
-38960 -115 -15407 0
-38960 15406 -118 0
-38961 -115 15576 0
-38961 -118 15576 0
-38962 -115 15746 0
-38962 -118 15746 0
-38963 -115 15916 0
-38963 -118 15916 0
-38964 -115 16086 0
-38964 -118 -16090 0
-38965 -16257 -115 0
-38965 16256 -118 0
-38966 -115 16426 0
-38966 -118 16426 0
-38967 -115 16596 0
-38967 -118 16596 0
-38968 -115 16766 0
-38968 -118 16766 0
-38969 -115 16936 0
-38969 -118 16936 0
-38970 -17107 -115 0
-38970 17106 -118 0
-38971 -115 -17277 0
-38971 17276 -118 0
-38972 -115 -17447 0
-38972 17446 -118 0
-38973 -115 -17617 0
-38973 17616 -118 0
-38974 -115 17956 0
-38974 -118 -17960 0
-38975 -115 18296 0
-38975 -118 -18300 0
-38976 -115 18466 0
-38976 -118 -18470 0
-38977 -115 18636 0
-38977 -118 -18640 0
-38978 18806 -115 0
-38978 -118 -18810 0
-38979 -115 18976 0
-38979 -118 -18980 0
-38980 -19147 -115 0
-38980 -118 -19150 0
-38981 -115 -19317 0
-38981 -118 -19320 0
-38982 -115 -19487 0
-38982 -118 -19490 0
-38983 -115 -19657 0
-38983 -118 -19660 0
-38984 -19827 -115 0
-38984 -118 -19830 0
-38985 -115 -19997 0
-38985 -118 -20000 0
-38986 -20167 -115 0
-38986 -118 -20170 0
-38987 -115 -20337 0
-38987 -118 -20340 0
-38988 -20507 -115 0
-38988 -118 -20510 0
-38989 -115 -20677 0
-38989 -118 -20680 0
-38990 -115 21016 0
-38990 -118 -21020 0
-38991 -115 21186 0
-38991 -118 -21190 0
-38992 -115 21356 0
-38992 -118 -21360 0
-38993 21526 -115 0
-38993 -118 -21530 0
-38994 -115 21696 0
-38994 -118 -21700 0
-38995 -115 -22037 0
-38995 -118 22036 0
-38996 -115 -22207 0
-38996 -118 22206 0
-38997 -115 -22377 0
-38997 -118 -22380 0
-38998 -115 -22717 0
-38998 -118 -22720 0
-115 -38999 -23057 0
-38999 -118 -23060 0
38987 38930 38886 38885 38990 38925 38924 38919 38907 38920 38927 38901 38896 38897 38887 38898 38900 38894 38902 38888 38890 38905 38906 38904 38908 38909 38910 38911 38912 38913 38891 38915 38916 38914 38918 38893 38899 38903 38892 38921 38895 38889 38922 38923 38926 38929 38884 38945 38928 38931 38934 38935 38932 38933 38936 38939 38940 38937 38942 38938 38917 38943 38941 38947 38948 38944 38950 38951 38952 38953 38946 38955 38949 38957 38954 38959 38956 38961 38958 38963 38964 38965 38966 38960 38968 38962 38970 38967 38972 38969 38974 38971 38976 38977 38978 38979 38980 38973 38982 38975 38984 38981 38986 38983 38988 38989 38985 38991 38992 38993 38994 38995 38996 38997 38998 38999 0
-136 2153 -39000 0
-137 2153 -39000 0
-138 2153 -39000 0
-139 2153 -39000 0
-140 2153 -39000 0
-141 2153 -39000 0
-143 2153 -39000 0
-144 2153 -39000 0
-145 2154 -39000 0
-146 2154 -39000 0
-147 2154 -39000 0
-148 2154 -39000 0
-150 2154 -39000 0
-151 2154 -39000 0
-153 2155 -39000 0
-154 2155 -39000 0
-155 2155 -39000 0
-157 2155 -39000 0
-158 2155 -39000 0
-160 2156 -39000 0
-161 2156 -39000 0
-163 2156 -39000 0
-164 2156 -39000 0
39000 -166 -2157 2158 0
-168 2157 -39000 0
-168 39000 -2157 2160 0
-2157 39000 2161 -169 0
-173 2158 -39000 0
-2158 39000 2161 -173 0
-2160 39000 2161 -178 0
-2161 -180 39000 2162 0
-153 -39001 2325 0
-154 -39001 2325 0
-157 -39001 2325 0
-158 -39001 2325 0
-164 -39001 2326 0
39001 -172 -2328 2330 0
-153 -39002 2495 0
-154 -39002 2495 0
-157 -39002 2495 0
-39003 -153 2665 0
-39003 -154 2665 0
-39003 -157 2665 0
-39004 -153 2835 0
-39004 -154 2835 0
-39004 -157 2835 0
-39005 -153 3005 0
-39005 -154 3005 0
-39005 -157 3005 0
-39006 -153 3175 0
-39006 -154 3175 0
-39006 -157 3175 0
-39007 -153 3515 0
-39007 -154 3515 0
-39007 -157 3515 0
-39008 -153 3685 0
-39008 -154 3685 0
-39008 -157 3685 0
-39009 -153 3855 0
-39009 -154 3855 0
-39009 -157 3855 0
-39010 -153 4025 0
-39010 -154 4025 0
-39010 -157 4025 0
-39011 -153 4195 0
-39011 -4196 -153 0
-39011 -154 4195 0
-39011 -157 4195 0
-39012 -153 4365 0
-39012 -154 4365 0
-39012 -157 4365 0
-39013 4535 -153 0
-39013 -154 4535 0
-39013 4535 -157 0
-39014 -153 4705 0
-39014 -154 4705 0
-39014 -157 4705 0
-39015 4875 -153 0
-39015 -4876 -153 0
-39015 -154 4875 0
-39015 4875 -157 0
-39016 -153 5045 0
-39016 -153 -5046 0
-39016 -154 5045 0
-39016 -154 -5047 0
-39016 -157 5045 0
-39017 5215 -153 0
-39017 -153 -5216 0
-39017 -154 -5217 0
-39017 -157 -5220 0
-39018 -153 5385 0
-39018 -154 5385 0
-39018 -157 5385 0
-39019 -153 5555 0
-39019 -154 5555 0
-39019 -157 5555 0
-39020 -153 5725 0
-39020 -5726 -153 0
-39020 -154 5725 0
-39020 -157 5725 0
-39021 -153 5895 0
-39021 -153 -5896 0
-39021 -154 5895 0
-39021 -154 -5897 0
-39021 -157 5895 0
-39022 -153 6065 0
-39022 -153 -6066 0
-39022 -154 6065 0
-39022 -154 -6067 0
-39022 -157 6065 0
-39023 6235 -153 0
-39023 -153 -6236 0
-39023 -154 -6237 0
-39023 -157 -6240 0
-39024 -153 6405 0
-39024 -154 6405 0
-39024 -157 6405 0
-39025 -153 6575 0
-39025 -154 6575 0
-39025 -157 6575 0
-39026 6745 -153 0
-39026 -6746 -153 0
-39026 -154 6745 0
-39026 6745 -157 0
-39027 -153 6915 0
-39027 -153 -6916 0
-39027 -154 6915 0
-39027 -154 -6917 0
-39027 -157 6915 0
-39028 7085 -153 0
-39028 -153 -7086 0
-39028 -154 -7087 0
-39028 -157 -7090 0
-39029 -153 7255 0
-39029 -154 7255 0
-39029 -157 7255 0
-39030 -153 7425 0
-39030 -154 7425 0
-39030 -157 7425 0
-39031 -153 7595 0
-39031 -7596 -153 0
-39031 -154 7595 0
-39031 -157 7595 0
-39032 -153 7765 0
-39032 -153 -7766 0
-39032 -154 7765 0
-39032 -154 -7767 0
-39032 -157 7765 0
-39033 -153 7935 0
-39033 -153 -7936 0
-39033 -154 7935 0
-39033 -154 -7937 0
-39033 -157 7935 0
-39034 8105 -153 0
-39034 -153 -8106 0
-39034 -154 -8107 0
-39034 -157 -8110 0
-39035 -153 8275 0
-39035 -154 8275 0
-39035 -157 8275 0
-39036 -153 8445 0
-39036 -154 8445 0
-39036 -157 8445 0
-39037 -153 8615 0
-39037 -154 8615 0
-39037 -157 8615 0
8785 -39038 -153 0
-39038 -154 8785 0
-39038 8785 -157 0
-39039 -153 8955 0
-39039 -154 8955 0
-39039 -154 -8957 0
-39039 -157 8955 0
9125 -39040 -153 0
-39040 -154 -9127 0
-39040 -157 -9130 0
9295 -39041 -153 0
-39041 -154 -9297 0
-39041 -157 -9300 0
-39042 -153 9465 0
-39042 -154 9465 0
-39042 -154 -9467 0
-39042 -157 9465 0
-39043 -153 9635 0
-39043 -9636 -153 0
-39043 -154 9635 0
-39043 -154 -9637 0
-39043 -157 9635 0
-39044 -153 9805 0
-39044 -153 -9806 0
-39044 -154 9805 0
-39044 -154 -9807 0
-39044 -157 9805 0
-39045 9975 -153 0
-39045 -153 -9976 0
-39045 -154 -9977 0
-39045 -157 -9980 0
-39046 10145 -153 0
-39046 -153 -10146 0
-39046 -154 -10147 0
-39046 -157 -10150 0
-39047 -153 10315 0
-39047 -154 10315 0
-39047 -157 10315 0
-39048 10485 -153 0
-39048 -154 10485 0
-39048 10485 -157 0
-39049 -153 10655 0
-39049 -154 10655 0
-39049 -154 -10657 0
-39049 -157 10655 0
-39050 10825 -153 0
-39050 -154 -10827 0
-39050 -157 -10830 0
-39051 10995 -153 0
-39051 -154 -10997 0
-39051 -157 -11000 0
-39052 -153 11165 0
-39052 -154 11165 0
-39052 -154 -11167 0
-39052 -157 11165 0
-39053 11335 -153 0
-39053 -11336 -153 0
-39053 -154 11335 0
-39053 -154 -11337 0
-39053 11335 -157 0
-39054 -153 11505 0
-39054 -153 -11506 0
-39054 -154 11505 0
-39054 -154 -11507 0
-39054 -157 11505 0
-39055 11675 -153 0
-39055 -153 -11676 0
-39055 -154 -11677 0
-39055 -157 -11680 0
11845 -39056 -153 0
-39056 -153 -11846 0
-39056 -154 -11847 0
-39056 -157 -11850 0
-39057 -153 12185 0
-39057 -154 12185 0
-39057 -157 12185 0
-39058 12355 -153 0
-39058 -12356 -153 0
-39058 -154 12355 0
-39058 12355 -157 0
-39059 -153 12525 0
-39059 -154 12525 0
-39059 -154 -12527 0
-39059 -157 12525 0
-39060 -153 12695 0
-39060 -154 12695 0
-39060 -154 -12697 0
-39060 -157 12695 0
-39061 -12866 -153 0
-39061 -154 12865 0
-39061 -154 -12867 0
-39061 -157 12865 0
-39062 -13036 -153 0
-39062 -154 13035 0
-39062 -154 -13037 0
-39062 -157 13035 0
-39063 -153 13205 0
-39063 -154 13205 0
-39063 -157 13205 0
-39064 -153 13375 0
-39064 -154 13375 0
-39064 -157 13375 0
-39065 -153 13545 0
-39065 -154 13545 0
-39065 -157 13545 0
-39066 -153 13715 0
-39066 -13716 -153 0
-39066 -154 13715 0
-39066 -157 13715 0
-39067 -153 13885 0
-39067 -153 -13886 0
-39067 -154 13885 0
-39067 -154 -13887 0
-39067 -157 13885 0
-39068 14055 -153 0
-39068 -153 -14056 0
-39068 -154 -14057 0
-39068 -157 -14060 0
-39069 -153 14225 0
-39069 -154 14225 0
-39069 -154 -14227 0
-39069 -157 14225 0
-39070 -153 14395 0
-39070 -154 14395 0
-39070 -154 -14397 0
-39070 -157 14395 0
-39071 -14566 -153 0
-39071 -154 14565 0
-39071 -154 -14567 0
-39071 -157 14565 0
-39072 -14736 -153 0
-39072 -154 14735 0
-39072 -154 -14737 0
-39072 -157 14735 0
-39073 -153 14905 0
-39073 -153 -14906 0
-39073 -154 14905 0
-39073 -154 -14907 0
-39073 -157 14905 0
-39074 -153 15075 0
-39074 -153 -15076 0
-39074 -154 15075 0
-39074 -154 -15077 0
-39074 -157 15075 0
-39075 -153 -15246 0
-39075 -154 -15247 0
-39075 -157 -15250 0
-39076 -153 -15416 0
-39076 -154 -15417 0
-39076 -157 -15420 0
-39077 -153 15585 0
-39077 -154 15585 0
-39077 -157 15585 0
-39078 -153 15755 0
-39078 -154 15755 0
-39078 -157 15755 0
-39079 -153 15925 0
-39079 -15926 -153 0
-39079 -154 15925 0
-39079 -157 15925 0
-39080 -153 16095 0
-39080 -153 -16096 0
-39080 -154 16095 0
-39080 -154 -16097 0
-39080 -157 16095 0
-39081 16265 -153 0
-39081 -153 -16266 0
-39081 -154 -16267 0
-39081 -157 -16270 0
-39082 -153 16435 0
-39082 -154 16435 0
-39082 -154 -16437 0
-39082 -157 16435 0
-39083 -153 16605 0
-39083 -154 16605 0
-39083 -154 -16607 0
-39083 -157 16605 0
-39084 -16776 -153 0
-39084 -154 16775 0
-39084 -154 -16777 0
-39084 -157 16775 0
-39085 -16946 -153 0
-39085 -154 16945 0
-39085 -154 -16947 0
-39085 -157 16945 0
-39086 -153 17115 0
-39086 -153 -17116 0
-39086 -154 17115 0
-39086 -154 -17117 0
-39086 -157 17115 0
-39087 -153 17285 0
-39087 -153 -17286 0
-39087 -154 17285 0
-39087 -154 -17287 0
-39087 -157 17285 0
-39088 -153 -17456 0
-39088 -154 -17457 0
-39088 -157 -17460 0
-39089 -153 -17626 0
-39089 -154 -17627 0
-39089 -157 -17630 0
-39090 -153 17965 0
-39090 -154 17965 0
-39090 -157 -17970 0
-39091 -153 18305 0
-39091 -154 18305 0
-39091 -157 -18310 0
-39092 18475 -153 0
-39092 -18476 -153 0
-39092 -154 18475 0
-39092 -157 -18480 0
-39093 -153 18645 0
-39093 -153 -18646 0
-39093 -154 18645 0
-39093 -154 -18647 0
-39093 -157 -18650 0
-39094 18815 -153 0
-39094 -153 -18816 0
-39094 -154 -18817 0
-39094 -157 -18820 0
-39095 18985 -153 0
-39095 -153 -18986 0
-39095 -154 -18987 0
-39095 -157 -18990 0
-39096 -153 19155 0
-39096 -154 19155 0
-39096 -154 -19157 0
-39096 -157 -19160 0
-39097 -153 19325 0
-39097 -154 19325 0
-39097 -154 -19327 0
-39097 -157 -19330 0
-39098 -19496 -153 0
-39098 -154 -19497 0
-39098 -157 -19500 0
-39099 -19666 -153 0
-39099 -154 -19667 0
-39099 -157 -19670 0
-39100 -153 19835 0
-39100 -153 -19836 0
-39100 -154 19835 0
-39100 -154 -19837 0
-39100 -157 -19840 0
-39101 -153 20005 0
-39101 -153 -20006 0
-39101 -154 20005 0
-39101 -154 -20007 0
-39101 -157 -20010 0
-39102 -153 -20176 0
-39102 -154 -20177 0
-39102 -157 -20180 0
-39103 -153 -20346 0
-39103 -154 -20347 0
-39103 -157 -20350 0
-39104 -153 -20516 0
-39104 -154 -20517 0
-39104 -157 -20520 0
-39105 -153 -20686 0
-39105 -154 -20687 0
-39105 -157 -20690 0
-39106 -153 21025 0
-39106 -154 21025 0
-39106 -157 -21030 0
-39107 21195 -153 0
-39107 -21196 -153 0
-39107 -154 21195 0
-39107 -157 -21200 0
-39108 -153 21365 0
-39108 -153 -21366 0
-39108 -154 21365 0
-39108 -154 -21367 0
-39108 -157 -21370 0
-39109 21535 -153 0
-39109 -153 -21536 0
-39109 -154 21535 0
-39109 -154 -21537 0
-39109 -157 -21540 0
-39110 21705 -153 0
-39110 -153 -21706 0
-39110 -154 21705 0
-39110 -154 -21707 0
-39110 -157 -21710 0
-39111 -153 22045 0
-39111 -154 22045 0
-39111 -154 -22047 0
-39111 -157 -22050 0
-39112 -22216 -153 0
-39112 -154 -22217 0
-39112 -157 -22220 0
-39113 -22386 -153 0
-39113 -154 22385 0
-39113 -154 -22387 0
-39113 -157 -22390 0
-39114 22725 -153 0
-39114 -153 -22726 0
-39114 -154 -22727 0
-39114 -157 -22730 0
-39115 -153 -23066 0
-39115 -154 -23067 0
-39115 -157 -23070 0
39003 39030 39036 39000 39111 39009 39077 39061 39006 39005 39023 39035 39039 39012 39013 39049 39015 39014 39017 39018 39007 39010 39059 39011 39020 39024 39025 39026 39071 39016 39029 39019 39021 39022 39028 39004 39031 39106 39008 39037 39040 39041 39038 39027 39044 39045 39046 39042 39043 39047 39050 39051 39048 39067 39054 39055 39056 39052 39053 39032 39060 39112 39114 39057 39058 39063 39064 39065 39068 39069 39070 39062 39072 39073 39074 39075 39076 39066 39078 39079 39080 39081 39082 39083 39084 39085 39086 39087 39088 39089 39090 39091 39033 39093 39094 39095 39096 39097 39092 39099 39100 39101 39102 39103 39104 39105 39002 39107 39108 39109 39110 39001 39098 39113 39034 39115 0
-39116 -181 2163 0
-185 -39116 2163 0
-190 -39116 2164 0
-39116 2164 -191 0
-193 -39116 2164 0
-39116 -196 2164 0
-198 -39116 2165 0
-200 -39116 2165 0
-39116 -203 2165 0
-206 -39116 2166 0
-209 -39116 2166 0
39116 -211 2168 -2167 0
-213 39116 2170 -2167 0
39116 -2167 -214 2171 0
-39116 -218 2168 0
-185 -39117 2333 0
-198 -39117 2335 0
39117 -2340 2341 -223 0
-198 -39118 2505 0
-198 2675 -39119 0
-39120 -198 2845 0
3015 -198 -39121 0
-39122 -198 3185 0
-198 -39123 3525 0
-39124 -198 3695 0
-39125 -198 3865 0
-39126 4035 -198 0
4205 -39127 -198 0
-39128 -198 4375 0
-39129 -198 4545 0
-39130 4715 -198 0
-39131 4885 -198 0
-39132 5055 -198 0
-39133 5225 -198 0
-39133 -5226 -198 0
5395 -198 -39134 0
-39135 5565 -198 0
5735 -39136 -198 0
-39137 5905 -198 0
-39138 6075 -198 0
-39139 6245 -198 0
-39139 -6246 -198 0
-39140 6415 -198 0
-39141 6585 -198 0
6755 -39142 -198 0
-39143 6925 -198 0
-39144 7095 -198 0
-39144 -7096 -198 0
-39145 7265 -198 0
-39146 7435 -198 0
7605 -39147 -198 0
-39148 7775 -198 0
7945 -198 -39149 0
-39150 8115 -198 0
-39150 -8116 -198 0
-39151 -198 8285 0
-39152 -198 8455 0
-39153 -198 8625 0
-39154 8795 -198 0
-39155 8965 -198 0
-39156 9135 -198 0
-39156 -9136 -198 0
-39157 9305 -198 0
-39157 -9306 -198 0
-39158 9475 -198 0
9645 -39159 -198 0
-39160 9815 -198 0
-39161 -9986 -198 0
-39162 -10156 -198 0
-39163 10325 -198 0
10495 -39164 -198 0
-39165 10665 -198 0
10835 -39166 -198 0
-39166 -10836 -198 0
11005 -39167 -198 0
-39167 -11006 -198 0
-39168 11175 -198 0
11345 -39169 -198 0
-39170 11515 -198 0
-39171 -11686 -198 0
-39172 -11856 -198 0
-39173 12195 -198 0
-39174 12365 -198 0
-39175 12535 -198 0
-39176 12705 -198 0
-39177 12875 -198 0
-39178 13045 -198 0
-39179 13215 -198 0
13385 -198 -39180 0
-39181 13555 -198 0
-39182 13725 -198 0
-39183 13895 -198 0
-39184 14065 -198 0
-39184 -14066 -198 0
-39185 14235 -198 0
-39186 14405 -198 0
-39187 14575 -198 0
-39188 14745 -198 0
-39189 14915 -198 0
-39190 15085 -198 0
-39191 -15256 -198 0
-39192 -15426 -198 0
-39193 15595 -198 0
-39194 15765 -198 0
-39195 15935 -198 0
-39196 16105 -198 0
-39197 16275 -198 0
-39197 -16276 -198 0
-39198 16445 -198 0
-39199 16615 -198 0
-39200 16785 -198 0
-39201 16955 -198 0
-39202 17125 -198 0
-39203 17295 -198 0
-39204 -17466 -198 0
-39205 -198 -17636 0
-39206 17975 -198 0
-39207 18315 -198 0
-39208 18485 -198 0
-39209 18655 -198 0
-39210 18825 -198 0
-39210 -18826 -198 0
-39211 18995 -198 0
-39211 -18996 -198 0
-39212 19165 -198 0
-39213 19335 -198 0
-39214 19505 -198 0
-39214 -19506 -198 0
-39215 19675 -198 0
-39215 -19676 -198 0
-39216 19845 -198 0
-39217 20015 -198 0
-39218 -20186 -198 0
-39219 -20356 -198 0
-39220 -20526 -198 0
-39221 -198 -20696 0
-39222 21035 -198 0
-39223 21205 -198 0
-39224 21375 -198 0
-39225 21545 -198 0
-39225 -21546 -198 0
-39226 21715 -198 0
-39226 -21716 -198 0
-39227 22055 -198 0
-39228 -22226 -198 0
-39229 -22396 -198 0
-39230 -198 -22736 0
-39231 -198 -23076 0
39120 39117 39126 39118 39192 39204 39122 39116 39124 39119 39151 39121 39128 39129 39123 39130 39132 39127 39134 39135 39131 39137 39138 39136 39140 39141 39142 39143 39144 39145 39146 39147 39148 39149 39150 39125 39152 39153 39154 39155 39156 39157 39158 39159 39160 39161 39162 39163 39164 39165 39166 39167 39168 39169 39170 39171 39172 39173 39174 39175 39176 39177 39178 39179 39180 39181 39182 39183 39184 39185 39186 39187 39188 39189 39190 39139 39133 39193 39194 39195 39196 39197 39198 39199 39200 39201 39202 39203 39191 39205 39206 39207 39208 39209 39210 39211 39212 39213 39214 39215 39216 39217 39218 39219 39220 39221 39222 39223 39224 39225 39226 39227 39228 39229 39230 39231 0
-39232 -226 2173 0
-230 -39232 2173 0
-235 -39232 2174 0
-236 -39232 2174 0
-39232 -237 2174 0
-39232 -238 2174 0
-240 -39232 2174 0
-245 -39232 2175 0
-247 -39232 2175 0
-251 -39232 2176 0
-253 -39232 2176 0
39232 -256 2178 -2177 0
39232 -258 -2177 2180 0
-2177 -259 39232 2181 0
-262 -39232 2178 0
-263 39232 -2178 2181 0
-39232 -265 2179 0
39232 -2180 -268 2181 0
-230 -2348 -39233 0
-262 2350 -2348 39233 0
-39234 -265 2519 0
39234 2522 -2521 -270 0
-39348 -271 2183 0
-39348 -272 2183 0
-39348 -273 2183 0
-39348 -274 2183 0
-39348 -275 2183 0
-280 -39348 2184 0
-281 -39348 2184 0
-282 -39348 2184 0
-283 -39348 2184 0
-284 -39348 2184 0
-285 -39348 2184 0
-39348 -286 2184 0
-287 -39348 2184 0
-39348 -288 2185 0
-39348 -289 2185 0
-292 -39348 2185 0
-295 -39348 2186 0
-298 -39348 2186 0
-2187 -301 39348 2188 0
-2187 -303 39348 2190 0
-307 -39348 2188 0
-2188 39348 -308 2191 0
39348 -2190 2191 -313 0
-316 -39464 2193 0
-317 -39464 2193 0
-318 -39464 2193 0
-319 -39464 2193 0
-320 -39464 2193 0
-325 -39464 2194 0
-326 -39464 2194 0
-327 -39464 2194 0
-328 -39464 2194 0
-330 -39464 2194 0
-331 -39464 2194 0
-334 -39464 2195 0
-337 -39464 2195 0
-338 -39464 2195 0
-340 -39464 2196 0
-343 -39464 2196 0
-346 -2198 -39464 0
-346 39464 -2197 2198 0
-348 -39464 2197 0
39464 -353 -2198 2201 0
-39464 -358 2200 0
39464 -358 -2200 2201 0
39464 -360 -2201 2202 0
-39465 -358 2370 0
-39466 -358 2540 0
-39467 -358 2710 0
-39468 -358 2880 0
-39469 -358 3050 0
-39470 -358 3220 0
-328 -39471 -3558 0
-3558 39471 -353 3561 0
-39471 -358 3560 0
-39472 -358 3730 0
-39473 -358 3900 0
-39474 -358 4070 0
-39475 -358 4240 0
-39476 -358 4410 0
-39477 -358 4580 0
-39478 4750 -358 0
-39479 4920 -358 0
-39480 5090 -358 0
-39481 5260 -358 0
-39482 5430 -358 0
-39483 5600 -358 0
-39484 5770 -358 0
-39485 5940 -358 0
-39486 6110 -358 0
-39487 6280 -358 0
-39488 6450 -358 0
-39489 6620 -358 0
-39490 6790 -358 0
-39491 6960 -358 0
-39492 7130 -358 0
-39493 7300 -358 0
-39494 7470 -358 0
-39495 7640 -358 0
-39496 7810 -358 0
-39497 -358 7980 0
-39498 8150 -358 0
-39499 -358 -8321 0
-39500 -358 -8491 0
-39501 -358 -8661 0
-39502 -358 -8831 0
-39503 -358 -9001 0
-39504 -358 -9171 0
-39505 -358 -9341 0
-39506 -358 -9511 0
-39507 -358 -9681 0
-39508 -358 -9851 0
-39509 -358 -10021 0
-39510 -358 -10191 0
-39511 -358 -10361 0
-39512 -358 -10531 0
-39513 -358 -10701 0
-39514 -358 -10871 0
-39515 -358 -11041 0
-39516 -358 -11211 0
-39517 -358 -11381 0
-39518 -358 -11551 0
-39519 -358 -11721 0
-39520 -358 -11891 0
-39521 -358 12230 0
-39522 -358 12400 0
-39523 -358 -12571 0
-39524 12740 -358 0
-39525 12910 -358 0
-39526 13080 -358 0
-39527 -358 13250 0
-39528 -358 -13421 0
-39529 13590 -358 0
-39530 13760 -358 0
-39531 13930 -358 0
-39532 14100 -358 0
-39533 14270 -358 0
-39534 14440 -358 0
-39535 14610 -358 0
-39536 14780 -358 0
-39537 14950 -358 0
-39538 15120 -358 0
-39539 15290 -358 0
-39540 15460 -358 0
-39541 15630 -358 0
-39542 15800 -358 0
-39543 15970 -358 0
-39544 16140 -358 0
-39545 16310 -358 0
-39546 16480 -358 0
-39547 16650 -358 0
-39548 16820 -358 0
-39549 -358 16990 0
-39550 17160 -358 0
-39551 17330 -358 0
-39552 -358 17500 0
-39553 -358 17670 0
-39554 -358 -18011 0
-39555 -358 -18351 0
-39556 -358 -18521 0
-39557 -358 -18691 0
-39558 -358 -18861 0
-39559 -358 -19031 0
-39560 -358 -19201 0
-39561 -358 -19371 0
-39562 -358 -19541 0
-39563 -358 -19711 0
-39564 -358 -19881 0
-39565 -358 -20051 0
-39566 -358 -20221 0
-39567 -358 -20391 0
-39568 -358 -20561 0
-39569 -358 -20731 0
-39570 -358 -21071 0
-39571 -358 -21241 0
-39572 -358 -21411 0
-39573 -358 -21581 0
-39574 -358 -21751 0
-39575 -358 -22091 0
-39576 -358 -22261 0
-39577 -358 -22431 0
-39578 -358 -22771 0
-39579 -358 -23111 0
39469 39483 39464 39465 39500 39472 39466 39471 39482 39470 39474 39475 39476 39477 39478 39479 39480 39481 39499 39473 39484 39485 39486 39487 39488 39489 39490 39491 39492 39493 39494 39495 39496 39497 39498 39467 39468 39501 39502 39503 39504 39505 39506 39507 39508 39509 39510 39511 39512 39513 39514 39515 39516 39517 39518 39519 39520 39521 39522 39523 39524 39525 39526 39527 39528 39529 39530 39531 39532 39533 39534 39535 39536 39537 39538 39539 39540 39541 39542 39543 39544 39545 39546 39547 39548 39549 39550 39551 39552 39553 39554 39555 39556 39557 39558 39559 39560 39561 39562 39563 39564 39565 39566 39567 39568 39569 39570 39571 39572 39573 39574 39575 39576 39577 39578 39579 0
-39580 -365 2203 0
39580 -393 -2207 2210 0
-39581 -400 -2380 0
39581 -2380 2381 -403 0
-39581 -405 2381 0
39695 -361 23114 -23113 0
-39695 -378 -23116 0
-409 -39696 -2217 0
-417 -39696 -2217 0
-424 -39696 -2217 0
-442 -2218 39696 2220 0
-39696 -448 2220 0
-39697 -448 2390 0
-39698 -448 2560 0
-39699 -448 -2731 0
-39700 -448 2900 0
-39701 -448 -3071 0
-39702 -448 -3241 0
-39703 -448 3580 0
-39704 -448 3750 0
-39705 -448 -3921 0
-39706 -448 -4091 0
-39707 -448 -4261 0
-39708 -448 4430 0
-39709 -448 4600 0
-39710 4770 -448 0
-39711 4940 -448 0
-39712 5110 -448 0
-39713 5280 -448 0
-39714 -448 -5451 0
-39715 -448 -5621 0
-39716 -448 -5791 0
-39717 -448 -5961 0
-39718 -448 -6131 0
-39719 -448 -6301 0
-39720 6470 -448 0
-39721 6640 -448 0
-39722 6810 -448 0
-39723 6980 -448 0
-39724 7150 -448 0
-39725 -448 -7321 0
-39726 -448 -7491 0
-39727 -448 -7661 0
-39728 -448 -7831 0
-39729 -448 -8001 0
-39730 -448 -8171 0
-39731 -448 8340 0
-39732 8510 -448 0
-39733 -448 -8681 0
-39734 8850 -448 0
-39735 9020 -448 0
-39736 9190 -448 0
-39737 9360 -448 0
-39738 -448 -9531 0
-39739 -448 -9701 0
-39740 -448 -9871 0
-39741 -448 -10041 0
-39742 -448 -10211 0
-39743 10380 -448 0
-39744 10550 -448 0
-39745 10720 -448 0
-39746 10890 -448 0
-39747 11060 -448 0
-39748 -448 -11231 0
-39749 -448 -11401 0
-39750 -448 -11571 0
-39751 -448 -11741 0
-39752 -448 -11911 0
-39753 -448 -12251 0
-39754 -448 -12421 0
-39755 -448 -12591 0
-39756 -448 -12761 0
-39757 -448 -12931 0
-39758 -448 -13101 0
-39759 -448 -13271 0
-39760 -448 -13441 0
-39761 -448 -13611 0
-39762 -448 -13781 0
-39763 -448 -13951 0
-39764 -448 -14121 0
-39765 -448 -14291 0
-39766 -448 -14461 0
-39767 -448 -14631 0
-39768 -448 -14801 0
-39769 -448 -14971 0
-39770 -448 -15141 0
-39771 -448 -15311 0
-39772 -448 -15481 0
-39773 -448 -15651 0
-39774 -448 -15821 0
-39775 -448 -15991 0
-39776 -448 -16161 0
-39777 -448 -16331 0
-39778 -448 -16501 0
-39779 -448 -16671 0
-39780 -448 -16841 0
-39781 -448 -17011 0
-39782 -448 -17181 0
-39783 -448 -17351 0
-39784 -448 -17521 0
-39785 -448 -17691 0
-39786 -448 -18031 0
-39787 -448 -18371 0
-39788 -448 -18541 0
-39789 -448 -18711 0
-39790 -448 -18881 0
-39791 -448 -19051 0
-39792 -448 -19221 0
-39793 -448 -19391 0
-39794 -448 -19561 0
-39795 -448 -19731 0
-39796 -448 -19901 0
-39797 -448 -20071 0
-39798 -448 -20241 0
-39799 -448 -20411 0
-39800 -448 -20581 0
-39801 -448 -20751 0
-39802 -448 -21091 0
-39803 -448 -21261 0
-39804 -448 -21431 0
-39805 -448 -21601 0
-39806 -448 -21771 0
-39807 -448 -22111 0
-39808 -448 -22281 0
-39809 -448 -22451 0
-39810 -448 -22791 0
-39811 -448 -23131 0
39747 39742 39697 39699 39700 39701 39702 39703 39704 39705 39706 39707 39708 39709 39698 39696 39712 39713 39714 39715 39716 39717 39718 39719 39720 39721 39722 39723 39724 39725 39726 39727 39728 39729 39730 39731 39732 39733 39734 39735 39736 39737 39738 39739 39740 39741 39710 39743 39744 39745 39746 39711 39748 39749 39750 39751 39752 39753 39754 39755 39756 39757 39758 39759 39760 39761 39762 39763 39764 39765 39766 39767 39768 39769 39770 39771 39772 39773 39774 39775 39776 39777 39778 39779 39780 39781 39782 39783 39784 39785 39786 39787 39788 39789 39790 39791 39792 39793 39794 39795 39796 39797 39798 39799 39800 39801 39802 39803 39804 39805 39806 39807 39808 39809 39810 39811 0
-39812 -482 2227 0
-39812 -486 2228 0
39812 -2230 2231 -493 0
-39987 -505 12604 0
-39987 -513 12605 0
12610 -528 -12607 39987 0
-39992 -13459 -509 0
13460 39992 -535 -13459 0
-39992 -540 -13462 0
-40162 2599 -625 0
40162 -2601 2602 -630 0
-40276 -648 2265 0
-40277 -648 2435 0
-40278 -648 2605 0
-40279 -648 2775 0
40279 2781 -671 -2779 0
-40279 2780 -673 0
-645 -40280 -2950 0
-40280 -648 2945 0
-652 -40280 -2950 0
-658 -40280 -2950 0
40280 -675 -2951 2952 0
-40281 3115 -648 0
-40282 -648 3285 0
-40283 -648 3625 0
-40284 -648 3795 0
-40285 -648 3965 0
-40286 4135 -648 0
-40287 4305 -648 0
-40288 -648 4475 0
-40289 -648 4645 0
-40290 4815 -648 0
-40291 4985 -648 0
-40292 5155 -648 0
-40293 5325 -648 0
-40294 5495 -648 0
-40295 5665 -648 0
-40296 5835 -648 0
-40297 6005 -648 0
-40298 6175 -648 0
-40299 6345 -648 0
-40300 6515 -648 0
-40301 6685 -648 0
-40302 6855 -648 0
-40303 7025 -648 0
-40304 7195 -648 0
-40305 7365 -648 0
-40306 7535 -648 0
-40307 7705 -648 0
-40308 7875 -648 0
-40309 8045 -648 0
-40310 8215 -648 0
-40311 -648 8385 0
-40312 8555 -648 0
-40313 8725 -648 0
-40314 8895 -648 0
-40315 9065 -648 0
-40316 9235 -648 0
-40317 9405 -648 0
-40318 9575 -648 0
-40319 9745 -648 0
-40320 9915 -648 0
-40321 10085 -648 0
-40322 -661 -10258 0
-40323 10425 -648 0
-40324 10595 -648 0
-40325 10765 -648 0
-40326 10935 -648 0
-40327 -661 -11108 0
-40328 11275 -648 0
-40329 11445 -648 0
-40330 11615 -648 0
-40331 -661 -11788 0
-40332 -661 -11958 0
-40333 12295 -648 0
-40334 12465 -648 0
-40335 12635 -648 0
-40336 12805 -648 0
-40337 12975 -648 0
-40338 13145 -648 0
-40339 13315 -648 0
-40340 13485 -648 0
-40341 13655 -648 0
-40342 13825 -648 0
-40343 13995 -648 0
-40344 14165 -648 0
-40345 14335 -648 0
-40346 14505 -648 0
-40347 14675 -648 0
-40348 14845 -648 0
-40349 15015 -648 0
-40350 15185 -648 0
-40351 15355 -648 0
-40352 -661 -15528 0
-40353 15695 -648 0
-40354 15865 -648 0
-40355 16035 -648 0
-40356 16205 -648 0
-40357 16375 -648 0
-40358 16545 -648 0
-40359 16715 -648 0
-40360 16885 -648 0
-40361 -661 -17058 0
-40362 17225 -648 0
-40363 -661 -17398 0
-40364 -661 -17568 0
-40365 -661 -17738 0
-40366 18075 -648 0
-40367 18415 -648 0
-40368 18585 -648 0
-40369 18755 -648 0
-40370 18925 -648 0
-40371 -661 -19098 0
-40372 19265 -648 0
-40373 19435 -648 0
-40374 19605 -648 0
-40375 -661 -19778 0
-40376 19945 -648 0
-40377 -661 -20118 0
-40378 -661 -20288 0
-40379 -661 -20458 0
-40380 -661 -20628 0
-40381 -648 -20796 0
-40382 21135 -648 0
-40383 21305 -648 0
-40384 21475 -648 0
-40385 -661 -21648 0
-40386 -661 -21818 0
-40387 -661 -22158 0
-40388 -661 -22328 0
-40389 -661 -22498 0
-40390 -661 -22838 0
-40391 -648 -23176 0
40332 40365 40331 40352 40278 40277 40282 40283 40284 40285 40279 40276 40288 40289 40286 40287 40292 40293 40294 40295 40296 40297 40298 40299 40300 40301 40302 40303 40304 40305 40306 40307 40308 40309 40310 40311 40312 40313 40314 40315 40316 40317 40318 40319 40320 40321 40280 40323 40324 40325 40326 40281 40328 40329 40330 40327 40291 40333 40334 40335 40336 40337 40338 40339 40340 40341 40342 40343 40344 40345 40346 40347 40348 40349 40350 40351 40322 40353 40354 40355 40356 40357 40358 40359 40360 40361 40362 40363 40364 40290 40366 40367 40368 40369 40370 40371 40372 40373 40374 40375 40376 40377 40378 40379 40380 40381 40382 40383 40384 40385 40386 40387 40388 40389 40390 40391 0
-38592 -2076 0
-2096 -38615 0
-2098 -38615 0
-2099 -38615 0
-2109 -38624 0
-2116 -38633 0
-2117 -38633 0
-2125 -38642 0
-2126 -38642 0
-2127 -38642 0
-2128 -38642 0
-2129 -38642 0
-2130 -38642 0
-2131 -38642 0
-2234 -38583 0
-2235 -38583 0
-2236 -38583 0
-2197 -38551 0
-2267 -38614 0
-2268 -38614 0
-2269 -38614 0
-2270 -38614 0
-38534 2182 0
-2187 -38543 0
-2188 -38543 0
-2190 -38543 0
-2197 -38552 0
-2200 -38552 0
-38552 2202 0
-2209 -38561 0
-2210 -38561 0
-2214 -38570 0
-2215 -38570 0
-2216 -38570 0
-2217 -38570 0
-2218 -38570 0
-2219 -38570 0
-2220 -38570 0
-2221 -38570 0
-2224 -38579 0
-2225 -38579 0
-2226 -38579 0
-2227 -38579 0
-2228 -38579 0
-2229 -38579 0
-2230 -38579 0
-2231 -38579 0
-2237 -38588 0
-2238 -38588 0
-2239 -38588 0
-2240 -38588 0
-2241 -38588 0
-38588 2242 0
-2244 -38597 0
-2245 -38597 0
-2246 -38597 0
-2247 -38597 0
-2248 -38597 0
-2249 -38597 0
-2250 -38597 0
-2251 -38597 0
-2257 -38606 0
-2260 -38606 0
-2261 -38606 0
-38606 2262 0
-2267 -38615 0
-2268 -38615 0
-2269 -38615 0
-2270 -38615 0
-2271 -38615 0
-38615 2272 0
-2286 -38633 0
-2287 -38633 0
-2288 -38633 0
-2289 -38633 0
-2290 -38633 0
-2291 -38633 0
2292 -38633 0
-2295 -38642 0
-2378 -38560 0
-2379 -38560 0
-2380 -38560 0
-2418 -38596 0
-2350 -38534 0
-38543 -2358 0
-2360 -38543 0
-38552 -2368 0
-2370 -38552 0
-38552 2372 0
-2379 -38561 0
-2388 -38570 0
-2389 -38570 0
-2390 -38570 0
-2391 -38570 0
-2398 -38579 0
-2399 -38579 0
-2400 -38579 0
-2401 -38579 0
-2408 -38588 0
-2409 -38588 0
-2410 -38588 0
-2411 -38588 0
-2418 -38597 0
-2419 -38597 0
-2420 -38597 0
-2421 -38597 0
-38597 2422 0
-2428 -38606 0
-2429 -38606 0
-2431 -38606 0
-2438 -38615 0
-2439 -38615 0
-2440 -38615 0
-2441 -38615 0
-38615 2442 0
-2449 -38624 0
2452 -38624 0
-2456 -38633 0
-2458 -38633 0
-2459 -38633 0
-2460 -38633 0
-2461 -38633 0
2462 -38633 0
-2465 -38642 0
-38525 -2509 0
-38525 -2510 0
-38525 -2511 0
-2519 -38534 0
-2520 -38534 0
-38534 -2521 0
-38543 -2529 0
-2530 -38543 0
-38543 -2531 0
-38552 -2540 0
-38552 -2541 0
-38552 2542 0
-38570 -2559 0
-38570 -2560 0
-38579 -2569 0
-2570 -38579 0
-38579 -2571 0
-38579 2572 0
-38588 -2579 0
-38588 -2580 0
-38588 -2581 0
-2590 -38597 0
-38597 -2591 0
-38597 2592 0
-38606 -2599 0
-38606 -2601 0
-38606 2602 0
-38615 -2609 0
-38615 -2610 0
-38615 -2611 0
-38615 2612 0
-2620 -38624 0
-2626 -38633 0
-2631 -38633 0
-38633 2632 0
-2635 -38642 0
-2639 -38642 0
-2640 -38642 0
-2641 -38642 0
-2786 -38620 0
-2806 -38640 0
-2699 -38542 0
-2707 -38551 0
-2709 -38551 0
2711 -38551 0
-2720 -38560 0
-38560 2722 0
-2730 -38569 0
2731 -38569 0
-38569 2732 0
-2739 -38578 0
-2740 -38578 0
-38578 2742 0
-2749 -38587 0
-2750 -38587 0
-2759 -38596 0
-2760 -38596 0
2761 -38596 0
-2769 -38605 0
-2770 -38605 0
2771 -38605 0
-2779 -38614 0
-2780 -38614 0
2781 -38614 0
-2787 -38623 0
-2788 -38623 0
-2789 -38623 0
-2790 -38623 0
-2794 -38632 0
-2795 -38632 0
-2797 -38632 0
-2799 -38632 0
-2805 -38641 0
-2806 -38641 0
-2807 -38641 0
-2809 -38641 0
-38615 2782 0
-2956 -38620 0
-2976 -38640 0
-2869 -38542 0
-2879 -38551 0
-38551 2882 0
-2889 -38560 0
-2890 -38560 0
2892 -38560 0
-2898 -38569 0
-2899 -38569 0
-2900 -38569 0
2901 -38569 0
2902 -38569 0
-2905 -38578 0
-2907 -38578 0
-2908 -38578 0
-2909 -38578 0
-2910 -38578 0
2912 -38578 0
-2918 -38587 0
-2919 -38587 0
-2920 -38587 0
2921 -38587 0
-2929 -38596 0
-2930 -38596 0
2931 -38596 0
-2938 -38605 0
-2939 -38605 0
-2940 -38605 0
2941 -38605 0
-2948 -38614 0
-2949 -38614 0
-2950 -38614 0
2951 -38614 0
-2958 -38623 0
-2959 -38623 0
-2960 -38623 0
2961 -38623 0
-2964 -38632 0
-2965 -38632 0
-2967 -38632 0
-2969 -38632 0
-2975 -38641 0
-2976 -38641 0
-2977 -38641 0
-2979 -38641 0
-38606 2942 0
-3126 -38620 0
-38568 3071 0
3080 -38577 0
-38577 3082 0
-38595 3102 0
-3107 -38604 0
-38604 3112 0
-38613 3122 0
-3127 -38622 0
-3128 -38622 0
3130 -38622 0
-38622 3132 0
-3135 -38631 0
-3137 -38631 0
3140 -38631 0
-38631 3142 0
-3147 -38640 0
-38587 3092 0
3101 -38596 0
-38596 3102 0
3121 -38614 0
-38507 3172 0
-38552 3222 0
-3251 -38579 0
-38579 3252 0
3262 -38588 0
-38606 3282 0
-3306 -38633 0
-3315 -38642 0
-38597 3442 0
-38633 3482 0
-3487 -38642 0
-3488 -38642 0
-3636 -38620 0
-3656 -38640 0
-3533 -38533 0
-3535 -38533 0
-3536 -38533 0
-3537 -38533 0
-3538 -38533 0
-3545 -38542 0
-3546 -38542 0
-3547 -38542 0
-3548 -38542 0
-3553 -38551 0
-3555 -38551 0
-3556 -38551 0
-3557 -38551 0
-3558 -38551 0
-3559 -38551 0
-3560 -38551 0
-3563 -38560 0
-3564 -38560 0
-3565 -38560 0
-3566 -38560 0
-3567 -38560 0
-3568 -38560 0
-3569 -38560 0
-3570 -38560 0
-3573 -38569 0
-3574 -38569 0
-3575 -38569 0
-3576 -38569 0
-3577 -38569 0
-3578 -38569 0
-3580 -38569 0
-3584 -38578 0
-3585 -38578 0
-3586 -38578 0
-3587 -38578 0
-3588 -38578 0
-3589 -38578 0
-3590 -38578 0
3591 -38578 0
-3593 -38587 0
-3594 -38587 0
-3595 -38587 0
-3596 -38587 0
-3597 -38587 0
-3598 -38587 0
-3600 -38587 0
-38596 -3603 0
-3604 -38596 0
-3605 -38596 0
-3606 -38596 0
-3607 -38596 0
-3608 -38596 0
3611 -38596 0
-3613 -38605 0
-3614 -38605 0
-3615 -38605 0
-3616 -38605 0
-3617 -38605 0
-3618 -38605 0
-3620 -38605 0
-3628 -38614 0
-3630 -38614 0
3631 -38614 0
-3640 -38623 0
3641 -38623 0
-3644 -38632 0
-3645 -38632 0
-3647 -38632 0
-3655 -38641 0
-3656 -38641 0
-3657 -38641 0
-3659 -38641 0
-3806 -38620 0
-3826 -38640 0
-3725 -38551 0
-3726 -38551 0
-3727 -38551 0
-3735 -38560 0
-3745 -38569 0
-3746 -38569 0
-3747 -38569 0
-3748 -38569 0
-3755 -38578 0
-3759 -38578 0
-3770 -38587 0
-3780 -38596 0
3781 -38596 0
-3787 -38605 0
-3795 -38614 0
-3796 -38614 0
-3797 -38614 0
-3800 -38614 0
3801 -38614 0
-3806 -38623 0
3811 -38623 0
-3814 -38632 0
-3815 -38632 0
-3817 -38632 0
-3825 -38641 0
-3826 -38641 0
-3827 -38641 0
-3829 -38641 0
-3976 -38620 0
-3996 -38640 0
3971 -38614 0
-3984 -38632 0
-3985 -38632 0
-3987 -38632 0
-3995 -38641 0
-3996 -38641 0
-3997 -38641 0
-3999 -38641 0
-4146 -38620 0
4150 -38622 0
-4155 -38631 0
-4157 -38631 0
4160 -38631 0
-4167 -38640 0
-4286 -38592 0
-4316 -38620 0
-4337 -38639 0
-4338 -38639 0
-4306 -38613 0
-4316 -38622 0
-4318 -38622 0
4320 -38622 0
-4325 -38631 0
-4327 -38631 0
4330 -38631 0
-4337 -38640 0
4281 -38587 0
-4486 -38620 0
-4506 -38640 0
-4494 -38632 0
-4495 -38632 0
-4497 -38632 0
-4505 -38641 0
-4506 -38641 0
-4507 -38641 0
-4509 -38641 0
-4656 -38620 0
-4676 -38640 0
4601 -38569 0
4611 -38578 0
4631 -38596 0
-4639 -38605 0
-4649 -38614 0
-4659 -38623 0
4661 -38623 0
-4664 -38632 0
-4665 -38632 0
-4667 -38632 0
-4675 -38641 0
-4676 -38641 0
-4677 -38641 0
-4679 -38641 0
-38606 4642 0
-4826 -38620 0
-4835 -38631 0
-4837 -38631 0
-4847 -38640 0
-4996 -38620 0
-5005 -38631 0
-5007 -38631 0
-5017 -38640 0
-5166 -38620 0
-5156 -38613 0
-5166 -38622 0
-5175 -38631 0
-5177 -38631 0
-5187 -38640 0
-5336 -38620 0
-5506 -38620 0
5480 -38595 0
-5507 -38622 0
-5515 -38631 0
-5517 -38631 0
-5527 -38640 0
5530 -38640 0
5481 -38596 0
-5676 -38620 0
-5846 -38620 0
-6016 -38620 0
-6206 -38637 0
-6186 -38620 0
-6376 -38637 0
-6356 -38620 0
-6526 -38620 0
-6535 -38631 0
-6537 -38631 0
-6547 -38640 0
-6696 -38620 0
-6866 -38620 0
-7006 -38592 0
-7036 -38620 0
-7226 -38637 0
-7206 -38620 0
-7376 -38620 0
-7566 -38637 0
-7546 -38620 0
-7736 -38637 0
-7716 -38620 0
-7906 -38637 0
-7886 -38620 0
-38583 8021 0
8027 -38592 0
8028 -38592 0
-38592 8030 0
-8056 -38619 0
-8076 -38637 0
8078 -38637 0
-8226 -38619 0
-8246 -38637 0
8248 -38637 0
-8396 -38620 0
-8416 -38640 0
-8404 -38632 0
-8405 -38632 0
-8407 -38632 0
-8415 -38641 0
-8416 -38641 0
-8417 -38641 0
-8419 -38641 0
-8566 -38620 0
-8568 -38622 0
8570 -38622 0
-8575 -38631 0
-8577 -38631 0
-8578 -38631 0
8580 -38631 0
-8587 -38640 0
-8736 -38620 0
-8754 -38639 0
-8755 -38639 0
-8689 -38577 0
8690 -38577 0
-8697 -38586 0
8710 -38595 0
-8719 -38604 0
8721 -38604 0
-8729 -38613 0
-8739 -38622 0
8740 -38622 0
-8745 -38631 0
-8747 -38631 0
-8749 -38631 0
8750 -38631 0
-8757 -38640 0
-8759 -38640 0
8760 -38640 0
8731 -38614 0
-38623 8742 0
-8906 -38620 0
-9076 -38620 0
-9266 -38637 0
-9246 -38620 0
-38563 -9354 0
-38572 -9364 0
-38590 -9384 0
-38599 -9394 0
-38617 -9414 0
-9424 -38626 0
-9434 -38635 0
-38573 -9364 0
-9365 -38573 0
-9375 -38582 0
-9385 -38591 0
-9395 -38600 0
-9405 -38609 0
-38627 -9424 0
-9425 -38627 0
-38574 -9364 0
9381 -38583 0
-9386 -38592 0
9387 -38592 0
-38601 -9394 0
-38619 -9414 0
-9424 -38628 0
-9425 -38628 0
-9426 -38628 0
-9436 -38637 0
9438 -38637 0
-9586 -38620 0
-9776 -38637 0
-9756 -38620 0
-9946 -38637 0
-9926 -38620 0
-10096 -38619 0
-10116 -38637 0
10118 -38637 0
-38564 10211 0
-10285 -38636 0
10288 -38636 0
10288 -38637 0
-10436 -38620 0
-10626 -38637 0
-10606 -38620 0
-10796 -38637 0
-10776 -38620 0
-10946 -38619 0
-10966 -38637 0
10968 -38637 0
-38573 11071 0
11087 -38591 0
11129 -38627 0
-11135 -38636 0
11138 -38636 0
-38583 11081 0
11138 -38637 0
-11306 -38637 0
-11286 -38620 0
-11456 -38619 0
-11476 -38637 0
11478 -38637 0
-11626 -38619 0
-11646 -38637 0
11648 -38637 0
11746 -38573 0
11747 -38573 0
11748 -38573 0
-11765 -38591 0
11797 -38618 0
-11815 -38636 0
11818 -38636 0
11818 -38637 0
-38554 11901 0
-38563 11910 0
-38563 11911 0
-38572 11918 0
-38572 11921 0
11925 -38581 0
11948 -38599 0
11960 -38608 0
11965 -38617 0
11978 -38626 0
11985 -38635 0
11986 -38635 0
11987 -38635 0
11988 -38635 0
-38573 11917 0
-38573 11918 0
11966 -38618 0
11967 -38618 0
11988 -38636 0
-38565 11911 0
-38601 11948 0
11988 -38637 0
11988 -38638 0
-12306 -38620 0
12310 -38622 0
-12315 -38631 0
-12317 -38631 0
12320 -38631 0
-12327 -38640 0
-12476 -38620 0
-12476 -38622 0
12480 -38622 0
-12485 -38631 0
-12487 -38631 0
-12497 -38640 0
12471 -38614 0
-12604 -38583 0
-12605 -38583 0
-12646 -38620 0
-12598 -38577 0
-12607 -38586 0
-12608 -38586 0
-12617 -38595 0
-12618 -38595 0
-12627 -38604 0
-12637 -38613 0
-12638 -38613 0
12640 -38613 0
-12647 -38622 0
-12648 -38622 0
12650 -38622 0
-12655 -38631 0
-12657 -38631 0
-12658 -38631 0
-12667 -38640 0
12631 -38605 0
12641 -38614 0
-12816 -38620 0
-38585 12779 0
12820 -38621 0
-12986 -38620 0
-13176 -38637 0
-38611 13149 0
-13156 -38620 0
13159 -38620 0
13179 -38638 0
-38621 13159 0
13179 -38639 0
-13326 -38620 0
-13278 -38577 0
-13288 -38586 0
-13298 -38595 0
-13308 -38604 0
13310 -38604 0
-13318 -38613 0
-13328 -38622 0
13330 -38622 0
-13335 -38631 0
-13337 -38631 0
-13338 -38631 0
13340 -38631 0
-13347 -38640 0
-13496 -38619 0
-13506 -38628 0
-38595 -13469 0
-38622 -13499 0
-13505 -38631 0
-13507 -38631 0
-13508 -38631 0
-38631 -13509 0
-13517 -38640 0
-13519 -38640 0
-38578 13451 0
-38596 13471 0
-38605 13481 0
-38614 13491 0
-38614 13492 0
13501 -38623 0
-38579 13452 0
-38588 13462 0
-38615 13492 0
-13666 -38620 0
-13836 -38620 0
-14006 -38620 0
-14196 -38637 0
-14176 -38620 0
-14346 -38620 0
-14536 -38637 0
-14516 -38620 0
-14706 -38637 0
-14686 -38620 0
-14856 -38619 0
-14876 -38637 0
14878 -38637 0
-15046 -38637 0
-15026 -38620 0
-15196 -38619 0
-15216 -38637 0
15218 -38637 0
-15366 -38619 0
-15386 -38637 0
15388 -38637 0
15537 -38618 0
-15555 -38636 0
15558 -38636 0
15558 -38637 0
-15706 -38620 0
-15896 -38637 0
-15876 -38620 0
-16066 -38637 0
-16046 -38620 0
-16236 -38637 0
-16216 -38620 0
16350 -38583 0
-16386 -38619 0
-16406 -38637 0
16408 -38637 0
-16576 -38637 0
-16556 -38620 0
-16726 -38619 0
-16746 -38637 0
16748 -38637 0
-16896 -38619 0
-16916 -38637 0
16918 -38637 0
17036 -38591 0
17037 -38591 0
17038 -38591 0
17040 -38591 0
17067 -38618 0
-17085 -38636 0
17086 -38636 0
17088 -38636 0
17077 -38628 0
17080 -38628 0
17087 -38637 0
17088 -38637 0
17089 -38637 0
-17236 -38619 0
-17256 -38637 0
17258 -38637 0
17407 -38618 0
-17425 -38636 0
17428 -38636 0
17428 -38637 0
-38573 17530 0
17577 -38618 0
-17595 -38636 0
17598 -38636 0
17598 -38637 0
17598 -38638 0
17599 -38638 0
-38554 17678 0
17687 -38563 0
-38563 17688 0
-38563 17690 0
17717 -38590 0
17738 -38608 0
17765 -38635 0
17768 -38635 0
-38573 17698 0
17768 -38636 0
17768 -38637 0
17768 -38638 0
-17918 -38622 0
17920 -38622 0
17911 -38614 0
-18086 -38620 0
-18446 -38637 0
-18426 -38620 0
-18616 -38637 0
-18596 -38620 0
-18786 -38637 0
-18766 -38620 0
-18936 -38619 0
-18956 -38637 0
18958 -38637 0
-38599 -19084 0
-38573 19057 0
19077 -38591 0
-19125 -38636 0
19128 -38636 0
19128 -38637 0
-19296 -38637 0
-19276 -38620 0
-19446 -38619 0
-19466 -38637 0
19468 -38637 0
-19616 -38619 0
-19636 -38637 0
19638 -38637 0
19787 -38618 0
-19805 -38636 0
19808 -38636 0
19808 -38637 0
-19956 -38619 0
-19976 -38637 0
19978 -38637 0
20127 -38618 0
-20145 -38636 0
20148 -38636 0
20148 -38637 0
20297 -38618 0
-20315 -38636 0
20317 -38636 0
20318 -38636 0
20318 -38637 0
20458 -38608 0
20485 -38635 0
20488 -38635 0
20488 -38636 0
20488 -38637 0
20488 -38638 0
20628 -38608 0
20655 -38635 0
20658 -38635 0
20658 -38636 0
20658 -38637 0
20658 -38638 0
20685 -38508 0
20686 -38508 0
-38508 20688 0
20698 -38517 0
-38526 -20703 0
20705 -38526 0
20706 -38526 0
20707 -38526 0
20708 -38526 0
-20713 -38535 0
20718 -38535 0
20724 -38544 0
20725 -38544 0
20728 -38544 0
-20733 -38553 0
20736 -38553 0
20738 -38553 0
-38562 -20743 0
20744 -38562 0
20745 -38562 0
20746 -38562 0
20747 -38562 0
20748 -38562 0
-20753 -38571 0
20796 -38607 0
20815 -38625 0
20816 -38625 0
20826 -38634 0
20827 -38634 0
20828 -38634 0
20827 -38635 0
20828 -38635 0
20828 -38638 0
21097 -38574 0
-21146 -38619 0
-21166 -38637 0
21168 -38637 0
-21316 -38619 0
-21336 -38637 0
21338 -38637 0
-21486 -38619 0
-21506 -38637 0
21508 -38637 0
21657 -38618 0
-21674 -38636 0
-21675 -38636 0
21678 -38636 0
21679 -38636 0
21678 -38637 0
21679 -38637 0
-38563 21767 0
-38572 21777 0
21787 -38581 0
21796 -38590 0
21797 -38590 0
21818 -38608 0
21845 -38635 0
21848 -38635 0
21848 -38636 0
21848 -38637 0
21848 -38638 0
22136 -38591 0
22167 -38618 0
-22185 -38636 0
22188 -38636 0
22188 -38637 0
22337 -38618 0
-22355 -38636 0
22358 -38636 0
22358 -38637 0
-22474 -38590 0
22475 -38590 0
22478 -38590 0
22498 -38608 0
22525 -38635 0
22528 -38635 0
22528 -38636 0
22528 -38637 0
22528 -38638 0
-22634 -38582 0
22636 -38582 0
22638 -38582 0
-22645 -38591 0
22689 -38627 0
22700 -38640 0
22701 -38640 0
22838 -38608 0
22865 -38635 0
22868 -38635 0
22868 -38636 0
22868 -38637 0
22868 -38638 0
23065 -38508 0
23066 -38508 0
23067 -38508 0
23068 -38508 0
23070 -38508 0
-38517 23074 0
-38526 23084 0
23095 -38535 0
-38544 23104 0
-38544 23112 0
-23113 -38553 0
-38553 23114 0
-23123 -38562 0
-38562 23124 0
23125 -38562 0
23126 -38562 0
-38571 -23133 0
-38571 23134 0
23137 -38571 0
23138 -38571 0
-38580 23144 0
-38598 23164 0
23176 -38607 0
-38625 -23193 0
-38625 23194 0
23195 -38625 0
23196 -38625 0
-23203 -38634 0
23204 -38634 0
23206 -38634 0
23207 -38634 0
23208 -38634 0
23160 -38590 0
23207 -38635 0
23208 -38635 0
23208 -38638 0
23259 -38526 0
23269 -38535 0
-38535 23272 0
23279 -38544 0
23280 -38544 0
23288 -38553 0
23289 -38553 0
23299 -38562 0
23301 -38562 0
-38562 23302 0
23307 -38571 0
23308 -38571 0
-38571 23312 0
23321 -38580 0
-38580 23322 0
23331 -38589 0
23341 -38598 0
-23343 -38607 0
-23363 -38625 0
23328 -38590 0
23330 -38590 0
-38579 23312 0
23405 -38508 0
23406 -38508 0
23407 -38508 0
23408 -38508 0
23410 -38508 0
23414 -38517 0
23415 -38517 0
23416 -38517 0
23417 -38517 0
23418 -38517 0
23420 -38517 0
23424 -38526 0
23425 -38526 0
23426 -38526 0
23427 -38526 0
23428 -38526 0
23430 -38526 0
23431 -38526 0
23434 -38535 0
23435 -38535 0
23436 -38535 0
23437 -38535 0
23438 -38535 0
23440 -38535 0
23441 -38535 0
23449 -38544 0
23450 -38544 0
23460 -38553 0
23461 -38553 0
23477 -38571 0
23478 -38571 0
23479 -38571 0
23480 -38571 0
23484 -38580 0
23485 -38580 0
23486 -38580 0
23509 -38598 0
23510 -38598 0
23525 -38616 0
23526 -38616 0
23527 -38616 0
23528 -38616 0
23534 -38625 0
23535 -38625 0
23536 -38625 0
23544 -38634 0
23545 -38634 0
23546 -38634 0
23547 -38634 0
23548 -38634 0
23509 -38599 0
23510 -38599 0
23515 -38608 0
23516 -38608 0
23535 -38626 0
23536 -38626 0
23545 -38635 0
23546 -38635 0
23547 -38635 0
