p cnf 28974 293
-3410 0
-1630 0
-1440 0
-3405 3410 0
-3400 3405 0
-3395 3400 0
-3390 3395 0
-3385 3390 0
-3380 3385 0
-3375 3380 0
-3370 3375 0
-3365 3370 0
-3360 3365 0
-3355 3360 0
-3350 3355 0
-3345 3350 0
-3340 3345 0
-3335 3340 0
-3330 3335 0
-3325 3330 0
-3320 3325 0
-3315 3320 0
-3310 3315 0
-3305 3310 0
-3300 3305 0
-3295 3300 0
-3290 3295 0
-3285 3290 0
-3280 3285 0
-3275 3280 0
-3264 3269 0
-3259 3264 0
3247 -3242 0
3242 -3237 0
-1625 1630 0
-1620 1625 0
-1615 1620 0
-1610 1615 0
-1605 1610 0
-1600 1605 0
-1595 1600 0
-1590 1595 0
-1585 1590 0
-1580 1585 0
-1575 1580 0
-1570 1575 0
-1565 1570 0
-1560 1565 0
-1555 1560 0
-1550 1555 0
-1545 1550 0
-1540 1545 0
-1535 1540 0
-1530 1535 0
-1525 1530 0
-1520 1525 0
-1515 1520 0
-1510 1515 0
-1505 1510 0
-1500 1505 0
-1495 1500 0
1489 -1484 0
1484 -1479 0
1483 -1478 0
1478 -1473 0
-1389 1414 0
-1364 1389 0
-1313 1338 0
-1288 1313 0
-1237 1262 0
-1212 1237 0
-1135 1160 0
-1058 1083 0
-987 1009 0
-945 965 0
-926 945 0
-890 907 0
-874 890 0
-830 843 0
-818 830 0
334 -324 0
-314 324 0
-304 314 0
-294 304 0
-284 294 0
1461 -275 0
-274 284 0
-264 274 0
3231 -257 0
-254 264 0
-244 254 0
-234 244 0
-224 234 0
-214 224 0
741 214 0
-3269 -337 3275 0
-3253 -307 3259 0
3253 -297 -3247 0
3237 -3231 -267 0
-1489 -335 1495 0
-325 1489 -1483 0
-315 1484 -1478 0
1479 -1473 -305 0
1473 -295 -1467 0
1467 -1461 -285 0
-1414 27 1440 0
-1338 1364 24 0
-1262 1288 21 0
-1186 1212 18 0
-1160 1186 17 0
-1109 1135 15 0
-1083 1109 14 0
-1033 1058 12 0
-1009 1033 11 0
-965 987 9 0
-907 926 6 0
-858 874 3 0
-843 858 2 0
324 -806 818 0
314 806 -795 0
795 -785 304 0
785 -776 294 0
776 -768 284 0
768 -761 274 0
761 -755 264 0
755 -750 254 0
750 -746 244 0
746 -743 234 0
743 -741 224 0
-207 -295 -335 0
-203 -285 -335 0
-198 -275 -335 0
-334 -213 -324 0
-212 -334 -314 0
-210 -334 -304 0
-207 -334 -294 0
-206 -327 -297 0
-191 -327 -267 0
-184 -327 -257 0
-202 -326 -286 0
-197 -326 -276 0
-324 -314 -211 0
-209 -324 -304 0
-206 -324 -294 0
-190 -317 -267 0
-183 -317 -257 0
-208 -304 -314 0
-205 -294 -314 0
-189 -307 -267 0
-182 -307 -257 0
-295 -305 -204 0
-200 -305 -285 0
-195 -305 -275 0
-304 -204 -294 0
-297 -188 -267 0
-181 -297 -257 0
-173 -297 -247 0
-296 -286 -199 0
-296 -188 -266 0
-181 -296 -256 0
-199 -295 -285 0
-194 -295 -275 0
-188 -295 -265 0
-287 -187 -267 0
-180 -287 -257 0
-172 -287 -247 0
-286 -187 -266 0
-180 -286 -256 0
-193 -285 -275 0
-187 -285 -265 0
-180 -285 -255 0
-186 -277 -267 0
-257 -179 -277 0
-171 -277 -247 0
-186 -276 -266 0
-186 -265 -275 0
-179 -275 -255 0
-178 -257 -267 0
-170 -267 -247 0
-161 -237 -267 0
-178 -266 -256 0
-266 -170 -246 0
-178 -265 -255 0
-257 -169 -247 0
-160 -237 -257 0
-256 -169 -246 0
-159 -237 -247 0
-325 335 -324 -334 0
-315 325 -324 -314 0
-305 315 -304 -314 0
305 -295 294 304 0
295 -285 284 294 0
285 -275 274 284 0
-265 275 274 264 0
-255 265 264 254 0
-245 255 254 244 0
-235 245 244 234 0
-225 235 234 224 0
-215 225 224 214 0
326 -316 -324 -314 325 315 0
-306 -304 316 -314 315 305 0
296 -286 -285 284 294 -295 0
-276 -275 286 274 284 -285 0
-266 276 265 274 264 275 0
266 -256 254 264 255 265 0
-246 256 244 254 245 255 0
-236 246 245 244 234 235 0
-226 236 224 234 235 225 0
-216 226 225 224 214 215 0
-326 -316 -324 -317 -314 315 325 327 0
-306 -307 -314 -316 -304 305 315 317 0
-286 -287 297 -295 -285 284 294 -296 0
-276 287 -277 -286 -275 274 284 -285 0
287 -277 -275 274 -285 284 286 276 0
-266 -267 275 277 265 274 264 -276 0
-257 -256 267 254 255 264 265 -266 0
266 256 267 255 264 265 254 -257 0
256 246 244 245 254 255 -247 257 0
-237 246 247 234 244 245 235 236 0
-227 236 237 224 234 235 225 226 0
-217 226 215 214 224 225 227 216 0
-186 -152 -161 -151 -162 -148 -141 -140 -137 -136 0
-152 -160 -179 -139 -150 -148 -141 -162 -137 -136 0
-152 -141 -159 -149 -171 -148 -162 -138 -137 -136 0
-161 -159 -170 -151 -149 -148 -140 -138 -137 -136 0
-160 -150 -169 -159 -149 -148 -139 -138 -137 -136 0
137 215 214 217 234 235 237 9 32 2 0
138 215 244 217 214 245 247 9 32 2 0
139 215 254 217 214 255 257 9 32 2 0
140 215 264 217 214 265 267 9 32 2 0
141 215 274 217 214 275 277 9 32 2 0
150 227 225 224 254 255 257 9 32 2 0
151 227 264 225 224 265 267 9 32 2 0
152 227 274 225 224 275 277 9 32 2 0
160 235 254 234 237 255 257 9 32 2 0
161 237 264 235 234 265 267 9 32 2 0
162 237 274 235 234 275 277 9 32 2 0
169 245 244 254 247 255 257 9 32 2 0
170 247 264 245 244 265 267 9 32 2 0
171 247 274 245 244 275 277 9 32 2 0
178 257 254 264 255 265 267 9 32 2 0
186 267 274 265 264 275 277 9 32 2 0
178 170 169 244 245 254 255 264 265 2 0
186 171 170 244 245 264 265 274 275 2 0
179 186 178 254 255 264 265 274 275 2 0
159 170 161 234 235 244 245 264 265 3 0
179 171 169 244 245 254 255 274 275 3 0
136 216 214 217 224 226 227 9 52 6 0
216 276 274 217 214 141 277 9 52 6 0
148 226 224 227 234 236 237 9 52 6 0
149 226 244 227 224 246 247 9 52 6 0
226 276 274 227 224 152 277 9 52 6 0
236 159 234 237 244 246 247 9 52 6 0
236 276 274 237 234 162 277 9 52 6 0
246 276 274 244 171 247 277 9 52 6 0
193 276 284 277 274 286 287 9 52 6 0
246 256 171 244 179 254 169 274 276 6 0
172 180 169 244 246 254 256 284 286 6 0
186 256 179 254 178 264 266 274 276 6 0
180 187 178 254 256 264 266 284 286 6 0
194 193 199 274 276 284 286 294 296 6 0
181 194 179 254 257 274 277 294 297 9 0
193 194 277 274 199 284 287 294 297 9 0
159 169 160 235 236 245 246 255 256 30 0
182 189 178 255 256 265 266 305 306 30 0
183 190 178 255 256 265 266 315 316 30 0
184 191 178 255 256 265 266 325 326 30 0
208 209 211 305 307 315 317 325 327 32 0
173 172 170 187 188 199 244 264 284 294 0
180 187 178 186 179 193 254 264 274 284 0
181 188 186 178 179 194 254 264 274 294 0
181 188 187 178 180 199 254 264 284 294 0
188 194 187 186 193 199 264 274 284 294 0
195 200 193 199 194 204 274 284 294 304 0
197 202 193 198 199 194 203 206 207 213 0
207 204 206 205 208 209 210 211 212 213 0
305 335 210 211 212 213 208 209 325 315 0
-2 0
-3 0
-6 0
-9 0
-11 0
-12 0
-14 0
-15 0
-17 0
-18 0
-21 0
-24 0
-27 0
-30 0
-32 0
-52 0
