p cnf 28974 275
-3410 0
-2520 0
-1630 0
-3405 3410 0
-3400 3405 0
-3395 3400 0
-3390 3395 0
-3385 3390 0
-3380 3385 0
-3375 3380 0
-3370 3375 0
-3365 3370 0
-3360 3365 0
-3355 3360 0
-3350 3355 0
-3345 3350 0
-3340 3345 0
-3335 3340 0
-3330 3335 0
-3325 3330 0
-3320 3325 0
-3315 3320 0
-3310 3315 0
-3305 3310 0
-3300 3305 0
-3295 3300 0
-3290 3295 0
-3285 3290 0
-3280 3285 0
-3275 3280 0
-3270 3275 0
-3265 3270 0
-3254 3259 0
-3249 3254 0
-3244 3249 0
3248 -3243 0
3243 -3238 0
-3228 3232 0
-2515 2520 0
-2510 2515 0
-2505 2510 0
-2500 2505 0
-2495 2500 0
-2490 2495 0
-2485 2490 0
-2480 2485 0
-2475 2480 0
-2470 2475 0
-2465 2470 0
-2460 2465 0
-2455 2460 0
-2450 2455 0
-2445 2450 0
-2440 2445 0
-2435 2440 0
-2430 2435 0
-2425 2430 0
-2420 2425 0
-2415 2420 0
-2410 2415 0
-2405 2410 0
-2400 2405 0
-2395 2400 0
-2390 2395 0
-2385 2390 0
-2380 2385 0
-2369 2374 0
-2364 2369 0
-2353 2358 0
-2348 2353 0
-1625 1630 0
-1620 1625 0
-1615 1620 0
-1610 1615 0
-1605 1610 0
-1600 1605 0
-1595 1600 0
-1590 1595 0
-1585 1590 0
-1580 1585 0
-1575 1580 0
-1570 1575 0
-1565 1570 0
-1560 1565 0
-1555 1560 0
-1550 1555 0
-1545 1550 0
-1540 1545 0
-1535 1540 0
-1530 1535 0
-1525 1530 0
-1520 1525 0
-1515 1520 0
-1510 1515 0
-1505 1510 0
-1500 1505 0
-1495 1500 0
-1478 1483 0
-1473 1478 0
334 -324 0
324 -314 0
314 -304 0
304 -294 0
294 -284 0
1461 -275 0
284 -274 0
-264 274 0
-254 264 0
3227 -247 0
2337 -246 0
-244 254 0
-237 3224 0
-234 244 0
-224 234 0
-214 224 0
-317 -3259 3265 0
-297 -3248 3254 0
-287 -3243 3249 0
-277 -3238 3244 0
-3232 3238 -267 0
3232 -257 -3227 0
3228 -3224 -247 0
-326 -2374 2380 0
-2358 -296 2364 0
2348 -266 -2342 0
2342 -2337 -256 0
-335 -1489 1495 0
-1483 -325 1489 0
-295 -1467 1473 0
1467 -285 -1461 0
-213 -324 -334 0
-212 -314 -334 0
-210 -304 -334 0
-207 -294 -334 0
-211 -316 -326 0
-191 -266 -326 0
-184 -256 -326 0
-211 -314 -324 0
-209 -304 -324 0
-206 -294 -324 0
-190 -267 -317 0
-183 -257 -317 0
-175 -247 -317 0
-190 -266 -316 0
-208 -304 -314 0
-205 -294 -314 0
-189 -267 -307 0
-182 -257 -307 0
-305 -295 -204 0
-200 -305 -285 0
-195 -305 -275 0
-204 -294 -304 0
-199 -295 -285 0
-194 -295 -275 0
-188 -295 -265 0
-193 -285 -275 0
-187 -285 -265 0
-180 -285 -255 0
-186 -277 -267 0
-179 -277 -257 0
-171 -277 -247 0
-186 -276 -266 0
-179 -276 -256 0
-186 -275 -265 0
-179 -275 -255 0
-178 -257 -267 0
-170 -267 -247 0
-178 -266 -256 0
-178 -265 -255 0
-169 -257 -247 0
-169 -256 -246 0
-160 -256 -236 0
-159 -246 -236 0
335 -325 -324 -334 0
325 -315 -314 -324 0
-305 -304 315 -314 0
304 305 294 -295 0
295 -285 284 294 0
285 -275 274 284 0
-265 275 274 264 0
-255 254 264 265 0
-245 244 254 255 0
-235 234 244 245 0
-225 235 234 224 0
-215 214 224 225 0
-325 -335 -326 -334 -324 336 0
326 325 -316 -314 315 -324 0
316 315 -306 -304 -314 305 0
-286 296 -285 284 294 -295 0
-276 286 -275 274 284 -285 0
276 -266 264 274 265 275 0
266 -256 265 264 255 254 0
256 -246 244 254 245 255 0
-236 246 234 244 235 245 0
-226 236 224 234 225 235 0
-216 226 214 224 225 215 0
-336 -334 -335 -29 -28 -5 -4 -1 0
-327 -324 -326 -52 -8 -7 -5 -4 0
-316 -314 -317 -52 -8 -7 -5 -4 0
-315 -316 -314 -29 -28 -5 -4 -1 0
317 316 -307 -304 306 305 -314 315 0
-306 -307 -304 -52 -8 -7 -5 -4 0
-266 -267 277 264 265 274 275 -276 0
-257 -256 267 254 255 264 265 -266 0
-257 266 256 267 264 265 254 255 0
256 246 244 245 254 255 257 -247 0
-237 236 234 247 244 245 235 246 0
-227 226 237 225 234 235 224 236 0
-217 226 227 215 224 225 214 216 0
-182 -155 -160 -139 -150 -148 -144 -165 -137 -136 0
-174 -155 -159 -144 -149 -148 -165 -138 -137 -136 0
-171 -162 -159 -152 -149 -148 -141 -138 -137 -136 0
-140 -138 -170 -151 -149 -148 -159 -161 -137 -136 0
-139 -138 -169 -150 -149 -148 -159 -160 -137 -136 0
214 139 215 217 254 255 257 9 32 2 0
140 264 215 217 214 265 267 9 32 2 0
141 274 215 217 214 275 277 9 32 2 0
148 227 224 225 234 235 237 9 32 2 0
150 227 254 225 224 255 257 9 32 2 0
151 227 264 225 224 265 267 9 32 2 0
152 227 274 225 224 275 277 9 32 2 0
160 237 254 234 235 255 257 9 32 2 0
161 237 264 235 234 265 267 9 32 2 0
162 237 274 235 234 275 277 9 32 2 0
169 247 245 244 254 255 257 9 32 2 0
170 247 264 245 244 265 267 9 32 2 0
171 247 274 245 244 275 277 9 32 2 0
178 264 254 257 255 265 267 9 32 2 0
186 274 267 265 264 275 277 9 32 2 0
159 169 160 234 235 244 245 254 255 2 0
179 186 178 254 255 264 265 274 275 2 0
178 170 169 244 245 254 255 264 265 3 0
179 171 169 244 245 254 255 274 275 3 0
246 178 169 244 170 254 256 264 266 6 0
194 193 199 274 276 284 286 294 296 6 0
194 199 277 274 193 284 287 294 297 9 0
136 216 215 217 225 226 227 32 54 30 0
137 216 235 217 215 236 237 32 54 30 0
138 216 245 217 215 246 247 32 54 30 0
144 305 216 217 215 306 307 32 54 30 0
149 226 245 227 225 246 247 32 54 30 0
155 305 226 227 225 306 307 32 54 30 0
236 159 245 237 235 246 247 32 54 30 0
165 305 236 237 235 306 307 32 54 30 0
174 305 246 247 245 306 307 32 54 30 0
175 183 169 245 246 255 256 315 316 30 0
175 174 208 245 246 305 306 315 316 30 0
182 189 178 255 256 265 266 305 306 30 0
183 182 208 255 256 305 306 315 316 30 0
184 182 209 255 257 305 307 325 327 32 0
190 191 211 265 267 315 317 325 327 32 0
305 307 211 208 209 315 317 325 327 32 0
180 187 178 186 179 193 254 264 274 284 0
183 182 208 184 209 211 255 305 315 325 0
188 186 194 193 187 199 264 274 284 294 0
189 191 305 208 209 190 265 211 315 325 0
195 200 193 199 194 204 274 284 294 304 0
207 204 206 205 208 209 210 211 212 213 0
335 305 208 211 209 213 210 315 325 212 0
326 316 336 211 208 210 306 213 212 209 0
1 0
-2 0
-3 0
4 0
5 0
-6 0
7 0
8 0
-9 0
28 0
29 0
-30 0
-32 0
52 0
-54 0
