p cnf 28974 75
-740 0
-735 740 0
-730 735 0
-725 730 0
-720 725 0
-715 720 0
-710 715 0
-705 710 0
-700 705 0
-695 700 0
-690 695 0
-685 690 0
-680 685 0
-675 680 0
-670 675 0
-665 670 0
-660 665 0
-655 660 0
-650 655 0
-645 650 0
-640 645 0
-635 640 0
-630 635 0
-625 630 0
-620 625 0
-615 620 0
-610 615 0
-605 610 0
-600 605 0
324 -314 0
314 -304 0
304 -294 0
294 -284 0
576 -284 0
284 -274 0
-264 274 0
-254 264 0
-244 254 0
-234 244 0
-224 234 0
-324 -594 600 0
594 -588 -314 0
588 -582 -304 0
582 -576 -294 0
-193 -285 -275 0
-187 -285 -265 0
-180 -285 -255 0
-186 -275 -265 0
-179 -275 -255 0
-178 -265 -255 0
-169 -256 -246 0
-256 -160 -236 0
-159 -246 -236 0
-227 -237 -148 0
285 -275 274 284 0
275 -265 274 264 0
265 -255 264 254 0
255 -245 254 244 0
-235 245 244 234 0
-225 235 234 224 0
256 -246 244 254 245 255 0
246 -236 234 244 245 235 0
-226 224 236 234 235 225 0
-227 237 224 225 234 235 236 226 0
225 224 226 227 32 52 2 6 9 29 0
148 234 225 224 226 235 236 6 29 2 0
160 159 169 234 235 244 245 254 255 3 0
180 187 178 186 179 193 254 264 274 284 0
-2 0
-3 0
-6 0
-9 0
-29 0
-32 0
-52 0
