p cnf 28974 473
-3410 0
-2520 0
-1630 0
-1440 0
-3405 3410 0
-3400 3405 0
-3395 3400 0
-3390 3395 0
-3385 3390 0
-3380 3385 0
-3375 3380 0
-3370 3375 0
-3365 3370 0
-3360 3365 0
-3355 3360 0
-3350 3355 0
-3345 3350 0
-3340 3345 0
-3335 3340 0
-3330 3335 0
-3325 3330 0
-3320 3325 0
-3315 3320 0
-3310 3315 0
-3305 3310 0
-3300 3305 0
-3295 3300 0
-3290 3295 0
-3285 3290 0
-3280 3285 0
-3275 3280 0
-3270 3275 0
-3265 3270 0
3269 -3264 0
3264 -3259 0
-3254 3259 0
3258 -3253 0
3253 -3248 0
3248 -3243 0
3247 -3242 0
3246 -3241 0
3243 -3238 0
3242 -3237 0
3241 -3236 0
3237 -3232 0
3236 -3231 0
3232 -3228 0
-2515 2520 0
-2510 2515 0
-2505 2510 0
-2500 2505 0
-2495 2500 0
-2490 2495 0
-2485 2490 0
-2480 2485 0
-2475 2480 0
-2470 2475 0
-2465 2470 0
-2460 2465 0
-2455 2460 0
-2450 2455 0
-2445 2450 0
-2440 2445 0
-2435 2440 0
-2430 2435 0
-2425 2430 0
-2420 2425 0
-2415 2420 0
-2410 2415 0
-2405 2410 0
-2400 2405 0
-2395 2400 0
-2390 2395 0
-2385 2390 0
-2380 2385 0
-2375 2380 0
2379 -2374 0
-2370 2375 0
2374 -2369 0
-2368 2373 0
2369 -2364 0
-2363 2368 0
-2358 2363 0
2362 -2357 0
2361 -2356 0
2357 -2352 0
2356 -2351 0
2352 -2347 0
-1625 1630 0
-1620 1625 0
-1615 1620 0
-1610 1615 0
-1605 1610 0
-1600 1605 0
-1595 1600 0
-1590 1595 0
-1585 1590 0
-1580 1585 0
-1575 1580 0
-1570 1575 0
-1565 1570 0
-1560 1565 0
-1555 1560 0
-1550 1555 0
-1545 1550 0
-1540 1545 0
-1535 1540 0
-1530 1535 0
-1525 1530 0
-1520 1525 0
-1515 1520 0
-1510 1515 0
-1505 1510 0
-1500 1505 0
-1495 1500 0
-1490 1495 0
-1485 1490 0
1489 -1484 0
-1480 1485 0
1484 -1479 0
-1478 1483 0
1479 -1474 0
-1473 1478 0
-1472 1477 0
-1389 1414 0
-1364 1389 0
-1313 1338 0
-1288 1313 0
-1211 1236 0
-1134 1159 0
-1057 1082 0
-986 1008 0
-944 964 0
-925 944 0
-889 906 0
-873 889 0
-829 842 0
-817 829 0
-806 817 0
334 -324 0
324 -314 0
-304 314 0
-294 304 0
1466 -285 0
-284 294 0
2351 -276 0
1461 -275 0
-274 284 0
2346 -266 0
-264 274 0
3231 -257 0
2341 -256 0
-254 264 0
3227 -247 0
-244 254 0
3224 -237 0
-234 244 0
-224 234 0
-214 224 0
741 214 0
-3269 -337 3275 0
-3264 -327 3270 0
-317 -3259 3265 0
-3258 3264 -317 0
-307 -3253 3259 0
3258 -3252 -307 0
-297 -3248 3254 0
-297 3253 -3247 0
3252 -297 -3246 0
3248 -287 -3242 0
3243 -277 -3237 0
3242 -277 -3236 0
3238 -267 -3232 0
3237 -267 -3231 0
3232 -3227 -257 0
3228 -3224 -247 0
-2379 -336 2385 0
-2374 -326 2380 0
-2373 2379 -326 0
-2369 -316 2375 0
-2368 2374 -316 0
-2367 2373 -316 0
-306 -2364 2370 0
-2363 2369 -306 0
2368 -2362 -306 0
2367 -2361 -306 0
-2358 -296 2364 0
2363 -296 -2357 0
2358 -286 -2352 0
2357 -286 -2351 0
2352 -276 -2346 0
2347 -266 -2341 0
-1489 -335 1495 0
-1483 -325 1489 0
-1477 -315 1483 0
-305 -1474 1480 0
-1472 1478 -305 0
-1468 -295 1474 0
-295 -1467 1473 0
-295 -1466 1472 0
1467 -1461 -285 0
-1414 27 1440 0
-1338 1364 24 0
-1262 1288 21 0
-1236 1262 20 0
-1185 1211 18 0
-1159 1185 17 0
-1108 1134 15 0
-1082 1108 14 0
-1032 1057 12 0
-1008 1032 11 0
-964 986 9 0
-906 925 6 0
-857 873 3 0
-842 857 2 0
314 -795 806 0
304 795 -785 0
785 -776 294 0
776 -768 284 0
768 -761 274 0
761 -755 264 0
755 -750 254 0
750 -746 244 0
746 -743 234 0
743 -741 224 0
-192 -267 -337 0
-185 -257 -337 0
-207 -295 -335 0
-203 -285 -335 0
-198 -275 -335 0
-213 -324 -334 0
-212 -314 -334 0
-210 -304 -334 0
-207 -294 -334 0
-202 -287 -327 0
-197 -277 -327 0
-191 -267 -327 0
-184 -257 -327 0
-206 -296 -326 0
-202 -286 -326 0
-197 -276 -326 0
-191 -266 -326 0
-206 -295 -325 0
-202 -285 -325 0
-211 -314 -324 0
-209 -304 -324 0
-206 -294 -324 0
-297 -205 -317 0
-201 -287 -317 0
-196 -277 -317 0
-190 -267 -317 0
-183 -257 -317 0
-296 -205 -316 0
-201 -286 -316 0
-196 -276 -316 0
-304 -208 -314 0
-205 -294 -314 0
-297 -307 -204 0
-200 -307 -287 0
-189 -307 -267 0
-182 -307 -257 0
-174 -307 -247 0
-195 -276 -306 0
-189 -266 -306 0
-295 -204 -305 0
-200 -285 -305 0
-195 -275 -305 0
-294 -204 -304 0
-297 -188 -267 0
-181 -297 -257 0
-173 -297 -247 0
-199 -296 -286 0
-194 -296 -276 0
-296 -188 -266 0
-181 -296 -256 0
-199 -295 -285 0
-194 -295 -275 0
-188 -295 -265 0
-187 -267 -287 0
-180 -287 -257 0
-172 -287 -247 0
-163 -287 -237 0
-193 -286 -276 0
-187 -286 -266 0
-193 -275 -285 0
-187 -285 -265 0
-180 -285 -255 0
-277 -267 -186 0
-277 -179 -257 0
-171 -277 -247 0
-276 -186 -266 0
-179 -276 -256 0
-186 -275 -265 0
-179 -275 -255 0
-178 -267 -257 0
-170 -267 -247 0
-161 -267 -237 0
-178 -266 -256 0
-170 -266 -246 0
-178 -265 -255 0
-169 -247 -257 0
-237 -257 -160 0
-169 -246 -256 0
-160 -256 -236 0
-159 -247 -237 0
-159 -246 -236 0
-148 -237 -227 0
-137 -237 -217 0
-136 -217 -227 0
-334 -324 335 -325 0
325 -324 -314 -315 0
-304 315 -305 -314 0
-295 305 304 294 0
295 -285 284 294 0
285 -275 274 284 0
-265 275 274 264 0
-255 265 264 254 0
-245 255 254 244 0
-235 245 244 234 0
-225 235 234 224 0
-215 225 224 214 0
335 325 -326 336 -324 -334 0
325 315 -316 326 -314 -324 0
-304 315 -306 305 316 -314 0
-296 -295 306 304 -305 294 0
-295 -286 296 -285 294 284 0
-276 -285 286 -275 284 274 0
-276 286 285 275 274 284 0
276 -266 265 275 264 274 0
266 -256 265 264 255 254 0
-246 256 245 254 244 255 0
-236 246 235 244 234 245 0
-226 236 224 234 225 235 0
-216 226 214 224 215 225 0
-334 -335 -337 -32 -31 -8 -7 -1 0
-334 -335 -336 -29 -28 -5 -4 -1 0
-326 -336 -327 325 335 337 -324 -334 0
-325 -335 -327 326 336 337 -324 -334 0
-325 -324 -326 -29 -28 -5 -4 -1 0
-316 -326 -317 315 325 327 -314 -324 0
-315 -325 -317 316 326 327 -314 -324 0
315 325 -317 327 326 316 -314 -324 0
-315 -314 -316 -29 -28 -5 -4 -1 0
-307 306 -304 305 315 316 317 -314 0
-295 -296 -287 -286 -285 297 294 284 0
-287 -295 286 296 -285 297 284 294 0
-277 -285 276 -275 286 287 274 284 0
-267 -276 277 265 275 -266 264 274 0
266 276 275 277 265 -267 274 264 0
-257 -256 267 265 -266 264 254 255 0
-257 267 265 266 256 254 255 264 0
-247 246 256 257 254 255 244 245 0
-237 246 235 247 244 245 236 234 0
237 -227 235 224 234 225 226 236 0
-217 227 215 214 224 225 226 216 0
-165 -162 -195 -152 -155 -148 -144 -141 -137 -136 0
-175 -166 -159 -156 -149 -148 -145 -138 -137 -136 0
-174 -155 -159 -149 -165 -148 -144 -138 -137 -136 0
-164 -173 -159 -154 -149 -148 -143 -138 -137 -136 0
-172 -163 -159 -153 -149 -148 -142 -138 -137 -136 0
-171 -152 -159 -149 -162 -148 -141 -138 -137 -136 0
-169 -160 -159 -150 -149 -148 -139 -138 -137 -136 0
159 160 169 234 235 244 245 254 255 2 0
178 179 186 254 255 264 265 274 275 2 0
178 180 187 254 255 264 265 284 285 2 0
170 178 169 244 245 254 255 264 265 3 0
169 171 179 244 245 254 255 274 275 3 0
187 186 193 264 265 274 275 284 285 3 0
193 194 199 274 275 284 285 294 295 3 0
136 216 214 217 224 226 227 9 52 6 0
137 216 234 217 214 236 237 9 52 6 0
141 216 274 217 214 276 277 9 52 6 0
142 216 284 217 214 286 287 9 52 6 0
143 216 294 217 214 296 297 9 52 6 0
148 227 224 234 226 236 237 9 52 6 0
150 226 254 227 224 256 257 9 52 6 0
152 226 274 227 224 276 277 9 52 6 0
153 226 284 227 224 286 287 9 52 6 0
154 226 294 227 224 296 297 9 52 6 0
159 237 234 244 236 246 247 9 52 6 0
162 236 274 237 234 276 277 9 52 6 0
163 236 284 237 234 286 287 9 52 6 0
164 236 294 237 234 296 297 9 52 6 0
247 246 274 244 171 276 277 9 52 6 0
172 246 284 247 244 286 287 9 52 6 0
173 246 294 247 244 296 297 9 52 6 0
277 276 274 193 284 286 287 9 52 6 0
286 199 294 287 284 296 297 9 52 6 0
169 180 172 244 246 254 256 284 286 6 0
181 173 169 244 246 254 256 294 296 6 0
180 178 187 254 256 264 266 284 286 6 0
181 188 178 254 256 264 266 294 296 6 0
180 193 179 254 256 274 276 284 286 6 0
180 181 199 254 256 284 286 294 296 6 0
276 286 193 274 199 284 194 294 296 6 0
200 204 199 284 286 294 296 304 306 6 0
178 188 181 254 257 264 267 294 297 9 0
188 186 194 264 267 274 277 294 297 9 0
189 195 186 264 267 274 277 304 307 9 0
188 187 199 264 267 284 287 294 297 9 0
194 277 193 274 199 284 287 294 297 9 0
138 216 215 217 245 246 247 33 52 30 0
139 216 255 217 215 256 257 33 52 30 0
144 305 216 217 215 306 307 33 52 30 0
145 315 216 217 215 316 317 33 52 30 0
149 226 225 227 245 246 247 33 52 30 0
155 305 226 227 225 306 307 33 52 30 0
156 315 226 227 225 316 317 33 52 30 0
236 237 235 160 255 256 257 33 52 30 0
165 305 236 237 235 306 307 33 52 30 0
166 315 236 237 235 316 317 33 52 30 0
246 247 255 169 245 256 257 33 52 30 0
174 305 246 247 245 306 307 33 52 30 0
175 315 246 247 245 316 317 33 52 30 0
211 325 316 317 315 326 327 33 52 30 0
148 137 136 215 216 225 226 235 236 30 0
182 174 169 245 246 255 256 305 306 30 0
178 182 189 255 256 265 266 305 306 30 0
178 183 190 255 256 265 266 315 316 30 0
208 183 182 255 256 305 306 315 316 30 0
184 183 211 255 256 315 316 325 326 30 0
212 315 213 211 316 325 326 335 336 30 0
191 197 186 265 267 275 277 325 327 33 0
196 201 193 275 277 285 287 315 317 33 0
209 208 211 305 307 315 317 325 327 33 0
203 202 213 286 287 326 327 336 337 52 0
198 195 210 276 277 306 307 336 337 53 0
210 208 212 306 307 316 317 336 337 53 0
317 212 213 316 211 326 327 336 337 53 0
161 163 159 170 172 187 234 244 264 284 0
180 187 179 186 178 193 254 264 274 284 0
188 181 187 178 180 199 254 264 284 294 0
185 184 178 191 192 265 325 335 255 213 0
188 194 193 186 187 199 264 274 284 294 0
189 195 188 194 186 204 304 274 294 264 0
200 195 193 199 194 204 304 284 294 274 0
197 202 193 198 199 194 203 206 207 213 0
196 198 201 193 203 276 286 316 336 212 0
205 202 201 203 199 206 207 211 212 213 0
203 206 296 286 207 202 199 326 336 213 0
200 208 201 203 210 286 306 316 336 212 0
207 204 208 206 205 209 210 211 212 213 0
207 317 297 205 206 327 337 212 213 211 0
210 305 335 208 325 209 315 212 213 211 0
209 208 316 336 326 306 210 212 213 211 0
209 210 317 327 208 307 337 212 213 211 0
1 0
-2 0
-3 0
4 0
5 0
-6 0
7 0
8 0
-9 0
-11 0
-12 0
-14 0
-15 0
-17 0
-18 0
-20 0
-21 0
-24 0
-27 0
28 0
29 0
-30 0
31 0
32 0
-33 0
-52 0
-53 0
