p cnf 28974 271
-1630 0
-1440 0
-1625 1630 0
-1620 1625 0
-1615 1620 0
-1610 1615 0
-1605 1610 0
-1600 1605 0
-1595 1600 0
-1590 1595 0
-1585 1590 0
-1580 1585 0
-1575 1580 0
-1570 1575 0
-1565 1570 0
-1560 1565 0
-1555 1560 0
-1550 1555 0
-1545 1550 0
-1540 1545 0
-1535 1540 0
-1530 1535 0
-1525 1530 0
-1520 1525 0
-1515 1520 0
-1510 1515 0
-1505 1510 0
-1500 1505 0
-1495 1500 0
-1490 1495 0
1489 -1484 0
-1479 1484 0
1483 -1478 0
-1474 1479 0
1478 -1473 0
-1389 1414 0
-1364 1389 0
-1313 1338 0
-1288 1313 0
-1237 1262 0
-1212 1237 0
-1135 1160 0
-1058 1083 0
-987 1009 0
-945 965 0
-926 945 0
-890 907 0
-874 890 0
-830 843 0
-818 830 0
334 -324 0
-314 324 0
-304 314 0
-294 304 0
-284 294 0
1461 -275 0
-274 284 0
1456 -265 0
-264 274 0
-254 264 0
-244 254 0
-234 244 0
-224 234 0
-214 224 0
741 214 0
-1489 -335 1495 0
-325 -1484 1490 0
-1483 1489 -325 0
-315 -1478 1484 0
-305 -1473 1479 0
-295 -1468 1474 0
1473 -295 -1467 0
1468 -1462 -285 0
1467 -1461 -285 0
1462 -275 -1456 0
-1414 27 1440 0
-1338 1364 24 0
-1262 1288 21 0
-1186 1212 18 0
-1160 1186 17 0
-1109 1135 15 0
-1083 1109 14 0
-1033 1058 12 0
-1009 1033 11 0
-965 987 9 0
-907 926 6 0
-858 874 3 0
-843 858 2 0
324 -806 818 0
-795 806 314 0
795 -785 304 0
785 -776 294 0
776 -768 284 0
768 -761 274 0
761 -755 264 0
755 -750 254 0
750 -746 244 0
746 -743 234 0
743 -741 224 0
-213 -324 -334 0
-212 -314 -334 0
-210 -304 -334 0
-207 -294 -334 0
-191 -266 -326 0
-184 -256 -326 0
-211 -314 -324 0
-209 -304 -324 0
-206 -294 -324 0
-190 -267 -317 0
-183 -257 -317 0
-175 -247 -317 0
-166 -237 -317 0
-190 -266 -316 0
-205 -315 -295 0
-201 -315 -285 0
-196 -315 -275 0
-208 -304 -314 0
-205 -294 -314 0
-189 -267 -307 0
-182 -257 -307 0
-305 -295 -204 0
-200 -305 -285 0
-195 -305 -275 0
-204 -294 -304 0
-199 -295 -285 0
-194 -295 -275 0
-187 -287 -267 0
-180 -287 -257 0
-193 -286 -276 0
-187 -266 -286 0
-193 -285 -275 0
-187 -285 -265 0
-180 -285 -255 0
-186 -277 -267 0
-179 -277 -257 0
-171 -277 -247 0
-186 -276 -266 0
-179 -276 -256 0
-171 -276 -246 0
-186 -275 -265 0
-179 -275 -255 0
-178 -267 -257 0
-170 -267 -247 0
-178 -266 -256 0
-178 -265 -255 0
-169 -247 -257 0
-257 -237 -160 0
-150 -257 -227 0
-169 -256 -246 0
-160 -256 -236 0
-159 -247 -237 0
-149 -247 -227 0
-159 -246 -236 0
-237 -148 -227 0
-324 -334 -325 335 0
-315 325 -324 -314 0
-305 315 -314 -304 0
-295 305 294 304 0
295 -285 284 294 0
285 -275 274 284 0
-265 275 274 264 0
-255 265 264 254 0
-245 255 254 244 0
-235 245 244 234 0
-225 235 234 224 0
-215 225 224 214 0
326 325 -316 315 -314 -324 0
316 315 -306 -314 305 -304 0
286 -276 274 284 285 275 0
276 -266 265 275 264 274 0
266 -256 265 264 255 254 0
256 -246 244 254 245 255 0
-236 246 234 244 235 245 0
-226 236 224 234 225 235 0
-216 226 214 224 225 215 0
-336 -334 -335 -29 -28 -5 -4 -1 0
-326 -327 -324 -52 -8 -7 -5 -4 0
-316 -317 -314 -52 -8 -7 -5 -4 0
316 317 -307 305 -304 315 -314 306 0
-307 -306 -304 -52 -8 -7 -5 -4 0
-277 287 -276 275 285 -286 274 284 0
-266 -267 277 264 265 274 275 -276 0
276 -267 277 275 274 264 265 266 0
-256 -257 265 267 255 264 254 -266 0
266 256 265 255 264 254 -257 267 0
-247 -246 257 244 245 254 255 -256 0
256 246 244 245 254 255 -247 257 0
246 236 244 247 235 245 234 -237 0
-227 226 237 225 234 235 224 236 0
-217 226 227 215 224 225 214 216 0
-182 -165 -160 -155 -150 -148 -144 -139 -137 -136 0
-174 -155 -149 -159 -165 -148 -144 -138 -137 -136 0
-171 -162 -159 -152 -149 -148 -141 -138 -137 -136 0
-170 -161 -159 -151 -149 -148 -140 -138 -137 -136 0
-169 -160 -159 -150 -149 -148 -139 -138 -137 -136 0
137 215 214 217 234 235 237 9 32 2 0
138 215 244 217 214 245 247 9 32 2 0
139 215 254 217 214 255 257 9 32 2 0
140 215 264 217 214 265 267 9 32 2 0
141 215 274 217 214 275 277 9 32 2 0
148 227 225 224 234 235 237 9 32 2 0
149 227 244 225 224 245 247 9 32 2 0
150 227 254 225 224 255 257 9 32 2 0
151 227 264 225 224 265 267 9 32 2 0
152 227 274 225 224 275 277 9 32 2 0
159 237 234 244 235 245 247 9 32 2 0
160 237 254 235 234 255 257 9 32 2 0
161 237 264 235 234 265 267 9 32 2 0
162 237 274 235 234 275 277 9 32 2 0
169 247 254 244 245 255 257 9 32 2 0
170 247 264 245 244 265 267 9 32 2 0
171 247 274 245 244 275 277 9 32 2 0
178 257 264 254 255 265 267 9 32 2 0
186 267 274 265 264 275 277 9 32 2 0
193 275 284 277 274 285 287 9 32 2 0
160 150 148 224 225 234 235 254 255 2 0
178 170 169 244 245 254 255 264 265 2 0
179 171 169 244 245 254 255 274 275 2 0
179 186 178 254 255 264 265 274 275 2 0
159 149 148 224 225 234 235 244 245 3 0
169 160 159 234 235 244 245 254 255 3 0
180 187 178 254 255 264 265 284 285 3 0
187 193 186 264 265 274 275 284 285 3 0
136 216 215 217 225 226 227 32 54 30 0
216 246 245 217 215 138 247 32 54 30 0
144 216 305 217 215 306 307 32 54 30 0
226 246 245 227 225 149 247 32 54 30 0
155 226 305 227 225 306 307 32 54 30 0
236 246 235 237 245 159 247 32 54 30 0
165 236 305 237 235 306 307 32 54 30 0
174 246 305 247 245 306 307 32 54 30 0
315 306 208 307 305 316 317 32 54 30 0
166 175 159 235 236 245 246 315 316 30 0
175 183 169 245 246 255 256 315 316 30 0
182 189 178 255 256 265 266 305 306 30 0
183 190 178 255 256 265 266 315 316 30 0
184 182 209 255 257 305 307 325 327 32 0
191 190 211 265 267 315 317 325 327 32 0
305 307 208 211 209 315 317 325 327 32 0
187 186 178 180 179 193 254 264 274 284 0
184 191 178 183 190 211 255 265 315 325 0
191 190 189 208 209 211 265 305 315 325 0
195 200 194 199 193 204 274 284 294 304 0
196 201 194 199 193 205 274 284 294 314 0
207 204 206 205 208 209 210 211 212 213 0
315 210 335 211 212 213 209 305 325 208 0
326 336 316 211 212 213 210 208 209 306 0
1 0
-2 0
-3 0
4 0
5 0
-6 0
7 0
8 0
-9 0
-11 0
-12 0
-14 0
-15 0
-17 0
-18 0
-21 0
-24 0
-27 0
28 0
29 0
-30 0
-32 0
52 0
-54 0
