p cnf 28974 391
-3410 0
-2520 0
-1630 0
-740 0
-3405 3410 0
-3400 3405 0
-3395 3400 0
-3390 3395 0
-3385 3390 0
-3380 3385 0
-3375 3380 0
-3370 3375 0
-3365 3370 0
-3360 3365 0
-3355 3360 0
-3350 3355 0
-3345 3350 0
-3340 3345 0
-3335 3340 0
-3330 3335 0
-3325 3330 0
-3320 3325 0
-3315 3320 0
-3310 3315 0
-3305 3310 0
-3300 3305 0
-3295 3300 0
-3290 3295 0
-3285 3290 0
-3280 3285 0
-3275 3280 0
-3270 3275 0
-3265 3270 0
3253 -3248 0
3247 -3242 0
3242 -3237 0
3241 -3236 0
3237 -3232 0
3236 -3231 0
-2515 2520 0
-2510 2515 0
-2505 2510 0
-2500 2505 0
-2495 2500 0
-2490 2495 0
-2485 2490 0
-2480 2485 0
-2475 2480 0
-2470 2475 0
-2465 2470 0
-2460 2465 0
-2455 2460 0
-2450 2455 0
-2445 2450 0
-2440 2445 0
-2435 2440 0
-2430 2435 0
-2425 2430 0
-2420 2425 0
-2415 2420 0
-2410 2415 0
-2405 2410 0
-2400 2405 0
-2395 2400 0
-2390 2395 0
-2385 2390 0
-2380 2385 0
-2375 2380 0
2374 -2369 0
-2364 2369 0
2368 -2363 0
2357 -2352 0
2352 -2347 0
-1625 1630 0
-1620 1625 0
-1615 1620 0
-1610 1615 0
-1605 1610 0
-1600 1605 0
-1595 1600 0
-1590 1595 0
-1585 1590 0
-1580 1585 0
-1575 1580 0
-1570 1575 0
-1565 1570 0
-1560 1565 0
-1555 1560 0
-1550 1555 0
-1545 1550 0
-1540 1545 0
-1535 1540 0
-1530 1535 0
-1525 1530 0
-1520 1525 0
-1515 1520 0
-1510 1515 0
-1505 1510 0
-1500 1505 0
-1495 1500 0
-1484 1489 0
-1479 1484 0
-1478 1483 0
-1474 1479 0
-1473 1478 0
1477 -1472 0
-735 740 0
-730 735 0
-725 730 0
-720 725 0
-715 720 0
-710 715 0
-705 710 0
-700 705 0
-695 700 0
-690 695 0
-685 690 0
-680 685 0
-675 680 0
-670 675 0
-665 670 0
-660 665 0
-655 660 0
-650 655 0
-645 650 0
-640 645 0
-635 640 0
-630 635 0
-625 630 0
-620 625 0
-615 620 0
-610 615 0
-605 610 0
334 -324 0
324 -314 0
314 -304 0
304 -294 0
1466 -285 0
-284 294 0
2351 -276 0
1461 -275 0
-274 284 0
2346 -266 0
1456 -265 0
-264 274 0
3231 -257 0
2341 -256 0
-254 264 0
3227 -247 0
-244 254 0
-234 244 0
-224 234 0
-214 224 0
-3259 -317 3265 0
3259 -3253 -307 0
3253 -297 -3247 0
3248 -287 -3242 0
3247 -287 -3241 0
3242 -3236 -277 0
3232 -3227 -257 0
-2374 -326 2380 0
-2369 -316 2375 0
2374 -2368 -316 0
2369 -306 -2363 0
-2358 2364 -296 0
2363 -296 -2357 0
2358 -286 -2352 0
2357 -286 -2351 0
2352 -276 -2346 0
2347 -266 -2341 0
-335 -1489 1495 0
-1483 -325 1489 0
-315 -1477 1483 0
-295 -1468 1474 0
-295 -1467 1473 0
1472 -295 -1466 0
1468 -1462 -285 0
1467 -1461 -285 0
1462 -1456 -275 0
-334 -599 605 0
-593 -324 599 0
-587 -314 593 0
-207 -295 -335 0
-203 -285 -335 0
-198 -275 -335 0
-213 -324 -334 0
-212 -314 -334 0
-210 -304 -334 0
-207 -294 -334 0
-296 -206 -326 0
-202 -286 -326 0
-197 -276 -326 0
-315 -211 -325 0
-209 -305 -325 0
-295 -206 -325 0
-202 -285 -325 0
-314 -211 -324 0
-209 -304 -324 0
-206 -294 -324 0
-196 -277 -317 0
-183 -257 -317 0
-175 -247 -317 0
-205 -296 -316 0
-201 -286 -316 0
-196 -276 -316 0
-190 -266 -316 0
-315 -305 -208 0
-205 -315 -295 0
-208 -304 -314 0
-205 -314 -294 0
-307 -200 -287 0
-195 -307 -277 0
-189 -307 -267 0
-182 -307 -257 0
-174 -307 -247 0
-306 -296 -204 0
-200 -306 -286 0
-195 -306 -276 0
-189 -306 -266 0
-305 -295 -204 0
-200 -305 -285 0
-195 -305 -275 0
-294 -204 -304 0
-188 -297 -267 0
-181 -297 -257 0
-173 -297 -247 0
-199 -296 -286 0
-194 -296 -276 0
-188 -296 -266 0
-199 -295 -285 0
-194 -295 -275 0
-187 -287 -267 0
-180 -287 -257 0
-172 -287 -247 0
-163 -287 -237 0
-193 -286 -276 0
-187 -286 -266 0
-193 -275 -285 0
-187 -285 -265 0
-180 -285 -255 0
-186 -267 -277 0
-179 -277 -257 0
-171 -277 -247 0
-186 -276 -266 0
-179 -276 -256 0
-186 -275 -265 0
-179 -275 -255 0
-178 -267 -257 0
-170 -267 -247 0
-178 -266 -256 0
-170 -266 -246 0
-178 -265 -255 0
-169 -257 -247 0
-237 -257 -160 0
-169 -256 -246 0
-160 -256 -236 0
-237 -247 -159 0
-236 -159 -246 0
335 -324 -334 -325 0
325 -315 -324 -314 0
325 -315 324 314 0
315 -305 -304 -314 0
314 -305 315 304 0
304 305 294 -295 0
295 -285 294 284 0
285 -275 274 284 0
-265 275 274 264 0
-255 265 264 254 0
-245 244 254 255 0
-235 245 244 234 0
-225 235 234 224 0
-215 225 224 214 0
-325 -334 -326 -335 -324 336 0
325 -324 -316 315 326 -314 0
315 -306 305 316 -304 -314 0
304 -296 306 -295 294 -305 0
-286 -285 294 296 284 -295 0
-286 296 284 294 295 285 0
-276 -285 286 274 284 -275 0
286 -276 274 284 285 275 0
-266 -265 276 264 274 -275 0
-266 276 264 274 275 265 0
266 -256 265 264 254 255 0
-246 256 244 254 245 255 0
-236 246 234 244 245 235 0
-226 236 235 234 224 225 0
-216 226 225 224 214 215 0
-337 -334 -335 -32 -31 -8 -7 -1 0
-336 -334 -335 -29 -28 -5 -4 -1 0
-327 -334 326 -335 -324 -325 336 337 0
-315 -314 -316 -29 -28 -5 -4 -1 0
-304 -307 315 316 305 317 -314 306 0
-295 -287 297 284 286 294 296 -285 0
-277 -275 286 287 274 284 276 -285 0
-267 -266 277 264 275 274 265 -276 0
267 256 265 266 -257 254 255 264 0
-247 246 257 256 254 255 244 245 0
-237 247 234 235 244 245 236 246 0
-227 237 224 225 234 235 226 236 0
-217 227 214 215 224 225 226 216 0
-165 -200 -163 -155 -153 -148 -144 -142 -137 -136 0
-195 -165 -162 -152 -155 -148 -144 -141 -137 -136 0
-174 -165 -159 -155 -149 -148 -144 -138 -137 -136 0
-173 -164 -159 -154 -149 -148 -143 -138 -137 -136 0
-172 -163 -159 -153 -149 -148 -142 -138 -137 -136 0
-152 -162 -159 -149 -171 -148 -141 -138 -137 -136 0
-160 -169 -159 -150 -149 -148 -139 -138 -137 -136 0
159 160 169 234 235 244 245 254 255 2 0
171 179 169 244 245 254 255 274 275 2 0
179 186 178 254 255 264 265 274 275 2 0
170 178 169 244 245 254 255 264 265 3 0
187 186 193 264 265 274 275 284 285 3 0
193 194 199 274 275 284 285 294 295 3 0
136 216 214 217 224 226 227 9 52 6 0
137 216 234 217 214 236 237 9 52 6 0
139 216 254 217 214 256 257 9 52 6 0
141 216 274 217 214 276 277 9 52 6 0
142 216 284 217 214 286 287 9 52 6 0
143 216 294 217 214 296 297 9 52 6 0
148 227 224 234 226 236 237 9 52 6 0
152 226 274 227 224 276 277 9 52 6 0
153 226 284 227 224 286 287 9 52 6 0
154 226 294 227 224 296 297 9 52 6 0
159 237 234 244 236 246 247 9 52 6 0
236 237 254 160 234 256 257 9 52 6 0
162 236 274 237 234 276 277 9 52 6 0
163 236 284 237 234 286 287 9 52 6 0
164 236 294 237 234 296 297 9 52 6 0
171 247 274 244 246 276 277 9 52 6 0
172 246 284 247 244 286 287 9 52 6 0
173 246 294 247 244 296 297 9 52 6 0
277 276 274 284 193 286 287 9 52 6 0
286 287 199 294 284 296 297 9 52 6 0
172 163 159 234 236 244 246 284 286 6 0
170 178 169 244 246 254 256 264 266 6 0
181 173 169 244 246 254 256 294 296 6 0
172 171 193 244 246 274 276 284 286 6 0
180 187 178 254 256 264 266 284 286 6 0
178 181 188 254 256 264 266 294 296 6 0
180 181 199 254 256 284 286 294 296 6 0
187 266 193 264 186 274 276 284 286 6 0
276 286 193 274 194 284 199 294 296 6 0
188 186 194 264 267 274 277 294 297 9 0
138 216 215 217 245 246 247 33 52 30 0
144 305 216 217 215 306 307 33 52 30 0
149 226 225 227 245 246 247 33 52 30 0
150 226 255 227 225 256 257 33 52 30 0
155 305 226 227 225 306 307 33 52 30 0
165 236 235 237 305 306 307 33 52 30 0
246 247 255 169 245 256 257 33 52 30 0
174 305 246 247 245 306 307 33 52 30 0
208 315 306 307 305 316 317 33 52 30 0
160 159 169 235 236 245 246 255 256 30 0
182 174 169 245 246 255 256 305 306 30 0
175 183 169 245 246 255 256 315 316 30 0
175 208 174 245 246 305 306 315 316 30 0
182 189 178 255 256 265 266 305 306 30 0
209 208 211 305 306 315 316 325 326 30 0
190 196 186 265 267 275 277 315 317 33 0
198 195 210 276 277 306 307 336 337 52 0
209 210 213 306 307 326 327 336 337 52 0
180 172 169 173 181 199 244 254 284 294 0
180 186 178 187 179 193 254 264 274 284 0
189 204 186 194 188 195 264 274 294 304 0
203 198 194 193 199 204 200 195 207 210 0
200 304 199 193 204 195 274 284 294 194 0
198 203 194 193 197 202 199 206 207 213 0
198 200 276 286 193 210 203 306 195 336 0
196 195 276 208 210 212 316 306 198 336 0
203 202 205 199 201 206 207 211 212 213 0
203 210 286 209 326 213 200 306 202 336 0
207 204 210 205 208 206 209 211 212 213 0
206 304 209 204 208 211 294 205 314 324 0
335 210 325 211 212 213 305 315 208 209 0
210 211 336 326 212 213 306 208 209 316 0
1 0
-2 0
-3 0
4 0
5 0
-6 0
7 0
8 0
-9 0
28 0
29 0
-30 0
31 0
32 0
-33 0
-52 0
