p cnf 28974 197
-2520 0
-1630 0
-2515 2520 0
-2510 2515 0
-2505 2510 0
-2500 2505 0
-2495 2500 0
-2490 2495 0
-2485 2490 0
-2480 2485 0
-2475 2480 0
-2470 2475 0
-2465 2470 0
-2460 2465 0
-2455 2460 0
-2450 2455 0
-2445 2450 0
-2440 2445 0
-2435 2440 0
-2430 2435 0
-2425 2430 0
-2420 2425 0
-2415 2420 0
-2410 2415 0
-2405 2410 0
-2400 2405 0
-2395 2400 0
-2390 2395 0
-2385 2390 0
-2380 2385 0
-2369 2374 0
-2364 2369 0
-2353 2358 0
2352 -2347 0
-1625 1630 0
-1620 1625 0
-1615 1620 0
-1610 1615 0
-1605 1610 0
-1600 1605 0
-1595 1600 0
-1590 1595 0
-1585 1590 0
-1580 1585 0
-1575 1580 0
-1570 1575 0
-1565 1570 0
-1560 1565 0
-1555 1560 0
-1550 1555 0
-1545 1550 0
-1540 1545 0
-1535 1540 0
-1530 1535 0
-1525 1530 0
-1520 1525 0
-1515 1520 0
-1510 1515 0
-1505 1510 0
-1500 1505 0
-1495 1500 0
1489 -1484 0
1484 -1479 0
1483 -1478 0
1478 -1473 0
334 -324 0
324 -314 0
314 -304 0
304 -294 0
294 -284 0
1461 -275 0
284 -274 0
-264 274 0
2341 -256 0
-254 264 0
-244 254 0
-234 244 0
-224 234 0
-214 224 0
-326 -2374 2380 0
-2358 2364 -296 0
-286 2358 -2352 0
-276 2353 -2347 0
2347 -266 -2341 0
-1489 -335 1495 0
-325 1489 -1483 0
-315 1484 -1478 0
1479 -1473 -305 0
1473 -295 -1467 0
1467 -285 -1461 0
-334 -213 -324 0
-212 -334 -314 0
-210 -334 -304 0
-207 -334 -294 0
-324 -211 -314 0
-209 -324 -304 0
-206 -324 -294 0
-314 -208 -304 0
-205 -314 -294 0
-295 -305 -204 0
-200 -305 -285 0
-195 -305 -275 0
-304 -204 -294 0
-173 -247 -297 0
-296 -188 -266 0
-181 -296 -256 0
-199 -295 -285 0
-194 -295 -275 0
-188 -295 -265 0
-187 -287 -267 0
-180 -287 -257 0
-193 -285 -275 0
-187 -285 -265 0
-180 -285 -255 0
-277 -186 -267 0
-276 -186 -266 0
-179 -276 -256 0
-186 -275 -265 0
-179 -275 -255 0
-266 -178 -256 0
-170 -266 -246 0
-178 -265 -255 0
-169 -256 -246 0
-160 -256 -236 0
-237 -247 -159 0
-227 -247 -149 0
-217 -247 -138 0
-159 -246 -236 0
-325 335 -324 -334 0
-315 325 -314 -324 0
-305 315 -304 -314 0
304 294 305 -295 0
295 294 284 -285 0
285 -275 274 284 0
275 -265 274 264 0
265 -255 264 254 0
-245 244 254 255 0
-235 245 244 234 0
-225 224 234 235 0
-215 214 224 225 0
-316 326 -314 -324 325 315 0
-306 305 -304 -314 315 316 0
-286 296 -285 284 294 -295 0
-276 286 -275 274 284 -285 0
276 -266 265 274 264 275 0
266 -256 254 264 255 265 0
-246 245 256 254 244 255 0
-236 234 246 244 235 245 0
-226 224 236 234 235 225 0
-216 214 226 224 225 215 0
-277 287 -275 274 -285 284 286 276 0
-257 267 -266 254 255 264 265 -256 0
-237 247 236 235 244 245 234 246 0
-227 237 226 224 234 235 225 236 0
-217 227 226 214 224 225 215 216 0
-179 -141 -160 -162 -150 -148 -152 -139 -137 -136 0
-171 -141 -159 -152 -149 -148 -162 -138 -137 -136 0
-139 -169 -159 -149 -160 -148 -150 -138 -137 -136 0
214 136 215 216 224 225 226 6 29 2 0
137 234 215 216 214 235 236 6 29 2 0
138 244 215 216 214 245 246 6 29 2 0
139 254 215 216 214 255 256 6 29 2 0
148 234 225 224 226 235 236 6 29 2 0
149 244 226 225 224 245 246 6 29 2 0
150 254 226 225 224 255 256 6 29 2 0
159 244 234 236 235 245 246 6 29 2 0
160 254 236 235 234 255 256 6 29 2 0
169 254 244 245 246 255 256 6 29 2 0
169 170 178 244 245 254 255 264 265 2 0
217 257 215 214 254 255 139 9 31 3 0
227 257 225 224 254 255 150 9 31 3 0
237 257 235 234 254 255 160 9 31 3 0
169 247 245 244 254 255 257 9 31 3 0
257 267 255 178 254 265 264 9 31 3 0
169 160 159 234 235 244 245 254 255 3 0
178 179 186 254 255 264 265 274 275 3 0
141 217 214 216 274 276 277 9 52 6 0
152 227 224 226 274 276 277 9 52 6 0
162 237 234 236 274 276 277 9 52 6 0
193 284 276 277 274 286 287 9 52 6 0
194 193 199 274 276 284 286 294 296 6 0
181 194 179 254 257 274 277 294 297 9 0
209 208 211 305 306 315 316 325 326 29 0
171 173 169 179 181 194 244 254 274 294 0
180 187 178 186 179 193 254 264 274 284 0
199 188 187 178 180 181 254 264 284 294 0
188 194 186 193 187 199 264 274 284 294 0
195 200 193 199 194 204 274 284 294 304 0
207 204 206 205 208 209 210 211 212 213 0
315 335 208 211 305 213 209 210 325 212 0
-2 0
-3 0
-6 0
-9 0
-29 0
-31 0
-52 0
