p cnf 28974 469
-3410 0
-2520 0
-1630 0
-1440 0
-740 0
-3405 3410 0
-3400 3405 0
-3395 3400 0
-3390 3395 0
-3385 3390 0
-3380 3385 0
-3375 3380 0
-3370 3375 0
-3365 3370 0
-3360 3365 0
-3355 3360 0
-3350 3355 0
-3345 3350 0
-3340 3345 0
-3335 3340 0
-3330 3335 0
-3325 3330 0
-3320 3325 0
-3315 3320 0
-3310 3315 0
-3305 3310 0
-3300 3305 0
-3295 3300 0
-3290 3295 0
-3285 3290 0
-3280 3285 0
-3275 3280 0
-3270 3275 0
-3265 3270 0
-3260 3265 0
3241 -3236 0
3236 -3231 0
-2515 2520 0
-2510 2515 0
-2505 2510 0
-2500 2505 0
-2495 2500 0
-2490 2495 0
-2485 2490 0
-2480 2485 0
-2475 2480 0
-2470 2475 0
-2465 2470 0
-2460 2465 0
-2455 2460 0
-2450 2455 0
-2445 2450 0
-2440 2445 0
-2435 2440 0
-2430 2435 0
-2425 2430 0
-2420 2425 0
-2415 2420 0
-2410 2415 0
-2405 2410 0
-2400 2405 0
-2395 2400 0
-2390 2395 0
-2385 2390 0
-2380 2385 0
-2375 2380 0
2374 -2369 0
-2364 2369 0
2368 -2363 0
2363 -2358 0
2357 -2352 0
2356 -2351 0
2352 -2347 0
2351 -2346 0
-1625 1630 0
-1620 1625 0
-1615 1620 0
-1610 1615 0
-1605 1610 0
-1600 1605 0
-1595 1600 0
-1590 1595 0
-1585 1590 0
-1580 1585 0
-1575 1580 0
-1570 1575 0
-1565 1570 0
-1560 1565 0
-1555 1560 0
-1550 1555 0
-1545 1550 0
-1540 1545 0
-1535 1540 0
-1530 1535 0
-1525 1530 0
-1520 1525 0
-1515 1520 0
-1510 1515 0
-1505 1510 0
-1500 1505 0
-1495 1500 0
-1484 1489 0
-1479 1484 0
-1478 1483 0
-1474 1479 0
-1473 1478 0
-1389 1414 0
-1364 1389 0
-1313 1338 0
-1288 1313 0
-1237 1262 0
-1212 1237 0
-1161 1186 0
-1136 1161 0
-1059 1084 0
-988 1010 0
-946 966 0
-927 946 0
-891 908 0
-875 891 0
-831 844 0
-735 740 0
-730 735 0
-725 730 0
-720 725 0
-715 720 0
-710 715 0
-705 710 0
-700 705 0
-695 700 0
-690 695 0
-685 690 0
-680 685 0
-675 680 0
-670 675 0
-665 670 0
-660 665 0
-655 660 0
-650 655 0
-645 650 0
-640 645 0
-635 640 0
-630 635 0
-625 630 0
-620 625 0
-615 620 0
-610 615 0
-605 610 0
-324 334 0
-314 324 0
-304 314 0
-294 304 0
-294 581 0
-284 294 0
2351 -276 0
1461 -275 0
-274 284 0
2346 -266 0
1456 -265 0
-264 274 0
3231 -257 0
2341 -256 0
-254 264 0
-244 254 0
-234 244 0
-224 234 0
-214 224 0
741 214 0
-3259 -317 3265 0
-307 -3254 3260 0
-3253 3259 -307 0
-297 3254 -3248 0
3253 -297 -3247 0
3248 -3242 -287 0
3247 -3241 -287 0
3242 -277 -3236 0
-2374 -326 2380 0
-316 -2369 2375 0
-2368 2374 -316 0
-306 -2363 2369 0
2368 -306 -2362 0
-296 -2358 2364 0
2363 -296 -2357 0
2362 -296 -2356 0
2358 -286 -2352 0
2357 -286 -2351 0
2352 -276 -2346 0
2347 -266 -2341 0
-335 -1489 1495 0
-1483 -325 1489 0
-295 -1468 1474 0
-295 -1467 1473 0
1468 -1462 -285 0
1467 -1461 -285 0
1462 -1456 -275 0
-1414 27 1440 0
-1338 1364 24 0
-1262 1288 21 0
-1186 1212 18 0
-1110 1136 15 0
-1084 1110 14 0
-1034 1059 12 0
-1010 1034 11 0
-966 988 9 0
-908 927 6 0
-859 875 3 0
-844 859 2 0
334 -818 831 0
324 818 -806 0
806 -795 314 0
795 -785 304 0
785 -776 294 0
776 -768 284 0
768 -761 274 0
761 -755 264 0
755 -750 254 0
750 -746 244 0
746 -743 234 0
743 -741 224 0
-334 -599 605 0
-593 -324 599 0
-587 -314 593 0
-581 -304 587 0
-207 -295 -335 0
-203 -285 -335 0
-198 -275 -335 0
-213 -324 -334 0
-212 -314 -334 0
-210 -304 -334 0
-211 -327 -317 0
-211 -316 -326 0
-211 -315 -325 0
-206 -295 -325 0
-211 -314 -324 0
-209 -304 -324 0
-201 -287 -317 0
-196 -277 -317 0
-190 -267 -317 0
-183 -257 -317 0
-175 -247 -317 0
-205 -296 -316 0
-201 -286 -316 0
-196 -276 -316 0
-190 -266 -316 0
-305 -208 -315 0
-205 -295 -315 0
-201 -285 -315 0
-304 -208 -314 0
-200 -287 -307 0
-195 -277 -307 0
-189 -267 -307 0
-182 -257 -307 0
-174 -247 -307 0
-306 -204 -296 0
-200 -306 -286 0
-195 -306 -276 0
-189 -306 -266 0
-295 -305 -204 0
-200 -305 -285 0
-195 -305 -275 0
-188 -297 -267 0
-181 -297 -257 0
-173 -297 -247 0
-199 -296 -286 0
-194 -296 -276 0
-188 -296 -266 0
-199 -295 -285 0
-194 -295 -275 0
-188 -295 -265 0
-187 -267 -287 0
-287 -257 -180 0
-172 -247 -287 0
-163 -287 -237 0
-193 -276 -286 0
-187 -286 -266 0
-286 -180 -256 0
-172 -286 -246 0
-193 -285 -275 0
-187 -285 -265 0
-180 -285 -255 0
-186 -277 -267 0
-277 -257 -179 0
-171 -277 -247 0
-162 -277 -237 0
-152 -277 -227 0
-186 -276 -266 0
-276 -179 -256 0
-171 -276 -246 0
-186 -265 -275 0
-179 -275 -255 0
-178 -257 -267 0
-247 -267 -170 0
-178 -266 -256 0
-170 -266 -246 0
-178 -265 -255 0
-247 -257 -169 0
-257 -160 -237 0
-256 -169 -246 0
-256 -160 -236 0
-247 -237 -159 0
-247 -149 -227 0
-159 -246 -236 0
-149 -246 -226 0
-148 -237 -227 0
-137 -237 -217 0
-148 -236 -226 0
-227 -136 -217 0
335 -325 -334 -324 0
325 -314 -315 -324 0
315 -305 -314 -304 0
315 -305 314 304 0
-295 305 304 294 0
295 -285 294 284 0
285 -275 274 284 0
275 -265 274 264 0
-255 265 264 254 0
-245 255 254 244 0
-235 245 244 234 0
-225 235 234 224 0
-215 225 224 214 0
-325 336 -326 -335 -324 -334 0
-314 315 -316 326 -324 325 0
-305 -306 316 304 314 -315 0
315 -306 -304 305 316 -314 0
-295 -296 304 294 306 -305 0
305 295 304 306 -296 294 0
-286 -285 294 296 -295 284 0
-286 296 284 295 294 285 0
-276 -275 286 274 284 -285 0
-276 286 274 284 285 275 0
-266 -265 276 264 274 -275 0
-266 276 264 274 275 265 0
266 -256 254 264 265 255 0
-246 256 254 244 255 245 0
-236 246 245 244 234 235 0
236 -226 234 235 224 225 0
-216 226 225 224 214 215 0
-337 -334 -335 -32 -31 -8 -7 -1 0
-336 -334 -335 -29 -28 -5 -4 -1 0
-325 -327 -334 -335 -324 326 336 337 0
-315 -324 -317 -325 -314 316 326 327 0
-315 -314 -316 -29 -28 -5 -4 -1 0
306 -305 -307 304 -315 314 316 317 0
-304 305 -307 316 -314 315 306 317 0
-295 -287 296 284 297 294 286 -285 0
-277 -276 287 274 275 284 -286 285 0
-277 -285 286 287 276 -275 274 284 0
-266 277 275 264 265 274 -267 -276 0
-267 -275 277 264 -265 274 276 266 0
277 276 265 275 274 264 -267 266 0
267 256 255 254 264 266 265 -257 0
-247 246 256 257 254 255 244 245 0
246 247 244 234 245 235 236 -237 0
-227 226 224 235 234 237 225 236 0
-217 216 214 227 224 225 226 215 0
-195 -165 -162 -155 -152 -148 -144 -141 -137 -136 0
-176 -167 -159 -157 -149 -148 -146 -138 -137 -136 0
-155 -165 -159 -149 -174 -148 -144 -138 -137 -136 0
-164 -154 -159 -148 -149 -173 -143 -138 -137 -136 0
-172 -163 -159 -153 -149 -148 -142 -138 -137 -136 0
-171 -162 -159 -152 -149 -148 -141 -138 -137 -136 0
-160 -169 -159 -150 -149 -148 -139 -138 -137 -136 0
160 169 159 234 235 244 245 254 255 2 0
169 170 178 244 245 254 255 264 265 2 0
180 178 187 254 255 264 265 284 285 2 0
136 137 148 214 215 224 225 234 235 3 0
148 149 159 224 225 234 235 244 245 3 0
169 171 179 244 245 254 255 274 275 3 0
178 179 186 254 255 264 265 274 275 3 0
186 193 187 264 265 274 275 284 285 3 0
193 194 199 274 275 284 285 294 295 3 0
200 199 204 284 285 294 295 304 305 3 0
138 216 214 217 244 246 247 9 52 6 0
141 216 274 217 214 276 277 9 52 6 0
142 216 284 217 214 286 287 9 52 6 0
143 216 294 217 214 296 297 9 52 6 0
148 226 224 227 234 236 237 9 52 6 0
150 226 254 227 224 256 257 9 52 6 0
152 226 274 227 224 276 277 9 52 6 0
153 226 284 227 224 286 287 9 52 6 0
154 226 294 227 224 296 297 9 52 6 0
160 237 254 234 236 256 257 9 52 6 0
162 236 274 237 234 276 277 9 52 6 0
163 236 284 237 234 286 287 9 52 6 0
164 236 294 237 234 296 297 9 52 6 0
169 247 244 254 246 256 257 9 52 6 0
246 247 274 171 244 276 277 9 52 6 0
172 246 284 247 244 286 287 9 52 6 0
173 246 294 247 244 296 297 9 52 6 0
266 267 264 186 274 276 277 9 52 6 0
276 277 193 284 274 286 287 9 52 6 0
286 199 294 287 284 296 297 9 52 6 0
208 306 304 307 314 316 317 9 52 6 0
162 152 148 224 226 234 236 274 276 6 0
171 162 159 234 236 244 246 274 276 6 0
172 163 159 234 236 244 246 284 286 6 0
180 172 169 244 246 254 256 284 286 6 0
181 173 169 244 246 254 256 294 296 6 0
178 256 186 254 179 264 266 274 276 6 0
178 180 187 254 256 264 266 284 286 6 0
178 181 188 254 256 264 266 294 296 6 0
178 183 190 254 256 264 266 314 316 6 0
180 179 193 254 256 274 276 284 286 6 0
181 180 199 254 256 284 286 294 296 6 0
266 276 186 264 193 274 187 284 286 6 0
199 276 193 274 194 284 286 294 296 6 0
188 194 186 264 267 274 277 294 297 9 0
196 201 193 274 277 284 287 314 317 9 0
136 216 215 217 225 226 227 33 52 30 0
216 217 235 137 215 236 237 33 52 30 0
139 216 255 217 215 256 257 33 52 30 0
144 305 216 217 215 306 307 33 52 30 0
146 325 216 217 215 326 327 33 52 30 0
226 227 245 149 225 246 247 33 52 30 0
155 305 226 227 225 306 307 33 52 30 0
157 325 226 227 225 326 327 33 52 30 0
236 237 245 159 235 246 247 33 52 30 0
165 305 236 237 235 306 307 33 52 30 0
167 325 236 237 235 326 327 33 52 30 0
174 305 246 247 245 306 307 33 52 30 0
176 325 246 247 245 326 327 33 52 30 0
208 315 306 307 305 316 317 33 52 30 0
182 174 169 245 246 255 256 305 306 30 0
175 183 169 245 246 255 256 315 316 30 0
182 189 178 255 256 265 266 305 306 30 0
183 182 208 255 256 305 306 315 316 30 0
209 208 211 305 306 315 316 325 326 30 0
190 196 186 265 267 275 277 315 317 33 0
198 195 210 276 277 306 307 336 337 52 0
209 210 213 306 307 326 327 336 337 52 0
212 211 317 316 213 326 327 336 337 52 0
179 171 169 172 180 193 244 254 274 284 0
179 180 193 178 187 186 254 264 274 284 0
179 195 182 183 196 208 255 275 305 315 0
188 186 194 193 187 199 264 274 284 294 0
195 194 189 186 188 204 264 274 294 304 0
195 189 275 265 186 208 196 190 305 315 0
195 199 193 304 204 200 274 284 294 194 0
195 201 285 200 193 208 275 196 305 315 0
198 203 201 193 196 212 276 286 316 336 0
200 205 201 204 199 208 284 294 304 314 0
203 200 210 208 201 212 286 306 316 336 0
207 297 317 211 212 213 205 206 327 337 0
335 210 325 211 212 208 305 315 213 209 0
210 306 211 336 212 208 316 213 209 326 0
1 0
-2 0
-3 0
4 0
5 0
-6 0
7 0
8 0
-9 0
-11 0
-12 0
-14 0
-15 0
-18 0
-21 0
-24 0
-27 0
28 0
29 0
-30 0
31 0
32 0
-33 0
-52 0
