p cnf 28974 183
334 -324 0
324 -314 0
314 -304 0
304 -294 0
294 -284 0
-274 284 0
-264 274 0
-254 264 0
-244 254 0
-234 244 0
-224 234 0
-214 224 0
-295 -207 -335 0
-203 -285 -335 0
-198 -275 -335 0
-213 -324 -334 0
-212 -314 -334 0
-210 -304 -334 0
-207 -294 -334 0
-206 -326 -296 0
-325 -206 -295 0
-324 -211 -314 0
-209 -324 -304 0
-206 -324 -294 0
-317 -205 -297 0
-316 -205 -296 0
-315 -205 -295 0
-314 -208 -304 0
-205 -314 -294 0
-307 -297 -204 0
-306 -296 -204 0
-200 -306 -286 0
-195 -306 -276 0
-305 -295 -204 0
-200 -305 -285 0
-195 -305 -275 0
-304 -204 -294 0
-297 -267 -188 0
-181 -297 -257 0
-173 -297 -247 0
-194 -276 -296 0
-266 -296 -188 0
-181 -296 -256 0
-199 -295 -285 0
-194 -295 -275 0
-188 -295 -265 0
-287 -187 -267 0
-180 -287 -257 0
-172 -287 -247 0
-163 -287 -237 0
-193 -276 -286 0
-266 -286 -187 0
-286 -180 -256 0
-193 -285 -275 0
-187 -285 -265 0
-180 -285 -255 0
-186 -277 -267 0
-179 -277 -257 0
-171 -277 -247 0
-186 -266 -276 0
-179 -276 -256 0
-186 -275 -265 0
-179 -275 -255 0
-178 -267 -257 0
-267 -170 -247 0
-161 -267 -237 0
-178 -266 -256 0
-178 -265 -255 0
-169 -257 -247 0
-237 -160 -257 0
-169 -256 -246 0
-160 -256 -236 0
-159 -247 -237 0
-159 -246 -236 0
-325 335 -324 -334 0
-315 325 -314 -324 0
-305 315 -304 -314 0
304 305 294 -295 0
295 -285 284 294 0
-275 274 285 284 0
-265 264 274 275 0
-255 254 264 265 0
-245 255 254 244 0
-235 234 244 245 0
-225 224 234 235 0
-215 214 224 225 0
-316 326 -314 -324 325 315 0
-286 296 -285 284 294 -295 0
-276 -285 286 274 284 -275 0
-266 276 264 274 265 275 0
266 -256 254 264 255 265 0
256 -246 244 254 245 255 0
-236 246 234 244 235 245 0
-226 236 224 234 225 235 0
-216 226 214 224 225 215 0
-335 -336 -334 -29 -28 -5 -4 -1 0
-307 306 -304 -314 305 315 316 317 0
-287 -286 -295 297 -285 284 294 -296 0
-276 -277 -275 287 -285 274 284 -286 0
-277 276 286 274 287 284 -285 -275 0
-257 -256 267 254 255 264 265 -266 0
-257 266 267 255 264 265 254 256 0
-247 256 257 245 254 255 244 246 0
-237 236 247 234 244 245 235 246 0
-227 226 237 224 234 235 225 236 0
-217 226 227 214 224 225 215 216 0
-163 -161 -187 -153 -151 -148 -142 -140 -137 -136 0
-186 -161 -162 -151 -152 -148 -141 -140 -137 -136 0
-179 -150 -152 -162 -141 -148 -160 -139 -137 -136 0
-165 -174 -159 -155 -149 -148 -144 -138 -137 -136 0
-171 -162 -159 -152 -149 -148 -141 -138 -137 -136 0
-151 -159 -170 -149 -161 -148 -140 -138 -137 -136 0
-150 -159 -160 -138 -149 -148 -139 -169 -137 -136 0
214 138 215 217 244 245 247 9 32 2 0
139 254 215 217 214 255 257 9 32 2 0
140 264 215 217 214 265 267 9 32 2 0
141 274 215 217 214 275 277 9 32 2 0
149 227 225 224 244 245 247 9 32 2 0
150 227 254 225 224 255 257 9 32 2 0
151 227 264 225 224 265 267 9 32 2 0
152 227 274 225 224 275 277 9 32 2 0
160 237 235 234 254 255 257 9 32 2 0
161 237 264 235 234 265 267 9 32 2 0
162 237 274 235 234 275 277 9 32 2 0
169 254 244 247 245 255 257 9 32 2 0
170 264 247 245 244 265 267 9 32 2 0
171 274 247 245 244 275 277 9 32 2 0
178 264 254 257 255 265 267 9 32 2 0
186 274 267 265 264 275 277 9 32 2 0
187 284 265 267 264 285 287 9 32 2 0
159 169 160 234 235 244 245 254 255 2 0
179 171 169 244 245 254 255 274 275 2 0
179 186 178 254 255 264 265 274 275 2 0
178 170 169 244 245 254 255 264 265 3 0
136 216 214 217 224 226 227 9 52 6 0
137 216 234 217 214 236 237 9 52 6 0
216 276 274 217 214 141 277 9 52 6 0
142 284 216 217 214 286 287 9 52 6 0
148 226 224 227 234 236 237 9 52 6 0
226 276 274 227 224 152 277 9 52 6 0
153 284 226 227 224 286 287 9 52 6 0
236 159 234 237 244 246 247 9 52 6 0
236 276 274 237 234 162 277 9 52 6 0
163 284 236 237 234 286 287 9 52 6 0
246 276 274 244 247 171 277 9 52 6 0
193 284 276 277 274 286 287 9 52 6 0
179 171 169 244 246 254 256 274 276 6 0
172 180 169 244 246 254 256 284 286 6 0
256 266 186 254 179 264 178 274 276 6 0
187 193 186 264 266 274 276 284 286 6 0
194 199 193 274 276 284 286 294 296 6 0
181 194 179 254 257 274 277 294 297 9 0
194 199 277 274 193 284 287 294 297 9 0
144 216 215 217 305 306 307 32 54 30 0
155 226 225 227 305 306 307 32 54 30 0
165 236 235 237 305 306 307 32 54 30 0
174 246 245 247 305 306 307 32 54 30 0
208 315 306 307 305 316 317 32 54 30 0
236 169 160 235 159 245 246 255 256 30 0
163 159 161 170 172 187 234 244 264 284 0
173 188 170 187 172 199 244 264 284 294 0
180 187 178 186 179 193 254 264 274 284 0
188 181 178 186 179 194 254 264 274 294 0
181 188 187 178 180 199 254 264 284 294 0
188 187 199 193 186 194 264 274 284 294 0
203 198 193 194 199 200 195 204 207 210 0
195 204 193 199 194 304 274 284 294 200 0
207 204 206 205 208 209 210 211 212 213 0
335 208 305 211 212 213 209 210 325 315 0
326 212 208 306 316 213 209 210 211 336 0
1 0
-2 0
-3 0
4 0
5 0
-6 0
-9 0
28 0
29 0
-30 0
-32 0
-52 0
-54 0
