p cnf 28974 123
-740 0
-735 740 0
-730 735 0
-725 730 0
-720 725 0
-715 720 0
-710 715 0
-705 710 0
-700 705 0
-695 700 0
-690 695 0
-685 690 0
-680 685 0
-675 680 0
-670 675 0
-665 670 0
-660 665 0
-655 660 0
-650 655 0
-645 650 0
-640 645 0
-635 640 0
-630 635 0
-625 630 0
-620 625 0
-615 620 0
-610 615 0
-605 610 0
334 -324 0
324 -314 0
314 -304 0
304 -294 0
581 -294 0
294 -284 0
284 -274 0
-264 274 0
-254 264 0
-244 254 0
-234 244 0
-224 234 0
-214 224 0
-334 -599 605 0
599 -593 -324 0
593 -587 -314 0
587 -581 -304 0
-188 -296 -266 0
-181 -296 -256 0
-199 -295 -285 0
-194 -295 -275 0
-188 -295 -265 0
-187 -267 -287 0
-257 -287 -180 0
-286 -193 -276 0
-187 -286 -266 0
-286 -256 -180 0
-193 -285 -275 0
-187 -285 -265 0
-180 -285 -255 0
-186 -276 -266 0
-179 -276 -256 0
-186 -275 -265 0
-179 -275 -255 0
-247 -267 -170 0
-161 -267 -237 0
-178 -266 -256 0
-170 -266 -246 0
-178 -265 -255 0
-169 -256 -246 0
-160 -256 -236 0
-159 -236 -246 0
-237 -227 -148 0
295 -285 284 294 0
285 -275 274 284 0
275 -265 274 264 0
265 -255 264 254 0
-245 255 254 244 0
-235 245 244 234 0
-225 224 234 235 0
-215 214 224 225 0
-286 296 -285 284 294 -295 0
-276 286 -285 -275 284 274 0
276 -266 265 274 264 275 0
266 -256 254 264 255 265 0
-246 244 256 254 245 255 0
-236 234 246 244 235 245 0
-226 224 236 234 235 225 0
-216 214 226 224 225 215 0
-277 287 276 274 -275 284 -285 286 0
267 -257 -266 254 255 264 265 -256 0
-227 237 236 224 234 235 225 226 0
-217 227 226 214 224 225 215 216 0
-139 -169 -159 -149 -160 -148 -150 -138 -137 -136 0
214 136 215 216 224 225 226 6 29 2 0
137 234 215 216 214 235 236 6 29 2 0
138 244 215 216 214 245 246 6 29 2 0
139 254 215 216 214 255 256 6 29 2 0
148 234 225 226 224 235 236 6 29 2 0
149 244 225 226 224 245 246 6 29 2 0
150 254 225 226 224 255 256 6 29 2 0
159 244 235 236 234 245 246 6 29 2 0
160 254 235 236 234 255 256 6 29 2 0
169 254 245 244 246 255 256 6 29 2 0
161 178 160 234 235 254 255 264 265 2 0
169 170 178 244 245 254 255 264 265 2 0
178 179 186 254 255 264 265 274 275 2 0
217 257 215 214 254 255 139 9 31 3 0
227 257 225 224 254 255 150 9 31 3 0
237 257 235 234 254 255 160 9 31 3 0
169 247 245 244 254 255 257 9 31 3 0
257 267 255 178 254 265 264 9 31 3 0
169 160 159 234 235 244 245 254 255 3 0
193 276 274 277 284 286 287 9 52 6 0
194 193 199 274 276 284 286 294 296 6 0
180 187 186 179 178 193 254 264 274 284 0
180 188 187 178 181 199 254 264 284 294 0
188 194 186 193 187 199 264 274 284 294 0
-2 0
-3 0
-6 0
-9 0
-29 0
-31 0
-52 0
