p cnf 28974 366
-1630 0
-740 0
-1625 1630 0
-1620 1625 0
-1615 1620 0
-1610 1615 0
-1605 1610 0
-1600 1605 0
-1595 1600 0
-1590 1595 0
-1585 1590 0
1583 -1578 0
1578 -1573 0
1573 -1568 0
1568 -1563 0
1563 -1558 0
1558 -1553 0
1553 -1548 0
1548 -1543 0
1543 -1538 0
1538 -1533 0
1533 -1528 0
1528 -1523 0
1523 -1518 0
1518 -1513 0
1513 -1508 0
1508 -1503 0
1503 -1498 0
1498 -1493 0
1493 -1488 0
1488 -1483 0
1483 -1478 0
1478 -1473 0
1473 -1468 0
-735 740 0
-730 735 0
-725 730 0
-720 725 0
-715 720 0
-710 715 0
-705 710 0
-700 705 0
-695 700 0
-690 695 0
-685 690 0
-680 685 0
-675 680 0
-670 675 0
-665 670 0
-660 665 0
-655 660 0
-650 655 0
-645 650 0
-640 645 0
-635 640 0
-630 635 0
-625 630 0
-620 625 0
-615 620 0
-610 615 0
-605 610 0
-600 605 0
324 -314 0
314 -304 0
304 -294 0
294 -284 0
576 -284 0
-274 284 0
1456 -265 0
-264 274 0
-254 264 0
-244 254 0
-234 244 0
-224 234 0
-214 224 0
-418 -1589 1595 0
1589 -418 -1583 0
-412 -1579 1585 0
1579 -412 -1573 0
1468 -1462 -285 0
1462 -1456 -275 0
-324 -594 600 0
594 -588 -314 0
588 -582 -304 0
582 -576 -294 0
-187 -267 -287 0
-257 -180 -287 0
-172 -247 -287 0
-237 -163 -287 0
-187 -266 -286 0
-180 -256 -286 0
-172 -246 -286 0
-193 -275 -285 0
-187 -265 -285 0
-180 -255 -285 0
-186 -267 -277 0
-179 -257 -277 0
-171 -247 -277 0
-162 -237 -277 0
-266 -186 -276 0
-179 -256 -276 0
-171 -246 -276 0
-186 -265 -275 0
-179 -255 -275 0
-257 -178 -267 0
-170 -247 -267 0
-178 -266 -256 0
-170 -266 -246 0
-255 -178 -265 0
-257 -247 -169 0
-237 -257 -160 0
-169 -256 -246 0
-237 -247 -159 0
-236 -159 -246 0
-237 -227 -148 0
-227 -217 -136 0
96 95 94 0
288 142 218 0
288 153 228 0
291 163 241 0
170 268 248 0
170 270 250 0
172 248 288 0
172 250 290 0
172 251 291 0
179 260 280 0
180 258 288 0
180 261 291 0
270 186 280 0
268 187 288 0
270 290 187 0
187 271 291 0
278 193 288 0
280 193 290 0
281 193 291 0
285 -275 274 284 0
275 -265 274 264 0
265 -255 264 254 0
-245 255 254 244 0
-235 245 244 234 0
-225 235 234 224 0
-215 225 224 214 0
418 -45 -43 -44 0
412 -42 -41 -40 0
286 -275 274 -276 284 -285 0
-266 276 -265 264 274 -275 0
-266 276 264 274 275 265 0
-256 255 266 264 254 265 0
-246 256 244 254 255 245 0
-236 246 234 244 245 235 0
-226 236 235 234 225 224 0
-216 226 214 224 225 215 0
169 248 244 254 258 12 11 0
170 251 244 264 271 21 20 0
-287 -291 -285 -84 -44 -43 -33 -32 0
-82 -45 -285 -291 -287 -44 -33 -32 0
-286 -66 -285 -291 -45 -44 -30 -28 0
-64 -286 -285 -43 -45 -291 -30 -28 0
-290 -81 -285 -287 -79 -41 -33 -32 0
-40 -81 -285 -287 -41 -290 -33 -32 0
-63 -290 -285 -286 -61 -42 -30 -28 0
-63 -41 -285 -286 -42 -290 -30 -28 0
-42 -290 -285 -286 -40 -61 -30 -28 0
-288 -75 -285 -287 -73 -35 -33 -32 0
-36 -73 -285 -287 -288 -35 -33 -32 0
-55 -288 -285 -286 -36 -34 -30 -28 0
287 -276 -277 -285 -275 274 284 -286 0
286 -275 -285 274 276 284 287 -277 0
-120 -280 -275 -281 -45 -44 -42 -40 0
-277 -281 -275 -84 -44 -43 -33 -32 0
-275 -281 -45 -82 -277 -44 -33 -32 0
-276 -275 -66 -281 -45 -44 -30 -28 0
-275 -276 -64 -43 -45 -281 -30 -28 0
-280 -275 -81 -277 -79 -41 -33 -32 0
-280 -275 -40 -81 -41 -277 -33 -32 0
-280 -275 -42 -277 -79 -41 -33 -32 0
-280 -275 -63 -276 -61 -42 -30 -28 0
-275 -276 -63 -41 -42 -280 -30 -28 0
-278 -275 -75 -277 -73 -35 -33 -32 0
-275 -277 -36 -73 -278 -35 -33 -32 0
-57 -278 -275 -276 -56 -35 -30 -28 0
-57 -278 -275 -276 -36 -35 -30 -28 0
-275 -278 -55 -34 -56 -276 -30 -28 0
-275 -278 -55 -34 -276 -36 -30 -28 0
276 -267 264 -265 266 274 -275 277 0
-268 -267 -265 -75 -35 -34 -33 -32 0
-257 -256 265 254 255 264 267 -266 0
-256 -247 -246 245 255 257 244 254 0
-248 -247 -94 -250 -81 -79 -75 -73 0
-237 247 236 234 244 245 235 246 0
-227 237 226 235 234 225 224 236 0
-217 227 226 215 224 225 214 216 0
34 35 214 215 218 12 2 11 0
215 40 214 41 220 18 2 17 0
225 41 224 40 230 18 2 17 0
235 40 234 41 240 18 2 17 0
245 41 244 40 250 18 2 17 0
44 43 214 215 221 21 2 20 0
43 44 224 225 231 21 2 20 0
43 44 234 235 241 21 2 20 0
34 36 214 215 218 12 3 11 0
235 42 40 234 240 18 3 17 0
245 42 40 244 250 18 3 17 0
45 43 214 215 221 21 3 20 0
45 43 224 225 231 21 3 20 0
45 43 234 235 241 21 3 20 0
45 43 244 245 251 21 3 20 0
57 55 214 216 218 12 6 11 0
63 236 61 234 240 18 6 17 0
66 226 64 224 231 21 6 20 0
66 236 64 234 241 21 6 20 0
266 66 64 264 271 21 6 20 0
73 75 214 217 218 12 9 11 0
81 79 234 237 240 18 9 17 0
98 97 284 288 291 21 11 20 0
97 99 284 288 291 21 12 20 0
-118 -82 -84 -81 -79 -19 -16 -8 -7 0
-118 -64 -66 -63 -61 -19 -16 -5 -4 0
-99 -55 -66 -45 -44 -36 -34 -30 -28 0
-94 -75 -79 -81 -73 -16 -10 -8 -7 0
-163 -230 -290 -220 -240 -153 -148 -142 -137 -136 0
-95 -118 -280 -278 -250 -248 -171 -281 -251 -98 0
-260 -261 -118 -270 -271 -98 -178 -258 -268 -95 0
-271 -161 -241 -221 -231 -151 -148 -140 -137 -136 0
-270 -161 -240 -220 -230 -151 -148 -140 -137 -136 0
-218 -228 -161 -151 -238 -268 -148 -140 -137 -136 0
-218 -258 -160 -228 -238 -150 -148 -139 -137 -136 0
-96 -248 -247 -99 -250 -118 -251 -84 -81 -73 0
-251 -241 -149 -221 -159 -231 -148 -138 -137 -136 0
-250 -240 -149 -230 -159 -220 -148 -138 -137 -136 0
-248 -228 -218 -149 -159 -238 -148 -138 -137 -136 0
238 -228 224 225 226 234 235 236 237 227 0
-218 217 228 214 215 224 225 226 216 227 0
-152 -171 -159 -162 -149 -148 -141 -138 -137 -136 0
-140 -151 -170 -149 -159 -148 -161 -138 -137 -136 0
-150 -139 -159 -160 -149 -148 -169 -138 -137 -136 0
-118 -40 -43 -81 -84 -32 -19 -16 -8 -1 0
-40 -61 -64 -43 -118 -28 -19 -16 -4 -1 0
-97 -75 -84 -43 -34 -32 -19 -10 -8 -1 0
-97 -55 -64 -43 -34 -28 -19 -10 -4 -1 0
-94 -34 -40 -81 -75 -32 -16 -10 -8 -1 0
-94 -55 -61 -40 -34 -28 -16 -10 -4 -1 0
-64 -84 -43 -53 -32 -28 -19 -8 -4 -1 0
-61 -40 -81 -53 -32 -28 -16 -8 -4 -1 0
-34 -55 -75 -53 -32 -28 -10 -8 -4 -1 0
216 57 214 215 34 218 11 29 2 6 0
216 55 214 215 35 218 12 29 2 6 0
216 63 40 214 215 220 17 29 2 6 0
226 63 40 224 225 230 17 29 2 6 0
236 63 40 235 234 240 17 29 2 6 0
246 63 244 245 40 250 17 29 2 6 0
216 41 61 214 215 220 18 29 2 6 0
226 41 61 225 224 230 18 29 2 6 0
236 41 61 235 234 240 18 29 2 6 0
246 245 61 244 41 250 18 29 2 6 0
66 216 43 214 215 221 20 29 2 6 0
66 226 43 224 225 231 20 29 2 6 0
66 236 43 234 235 241 20 29 2 6 0
216 44 64 214 215 221 21 29 2 6 0
226 44 64 224 225 231 21 29 2 6 0
236 235 64 234 44 241 21 29 2 6 0
64 44 245 244 246 251 21 29 2 6 0
136 216 224 215 214 225 226 6 29 2 0
137 216 234 215 214 235 236 6 29 2 0
138 216 244 215 214 245 246 6 29 2 0
139 215 254 216 214 255 256 6 29 2 0
148 226 234 225 224 235 236 6 29 2 0
149 226 244 225 224 245 246 6 29 2 0
150 225 254 226 224 255 256 6 29 2 0
159 236 244 235 234 245 246 6 29 2 0
160 235 254 236 234 255 256 6 29 2 0
169 245 254 244 246 255 256 6 29 2 0
94 35 41 43 99 120 18 20 2 12 0
99 225 35 224 43 228 231 12 20 2 0
217 75 214 215 36 218 11 31 3 9 0
225 75 224 36 227 228 11 31 3 9 0
73 217 214 215 34 218 12 31 3 9 0
217 81 42 214 215 220 17 31 3 9 0
227 81 42 224 225 230 17 31 3 9 0
237 81 42 235 234 240 17 31 3 9 0
217 79 40 215 214 220 18 31 3 9 0
227 79 40 225 224 230 18 31 3 9 0
237 79 40 234 235 240 18 31 3 9 0
247 245 79 244 40 250 18 31 3 9 0
217 84 45 215 214 221 20 31 3 9 0
227 84 45 225 224 231 20 31 3 9 0
237 84 45 235 234 241 20 31 3 9 0
82 217 43 215 214 221 21 31 3 9 0
82 237 234 235 43 241 21 31 3 9 0
247 217 244 214 215 245 138 9 31 3 0
257 217 254 215 214 255 139 9 31 3 0
227 247 244 224 225 245 149 9 31 3 0
227 257 254 225 224 255 150 9 31 3 0
247 237 244 234 235 245 159 9 31 3 0
257 237 254 235 234 255 160 9 31 3 0
247 257 254 244 245 255 169 9 31 3 0
257 267 255 178 254 265 264 9 31 3 0
36 42 45 94 97 118 17 20 3 11 0
97 36 45 224 225 228 231 11 20 3 0
118 42 45 235 234 240 241 17 20 3 0
169 160 159 234 235 244 245 254 255 3 0
170 178 169 244 245 254 255 264 265 3 0
178 179 186 254 255 264 265 274 275 3 0
73 217 214 55 216 218 12 52 6 9 0
217 81 214 63 216 220 17 52 6 9 0
227 81 224 63 226 230 17 52 6 9 0
237 236 81 63 234 240 17 52 6 9 0
237 84 234 236 66 241 20 52 6 9 0
82 237 64 236 234 241 21 52 6 9 0
140 217 264 214 216 266 267 9 52 6 0
141 216 274 217 214 276 277 9 52 6 0
151 227 264 224 226 266 267 9 52 6 0
152 226 274 227 224 276 277 9 52 6 0
161 237 264 234 236 266 267 9 52 6 0
162 236 274 237 234 276 277 9 52 6 0
247 246 244 170 264 266 267 9 52 6 0
171 246 274 247 244 276 277 9 52 6 0
267 186 264 266 274 276 277 9 52 6 0
193 276 284 277 274 286 287 9 52 6 0
94 55 61 64 97 118 18 21 6 12 0
97 55 64 216 214 218 221 12 21 6 0
162 161 186 234 236 264 266 274 276 6 0
171 170 186 244 246 264 266 274 276 6 0
187 193 186 264 266 274 276 284 286 6 0
94 75 81 84 97 118 17 20 9 11 0
97 75 84 214 217 218 221 11 20 9 0
97 75 84 224 227 228 231 11 20 9 0
118 84 234 237 81 240 241 17 20 9 0
187 172 170 244 247 264 267 284 287 9 0
193 179 180 254 257 274 277 284 287 9 0
193 187 267 277 264 274 186 284 287 9 0
216 56 36 75 215 217 218 31 29 54 0
162 160 163 179 180 193 234 254 274 284 0
172 171 179 169 180 193 244 254 274 284 0
172 171 170 186 187 193 244 264 274 284 0
187 178 180 186 179 193 254 264 274 284 0
-34 -36 -35 0
-42 -40 -41 0
-45 -43 -44 0
1 0
-2 0
-3 0
4 0
5 0
-6 0
7 0
8 0
-9 0
10 0
-11 0
-12 0
16 0
-17 0
-18 0
19 0
-20 0
-21 0
28 0
-29 0
30 0
-31 0
32 0
33 0
-52 0
53 0
-54 0
