p cnf 28974 230
-2520 0
-1630 0
-2515 2520 0
-2510 2515 0
-2505 2510 0
-2500 2505 0
-2495 2500 0
-2490 2495 0
-2485 2490 0
-2480 2485 0
-2475 2480 0
-2470 2475 0
-2465 2470 0
-2460 2465 0
-2455 2460 0
-2450 2455 0
-2445 2450 0
-2440 2445 0
-2435 2440 0
-2430 2435 0
-2425 2430 0
-2420 2425 0
-2415 2420 0
-2410 2415 0
-2405 2410 0
-2400 2405 0
-2395 2400 0
-2390 2395 0
-2385 2390 0
-2380 2385 0
-2375 2380 0
-2370 2375 0
-2365 2370 0
2368 -2363 0
2357 -2352 0
2352 -2347 0
-1625 1630 0
-1620 1625 0
-1615 1620 0
-1610 1615 0
-1605 1610 0
-1600 1605 0
-1595 1600 0
-1590 1595 0
-1585 1590 0
-1580 1585 0
-1575 1580 0
-1570 1575 0
-1565 1570 0
-1560 1565 0
-1555 1560 0
-1550 1555 0
-1545 1550 0
-1540 1545 0
-1535 1540 0
-1530 1535 0
-1525 1530 0
-1520 1525 0
-1515 1520 0
-1510 1515 0
-1505 1510 0
-1500 1505 0
-1495 1500 0
1489 -1484 0
1484 -1479 0
1483 -1478 0
1478 -1473 0
334 -324 0
324 -314 0
314 -304 0
304 -294 0
294 -284 0
1461 -275 0
284 -274 0
-264 274 0
2341 -256 0
-254 264 0
-244 254 0
-234 244 0
-224 234 0
-214 224 0
-326 -2374 2380 0
-316 -2368 2374 0
-296 -2359 2365 0
2363 -2357 -296 0
-286 -2353 2359 0
2353 -276 -2347 0
2347 -266 -2341 0
-1489 -335 1495 0
-325 1489 -1483 0
-315 1484 -1478 0
1479 -1473 -305 0
1473 -295 -1467 0
1467 -285 -1461 0
-213 -324 -334 0
-212 -314 -334 0
-210 -304 -334 0
-207 -294 -334 0
-211 -314 -324 0
-209 -304 -324 0
-206 -294 -324 0
-208 -304 -314 0
-205 -294 -314 0
-189 -306 -266 0
-182 -306 -256 0
-295 -305 -204 0
-204 -294 -304 0
-188 -266 -296 0
-181 -256 -296 0
-199 -295 -285 0
-194 -295 -275 0
-188 -295 -265 0
-193 -285 -275 0
-187 -285 -265 0
-180 -285 -255 0
-186 -266 -276 0
-179 -276 -256 0
-186 -275 -265 0
-179 -275 -255 0
-178 -266 -256 0
-178 -265 -255 0
-169 -256 -246 0
-160 -256 -236 0
-159 -246 -236 0
309 319 208 0
311 321 208 0
322 312 208 0
323 313 208 0
329 309 209 0
311 331 209 0
332 312 209 0
333 313 209 0
343 313 210 0
329 319 211 0
331 321 211 0
322 332 211 0
333 323 211 0
339 319 212 0
342 322 212 0
-325 335 -324 -334 0
-315 325 -314 -324 0
-305 315 -304 -314 0
305 304 294 -295 0
295 -285 284 294 0
285 -275 274 284 0
275 -265 274 264 0
265 -255 264 254 0
-245 255 254 244 0
-235 245 244 234 0
-225 224 234 235 0
-215 214 224 225 0
326 -316 -314 -324 325 315 0
316 -306 -304 -314 315 305 0
-295 -305 -296 304 306 294 0
296 -286 -285 284 294 -295 0
286 -276 -275 274 284 -285 0
-266 275 264 274 276 265 0
266 265 254 264 255 -256 0
-246 244 256 254 245 255 0
-236 234 246 244 235 245 0
-226 225 236 234 224 235 0
-216 215 226 224 225 214 0
341 311 213 209 210 331 0
-343 -342 -334 -133 -26 -25 -23 -22 0
-339 -115 -334 -343 -26 -25 -14 -13 0
-341 -109 -334 -339 -20 -19 -14 -13 0
-333 -332 -324 -133 -26 -25 -23 -22 0
-331 -130 -324 -333 -26 -25 -20 -19 0
-329 -324 -115 -333 -26 -25 -14 -13 0
-70 -324 -326 -333 -26 -25 -5 -4 0
-127 -331 -324 -332 -23 -22 -20 -19 0
-112 -329 -324 -332 -23 -22 -14 -13 0
-67 -324 -326 -332 -23 -22 -5 -4 0
-329 -324 -109 -331 -20 -19 -14 -13 0
-64 -324 -326 -331 -20 -19 -5 -4 0
-58 -324 -326 -329 -14 -13 -5 -4 0
-323 -322 -314 -133 -26 -25 -23 -22 0
-321 -314 -130 -323 -26 -25 -20 -19 0
-319 -314 -115 -323 -26 -25 -14 -13 0
-321 -314 -127 -322 -23 -22 -20 -19 0
-319 -314 -112 -322 -23 -22 -14 -13 0
-319 -314 -109 -321 -20 -19 -14 -13 0
-313 -312 -304 -133 -26 -25 -23 -22 0
-311 -304 -130 -313 -26 -25 -20 -19 0
-309 -304 -115 -313 -26 -25 -14 -13 0
-311 -304 -127 -312 -23 -22 -20 -19 0
-309 -304 -112 -312 -23 -22 -14 -13 0
-309 -304 -109 -311 -20 -19 -14 -13 0
-139 -160 -159 -149 -169 -148 -150 -138 -137 -136 0
214 136 215 216 224 225 226 6 29 2 0
137 234 215 216 214 235 236 6 29 2 0
138 244 215 216 214 245 246 6 29 2 0
139 254 215 216 214 255 256 6 29 2 0
148 234 225 224 226 235 236 6 29 2 0
149 244 225 226 224 245 246 6 29 2 0
150 254 225 226 224 255 256 6 29 2 0
159 244 235 234 236 245 246 6 29 2 0
160 254 235 236 234 255 256 6 29 2 0
169 254 245 244 246 255 256 6 29 2 0
178 179 186 254 255 264 265 274 275 2 0
169 160 159 234 235 244 245 254 255 3 0
58 64 67 109 112 127 21 24 6 15 0
70 115 58 112 67 133 24 27 6 15 0
70 130 64 67 127 133 24 27 6 21 0
194 193 199 274 276 284 286 294 296 6 0
115 130 109 112 127 133 24 27 15 21 0
305 306 211 208 209 315 316 325 326 29 0
180 179 178 186 187 193 254 264 274 284 0
182 189 178 188 181 204 254 264 294 304 0
188 186 194 193 187 199 264 274 284 294 0
207 204 206 205 208 209 210 211 212 213 0
305 325 208 211 212 213 209 210 335 315 0
-2 0
-3 0
4 0
5 0
-6 0
13 0
14 0
-15 0
19 0
20 0
-21 0
22 0
23 0
-24 0
25 0
26 0
-27 0
-29 0
