p cnf 28974 201
-1630 0
-1625 1630 0
-1620 1625 0
-1615 1620 0
-1610 1615 0
-1605 1610 0
-1600 1605 0
-1595 1600 0
-1590 1595 0
-1585 1590 0
-1580 1585 0
-1575 1580 0
-1570 1575 0
-1565 1570 0
-1560 1565 0
-1555 1560 0
-1550 1555 0
-1545 1550 0
-1540 1545 0
-1535 1540 0
-1530 1535 0
-1525 1530 0
-1520 1525 0
-1515 1520 0
-1510 1515 0
-1505 1510 0
-1500 1505 0
-1495 1500 0
-1484 1489 0
-1479 1484 0
1483 -1478 0
-1474 1479 0
1478 -1473 0
334 -324 0
324 -314 0
314 -304 0
1471 -295 0
304 -294 0
294 -284 0
1461 -275 0
284 -274 0
1456 -265 0
-264 274 0
-254 264 0
-244 254 0
-234 244 0
-224 234 0
-214 224 0
-335 -1489 1495 0
-325 -1483 1489 0
-315 -1478 1484 0
-315 1483 -1477 0
1477 -305 -1471 0
-295 -1468 1474 0
1473 -295 -1467 0
1468 -1462 -285 0
1467 -285 -1461 0
1462 -1456 -275 0
-213 -324 -334 0
-212 -314 -334 0
-210 -304 -334 0
-207 -294 -334 0
-191 -266 -326 0
-184 -256 -326 0
-211 -314 -324 0
-209 -304 -324 0
-206 -294 -324 0
-190 -267 -317 0
-183 -257 -317 0
-175 -247 -317 0
-166 -237 -317 0
-190 -266 -316 0
-183 -256 -316 0
-208 -304 -314 0
-205 -294 -314 0
-189 -307 -267 0
-182 -307 -257 0
-174 -307 -247 0
-305 -295 -204 0
-200 -305 -285 0
-195 -305 -275 0
-304 -204 -294 0
-199 -295 -285 0
-194 -295 -275 0
-193 -285 -275 0
-187 -285 -265 0
-180 -285 -255 0
-186 -267 -277 0
-179 -277 -257 0
-171 -247 -277 0
-276 -266 -186 0
-179 -276 -256 0
-186 -275 -265 0
-179 -275 -255 0
-178 -267 -257 0
-170 -247 -267 0
-178 -266 -256 0
-170 -266 -246 0
-178 -265 -255 0
-169 -247 -257 0
-169 -256 -246 0
-160 -256 -236 0
-159 -237 -247 0
-159 -246 -236 0
-325 335 -324 -334 0
-315 325 -314 -324 0
-305 315 -304 -314 0
-295 304 294 305 0
295 294 284 -285 0
285 -275 274 284 0
-265 275 274 264 0
-255 254 264 265 0
-245 244 254 255 0
-235 245 244 234 0
-225 235 234 224 0
-215 224 225 214 0
336 -326 -335 -334 -324 -325 0
326 325 -314 -316 -324 315 0
-306 316 -304 -314 315 305 0
-266 276 275 265 264 274 0
266 -256 254 264 255 265 0
256 -246 244 254 245 255 0
-236 246 234 244 235 245 0
-226 236 224 234 225 235 0
-216 226 214 224 225 215 0
-336 -334 -335 -29 -28 -5 -4 -1 0
-326 -327 -324 -52 -8 -7 -5 -4 0
-316 -317 -314 -52 -8 -7 -5 -4 0
-306 -307 -314 -316 -304 305 315 317 0
-307 306 315 317 316 305 -304 -314 0
-266 -267 275 264 265 274 277 -276 0
266 276 264 275 274 -267 265 277 0
-257 -256 267 254 255 264 -266 265 0
256 -257 267 255 264 265 266 254 0
-247 256 257 246 254 255 244 245 0
-237 246 235 247 244 245 236 234 0
-227 226 237 225 234 235 224 236 0
-217 226 227 215 224 225 214 216 0
-150 -182 -160 -155 -165 -148 -144 -139 -137 -136 0
-174 -155 -159 -149 -165 -148 -144 -138 -137 -136 0
-141 -152 -171 -159 -149 -148 -162 -138 -137 -136 0
-140 -151 -170 -159 -149 -148 -161 -138 -137 -136 0
-139 -149 -159 -169 -150 -148 -160 -138 -137 -136 0
214 138 215 217 244 245 247 9 32 2 0
139 254 215 217 214 255 257 9 32 2 0
140 264 215 217 214 265 267 9 32 2 0
141 274 215 217 214 275 277 9 32 2 0
148 227 224 225 234 235 237 9 32 2 0
149 227 244 225 224 245 247 9 32 2 0
150 227 254 225 224 255 257 9 32 2 0
151 227 264 225 224 265 267 9 32 2 0
152 227 274 225 224 275 277 9 32 2 0
159 237 234 244 235 245 247 9 32 2 0
160 237 254 235 234 255 257 9 32 2 0
161 237 264 235 234 265 267 9 32 2 0
162 237 274 235 234 275 277 9 32 2 0
169 254 247 244 245 255 257 9 32 2 0
170 264 247 245 244 265 267 9 32 2 0
171 274 247 245 244 275 277 9 32 2 0
186 274 267 264 265 275 277 9 32 2 0
169 160 159 234 235 244 245 254 255 2 0
178 170 169 244 245 254 255 264 265 2 0
179 171 169 244 245 254 255 274 275 2 0
178 179 186 254 255 264 265 274 275 2 0
136 216 215 217 225 226 227 32 54 30 0
137 216 235 217 215 236 237 32 54 30 0
216 246 245 217 215 138 247 32 54 30 0
144 305 216 217 215 306 307 32 54 30 0
226 246 245 227 225 149 247 32 54 30 0
155 305 226 227 225 306 307 32 54 30 0
236 246 245 237 235 159 247 32 54 30 0
165 305 236 237 235 306 307 32 54 30 0
174 305 246 247 245 306 307 32 54 30 0
166 175 159 235 236 245 246 315 316 30 0
182 174 169 245 246 255 256 305 306 30 0
175 183 169 245 246 255 256 315 316 30 0
208 175 174 245 246 305 306 315 316 30 0
182 189 178 255 256 265 266 305 306 30 0
183 208 182 255 256 305 306 315 316 30 0
184 209 182 255 257 305 307 325 327 32 0
209 208 211 305 307 315 317 325 327 32 0
187 180 178 186 179 193 254 264 274 284 0
184 191 183 178 190 211 255 265 315 325 0
191 190 189 208 209 211 265 305 315 325 0
195 200 193 199 194 204 274 284 294 304 0
207 204 206 205 208 209 210 211 212 213 0
325 208 305 211 212 213 209 210 335 315 0
316 208 306 211 212 213 209 210 326 336 0
1 0
-2 0
4 0
5 0
7 0
8 0
-9 0
28 0
29 0
-30 0
-32 0
52 0
-54 0
