p cnf 28974 242
-2520 0
-1630 0
-2515 2520 0
-2510 2515 0
-2505 2510 0
-2500 2505 0
-2495 2500 0
-2490 2495 0
-2485 2490 0
-2480 2485 0
-2475 2480 0
-2470 2475 0
-2465 2470 0
-2460 2465 0
-2455 2460 0
-2450 2455 0
-2445 2450 0
-2440 2445 0
-2435 2440 0
-2430 2435 0
-2425 2430 0
-2420 2425 0
-2415 2420 0
-2410 2415 0
-2405 2410 0
-2400 2405 0
-2395 2400 0
-2390 2395 0
-2385 2390 0
-2380 2385 0
-2375 2380 0
-1625 1630 0
-1620 1625 0
-1615 1620 0
-1610 1615 0
-1605 1610 0
-1600 1605 0
-1595 1600 0
-1590 1595 0
-1585 1590 0
-1580 1585 0
-1575 1580 0
-1570 1575 0
-1565 1570 0
-1560 1565 0
-1555 1560 0
-1550 1555 0
-1545 1550 0
-1540 1545 0
-1535 1540 0
-1530 1535 0
-1525 1530 0
-1520 1525 0
-1515 1520 0
-1510 1515 0
-1505 1510 0
-1500 1505 0
-1495 1500 0
-1484 1489 0
-1479 1484 0
1483 -1478 0
1478 -1473 0
334 -324 0
324 -314 0
314 -304 0
304 -294 0
294 -284 0
2351 -276 0
1461 -275 0
284 -274 0
-264 274 0
-254 264 0
-244 254 0
-234 244 0
-224 234 0
-214 224 0
-316 -2369 2375 0
2369 -2363 -306 0
2363 -2357 -296 0
2357 -286 -2351 0
-335 -1489 1495 0
-325 -1483 1489 0
-315 -1478 1484 0
-1473 -305 1479 0
1473 -295 -1467 0
1467 -285 -1461 0
-295 -207 -335 0
-213 -324 -334 0
-212 -314 -334 0
-210 -304 -334 0
-207 -294 -334 0
-206 -326 -296 0
-324 -211 -314 0
-209 -324 -304 0
-206 -324 -294 0
-317 -205 -297 0
-205 -296 -316 0
-314 -304 -208 0
-205 -314 -294 0
-307 -297 -204 0
-306 -296 -204 0
-295 -305 -204 0
-200 -305 -285 0
-195 -305 -275 0
-304 -204 -294 0
-297 -267 -188 0
-181 -297 -257 0
-173 -297 -247 0
-296 -188 -266 0
-181 -296 -256 0
-199 -295 -285 0
-194 -295 -275 0
-188 -295 -265 0
-287 -187 -267 0
-180 -287 -257 0
-172 -287 -247 0
-286 -187 -266 0
-180 -286 -256 0
-193 -285 -275 0
-187 -285 -265 0
-180 -285 -255 0
-186 -277 -267 0
-179 -277 -257 0
-171 -277 -247 0
-186 -276 -266 0
-179 -276 -256 0
-186 -275 -265 0
-179 -275 -255 0
-178 -267 -257 0
-267 -247 -170 0
-161 -267 -237 0
-178 -266 -256 0
-266 -170 -246 0
-178 -265 -255 0
-169 -247 -257 0
-237 -257 -160 0
-169 -246 -256 0
-160 -256 -236 0
-159 -247 -237 0
-159 -246 -236 0
-325 335 -324 -334 0
-315 325 -314 -324 0
-305 315 -304 -314 0
304 305 294 -295 0
295 -285 284 294 0
285 -275 274 284 0
-265 264 274 275 0
-255 265 264 254 0
-245 244 254 255 0
-235 234 244 245 0
-225 224 234 235 0
-215 214 224 225 0
326 -314 -316 -324 325 315 0
316 -306 -304 -314 315 305 0
-286 296 -285 284 294 -295 0
-276 286 -285 274 284 -275 0
276 -266 275 274 264 265 0
266 -256 254 264 255 265 0
-246 256 244 254 245 255 0
-236 246 235 244 234 245 0
-226 236 224 234 235 225 0
-216 226 214 224 225 215 0
-336 -334 -335 -29 -28 -5 -4 -1 0
-307 306 316 317 305 315 -304 -314 0
-287 -286 -295 297 -285 284 294 -296 0
-286 -277 287 -285 -275 274 284 -276 0
-277 287 -275 274 -285 284 286 276 0
-257 -256 267 254 255 264 265 -266 0
266 256 267 254 264 265 255 -257 0
-247 256 257 246 254 255 244 245 0
246 236 245 247 244 234 235 -237 0
-227 226 237 224 234 235 225 236 0
-217 226 227 214 224 225 215 216 0
-186 -161 -152 -151 -162 -148 -141 -140 -137 -136 0
-179 -162 -160 -152 -150 -148 -141 -139 -137 -136 0
-165 -174 -159 -155 -149 -148 -144 -138 -137 -136 0
-162 -171 -159 -152 -149 -148 -141 -138 -137 -136 0
-161 -159 -170 -151 -149 -148 -140 -138 -137 -136 0
-139 -150 -159 -149 -169 -148 -160 -138 -137 -136 0
214 138 215 217 244 245 247 9 32 2 0
139 254 215 217 214 255 257 9 32 2 0
140 264 215 217 214 265 267 9 32 2 0
141 274 215 217 214 275 277 9 32 2 0
149 227 225 224 244 245 247 9 32 2 0
150 227 254 225 224 255 257 9 32 2 0
151 227 264 225 224 265 267 9 32 2 0
152 227 274 225 224 275 277 9 32 2 0
159 237 235 234 244 245 247 9 32 2 0
160 237 254 235 234 255 257 9 32 2 0
161 237 264 235 234 265 267 9 32 2 0
162 237 274 235 234 275 277 9 32 2 0
169 254 244 247 245 255 257 9 32 2 0
170 264 247 245 244 265 267 9 32 2 0
171 274 247 245 244 275 277 9 32 2 0
178 264 254 257 255 265 267 9 32 2 0
186 274 267 265 264 275 277 9 32 2 0
169 160 159 234 235 244 245 254 255 2 0
170 161 159 234 235 244 245 264 265 2 0
178 170 169 244 245 254 255 264 265 3 0
179 171 169 244 245 254 255 274 275 3 0
179 186 178 254 255 264 265 274 275 3 0
136 216 214 217 224 226 227 9 52 6 0
137 216 234 217 214 236 237 9 52 6 0
216 276 274 217 214 141 277 9 52 6 0
148 226 224 227 234 236 237 9 52 6 0
226 276 274 227 224 152 277 9 52 6 0
236 276 274 234 237 162 277 9 52 6 0
246 276 244 247 274 171 277 9 52 6 0
193 284 276 277 274 286 287 9 52 6 0
179 171 169 244 246 254 256 274 276 6 0
256 266 186 254 179 264 178 274 276 6 0
194 193 199 274 276 284 286 294 296 6 0
181 194 179 254 257 274 277 294 297 9 0
188 194 186 264 267 274 277 294 297 9 0
193 194 199 274 277 284 287 294 297 9 0
144 216 215 217 305 306 307 32 54 30 0
155 226 225 227 305 306 307 32 54 30 0
165 236 235 237 305 306 307 32 54 30 0
174 246 245 247 305 306 307 32 54 30 0
172 173 169 180 181 199 244 254 284 294 0
173 187 170 172 188 199 244 264 284 294 0
180 193 178 187 179 186 254 264 274 284 0
188 181 186 178 179 194 254 264 274 294 0
188 187 181 178 180 199 254 264 284 294 0
188 187 199 194 186 193 264 274 284 294 0
195 200 193 199 194 204 274 284 294 304 0
207 204 206 205 208 209 210 211 212 213 0
325 208 305 211 212 213 209 210 335 315 0
326 316 208 211 212 213 209 210 306 336 0
1 0
-2 0
-3 0
4 0
5 0
-6 0
-9 0
28 0
29 0
-30 0
-32 0
-52 0
-54 0
