p cnf 28974 416
-3410 0
-2520 0
-1630 0
-740 0
-3405 3410 0
-3400 3405 0
-3395 3400 0
-3390 3395 0
-3385 3390 0
-3380 3385 0
-3375 3380 0
-3370 3375 0
-3365 3370 0
-3360 3365 0
-3355 3360 0
-3350 3355 0
-3345 3350 0
-3340 3345 0
-3335 3340 0
-3330 3335 0
-3325 3330 0
-3320 3325 0
-3315 3320 0
-3310 3315 0
-3305 3310 0
-3300 3305 0
-3295 3300 0
-3290 3295 0
-3285 3290 0
-3280 3285 0
-3275 3280 0
-3270 3275 0
-3265 3270 0
3264 -3259 0
-3254 3259 0
3258 -3253 0
-3249 3254 0
3253 -3248 0
3248 -3243 0
3247 -3242 0
-3238 3243 0
3242 -3237 0
3241 -3236 0
-3233 3238 0
-3232 3237 0
3236 -3231 0
-3228 3232 0
-2515 2520 0
-2510 2515 0
-2505 2510 0
-2500 2505 0
-2495 2500 0
-2490 2495 0
-2485 2490 0
-2480 2485 0
-2475 2480 0
-2470 2475 0
-2465 2470 0
-2460 2465 0
-2455 2460 0
-2450 2455 0
-2445 2450 0
-2440 2445 0
-2435 2440 0
-2430 2435 0
-2425 2430 0
-2420 2425 0
-2415 2420 0
-2410 2415 0
-2405 2410 0
-2400 2405 0
-2395 2400 0
-2390 2395 0
-2385 2390 0
-2380 2385 0
-2375 2380 0
2374 -2369 0
2373 -2368 0
-2364 2369 0
2368 -2363 0
2362 -2357 0
-2352 2357 0
-2347 2352 0
-2346 2351 0
-1625 1630 0
-1620 1625 0
-1615 1620 0
-1610 1615 0
-1605 1610 0
-1600 1605 0
-1595 1600 0
-1590 1595 0
-1585 1590 0
-1580 1585 0
-1575 1580 0
-1570 1575 0
-1565 1570 0
-1560 1565 0
-1555 1560 0
-1550 1555 0
-1545 1550 0
-1540 1545 0
-1535 1540 0
-1530 1535 0
-1525 1530 0
-1520 1525 0
-1515 1520 0
-1510 1515 0
-1505 1510 0
-1500 1505 0
-1495 1500 0
-1478 1483 0
1477 -1472 0
-735 740 0
-730 735 0
-725 730 0
-720 725 0
-715 720 0
-710 715 0
-705 710 0
-700 705 0
-695 700 0
-690 695 0
-685 690 0
-680 685 0
-675 680 0
-670 675 0
-665 670 0
-660 665 0
-655 660 0
-650 655 0
-645 650 0
-640 645 0
-635 640 0
-630 635 0
-625 630 0
-620 625 0
-615 620 0
-610 615 0
-605 610 0
334 -324 0
324 -314 0
314 -304 0
304 -294 0
1466 -285 0
-284 294 0
2351 -276 0
-274 284 0
-266 2346 0
-264 274 0
3231 -257 0
2341 -256 0
-254 264 0
-244 254 0
-237 3224 0
-234 244 0
-224 234 0
-214 224 0
-3264 -327 3270 0
-317 -3259 3265 0
-3258 3264 -317 0
-307 -3253 3259 0
-3248 -297 3254 0
3253 -3247 -297 0
-3243 -287 3249 0
3248 -287 -3242 0
3247 -287 -3241 0
3242 -277 -3236 0
-3232 3238 -267 0
3237 -3231 -267 0
-3228 3233 -257 0
-3224 3228 -247 0
-336 -2379 2385 0
-2374 -326 2380 0
-2373 2379 -326 0
-2369 -316 2375 0
-2368 2374 -316 0
-306 -2363 2369 0
2368 -306 -2362 0
-2358 -296 2364 0
2363 -2357 -296 0
2358 -2352 -286 0
2357 -2351 -286 0
-2346 2352 -276 0
-2341 -266 2347 0
-335 -1489 1495 0
-1483 -325 1489 0
-305 -1472 1478 0
1472 -295 -1466 0
-334 -599 605 0
-207 -295 -335 0
-203 -285 -335 0
-198 -275 -335 0
-213 -324 -334 0
-212 -314 -334 0
-210 -304 -334 0
-207 -294 -334 0
-184 -257 -327 0
-176 -247 -327 0
-206 -296 -326 0
-197 -276 -326 0
-191 -266 -326 0
-206 -295 -325 0
-202 -285 -325 0
-197 -275 -325 0
-211 -314 -324 0
-209 -304 -324 0
-206 -294 -324 0
-297 -205 -317 0
-201 -287 -317 0
-196 -277 -317 0
-190 -267 -317 0
-183 -257 -317 0
-175 -247 -317 0
-296 -205 -316 0
-201 -286 -316 0
-196 -276 -316 0
-190 -266 -316 0
-208 -305 -315 0
-205 -295 -315 0
-201 -285 -315 0
-208 -304 -314 0
-205 -294 -314 0
-307 -200 -287 0
-307 -182 -257 0
-204 -306 -296 0
-204 -305 -295 0
-200 -305 -285 0
-195 -305 -275 0
-204 -294 -304 0
-297 -267 -188 0
-181 -297 -257 0
-173 -247 -297 0
-199 -296 -286 0
-194 -296 -276 0
-266 -296 -188 0
-181 -256 -296 0
-199 -295 -285 0
-194 -295 -275 0
-188 -295 -265 0
-193 -277 -287 0
-187 -287 -267 0
-180 -287 -257 0
-172 -287 -247 0
-193 -286 -276 0
-187 -266 -286 0
-193 -275 -285 0
-187 -285 -265 0
-186 -277 -267 0
-179 -277 -257 0
-171 -277 -247 0
-186 -266 -276 0
-179 -256 -276 0
-186 -275 -265 0
-178 -267 -257 0
-170 -247 -267 0
-178 -256 -266 0
-266 -246 -170 0
-169 -247 -257 0
-169 -246 -256 0
335 -324 -334 -325 0
325 -324 -314 -315 0
-305 -304 315 -314 0
-305 304 315 314 0
304 305 294 -295 0
295 -285 284 294 0
285 -275 274 284 0
-265 275 274 264 0
-255 265 264 254 0
-245 255 254 244 0
-235 245 244 234 0
-225 235 234 224 0
-215 225 224 214 0
335 336 -324 -334 -326 325 0
325 -324 -316 326 -314 315 0
-306 -305 316 304 314 -315 0
-306 -304 315 316 -314 305 0
-296 -305 306 304 -295 294 0
-286 -285 296 284 294 -295 0
-276 -285 286 274 284 -275 0
-276 286 274 284 285 275 0
-266 276 265 274 264 275 0
-256 266 254 264 265 255 0
-246 256 244 254 255 245 0
-236 246 245 244 234 235 0
-226 236 235 234 224 225 0
-216 226 225 224 214 215 0
-337 -334 -335 -32 -31 -8 -7 -1 0
-334 -335 -336 -29 -28 -5 -4 -1 0
-325 -324 -327 -32 -31 -8 -7 -1 0
-325 -324 -326 -29 -28 -5 -4 -1 0
-314 -326 -317 -324 327 315 325 -316 0
-315 -324 -317 -325 -314 316 326 327 0
325 326 -317 327 -314 315 -324 316 0
-315 -314 -316 -29 -28 -5 -4 -1 0
-307 306 317 305 316 315 -314 -304 0
-286 -285 297 -295 -287 284 294 -296 0
-287 -285 297 284 296 294 -295 286 0
-285 -275 286 287 274 284 -277 276 0
-266 -267 277 264 265 274 275 -276 0
-267 276 265 277 274 264 266 275 0
-256 -257 267 254 255 264 265 -266 0
-257 267 254 255 264 265 266 256 0
-247 246 256 257 254 255 244 245 0
-237 236 234 235 244 245 246 247 0
-227 237 224 225 234 235 236 226 0
-217 227 214 215 224 225 226 216 0
-163 -166 -201 -156 -153 -148 -145 -142 -137 -136 0
-144 -141 -195 -155 -152 -148 -162 -165 -137 -136 0
-175 -166 -159 -156 -149 -148 -145 -138 -137 -136 0
-155 -174 -149 -138 -144 -148 -159 -165 -137 -136 0
-173 -164 -159 -154 -149 -148 -143 -138 -137 -136 0
-172 -163 -159 -153 -149 -148 -142 -138 -137 -136 0
-162 -171 -159 -152 -149 -148 -141 -138 -137 -136 0
-160 -169 -159 -150 -149 -148 -139 -138 -137 -136 0
171 169 179 244 245 254 255 274 275 2 0
187 186 193 264 265 274 275 284 285 2 0
193 194 199 274 275 284 285 294 295 2 0
170 178 169 244 245 254 255 264 265 3 0
178 179 186 254 255 264 265 274 275 3 0
178 180 187 254 255 264 265 284 285 3 0
136 216 214 217 224 226 227 9 52 6 0
137 216 234 217 214 236 237 9 52 6 0
138 216 244 217 214 246 247 9 52 6 0
141 216 274 217 214 276 277 9 52 6 0
142 216 284 217 214 286 287 9 52 6 0
143 294 216 217 214 296 297 9 52 6 0
148 227 224 234 226 236 237 9 52 6 0
149 226 244 227 224 246 247 9 52 6 0
150 226 254 227 224 256 257 9 52 6 0
152 226 274 227 224 276 277 9 52 6 0
153 226 284 227 224 286 287 9 52 6 0
154 294 226 227 224 296 297 9 52 6 0
159 237 234 244 236 246 247 9 52 6 0
160 236 254 237 234 256 257 9 52 6 0
162 236 274 237 234 276 277 9 52 6 0
163 236 284 237 234 286 287 9 52 6 0
164 294 236 237 234 296 297 9 52 6 0
171 247 274 244 246 276 277 9 52 6 0
172 246 284 247 244 286 287 9 52 6 0
173 294 246 247 244 296 297 9 52 6 0
277 276 274 284 193 286 287 9 52 6 0
199 294 286 287 284 296 297 9 52 6 0
169 172 180 244 246 254 256 284 286 6 0
169 181 173 244 246 254 256 294 296 6 0
178 256 186 254 179 264 266 274 276 6 0
178 256 187 254 180 264 266 284 286 6 0
181 188 178 254 256 264 266 294 296 6 0
193 180 179 254 256 274 276 284 286 6 0
181 199 180 254 256 284 286 294 296 6 0
194 199 193 274 276 284 286 294 296 6 0
200 204 199 284 286 294 296 304 306 6 0
205 204 208 294 296 304 306 314 316 6 0
181 188 257 254 178 264 267 294 297 9 0
194 188 186 264 267 274 277 294 297 9 0
199 277 194 274 193 284 287 294 297 9 0
139 216 215 217 255 256 257 33 52 30 0
144 305 216 217 215 306 307 33 52 30 0
145 315 216 217 215 316 317 33 52 30 0
155 226 225 227 305 306 307 33 52 30 0
156 315 226 227 225 316 317 33 52 30 0
165 236 235 237 305 306 307 33 52 30 0
166 315 236 237 235 316 317 33 52 30 0
246 247 245 169 255 256 257 33 52 30 0
174 305 246 247 245 306 307 33 52 30 0
175 315 246 247 245 316 317 33 52 30 0
208 315 306 307 305 316 317 33 52 30 0
211 325 316 317 315 326 327 33 52 30 0
183 175 169 245 246 255 256 315 316 30 0
176 184 169 245 246 255 256 325 326 30 0
178 183 190 255 256 265 266 315 316 30 0
183 182 208 255 256 305 306 315 316 30 0
184 183 211 255 256 315 316 325 326 30 0
190 196 186 265 267 275 277 315 317 33 0
191 197 186 265 267 275 277 325 327 33 0
191 190 211 265 267 315 317 325 327 33 0
196 201 193 275 277 285 287 315 317 33 0
203 202 213 286 287 326 327 336 337 52 0
212 317 213 316 211 326 327 336 337 52 0
195 198 210 276 277 306 307 336 337 53 0
203 201 212 286 287 316 317 336 337 53 0
181 180 169 172 173 199 244 254 284 294 0
176 184 175 169 183 211 245 255 315 325 0
180 178 187 188 181 199 254 264 284 294 0
181 193 180 194 179 199 254 274 284 294 0
194 188 187 186 193 199 264 274 284 294 0
196 191 190 186 197 211 265 275 315 325 0
195 304 193 199 200 194 274 284 294 204 0
197 203 198 193 199 194 202 206 207 213 0
196 198 201 203 193 212 276 286 316 336 0
205 201 199 200 204 208 284 294 304 314 0
202 205 203 201 199 206 207 211 212 213 0
202 296 326 286 199 213 203 207 206 336 0
210 203 200 208 201 212 286 306 316 336 0
202 287 211 201 212 213 317 203 327 337 0
207 206 204 208 205 209 210 211 212 213 0
205 317 297 211 212 213 207 206 327 337 0
335 210 325 211 212 213 305 315 208 209 0
306 208 211 336 212 213 316 210 209 326 0
1 0
-2 0
-3 0
4 0
5 0
-6 0
7 0
8 0
-9 0
28 0
29 0
-30 0
31 0
32 0
-33 0
-52 0
-53 0
