p cnf 28974 254
-3410 0
-1630 0
-3405 3410 0
-3400 3405 0
-3395 3400 0
-3390 3395 0
-3385 3390 0
-3380 3385 0
-3375 3380 0
-3370 3375 0
-3365 3370 0
-3360 3365 0
-3355 3360 0
-3350 3355 0
-3345 3350 0
-3340 3345 0
-3335 3340 0
-3330 3335 0
-3325 3330 0
-3320 3325 0
-3315 3320 0
-3310 3315 0
-3305 3310 0
-3300 3305 0
-3295 3300 0
-3290 3295 0
-3285 3290 0
-3280 3285 0
-3275 3280 0
-3270 3275 0
-3265 3270 0
-3260 3265 0
3264 -3259 0
3259 -3254 0
3254 -3249 0
3248 -3243 0
-3238 3243 0
3242 -3237 0
-3233 3238 0
3237 -3232 0
-3228 3232 0
3231 -3227 0
-3224 3227 0
-3222 3224 0
-3221 3222 0
-1625 1630 0
-1620 1625 0
-1615 1620 0
-1610 1615 0
-1605 1610 0
-1600 1605 0
-1595 1600 0
-1590 1595 0
-1585 1590 0
-1580 1585 0
-1575 1580 0
-1570 1575 0
-1565 1570 0
-1560 1565 0
-1555 1560 0
-1550 1555 0
-1545 1550 0
-1540 1545 0
-1535 1540 0
-1530 1535 0
-1525 1530 0
-1520 1525 0
-1515 1520 0
-1510 1515 0
-1505 1510 0
-1500 1505 0
-1495 1500 0
1489 -1484 0
1484 -1479 0
1483 -1478 0
1478 -1473 0
334 -324 0
324 -314 0
314 -304 0
304 -294 0
-284 294 0
1461 -275 0
-274 284 0
-264 274 0
3231 -257 0
-254 264 0
3227 -247 0
-244 254 0
-237 3224 0
-234 244 0
-227 3222 0
-224 234 0
-217 3221 0
-214 224 0
-3264 -327 3270 0
-3259 -317 3265 0
-3254 -307 3260 0
-297 3254 -3248 0
3249 -287 -3243 0
3248 -287 -3242 0
3243 -277 -3237 0
3238 -3232 -267 0
3237 -3231 -267 0
-3228 3233 -257 0
3232 -3227 -257 0
-3224 3228 -247 0
-1489 -335 1495 0
-325 1489 -1483 0
-315 1484 -1478 0
1479 -305 -1473 0
1473 -295 -1467 0
1467 -285 -1461 0
-207 -295 -335 0
-203 -285 -335 0
-198 -275 -335 0
-334 -213 -324 0
-212 -334 -314 0
-210 -334 -304 0
-207 -334 -294 0
-206 -326 -296 0
-202 -326 -286 0
-197 -326 -276 0
-324 -211 -314 0
-209 -324 -304 0
-206 -324 -294 0
-314 -208 -304 0
-205 -314 -294 0
-305 -295 -204 0
-200 -305 -285 0
-195 -305 -275 0
-304 -204 -294 0
-194 -296 -276 0
-296 -188 -266 0
-181 -296 -256 0
-199 -295 -285 0
-194 -295 -275 0
-188 -295 -265 0
-187 -287 -267 0
-180 -287 -257 0
-172 -287 -247 0
-187 -286 -266 0
-180 -286 -256 0
-193 -285 -275 0
-187 -285 -265 0
-180 -285 -255 0
-186 -277 -267 0
-179 -277 -257 0
-171 -247 -277 0
-186 -276 -266 0
-179 -276 -256 0
-186 -275 -265 0
-179 -275 -255 0
-267 -257 -178 0
-247 -267 -170 0
-266 -178 -256 0
-170 -266 -246 0
-178 -265 -255 0
-169 -247 -257 0
-169 -256 -246 0
-160 -256 -236 0
-150 -256 -226 0
-148 -236 -226 0
-325 335 -324 -334 0
-315 325 -314 -324 0
-305 315 -304 -314 0
305 304 294 -295 0
-285 284 295 294 0
-275 285 274 284 0
-265 264 274 275 0
-255 265 264 254 0
-245 244 254 255 0
-235 234 244 245 0
-225 235 234 224 0
-215 214 224 225 0
-316 326 325 -324 -314 315 0
316 -306 -304 -314 315 305 0
-286 296 -285 284 294 -295 0
-276 286 -285 274 284 -275 0
-266 276 275 274 265 264 0
266 -256 254 264 255 265 0
-246 256 244 254 245 255 0
-236 246 235 244 234 245 0
-226 236 225 234 224 235 0
-216 226 215 224 214 225 0
297 -287 -286 -296 -285 284 294 -295 0
-276 -285 287 -277 -275 274 284 -286 0
287 -277 286 274 -285 284 -275 276 0
-267 -266 277 264 265 274 -276 275 0
-267 276 277 264 274 275 265 266 0
-257 -256 267 254 255 264 265 -266 0
-257 266 267 256 264 265 254 255 0
-247 256 257 245 254 255 246 244 0
-237 246 234 247 244 245 235 236 0
-227 226 237 225 234 235 224 236 0
-217 216 227 215 224 225 214 226 0
-186 -161 -162 -152 -151 -148 -141 -140 -137 -136 0
-179 -141 -139 -152 -150 -148 -162 -160 -137 -136 0
-162 -152 -159 -149 -171 -148 -141 -138 -137 -136 0
-140 -138 -170 -159 -161 -148 -149 -151 -137 -136 0
-169 -150 -159 -149 -160 -148 -139 -138 -137 -136 0
214 139 215 217 254 255 257 9 32 2 0
140 264 215 217 214 265 267 9 32 2 0
141 274 215 217 214 275 277 9 32 2 0
148 227 224 225 234 235 237 9 32 2 0
149 227 244 225 224 245 247 9 32 2 0
150 227 254 225 224 255 257 9 32 2 0
151 227 264 225 224 265 267 9 32 2 0
152 227 274 225 224 275 277 9 32 2 0
159 237 244 234 235 245 247 9 32 2 0
160 237 254 235 234 255 257 9 32 2 0
161 237 264 235 234 265 267 9 32 2 0
162 237 274 235 234 275 277 9 32 2 0
169 247 254 244 245 255 257 9 32 2 0
170 247 264 245 244 265 267 9 32 2 0
171 247 274 245 244 275 277 9 32 2 0
178 264 257 254 255 265 267 9 32 2 0
186 274 267 265 264 275 277 9 32 2 0
178 170 169 244 245 254 255 264 265 2 0
179 186 178 254 255 264 265 274 275 2 0
160 150 148 224 225 234 235 254 255 3 0
179 171 169 244 245 254 255 274 275 3 0
181 188 178 254 255 264 265 294 295 3 0
136 216 214 217 224 226 227 9 52 6 0
137 216 234 217 214 236 237 9 52 6 0
216 276 274 217 214 141 277 9 52 6 0
226 276 224 274 227 152 277 9 52 6 0
236 276 234 274 237 162 277 9 52 6 0
246 276 244 247 274 171 277 9 52 6 0
193 276 284 277 274 286 287 9 52 6 0
172 180 169 244 246 254 256 284 286 6 0
256 186 178 254 179 264 266 274 276 6 0
194 193 199 274 276 284 286 294 296 6 0
194 181 179 254 257 274 277 294 297 9 0
187 199 188 264 267 284 287 294 297 9 0
194 199 277 274 193 284 287 294 297 9 0
138 216 215 217 245 246 247 32 54 30 0
209 208 211 305 306 315 316 325 326 30 0
209 307 211 305 208 315 317 325 327 32 0
180 187 178 186 179 193 254 264 274 284 0
186 181 178 179 188 194 254 264 274 294 0
187 180 178 181 188 199 254 264 284 294 0
199 188 186 187 194 193 264 274 284 294 0
195 200 193 199 194 204 274 284 294 304 0
197 202 193 194 199 198 203 206 207 213 0
207 204 206 205 208 209 210 211 212 213 0
305 315 208 211 335 213 209 210 325 212 0
-2 0
-3 0
-6 0
-9 0
-30 0
-32 0
-52 0
-54 0
