30 219
0 1
0 2
0 3
0 4
0 6
0 9
0 12
0 15
0 18
0 19
0 21
0 22
0 24
0 27
0 28
1 2
1 4
1 5
1 7
1 10
1 13
1 16
1 19
1 20
1 22
1 23
1 25
1 28
1 29
2 3
2 5
2 8
2 11
2 14
2 17
2 18
2 20
2 21
2 23
2 26
2 27
2 29
3 4
3 5
3 6
3 10
3 14
3 15
3 17
3 18
3 19
3 20
3 21
3 23
3 24
3 25
3 28
4 5
4 7
4 11
4 12
4 15
4 16
4 18
4 19
4 20
4 21
4 22
4 25
4 26
4 29
5 8
5 9
5 13
5 16
5 17
5 18
5 19
5 20
5 22
5 23
5 24
5 26
5 27
6 7
6 8
6 9
6 11
6 12
6 13
6 15
6 19
6 20
6 22
6 23
6 24
6 26
7 8
7 9
7 10
7 13
7 14
7 16
7 18
7 20
7 21
7 23
7 24
7 25
8 10
8 11
8 12
8 14
8 17
8 18
8 19
8 21
8 22
8 25
8 26
9 10
9 11
9 13
9 15
9 16
9 17
9 19
9 21
9 23
9 25
9 26
9 27
9 28
10 11
10 14
10 15
10 16
10 17
10 20
10 21
10 22
10 24
10 26
10 28
10 29
11 12
11 15
11 16
11 17
11 18
11 22
11 23
11 24
11 25
11 27
11 29
12 13
12 14
12 16
12 17
12 19
12 21
12 24
12 28
12 29
13 14
13 15
13 17
13 20
13 22
13 25
13 27
13 29
14 15
14 16
14 18
14 23
14 26
14 27
14 28
15 20
15 22
15 26
15 27
15 29
16 18
16 23
16 24
16 27
16 28
17 19
17 21
17 25
17 28
17 29
18 22
18 24
18 25
18 27
19 23
19 25
19 26
19 28
20 21
20 24
20 26
20 29
21 25
21 26
21 29
22 24
22 26
22 27
23 24
23 25
23 28
24 28
25 29
26 27
