p cnf 1204 6112
1 2 3 4 0
5 6 7 8 0
9 10 11 12 0
13 14 15 16 0
17 18 19 20 0
21 22 23 24 0
25 26 27 28 0
29 30 31 32 0
33 34 35 36 0
37 38 39 40 0
41 42 43 44 0
45 46 47 48 0
49 50 51 52 0
53 54 55 56 0
57 58 59 60 0
61 62 63 64 0
65 66 67 68 0
69 70 71 72 0
73 74 75 76 0
77 78 79 80 0
81 82 83 84 0
85 86 87 88 0
89 90 91 92 0
93 94 95 96 0
97 98 99 100 0
101 102 103 104 0
105 106 107 108 0
109 110 111 112 0
113 114 115 116 0
117 118 119 120 0
121 122 123 124 0
125 126 127 128 0
129 130 131 132 0
133 134 135 136 0
137 138 139 140 0
141 142 143 144 0
145 146 147 148 0
149 150 151 152 0
153 154 155 156 0
157 158 159 160 0
161 162 163 164 0
165 166 167 168 0
169 170 171 172 0
173 174 175 176 0
177 178 179 180 0
181 182 183 184 0
185 186 187 188 0
189 190 191 192 0
193 194 195 196 0
197 198 199 200 0
201 202 203 204 0
205 206 207 208 0
209 210 211 212 0
213 214 215 216 0
217 218 219 220 0
221 222 223 224 0
225 226 227 228 0
229 230 231 232 0
233 234 235 236 0
237 238 239 240 0
241 242 243 244 0
245 246 247 248 0
249 250 251 252 0
253 254 255 256 0
257 258 259 260 0
261 262 263 264 0
265 266 267 268 0
269 270 271 272 0
273 274 275 276 0
277 278 279 280 0
281 282 283 284 0
285 286 287 288 0
289 290 291 292 0
293 294 295 296 0
297 298 299 300 0
301 302 303 304 0
305 306 307 308 0
309 310 311 312 0
313 314 315 316 0
317 318 319 320 0
321 322 323 324 0
325 326 327 328 0
329 330 331 332 0
333 334 335 336 0
337 338 339 340 0
341 342 343 344 0
345 346 347 348 0
349 350 351 352 0
353 354 355 356 0
357 358 359 360 0
361 362 363 364 0
365 366 367 368 0
369 370 371 372 0
373 374 375 376 0
377 378 379 380 0
381 382 383 384 0
385 386 387 388 0
389 390 391 392 0
393 394 395 396 0
397 398 399 400 0
401 402 403 404 0
405 406 407 408 0
409 410 411 412 0
413 414 415 416 0
417 418 419 420 0
421 422 423 424 0
425 426 427 428 0
429 430 431 432 0
433 434 435 436 0
437 438 439 440 0
441 442 443 444 0
445 446 447 448 0
449 450 451 452 0
453 454 455 456 0
457 458 459 460 0
461 462 463 464 0
465 466 467 468 0
469 470 471 472 0
473 474 475 476 0
477 478 479 480 0
481 482 483 484 0
485 486 487 488 0
489 490 491 492 0
493 494 495 496 0
497 498 499 500 0
501 502 503 504 0
505 506 507 508 0
509 510 511 512 0
513 514 515 516 0
517 518 519 520 0
521 522 523 524 0
525 526 527 528 0
529 530 531 532 0
533 534 535 536 0
537 538 539 540 0
541 542 543 544 0
545 546 547 548 0
549 550 551 552 0
553 554 555 556 0
557 558 559 560 0
561 562 563 564 0
565 566 567 568 0
569 570 571 572 0
573 574 575 576 0
577 578 579 580 0
581 582 583 584 0
585 586 587 588 0
589 590 591 592 0
593 594 595 596 0
597 598 599 600 0
601 602 603 604 0
605 606 607 608 0
609 610 611 612 0
613 614 615 616 0
617 618 619 620 0
621 622 623 624 0
625 626 627 628 0
629 630 631 632 0
633 634 635 636 0
637 638 639 640 0
641 642 643 644 0
645 646 647 648 0
649 650 651 652 0
653 654 655 656 0
657 658 659 660 0
661 662 663 664 0
665 666 667 668 0
669 670 671 672 0
673 674 675 676 0
677 678 679 680 0
681 682 683 684 0
685 686 687 688 0
689 690 691 692 0
693 694 695 696 0
697 698 699 700 0
701 702 703 704 0
705 706 707 708 0
709 710 711 712 0
713 714 715 716 0
717 718 719 720 0
721 722 723 724 0
725 726 727 728 0
729 730 731 732 0
733 734 735 736 0
737 738 739 740 0
741 742 743 744 0
745 746 747 748 0
749 750 751 752 0
753 754 755 756 0
757 758 759 760 0
761 762 763 764 0
765 766 767 768 0
769 770 771 772 0
773 774 775 776 0
777 778 779 780 0
781 782 783 784 0
785 786 787 788 0
789 790 791 792 0
793 794 795 796 0
797 798 799 800 0
801 802 803 804 0
805 806 807 808 0
809 810 811 812 0
813 814 815 816 0
817 818 819 820 0
821 822 823 824 0
825 826 827 828 0
829 830 831 832 0
833 834 835 836 0
837 838 839 840 0
841 842 843 844 0
845 846 847 848 0
849 850 851 852 0
853 854 855 856 0
857 858 859 860 0
861 862 863 864 0
865 866 867 868 0
869 870 871 872 0
873 874 875 876 0
877 878 879 880 0
881 882 883 884 0
885 886 887 888 0
889 890 891 892 0
893 894 895 896 0
897 898 899 900 0
901 902 903 904 0
905 906 907 908 0
909 910 911 912 0
913 914 915 916 0
917 918 919 920 0
921 922 923 924 0
925 926 927 928 0
929 930 931 932 0
933 934 935 936 0
937 938 939 940 0
941 942 943 944 0
945 946 947 948 0
949 950 951 952 0
953 954 955 956 0
957 958 959 960 0
961 962 963 964 0
965 966 967 968 0
969 970 971 972 0
973 974 975 976 0
977 978 979 980 0
981 982 983 984 0
985 986 987 988 0
989 990 991 992 0
993 994 995 996 0
997 998 999 1000 0
1001 1002 1003 1004 0
1005 1006 1007 1008 0
1009 1010 1011 1012 0
1013 1014 1015 1016 0
1017 1018 1019 1020 0
1021 1022 1023 1024 0
1025 1026 1027 1028 0
1029 1030 1031 1032 0
1033 1034 1035 1036 0
1037 1038 1039 1040 0
1041 1042 1043 1044 0
1045 1046 1047 1048 0
1049 1050 1051 1052 0
1053 1054 1055 1056 0
1057 1058 1059 1060 0
1061 1062 1063 1064 0
1065 1066 1067 1068 0
1069 1070 1071 1072 0
1073 1074 1075 1076 0
1077 1078 1079 1080 0
1081 1082 1083 1084 0
1085 1086 1087 1088 0
1089 1090 1091 1092 0
1093 1094 1095 1096 0
1097 1098 1099 1100 0
1101 1102 1103 1104 0
1105 1106 1107 1108 0
1109 1110 1111 1112 0
1113 1114 1115 1116 0
1117 1118 1119 1120 0
1121 1122 1123 1124 0
1125 1126 1127 1128 0
1129 1130 1131 1132 0
1133 1134 1135 1136 0
1137 1138 1139 1140 0
1141 1142 1143 1144 0
1145 1146 1147 1148 0
1149 1150 1151 1152 0
1153 1154 1155 1156 0
1157 1158 1159 1160 0
1161 1162 1163 1164 0
1165 1166 1167 1168 0
1169 1170 1171 1172 0
1173 1174 1175 1176 0
1177 1178 1179 1180 0
1181 1182 1183 1184 0
1185 1186 1187 1188 0
1189 1190 1191 1192 0
1193 1194 1195 1196 0
1197 1198 1199 1200 0
1201 1202 1203 1204 0
-1 -449 0
-2 -450 0
-3 -451 0
-4 -452 0
-1 -453 0
-2 -454 0
-3 -455 0
-4 -456 0
-1 -465 0
-2 -466 0
-3 -467 0
-4 -468 0
-1 -469 0
-2 -470 0
-3 -471 0
-4 -472 0
-1 -477 0
-2 -478 0
-3 -479 0
-4 -480 0
-1 -481 0
-2 -482 0
-3 -483 0
-4 -484 0
-1 -485 0
-2 -486 0
-3 -487 0
-4 -488 0
-1 -489 0
-2 -490 0
-3 -491 0
-4 -492 0
-1 -493 0
-2 -494 0
-3 -495 0
-4 -496 0
-1 -497 0
-2 -498 0
-3 -499 0
-4 -500 0
-1 -501 0
-2 -502 0
-3 -503 0
-4 -504 0
-1 -505 0
-2 -506 0
-3 -507 0
-4 -508 0
-1 -509 0
-2 -510 0
-3 -511 0
-4 -512 0
-1 -513 0
-2 -514 0
-3 -515 0
-4 -516 0
-1 -517 0
-2 -518 0
-3 -519 0
-4 -520 0
-1 -521 0
-2 -522 0
-3 -523 0
-4 -524 0
-1 -525 0
-2 -526 0
-3 -527 0
-4 -528 0
-1 -529 0
-2 -530 0
-3 -531 0
-4 -532 0
-1 -533 0
-2 -534 0
-3 -535 0
-4 -536 0
-1 -537 0
-2 -538 0
-3 -539 0
-4 -540 0
-5 -385 0
-6 -386 0
-7 -387 0
-8 -388 0
-5 -413 0
-6 -414 0
-7 -415 0
-8 -416 0
-5 -429 0
-6 -430 0
-7 -431 0
-8 -432 0
-5 -469 0
-6 -470 0
-7 -471 0
-8 -472 0
-5 -545 0
-6 -546 0
-7 -547 0
-8 -548 0
-5 -577 0
-6 -578 0
-7 -579 0
-8 -580 0
-5 -589 0
-6 -590 0
-7 -591 0
-8 -592 0
-5 -629 0
-6 -630 0
-7 -631 0
-8 -632 0
-5 -633 0
-6 -634 0
-7 -635 0
-8 -636 0
-5 -641 0
-6 -642 0
-7 -643 0
-8 -644 0
-9 -361 0
-10 -362 0
-11 -363 0
-12 -364 0
-9 -365 0
-10 -366 0
-11 -367 0
-12 -368 0
-9 -417 0
-10 -418 0
-11 -419 0
-12 -420 0
-9 -433 0
-10 -434 0
-11 -435 0
-12 -436 0
-9 -477 0
-10 -478 0
-11 -479 0
-12 -480 0
-9 -525 0
-10 -526 0
-11 -527 0
-12 -528 0
-9 -549 0
-10 -550 0
-11 -551 0
-12 -552 0
-9 -581 0
-10 -582 0
-11 -583 0
-12 -584 0
-9 -585 0
-10 -586 0
-11 -587 0
-12 -588 0
-9 -593 0
-10 -594 0
-11 -595 0
-12 -596 0
-9 -637 0
-10 -638 0
-11 -639 0
-12 -640 0
-9 -645 0
-10 -646 0
-11 -647 0
-12 -648 0
-13 -369 0
-14 -370 0
-15 -371 0
-16 -372 0
-13 -373 0
-14 -374 0
-15 -375 0
-16 -376 0
-13 -389 0
-14 -390 0
-15 -391 0
-16 -392 0
-13 -421 0
-14 -422 0
-15 -423 0
-16 -424 0
-13 -437 0
-14 -438 0
-15 -439 0
-16 -440 0
-13 -489 0
-14 -490 0
-15 -491 0
-16 -492 0
-13 -537 0
-14 -538 0
-15 -539 0
-16 -540 0
-13 -541 0
-14 -542 0
-15 -543 0
-16 -544 0
-13 -553 0
-14 -554 0
-15 -555 0
-16 -556 0
-13 -589 0
-14 -590 0
-15 -591 0
-16 -592 0
-13 -597 0
-14 -598 0
-15 -599 0
-16 -600 0
-13 -645 0
-14 -646 0
-15 -647 0
-16 -648 0
-13 -653 0
-14 -654 0
-15 -655 0
-16 -656 0
-17 -393 0
-18 -394 0
-19 -395 0
-20 -396 0
-17 -425 0
-18 -426 0
-19 -427 0
-20 -428 0
-17 -441 0
-18 -442 0
-19 -443 0
-20 -444 0
-17 -449 0
-18 -450 0
-19 -451 0
-20 -452 0
-17 -557 0
-18 -558 0
-19 -559 0
-20 -560 0
-17 -593 0
-18 -594 0
-19 -595 0
-20 -596 0
-17 -601 0
-18 -602 0
-19 -603 0
-20 -604 0
-17 -649 0
-18 -650 0
-19 -651 0
-20 -652 0
-17 -657 0
-18 -658 0
-19 -659 0
-20 -660 0
-21 -405 0
-22 -406 0
-23 -407 0
-24 -408 0
-21 -437 0
-22 -438 0
-23 -439 0
-24 -440 0
-21 -473 0
-22 -474 0
-23 -475 0
-24 -476 0
-21 -521 0
-22 -522 0
-23 -523 0
-24 -524 0
-21 -553 0
-22 -554 0
-23 -555 0
-24 -556 0
-21 -569 0
-22 -570 0
-23 -571 0
-24 -572 0
-21 -605 0
-22 -606 0
-23 -607 0
-24 -608 0
-21 -613 0
-22 -614 0
-23 -615 0
-24 -616 0
-21 -669 0
-22 -670 0
-23 -671 0
-24 -672 0
-21 -677 0
-22 -678 0
-23 -679 0
-24 -680 0
-21 -709 0
-22 -710 0
-23 -711 0
-24 -712 0
-25 -397 0
-26 -398 0
-27 -399 0
-28 -400 0
-25 -413 0
-26 -414 0
-27 -415 0
-28 -416 0
-25 -533 0
-26 -534 0
-27 -535 0
-28 -536 0
-25 -561 0
-26 -562 0
-27 -563 0
-28 -564 0
-25 -577 0
-26 -578 0
-27 -579 0
-28 -580 0
-25 -613 0
-26 -614 0
-27 -615 0
-28 -616 0
-25 -621 0
-26 -622 0
-27 -623 0
-28 -624 0
-25 -681 0
-26 -682 0
-27 -683 0
-28 -684 0
-25 -689 0
-26 -690 0
-27 -691 0
-28 -692 0
-29 -349 0
-30 -350 0
-31 -351 0
-32 -352 0
-29 -381 0
-30 -382 0
-31 -383 0
-32 -384 0
-29 -401 0
-30 -402 0
-31 -403 0
-32 -404 0
-29 -417 0
-30 -418 0
-31 -419 0
-32 -420 0
-29 -445 0
-30 -446 0
-31 -447 0
-32 -448 0
-29 -493 0
-30 -494 0
-31 -495 0
-32 -496 0
-29 -565 0
-30 -566 0
-31 -567 0
-32 -568 0
-29 -581 0
-30 -582 0
-31 -583 0
-32 -584 0
-29 -617 0
-30 -618 0
-31 -619 0
-32 -620 0
-29 -625 0
-30 -626 0
-31 -627 0
-32 -628 0
-29 -685 0
-30 -686 0
-31 -687 0
-32 -688 0
-29 -693 0
-30 -694 0
-31 -695 0
-32 -696 0
-29 -1153 0
-30 -1154 0
-31 -1155 0
-32 -1156 0
-33 -409 0
-34 -410 0
-35 -411 0
-36 -412 0
-33 -425 0
-34 -426 0
-35 -427 0
-36 -428 0
-33 -513 0
-34 -514 0
-35 -515 0
-36 -516 0
-33 -573 0
-34 -574 0
-35 -575 0
-36 -576 0
-33 -585 0
-34 -586 0
-35 -587 0
-36 -588 0
-33 -625 0
-34 -626 0
-35 -627 0
-36 -628 0
-33 -633 0
-34 -634 0
-35 -635 0
-36 -636 0
-33 -697 0
-34 -698 0
-35 -699 0
-36 -700 0
-37 -289 0
-38 -290 0
-39 -291 0
-40 -292 0
-37 -293 0
-38 -294 0
-39 -295 0
-40 -296 0
-37 -325 0
-38 -326 0
-39 -327 0
-40 -328 0
-37 -329 0
-38 -330 0
-39 -331 0
-40 -332 0
-37 -609 0
-38 -610 0
-39 -611 0
-40 -612 0
-37 -621 0
-38 -622 0
-39 -623 0
-40 -624 0
-37 -709 0
-38 -710 0
-39 -711 0
-40 -712 0
-37 -1153 0
-38 -1154 0
-39 -1155 0
-40 -1156 0
-41 -261 0
-42 -262 0
-43 -263 0
-44 -264 0
-41 -301 0
-42 -302 0
-43 -303 0
-44 -304 0
-41 -369 0
-42 -370 0
-43 -371 0
-44 -372 0
-41 -465 0
-42 -466 0
-43 -467 0
-44 -468 0
-41 -521 0
-42 -522 0
-43 -523 0
-44 -524 0
-41 -645 0
-42 -646 0
-43 -647 0
-44 -648 0
-41 -697 0
-42 -698 0
-43 -699 0
-44 -700 0
-41 -725 0
-42 -726 0
-43 -727 0
-44 -728 0
-41 -729 0
-42 -730 0
-43 -731 0
-44 -732 0
-45 -281 0
-46 -282 0
-47 -283 0
-48 -284 0
-45 -321 0
-46 -322 0
-47 -323 0
-48 -324 0
-45 -365 0
-46 -366 0
-47 -367 0
-48 -368 0
-45 -453 0
-46 -454 0
-47 -455 0
-48 -456 0
-45 -493 0
-46 -494 0
-47 -495 0
-48 -496 0
-45 -645 0
-46 -646 0
-47 -647 0
-48 -648 0
-45 -665 0
-46 -666 0
-47 -667 0
-48 -668 0
-45 -741 0
-46 -742 0
-47 -743 0
-48 -744 0
-45 -745 0
-46 -746 0
-47 -747 0
-48 -748 0
-45 -1145 0
-46 -1146 0
-47 -1147 0
-48 -1148 0
-49 -249 0
-50 -250 0
-51 -251 0
-52 -252 0
-49 -297 0
-50 -298 0
-51 -299 0
-52 -300 0
-49 -485 0
-50 -486 0
-51 -487 0
-52 -488 0
-49 -525 0
-50 -526 0
-51 -527 0
-52 -528 0
-49 -669 0
-50 -670 0
-51 -671 0
-52 -672 0
-49 -689 0
-50 -690 0
-51 -691 0
-52 -692 0
-49 -721 0
-50 -722 0
-51 -723 0
-52 -724 0
-49 -765 0
-50 -766 0
-51 -767 0
-52 -768 0
-49 -769 0
-50 -770 0
-51 -771 0
-52 -772 0
-49 -1133 0
-50 -1134 0
-51 -1135 0
-52 -1136 0
-49 -1149 0
-50 -1150 0
-51 -1151 0
-52 -1152 0
-53 -245 0
-54 -246 0
-55 -247 0
-56 -248 0
-53 -285 0
-54 -286 0
-55 -287 0
-56 -288 0
-53 -353 0
-54 -354 0
-55 -355 0
-56 -356 0
-53 -489 0
-54 -490 0
-55 -491 0
-56 -492 0
-53 -529 0
-54 -530 0
-55 -531 0
-56 -532 0
-53 -673 0
-54 -674 0
-55 -675 0
-56 -676 0
-53 -693 0
-54 -694 0
-55 -695 0
-56 -696 0
-53 -717 0
-54 -718 0
-55 -719 0
-56 -720 0
-53 -773 0
-54 -774 0
-55 -775 0
-56 -776 0
-53 -1137 0
-54 -1138 0
-55 -1139 0
-56 -1140 0
-57 -249 0
-58 -250 0
-59 -251 0
-60 -252 0
-57 -261 0
-58 -262 0
-59 -263 0
-60 -264 0
-57 -273 0
-58 -274 0
-59 -275 0
-60 -276 0
-57 -333 0
-58 -334 0
-59 -335 0
-60 -336 0
-57 -549 0
-58 -550 0
-59 -551 0
-60 -552 0
-57 -577 0
-58 -578 0
-59 -579 0
-60 -580 0
-57 -725 0
-58 -726 0
-59 -727 0
-60 -728 0
-61 -245 0
-62 -246 0
-63 -247 0
-64 -248 0
-61 -269 0
-62 -270 0
-63 -271 0
-64 -272 0
-61 -281 0
-62 -282 0
-63 -283 0
-64 -284 0
-61 -345 0
-62 -346 0
-63 -347 0
-64 -348 0
-61 -541 0
-62 -542 0
-63 -543 0
-64 -544 0
-61 -557 0
-62 -558 0
-63 -559 0
-64 -560 0
-61 -745 0
-62 -746 0
-63 -747 0
-64 -748 0
-65 -241 0
-66 -242 0
-67 -243 0
-68 -244 0
-65 -277 0
-66 -278 0
-67 -279 0
-68 -280 0
-65 -341 0
-66 -342 0
-67 -343 0
-68 -344 0
-65 -545 0
-66 -546 0
-67 -547 0
-68 -548 0
-65 -565 0
-66 -566 0
-67 -567 0
-68 -568 0
-65 -749 0
-66 -750 0
-67 -751 0
-68 -752 0
-69 -189 0
-70 -190 0
-71 -191 0
-72 -192 0
-69 -193 0
-70 -194 0
-71 -195 0
-72 -196 0
-69 -229 0
-70 -230 0
-71 -231 0
-72 -232 0
-69 -257 0
-70 -258 0
-71 -259 0
-72 -260 0
-69 -273 0
-70 -274 0
-71 -275 0
-72 -276 0
-69 -409 0
-70 -410 0
-71 -411 0
-72 -412 0
-69 -433 0
-70 -434 0
-71 -435 0
-72 -436 0
-69 -593 0
-70 -594 0
-71 -595 0
-72 -596 0
-69 -625 0
-70 -626 0
-71 -627 0
-72 -628 0
-69 -733 0
-70 -734 0
-71 -735 0
-72 -736 0
-69 -1157 0
-70 -1158 0
-71 -1159 0
-72 -1160 0
-73 -197 0
-74 -198 0
-75 -199 0
-76 -200 0
-73 -261 0
-74 -262 0
-75 -263 0
-76 -264 0
-73 -277 0
-74 -278 0
-75 -279 0
-76 -280 0
-73 -357 0
-74 -358 0
-75 -359 0
-76 -360 0
-73 -413 0
-74 -414 0
-75 -415 0
-76 -416 0
-73 -437 0
-74 -438 0
-75 -439 0
-76 -440 0
-73 -597 0
-74 -598 0
-75 -599 0
-76 -600 0
-73 -629 0
-74 -630 0
-75 -631 0
-76 -632 0
-73 -729 0
-74 -730 0
-75 -731 0
-76 -732 0
-77 -205 0
-78 -206 0
-79 -207 0
-80 -208 0
-77 -209 0
-78 -210 0
-79 -211 0
-80 -212 0
-77 -233 0
-78 -234 0
-79 -235 0
-80 -236 0
-77 -269 0
-78 -270 0
-79 -271 0
-80 -272 0
-77 -397 0
-78 -398 0
-79 -399 0
-80 -400 0
-77 -421 0
-78 -422 0
-79 -423 0
-80 -424 0
-77 -589 0
-78 -590 0
-79 -591 0
-80 -592 0
-77 -605 0
-78 -606 0
-79 -607 0
-80 -608 0
-77 -737 0
-78 -738 0
-79 -739 0
-80 -740 0
-77 -793 0
-78 -794 0
-79 -795 0
-80 -796 0
-81 -209 0
-82 -210 0
-83 -211 0
-84 -212 0
-81 -213 0
-82 -214 0
-83 -215 0
-84 -216 0
-81 -237 0
-82 -238 0
-83 -239 0
-84 -240 0
-81 -241 0
-82 -242 0
-83 -243 0
-84 -244 0
-81 -273 0
-82 -274 0
-83 -275 0
-84 -276 0
-81 -365 0
-82 -366 0
-83 -367 0
-84 -368 0
-81 -401 0
-82 -402 0
-83 -403 0
-84 -404 0
-81 -425 0
-82 -426 0
-83 -427 0
-84 -428 0
-81 -593 0
-82 -594 0
-83 -595 0
-84 -596 0
-81 -609 0
-82 -610 0
-83 -611 0
-84 -612 0
-81 -757 0
-82 -758 0
-83 -759 0
-84 -760 0
-81 -789 0
-82 -790 0
-83 -791 0
-84 -792 0
-81 -797 0
-82 -798 0
-83 -799 0
-84 -800 0
-85 -153 0
-86 -154 0
-87 -155 0
-88 -156 0
-85 -217 0
-86 -218 0
-87 -219 0
-88 -220 0
-85 -245 0
-86 -246 0
-87 -247 0
-88 -248 0
-85 -277 0
-86 -278 0
-87 -279 0
-88 -280 0
-85 -373 0
-86 -374 0
-87 -375 0
-88 -376 0
-85 -405 0
-86 -406 0
-87 -407 0
-88 -408 0
-85 -429 0
-86 -430 0
-87 -431 0
-88 -432 0
-85 -597 0
-86 -598 0
-87 -599 0
-88 -600 0
-85 -613 0
-86 -614 0
-87 -615 0
-88 -616 0
-85 -717 0
-86 -718 0
-87 -719 0
-88 -720 0
-85 -753 0
-86 -754 0
-87 -755 0
-88 -756 0
-85 -821 0
-86 -822 0
-87 -823 0
-88 -824 0
-89 -153 0
-90 -154 0
-91 -155 0
-92 -156 0
-89 -157 0
-90 -158 0
-91 -159 0
-92 -160 0
-89 -249 0
-90 -250 0
-91 -251 0
-92 -252 0
-89 -281 0
-90 -282 0
-91 -283 0
-92 -284 0
-89 -349 0
-90 -350 0
-91 -351 0
-92 -352 0
-89 -409 0
-90 -410 0
-91 -411 0
-92 -412 0
-89 -433 0
-90 -434 0
-91 -435 0
-92 -436 0
-89 -601 0
-90 -602 0
-91 -603 0
-92 -604 0
-89 -617 0
-90 -618 0
-91 -619 0
-92 -620 0
-89 -765 0
-90 -766 0
-91 -767 0
-92 -768 0
-93 -161 0
-94 -162 0
-95 -163 0
-96 -164 0
-93 -165 0
-94 -166 0
-95 -167 0
-96 -168 0
-93 -221 0
-94 -222 0
-95 -223 0
-96 -224 0
-93 -253 0
-94 -254 0
-95 -255 0
-96 -256 0
-93 -353 0
-94 -354 0
-95 -355 0
-96 -356 0
-93 -413 0
-94 -414 0
-95 -415 0
-96 -416 0
-93 -437 0
-94 -438 0
-95 -439 0
-96 -440 0
-93 -605 0
-94 -606 0
-95 -607 0
-96 -608 0
-93 -621 0
-94 -622 0
-95 -623 0
-96 -624 0
-93 -761 0
-94 -762 0
-95 -763 0
-96 -764 0
-93 -801 0
-94 -802 0
-95 -803 0
-96 -804 0
-93 -809 0
-94 -810 0
-95 -811 0
-96 -812 0
-97 -165 0
-98 -166 0
-99 -167 0
-100 -168 0
-97 -169 0
-98 -170 0
-99 -171 0
-100 -172 0
-97 -241 0
-98 -242 0
-99 -243 0
-100 -244 0
-97 -257 0
-98 -258 0
-99 -259 0
-100 -260 0
-97 -417 0
-98 -418 0
-99 -419 0
-100 -420 0
-97 -441 0
-98 -442 0
-99 -443 0
-100 -444 0
-97 -609 0
-98 -610 0
-99 -611 0
-100 -612 0
-97 -625 0
-98 -626 0
-99 -627 0
-100 -628 0
-97 -777 0
-98 -778 0
-99 -779 0
-100 -780 0
-97 -805 0
-98 -806 0
-99 -807 0
-100 -808 0
-97 -813 0
-98 -814 0
-99 -815 0
-100 -816 0
-97 -1149 0
-98 -1150 0
-99 -1151 0
-100 -1152 0
-101 -173 0
-102 -174 0
-103 -175 0
-104 -176 0
-101 -177 0
-102 -178 0
-103 -179 0
-104 -180 0
-101 -245 0
-102 -246 0
-103 -247 0
-104 -248 0
-101 -261 0
-102 -262 0
-103 -263 0
-104 -264 0
-101 -397 0
-102 -398 0
-103 -399 0
-104 -400 0
-101 -421 0
-102 -422 0
-103 -423 0
-104 -424 0
-101 -613 0
-102 -614 0
-103 -615 0
-104 -616 0
-101 -629 0
-102 -630 0
-103 -631 0
-104 -632 0
-101 -773 0
-102 -774 0
-103 -775 0
-104 -776 0
-101 -825 0
-102 -826 0
-103 -827 0
-104 -828 0
-105 -177 0
-106 -178 0
-107 -179 0
-108 -180 0
-105 -181 0
-106 -182 0
-107 -183 0
-108 -184 0
-105 -249 0
-106 -250 0
-107 -251 0
-108 -252 0
-105 -265 0
-106 -266 0
-107 -267 0
-108 -268 0
-105 -361 0
-106 -362 0
-107 -363 0
-108 -364 0
-105 -401 0
-106 -402 0
-107 -403 0
-108 -404 0
-105 -425 0
-106 -426 0
-107 -427 0
-108 -428 0
-105 -585 0
-106 -586 0
-107 -587 0
-108 -588 0
-105 -617 0
-106 -618 0
-107 -619 0
-108 -620 0
-105 -721 0
-106 -722 0
-107 -723 0
-108 -724 0
-105 -785 0
-106 -786 0
-107 -787 0
-108 -788 0
-105 -829 0
-106 -830 0
-107 -831 0
-108 -832 0
-109 -185 0
-110 -186 0
-111 -187 0
-112 -188 0
-109 -189 0
-110 -190 0
-111 -191 0
-112 -192 0
-109 -225 0
-110 -226 0
-111 -227 0
-112 -228 0
-109 -253 0
-110 -254 0
-111 -255 0
-112 -256 0
-109 -269 0
-110 -270 0
-111 -271 0
-112 -272 0
-109 -369 0
-110 -370 0
-111 -371 0
-112 -372 0
-109 -405 0
-110 -406 0
-111 -407 0
-112 -408 0
-109 -429 0
-110 -430 0
-111 -431 0
-112 -432 0
-109 -589 0
-110 -590 0
-111 -591 0
-112 -592 0
-109 -621 0
-110 -622 0
-111 -623 0
-112 -624 0
-109 -781 0
-110 -782 0
-111 -783 0
-112 -784 0
-109 -817 0
-110 -818 0
-111 -819 0
-112 -820 0
-109 -1185 0
-110 -1186 0
-111 -1187 0
-112 -1188 0
-113 -189 0
-114 -190 0
-115 -191 0
-116 -192 0
-113 -197 0
-114 -198 0
-115 -199 0
-116 -200 0
-113 -233 0
-114 -234 0
-115 -235 0
-116 -236 0
-113 -313 0
-114 -314 0
-115 -315 0
-116 -316 0
-113 -469 0
-114 -470 0
-115 -471 0
-116 -472 0
-113 -525 0
-114 -526 0
-115 -527 0
-116 -528 0
-113 -549 0
-114 -550 0
-115 -551 0
-116 -552 0
-113 -577 0
-114 -578 0
-115 -579 0
-116 -580 0
-113 -737 0
-114 -738 0
-115 -739 0
-116 -740 0
-113 -785 0
-114 -786 0
-115 -787 0
-116 -788 0
-113 -833 0
-114 -834 0
-115 -835 0
-116 -836 0
-113 -1113 0
-114 -1114 0
-115 -1115 0
-116 -1116 0
-113 -1141 0
-114 -1142 0
-115 -1143 0
-116 -1144 0
-113 -1185 0
-114 -1186 0
-115 -1187 0
-116 -1188 0
-117 -197 0
-118 -198 0
-119 -199 0
-120 -200 0
-117 -209 0
-118 -210 0
-119 -211 0
-120 -212 0
-117 -229 0
-118 -230 0
-119 -231 0
-120 -232 0
-117 -309 0
-118 -310 0
-119 -311 0
-120 -312 0
-117 -449 0
-118 -450 0
-119 -451 0
-120 -452 0
-117 -489 0
-118 -490 0
-119 -491 0
-120 -492 0
-117 -541 0
-118 -542 0
-119 -543 0
-120 -544 0
-117 -557 0
-118 -558 0
-119 -559 0
-120 -560 0
-117 -733 0
-118 -734 0
-119 -735 0
-120 -736 0
-117 -753 0
-118 -754 0
-119 -755 0
-120 -756 0
-117 -789 0
-118 -790 0
-119 -791 0
-120 -792 0
-117 -845 0
-118 -846 0
-119 -847 0
-120 -848 0
-117 -1117 0
-118 -1118 0
-119 -1119 0
-120 -1120 0
-117 -1129 0
-118 -1130 0
-119 -1131 0
-120 -1132 0
-121 -153 0
-122 -154 0
-123 -155 0
-124 -156 0
-121 -209 0
-122 -210 0
-123 -211 0
-124 -212 0
-121 -221 0
-122 -222 0
-123 -223 0
-124 -224 0
-121 -285 0
-122 -286 0
-123 -287 0
-124 -288 0
-121 -461 0
-122 -462 0
-123 -463 0
-124 -464 0
-121 -501 0
-122 -502 0
-123 -503 0
-124 -504 0
-121 -545 0
-122 -546 0
-123 -547 0
-124 -548 0
-121 -565 0
-122 -566 0
-123 -567 0
-124 -568 0
-121 -741 0
-122 -742 0
-123 -743 0
-124 -744 0
-121 -761 0
-122 -762 0
-123 -763 0
-124 -764 0
-121 -793 0
-122 -794 0
-123 -795 0
-124 -796 0
-121 -849 0
-122 -850 0
-123 -851 0
-124 -852 0
-121 -1117 0
-122 -1118 0
-123 -1119 0
-124 -1120 0
-121 -1145 0
-122 -1146 0
-123 -1147 0
-124 -1148 0
-125 -157 0
-126 -158 0
-127 -159 0
-128 -160 0
-125 -213 0
-126 -214 0
-127 -215 0
-128 -216 0
-125 -289 0
-126 -290 0
-127 -291 0
-128 -292 0
-125 -313 0
-126 -314 0
-127 -315 0
-128 -316 0
-125 -465 0
-126 -466 0
-127 -467 0
-128 -468 0
-125 -509 0
-126 -510 0
-127 -511 0
-128 -512 0
-125 -549 0
-126 -550 0
-127 -551 0
-128 -552 0
-125 -749 0
-126 -750 0
-127 -751 0
-128 -752 0
-125 -797 0
-126 -798 0
-127 -799 0
-128 -800 0
-125 -853 0
-126 -854 0
-127 -855 0
-128 -856 0
-129 -161 0
-130 -162 0
-131 -163 0
-132 -164 0
-129 -217 0
-130 -218 0
-131 -219 0
-132 -220 0
-129 -297 0
-130 -298 0
-131 -299 0
-132 -300 0
-129 -317 0
-130 -318 0
-131 -319 0
-132 -320 0
-129 -473 0
-130 -474 0
-131 -475 0
-132 -476 0
-129 -517 0
-130 -518 0
-131 -519 0
-132 -520 0
-129 -569 0
-130 -570 0
-131 -571 0
-132 -572 0
-129 -769 0
-130 -770 0
-131 -771 0
-132 -772 0
-129 -801 0
-130 -802 0
-131 -803 0
-132 -804 0
-129 -821 0
-130 -822 0
-131 -823 0
-132 -824 0
-129 -857 0
-130 -858 0
-131 -859 0
-132 -860 0
-133 -153 0
-134 -154 0
-135 -155 0
-136 -156 0
-133 -165 0
-134 -166 0
-135 -167 0
-136 -168 0
-133 -237 0
-134 -238 0
-135 -239 0
-136 -240 0
-133 -321 0
-134 -322 0
-135 -323 0
-136 -324 0
-133 -481 0
-134 -482 0
-135 -483 0
-136 -484 0
-133 -521 0
-134 -522 0
-135 -523 0
-136 -524 0
-133 -553 0
-134 -554 0
-135 -555 0
-136 -556 0
-133 -573 0
-134 -574 0
-135 -575 0
-136 -576 0
-133 -757 0
-134 -758 0
-135 -759 0
-136 -760 0
-133 -773 0
-134 -774 0
-135 -775 0
-136 -776 0
-133 -805 0
-134 -806 0
-135 -807 0
-136 -808 0
-133 -861 0
-134 -862 0
-135 -863 0
-136 -864 0
-133 -1121 0
-134 -1122 0
-135 -1123 0
-136 -1124 0
-133 -1137 0
-134 -1138 0
-135 -1139 0
-136 -1140 0
-137 -165 0
-138 -166 0
-139 -167 0
-140 -168 0
-137 -177 0
-138 -178 0
-139 -179 0
-140 -180 0
-137 -225 0
-138 -226 0
-139 -227 0
-140 -228 0
-137 -301 0
-138 -302 0
-139 -303 0
-140 -304 0
-137 -493 0
-138 -494 0
-139 -495 0
-140 -496 0
-137 -533 0
-138 -534 0
-139 -535 0
-140 -536 0
-137 -561 0
-138 -562 0
-139 -563 0
-140 -564 0
-137 -581 0
-138 -582 0
-139 -583 0
-140 -584 0
-137 -765 0
-138 -766 0
-139 -767 0
-140 -768 0
-137 -781 0
-138 -782 0
-139 -783 0
-140 -784 0
-137 -809 0
-138 -810 0
-139 -811 0
-140 -812 0
-137 -865 0
-138 -866 0
-139 -867 0
-140 -868 0
-137 -1121 0
-138 -1122 0
-139 -1123 0
-140 -1124 0
-137 -1133 0
-138 -1134 0
-139 -1135 0
-140 -1136 0
-141 -169 0
-142 -170 0
-143 -171 0
-144 -172 0
-141 -181 0
-142 -182 0
-143 -183 0
-144 -184 0
-141 -285 0
-142 -286 0
-143 -287 0
-144 -288 0
-141 -305 0
-142 -306 0
-143 -307 0
-144 -308 0
-141 -445 0
-142 -446 0
-143 -447 0
-144 -448 0
-141 -497 0
-142 -498 0
-143 -499 0
-144 -500 0
-141 -565 0
-142 -566 0
-143 -567 0
-144 -568 0
-141 -813 0
-142 -814 0
-143 -815 0
-144 -816 0
-141 -829 0
-142 -830 0
-143 -831 0
-144 -832 0
-141 -869 0
-142 -870 0
-143 -871 0
-144 -872 0
-145 -173 0
-146 -174 0
-147 -175 0
-148 -176 0
-145 -185 0
-146 -186 0
-147 -187 0
-148 -188 0
-145 -293 0
-146 -294 0
-147 -295 0
-148 -296 0
-145 -309 0
-146 -310 0
-147 -311 0
-148 -312 0
-145 -453 0
-146 -454 0
-147 -455 0
-148 -456 0
-145 -505 0
-146 -506 0
-147 -507 0
-148 -508 0
-145 -541 0
-146 -542 0
-147 -543 0
-148 -544 0
-145 -817 0
-146 -818 0
-147 -819 0
-148 -820 0
-145 -825 0
-146 -826 0
-147 -827 0
-148 -828 0
-145 -873 0
-146 -874 0
-147 -875 0
-148 -876 0
-149 -177 0
-150 -178 0
-151 -179 0
-152 -180 0
-149 -189 0
-150 -190 0
-151 -191 0
-152 -192 0
-149 -297 0
-150 -298 0
-151 -299 0
-152 -300 0
-149 -457 0
-150 -458 0
-151 -459 0
-152 -460 0
-149 -513 0
-150 -514 0
-151 -515 0
-152 -516 0
-149 -569 0
-150 -570 0
-151 -571 0
-152 -572 0
-149 -729 0
-150 -730 0
-151 -731 0
-152 -732 0
-149 -777 0
-150 -778 0
-151 -779 0
-152 -780 0
-149 -877 0
-150 -878 0
-151 -879 0
-152 -880 0
-149 -1113 0
-150 -1114 0
-151 -1115 0
-152 -1116 0
-149 -1157 0
-150 -1158 0
-151 -1159 0
-152 -1160 0
-153 -177 0
-154 -178 0
-155 -179 0
-156 -180 0
-153 -197 0
-154 -198 0
-155 -199 0
-156 -200 0
-153 -349 0
-154 -350 0
-155 -351 0
-156 -352 0
-153 -373 0
-154 -374 0
-155 -375 0
-156 -376 0
-153 -405 0
-154 -406 0
-155 -407 0
-156 -408 0
-153 -433 0
-154 -434 0
-155 -435 0
-156 -436 0
-153 -461 0
-154 -462 0
-155 -463 0
-156 -464 0
-153 -521 0
-154 -522 0
-155 -523 0
-156 -524 0
-153 -645 0
-154 -646 0
-155 -647 0
-156 -648 0
-153 -693 0
-154 -694 0
-155 -695 0
-156 -696 0
-153 -733 0
-154 -734 0
-155 -735 0
-156 -736 0
-153 -781 0
-154 -782 0
-155 -783 0
-156 -784 0
-153 -833 0
-154 -834 0
-155 -835 0
-156 -836 0
-153 -877 0
-154 -878 0
-155 -879 0
-156 -880 0
-153 -881 0
-154 -882 0
-155 -883 0
-156 -884 0
-153 -921 0
-154 -922 0
-155 -923 0
-156 -924 0
-153 -925 0
-154 -926 0
-155 -927 0
-156 -928 0
-153 -961 0
-154 -962 0
-155 -963 0
-156 -964 0
-153 -1137 0
-154 -1138 0
-155 -1139 0
-156 -1140 0
-153 -1145 0
-154 -1146 0
-155 -1147 0
-156 -1148 0
-157 -181 0
-158 -182 0
-159 -183 0
-160 -184 0
-157 -201 0
-158 -202 0
-159 -203 0
-160 -204 0
-157 -313 0
-158 -314 0
-159 -315 0
-160 -316 0
-157 -409 0
-158 -410 0
-159 -411 0
-160 -412 0
-157 -465 0
-158 -466 0
-159 -467 0
-160 -468 0
-157 -649 0
-158 -650 0
-159 -651 0
-160 -652 0
-157 -697 0
-158 -698 0
-159 -699 0
-160 -700 0
-157 -837 0
-158 -838 0
-159 -839 0
-160 -840 0
-157 -925 0
-158 -926 0
-159 -927 0
-160 -928 0
-161 -185 0
-162 -186 0
-163 -187 0
-164 -188 0
-161 -205 0
-162 -206 0
-163 -207 0
-164 -208 0
-161 -317 0
-162 -318 0
-163 -319 0
-164 -320 0
-161 -353 0
-162 -354 0
-163 -355 0
-164 -356 0
-161 -437 0
-162 -438 0
-163 -439 0
-164 -440 0
-161 -473 0
-162 -474 0
-163 -475 0
-164 -476 0
-161 -529 0
-162 -530 0
-163 -531 0
-164 -532 0
-161 -653 0
-162 -654 0
-163 -655 0
-164 -656 0
-161 -701 0
-162 -702 0
-163 -703 0
-164 -704 0
-161 -841 0
-162 -842 0
-163 -843 0
-164 -844 0
-161 -929 0
-162 -930 0
-163 -931 0
-164 -932 0
-161 -1141 0
-162 -1142 0
-163 -1143 0
-164 -1144 0
-161 -1185 0
-162 -1186 0
-163 -1187 0
-164 -1188 0
-165 -189 0
-166 -190 0
-167 -191 0
-168 -192 0
-165 -209 0
-166 -210 0
-167 -211 0
-168 -212 0
-165 -301 0
-166 -302 0
-167 -303 0
-168 -304 0
-165 -321 0
-166 -322 0
-167 -323 0
-168 -324 0
-165 -413 0
-166 -414 0
-167 -415 0
-168 -416 0
-165 -441 0
-166 -442 0
-167 -443 0
-168 -444 0
-165 -481 0
-166 -482 0
-167 -483 0
-168 -484 0
-165 -533 0
-166 -534 0
-167 -535 0
-168 -536 0
-165 -633 0
-166 -634 0
-167 -635 0
-168 -636 0
-165 -657 0
-166 -658 0
-167 -659 0
-168 -660 0
-165 -729 0
-166 -730 0
-167 -731 0
-168 -732 0
-165 -741 0
-166 -742 0
-167 -743 0
-168 -744 0
-165 -833 0
-166 -834 0
-167 -835 0
-168 -836 0
-165 -845 0
-166 -846 0
-167 -847 0
-168 -848 0
-165 -885 0
-166 -886 0
-167 -887 0
-168 -888 0
-165 -889 0
-166 -890 0
-167 -891 0
-168 -892 0
-165 -1165 0
-166 -1166 0
-167 -1167 0
-168 -1168 0
-169 -193 0
-170 -194 0
-171 -195 0
-172 -196 0
-169 -213 0
-170 -214 0
-171 -215 0
-172 -216 0
-169 -305 0
-170 -306 0
-171 -307 0
-172 -308 0
-169 -417 0
-170 -418 0
-171 -419 0
-172 -420 0
-169 -445 0
-170 -446 0
-171 -447 0
-172 -448 0
-169 -485 0
-170 -486 0
-171 -487 0
-172 -488 0
-169 -637 0
-170 -638 0
-171 -639 0
-172 -640 0
-169 -661 0
-170 -662 0
-171 -663 0
-172 -664 0
-169 -749 0
-170 -750 0
-171 -751 0
-172 -752 0
-169 -789 0
-170 -790 0
-171 -791 0
-172 -792 0
-169 -837 0
-170 -838 0
-171 -839 0
-172 -840 0
-169 -933 0
-170 -934 0
-171 -935 0
-172 -936 0
-169 -1129 0
-170 -1130 0
-171 -1131 0
-172 -1132 0
-169 -1149 0
-170 -1150 0
-171 -1151 0
-172 -1152 0
-169 -1165 0
-170 -1166 0
-171 -1167 0
-172 -1168 0
-173 -217 0
-174 -218 0
-175 -219 0
-176 -220 0
-173 -309 0
-174 -310 0
-175 -311 0
-176 -312 0
-173 -397 0
-174 -398 0
-175 -399 0
-176 -400 0
-173 -453 0
-174 -454 0
-175 -455 0
-176 -456 0
-173 -641 0
-174 -642 0
-175 -643 0
-176 -644 0
-173 -665 0
-174 -666 0
-175 -667 0
-176 -668 0
-173 -841 0
-174 -842 0
-175 -843 0
-176 -844 0
-173 -937 0
-174 -938 0
-175 -939 0
-176 -940 0
-177 -197 0
-178 -198 0
-179 -199 0
-180 -200 0
-177 -361 0
-178 -362 0
-179 -363 0
-180 -364 0
-177 -401 0
-178 -402 0
-179 -403 0
-180 -404 0
-177 -421 0
-178 -422 0
-179 -423 0
-180 -424 0
-177 -457 0
-178 -458 0
-179 -459 0
-180 -460 0
-177 -493 0
-178 -494 0
-179 -495 0
-180 -496 0
-177 -645 0
-178 -646 0
-179 -647 0
-180 -648 0
-177 -669 0
-178 -670 0
-179 -671 0
-180 -672 0
-177 -737 0
-178 -738 0
-179 -739 0
-180 -740 0
-177 -757 0
-178 -758 0
-179 -759 0
-180 -760 0
-177 -845 0
-178 -846 0
-179 -847 0
-180 -848 0
-177 -849 0
-178 -850 0
-179 -851 0
-180 -852 0
-177 -893 0
-178 -894 0
-179 -895 0
-180 -896 0
-177 -897 0
-178 -898 0
-179 -899 0
-180 -900 0
-177 -937 0
-178 -938 0
-179 -939 0
-180 -940 0
-177 -941 0
-178 -942 0
-179 -943 0
-180 -944 0
-177 -1133 0
-178 -1134 0
-179 -1135 0
-180 -1136 0
-181 -201 0
-182 -202 0
-183 -203 0
-184 -204 0
-181 -285 0
-182 -286 0
-183 -287 0
-184 -288 0
-181 -425 0
-182 -426 0
-183 -427 0
-184 -428 0
-181 -497 0
-182 -498 0
-183 -499 0
-184 -500 0
-181 -649 0
-182 -650 0
-183 -651 0
-184 -652 0
-181 -673 0
-182 -674 0
-183 -675 0
-184 -676 0
-181 -853 0
-182 -854 0
-183 -855 0
-184 -856 0
-181 -941 0
-182 -942 0
-183 -943 0
-184 -944 0
-185 -205 0
-186 -206 0
-187 -207 0
-188 -208 0
-185 -293 0
-186 -294 0
-187 -295 0
-188 -296 0
-185 -369 0
-186 -370 0
-187 -371 0
-188 -372 0
-185 -405 0
-186 -406 0
-187 -407 0
-188 -408 0
-185 -465 0
-186 -466 0
-187 -467 0
-188 -468 0
-185 -505 0
-186 -506 0
-187 -507 0
-188 -508 0
-185 -653 0
-186 -654 0
-187 -655 0
-188 -656 0
-185 -677 0
-186 -678 0
-187 -679 0
-188 -680 0
-185 -745 0
-186 -746 0
-187 -747 0
-188 -748 0
-185 -793 0
-186 -794 0
-187 -795 0
-188 -796 0
-185 -857 0
-186 -858 0
-187 -859 0
-188 -860 0
-185 -933 0
-186 -934 0
-187 -935 0
-188 -936 0
-185 -1145 0
-186 -1146 0
-187 -1147 0
-188 -1148 0
-185 -1169 0
-186 -1170 0
-187 -1171 0
-188 -1172 0
-189 -209 0
-190 -210 0
-191 -211 0
-192 -212 0
-189 -297 0
-190 -298 0
-191 -299 0
-192 -300 0
-189 -313 0
-190 -314 0
-191 -315 0
-192 -316 0
-189 -409 0
-190 -410 0
-191 -411 0
-192 -412 0
-189 -429 0
-190 -430 0
-191 -431 0
-192 -432 0
-189 -469 0
-190 -470 0
-191 -471 0
-192 -472 0
-189 -513 0
-190 -514 0
-191 -515 0
-192 -516 0
-189 -657 0
-190 -658 0
-191 -659 0
-192 -660 0
-189 -681 0
-190 -682 0
-191 -683 0
-192 -684 0
-189 -753 0
-190 -754 0
-191 -755 0
-192 -756 0
-189 -765 0
-190 -766 0
-191 -767 0
-192 -768 0
-189 -797 0
-190 -798 0
-191 -799 0
-192 -800 0
-189 -801 0
-190 -802 0
-191 -803 0
-192 -804 0
-189 -849 0
-190 -850 0
-191 -851 0
-192 -852 0
-189 -861 0
-190 -862 0
-191 -863 0
-192 -864 0
-189 -901 0
-190 -902 0
-191 -903 0
-192 -904 0
-189 -905 0
-190 -906 0
-191 -907 0
-192 -908 0
-189 -1169 0
-190 -1170 0
-191 -1171 0
-192 -1172 0
-189 -1173 0
-190 -1174 0
-191 -1175 0
-192 -1176 0
-193 -213 0
-194 -214 0
-195 -215 0
-196 -216 0
-193 -433 0
-194 -434 0
-195 -435 0
-196 -436 0
-193 -477 0
-194 -478 0
-195 -479 0
-196 -480 0
-193 -517 0
-194 -518 0
-195 -519 0
-196 -520 0
-193 -661 0
-194 -662 0
-195 -663 0
-196 -664 0
-193 -685 0
-194 -686 0
-195 -687 0
-196 -688 0
-193 -805 0
-194 -806 0
-195 -807 0
-196 -808 0
-193 -853 0
-194 -854 0
-195 -855 0
-196 -856 0
-193 -945 0
-194 -946 0
-195 -947 0
-196 -948 0
-193 -1137 0
-194 -1138 0
-195 -1139 0
-196 -1140 0
-193 -1173 0
-194 -1174 0
-195 -1175 0
-196 -1176 0
-197 -357 0
-198 -358 0
-199 -359 0
-200 -360 0
-197 -377 0
-198 -378 0
-199 -379 0
-200 -380 0
-197 -417 0
-198 -418 0
-199 -419 0
-200 -420 0
-197 -437 0
-198 -438 0
-199 -439 0
-200 -440 0
-197 -489 0
-198 -490 0
-199 -491 0
-200 -492 0
-197 -525 0
-198 -526 0
-199 -527 0
-200 -528 0
-197 -669 0
-198 -670 0
-199 -671 0
-200 -672 0
-197 -693 0
-198 -694 0
-199 -695 0
-200 -696 0
-197 -761 0
-198 -762 0
-199 -763 0
-200 -764 0
-197 -777 0
-198 -778 0
-199 -779 0
-200 -780 0
-197 -861 0
-198 -862 0
-199 -863 0
-200 -864 0
-197 -865 0
-198 -866 0
-199 -867 0
-200 -868 0
-197 -909 0
-198 -910 0
-199 -911 0
-200 -912 0
-197 -913 0
-198 -914 0
-199 -915 0
-200 -916 0
-197 -949 0
-198 -950 0
-199 -951 0
-200 -952 0
-197 -953 0
-198 -954 0
-199 -955 0
-200 -956 0
-197 -1129 0
-198 -1130 0
-199 -1131 0
-200 -1132 0
-197 -1141 0
-198 -1142 0
-199 -1143 0
-200 -1144 0
-201 -301 0
-202 -302 0
-203 -303 0
-204 -304 0
-201 -441 0
-202 -442 0
-203 -443 0
-204 -444 0
-201 -529 0
-202 -530 0
-203 -531 0
-204 -532 0
-201 -673 0
-202 -674 0
-203 -675 0
-204 -676 0
-201 -697 0
-202 -698 0
-203 -699 0
-204 -700 0
-201 -869 0
-202 -870 0
-203 -871 0
-204 -872 0
-201 -953 0
-202 -954 0
-203 -955 0
-204 -956 0
-205 -421 0
-206 -422 0
-207 -423 0
-208 -424 0
-205 -497 0
-206 -498 0
-207 -499 0
-208 -500 0
-205 -537 0
-206 -538 0
-207 -539 0
-208 -540 0
-205 -677 0
-206 -678 0
-207 -679 0
-208 -680 0
-205 -701 0
-206 -702 0
-207 -703 0
-208 -704 0
-205 -769 0
-206 -770 0
-207 -771 0
-208 -772 0
-205 -809 0
-206 -810 0
-207 -811 0
-208 -812 0
-205 -873 0
-206 -874 0
-207 -875 0
-208 -876 0
-205 -957 0
-206 -958 0
-207 -959 0
-208 -960 0
-205 -1133 0
-206 -1134 0
-207 -1135 0
-208 -1136 0
-205 -1177 0
-206 -1178 0
-207 -1179 0
-208 -1180 0
-209 -285 0
-210 -286 0
-211 -287 0
-212 -288 0
-209 -309 0
-210 -310 0
-211 -311 0
-212 -312 0
-209 -397 0
-210 -398 0
-211 -399 0
-212 -400 0
-209 -425 0
-210 -426 0
-211 -427 0
-212 -428 0
-209 -449 0
-210 -450 0
-211 -451 0
-212 -452 0
-209 -501 0
-210 -502 0
-211 -503 0
-212 -504 0
-209 -633 0
-210 -634 0
-211 -635 0
-212 -636 0
-209 -681 0
-210 -682 0
-211 -683 0
-212 -684 0
-209 -773 0
-210 -774 0
-211 -775 0
-212 -776 0
-209 -785 0
-210 -786 0
-211 -787 0
-212 -788 0
-209 -813 0
-210 -814 0
-211 -815 0
-212 -816 0
-209 -817 0
-210 -818 0
-211 -819 0
-212 -820 0
-209 -865 0
-210 -866 0
-211 -867 0
-212 -868 0
-209 -877 0
-210 -878 0
-211 -879 0
-212 -880 0
-209 -917 0
-210 -918 0
-211 -919 0
-212 -920 0
-209 -1161 0
-210 -1162 0
-211 -1163 0
-212 -1164 0
-209 -1177 0
-210 -1178 0
-211 -1179 0
-212 -1180 0
-213 -289 0
-214 -290 0
-215 -291 0
-216 -292 0
-213 -365 0
-214 -366 0
-215 -367 0
-216 -368 0
-213 -401 0
-214 -402 0
-215 -403 0
-216 -404 0
-213 -453 0
-214 -454 0
-215 -455 0
-216 -456 0
-213 -509 0
-214 -510 0
-215 -511 0
-216 -512 0
-213 -637 0
-214 -638 0
-215 -639 0
-216 -640 0
-213 -685 0
-214 -686 0
-215 -687 0
-216 -688 0
-213 -725 0
-214 -726 0
-215 -727 0
-216 -728 0
-213 -869 0
-214 -870 0
-215 -871 0
-216 -872 0
-213 -929 0
-214 -930 0
-215 -931 0
-216 -932 0
-213 -1157 0
-214 -1158 0
-215 -1159 0
-216 -1160 0
-213 -1161 0
-214 -1162 0
-215 -1163 0
-216 -1164 0
-217 -297 0
-218 -298 0
-219 -299 0
-220 -300 0
-217 -429 0
-218 -430 0
-219 -431 0
-220 -432 0
-217 -517 0
-218 -518 0
-219 -519 0
-220 -520 0
-217 -641 0
-218 -642 0
-219 -643 0
-220 -644 0
-217 -689 0
-218 -690 0
-219 -691 0
-220 -692 0
-217 -873 0
-218 -874 0
-219 -875 0
-220 -876 0
-217 -961 0
-218 -962 0
-219 -963 0
-220 -964 0
-221 -253 0
-222 -254 0
-223 -255 0
-224 -256 0
-221 -341 0
-222 -342 0
-223 -343 0
-224 -344 0
-221 -389 0
-222 -390 0
-223 -391 0
-224 -392 0
-221 -545 0
-222 -546 0
-223 -547 0
-224 -548 0
-221 -817 0
-222 -818 0
-223 -819 0
-224 -820 0
-221 -885 0
-222 -886 0
-223 -887 0
-224 -888 0
-221 -929 0
-222 -930 0
-223 -931 0
-224 -932 0
-225 -269 0
-226 -270 0
-227 -271 0
-228 -272 0
-225 -325 0
-226 -326 0
-227 -327 0
-228 -328 0
-225 -561 0
-226 -562 0
-227 -563 0
-228 -564 0
-225 -709 0
-226 -710 0
-227 -711 0
-228 -712 0
-225 -901 0
-226 -902 0
-227 -903 0
-228 -904 0
-225 -933 0
-226 -934 0
-227 -935 0
-228 -936 0
-229 -257 0
-230 -258 0
-231 -259 0
-232 -260 0
-229 -345 0
-230 -346 0
-231 -347 0
-232 -348 0
-229 -393 0
-230 -394 0
-231 -395 0
-232 -396 0
-229 -557 0
-230 -558 0
-231 -559 0
-232 -560 0
-229 -705 0
-230 -706 0
-231 -707 0
-232 -708 0
-229 -813 0
-230 -814 0
-231 -815 0
-232 -816 0
-229 -905 0
-230 -906 0
-231 -907 0
-232 -908 0
-229 -945 0
-230 -946 0
-231 -947 0
-232 -948 0
-233 -333 0
-234 -334 0
-235 -335 0
-236 -336 0
-233 -385 0
-234 -386 0
-235 -387 0
-236 -388 0
-233 -577 0
-234 -578 0
-235 -579 0
-236 -580 0
-233 -713 0
-234 -714 0
-235 -715 0
-236 -716 0
-233 -801 0
-234 -802 0
-235 -803 0
-236 -804 0
-233 -917 0
-234 -918 0
-235 -919 0
-236 -920 0
-233 -957 0
-234 -958 0
-235 -959 0
-236 -960 0
-237 -273 0
-238 -274 0
-239 -275 0
-240 -276 0
-237 -329 0
-238 -330 0
-239 -331 0
-240 -332 0
-237 -573 0
-238 -574 0
-239 -575 0
-240 -576 0
-237 -929 0
-238 -930 0
-239 -931 0
-240 -932 0
-237 -1153 0
-238 -1154 0
-239 -1155 0
-240 -1156 0
-241 -341 0
-242 -342 0
-243 -343 0
-244 -344 0
-241 -349 0
-242 -350 0
-243 -351 0
-244 -352 0
-241 -593 0
-242 -594 0
-243 -595 0
-244 -596 0
-241 -625 0
-242 -626 0
-243 -627 0
-244 -628 0
-241 -837 0
-242 -838 0
-243 -839 0
-244 -840 0
-241 -877 0
-242 -878 0
-243 -879 0
-244 -880 0
-241 -885 0
-242 -886 0
-243 -887 0
-244 -888 0
-241 -1197 0
-242 -1198 0
-243 -1199 0
-244 -1200 0
-245 -281 0
-246 -282 0
-247 -283 0
-248 -284 0
-245 -353 0
-246 -354 0
-247 -355 0
-248 -356 0
-245 -557 0
-246 -558 0
-247 -559 0
-248 -560 0
-245 -597 0
-246 -598 0
-247 -599 0
-248 -600 0
-245 -629 0
-246 -630 0
-247 -631 0
-248 -632 0
-245 -665 0
-246 -666 0
-247 -667 0
-248 -668 0
-245 -845 0
-246 -846 0
-247 -847 0
-248 -848 0
-245 -881 0
-246 -882 0
-247 -883 0
-248 -884 0
-245 -981 0
-246 -982 0
-247 -983 0
-248 -984 0
-249 -261 0
-250 -262 0
-251 -263 0
-252 -264 0
-249 -577 0
-250 -578 0
-251 -579 0
-252 -580 0
-249 -585 0
-250 -586 0
-251 -587 0
-252 -588 0
-249 -601 0
-250 -602 0
-251 -603 0
-252 -604 0
-249 -697 0
-250 -698 0
-251 -699 0
-252 -700 0
-249 -833 0
-250 -834 0
-251 -835 0
-252 -836 0
-249 -893 0
-250 -894 0
-251 -895 0
-252 -896 0
-249 -985 0
-250 -986 0
-251 -987 0
-252 -988 0
-249 -1149 0
-250 -1150 0
-251 -1151 0
-252 -1152 0
-253 -337 0
-254 -338 0
-255 -339 0
-256 -340 0
-253 -589 0
-254 -590 0
-255 -591 0
-256 -592 0
-253 -605 0
-254 -606 0
-255 -607 0
-256 -608 0
-253 -841 0
-254 -842 0
-255 -843 0
-256 -844 0
-253 -849 0
-254 -850 0
-255 -851 0
-256 -852 0
-253 -889 0
-254 -890 0
-255 -891 0
-256 -892 0
-253 -1181 0
-254 -1182 0
-255 -1183 0
-256 -1184 0
-257 -325 0
-258 -326 0
-259 -327 0
-260 -328 0
-257 -361 0
-258 -362 0
-259 -363 0
-260 -364 0
-257 -593 0
-258 -594 0
-259 -595 0
-260 -596 0
-257 -609 0
-258 -610 0
-259 -611 0
-260 -612 0
-257 -845 0
-258 -846 0
-259 -847 0
-260 -848 0
-257 -853 0
-258 -854 0
-259 -855 0
-260 -856 0
-257 -901 0
-258 -902 0
-259 -903 0
-260 -904 0
-257 -965 0
-258 -966 0
-259 -967 0
-260 -968 0
-261 -369 0
-262 -370 0
-263 -371 0
-264 -372 0
-261 -597 0
-262 -598 0
-263 -599 0
-264 -600 0
-261 -613 0
-262 -614 0
-263 -615 0
-264 -616 0
-261 -861 0
-262 -862 0
-263 -863 0
-264 -864 0
-261 -897 0
-262 -898 0
-263 -899 0
-264 -900 0
-261 -989 0
-262 -990 0
-263 -991 0
-264 -992 0
-265 -601 0
-266 -602 0
-267 -603 0
-268 -604 0
-265 -617 0
-266 -618 0
-267 -619 0
-268 -620 0
-265 -849 0
-266 -850 0
-267 -851 0
-268 -852 0
-265 -909 0
-266 -910 0
-267 -911 0
-268 -912 0
-265 -993 0
-266 -994 0
-267 -995 0
-268 -996 0
-269 -345 0
-270 -346 0
-271 -347 0
-272 -348 0
-269 -357 0
-270 -358 0
-271 -359 0
-272 -360 0
-269 -605 0
-270 -606 0
-271 -607 0
-272 -608 0
-269 -621 0
-270 -622 0
-271 -623 0
-272 -624 0
-269 -857 0
-270 -858 0
-271 -859 0
-272 -860 0
-269 -865 0
-270 -866 0
-271 -867 0
-272 -868 0
-269 -905 0
-270 -906 0
-271 -907 0
-272 -908 0
-269 -969 0
-270 -970 0
-271 -971 0
-272 -972 0
-273 -333 0
-274 -334 0
-275 -335 0
-276 -336 0
-273 -377 0
-274 -378 0
-275 -379 0
-276 -380 0
-273 -609 0
-274 -610 0
-275 -611 0
-276 -612 0
-273 -625 0
-274 -626 0
-275 -627 0
-276 -628 0
-273 -861 0
-274 -862 0
-275 -863 0
-276 -864 0
-273 -869 0
-274 -870 0
-275 -871 0
-276 -872 0
-273 -917 0
-274 -918 0
-275 -919 0
-276 -920 0
-273 -973 0
-274 -974 0
-275 -975 0
-276 -976 0
-277 -613 0
-278 -614 0
-279 -615 0
-280 -616 0
-277 -629 0
-278 -630 0
-279 -631 0
-280 -632 0
-277 -877 0
-278 -878 0
-279 -879 0
-280 -880 0
-277 -913 0
-278 -914 0
-279 -915 0
-280 -916 0
-277 -997 0
-278 -998 0
-279 -999 0
-280 -1000 0
-281 -365 0
-282 -366 0
-283 -367 0
-284 -368 0
-281 -585 0
-282 -586 0
-283 -587 0
-284 -588 0
-281 -617 0
-282 -618 0
-283 -619 0
-284 -620 0
-281 -865 0
-282 -866 0
-283 -867 0
-284 -868 0
-281 -921 0
-282 -922 0
-283 -923 0
-284 -924 0
-281 -1001 0
-282 -1002 0
-283 -1003 0
-284 -1004 0
-285 -469 0
-286 -470 0
-287 -471 0
-288 -472 0
-285 -529 0
-286 -530 0
-287 -531 0
-288 -532 0
-285 -785 0
-286 -786 0
-287 -787 0
-288 -788 0
-285 -925 0
-286 -926 0
-287 -927 0
-288 -928 0
-285 -1009 0
-286 -1010 0
-287 -1011 0
-288 -1012 0
-285 -1165 0
-286 -1166 0
-287 -1167 0
-288 -1168 0
-289 -477 0
-290 -478 0
-291 -479 0
-292 -480 0
-289 -533 0
-290 -534 0
-291 -535 0
-292 -536 0
-289 -725 0
-290 -726 0
-291 -727 0
-292 -728 0
-289 -933 0
-290 -934 0
-291 -935 0
-292 -936 0
-289 -985 0
-290 -986 0
-291 -987 0
-292 -988 0
-289 -1013 0
-290 -1014 0
-291 -1015 0
-292 -1016 0
-289 -1197 0
-290 -1198 0
-291 -1199 0
-292 -1200 0
-293 -481 0
-294 -482 0
-295 -483 0
-296 -484 0
-293 -537 0
-294 -538 0
-295 -539 0
-296 -540 0
-293 -745 0
-294 -746 0
-295 -747 0
-296 -748 0
-293 -929 0
-294 -930 0
-295 -931 0
-296 -932 0
-293 -981 0
-294 -982 0
-295 -983 0
-296 -984 0
-293 -1013 0
-294 -1014 0
-295 -1015 0
-296 -1016 0
-293 -1181 0
-294 -1182 0
-295 -1183 0
-296 -1184 0
-297 -449 0
-298 -450 0
-299 -451 0
-300 -452 0
-297 -485 0
-298 -486 0
-299 -487 0
-300 -488 0
-297 -753 0
-298 -754 0
-299 -755 0
-300 -756 0
-297 -937 0
-298 -938 0
-299 -939 0
-300 -940 0
-297 -1017 0
-298 -1018 0
-299 -1019 0
-300 -1020 0
-301 -465 0
-302 -466 0
-303 -467 0
-304 -468 0
-301 -501 0
-302 -502 0
-303 -503 0
-304 -504 0
-301 -741 0
-302 -742 0
-303 -743 0
-304 -744 0
-301 -941 0
-302 -942 0
-303 -943 0
-304 -944 0
-301 -1021 0
-302 -1022 0
-303 -1023 0
-304 -1024 0
-301 -1173 0
-302 -1174 0
-303 -1175 0
-304 -1176 0
-305 -469 0
-306 -470 0
-307 -471 0
-308 -472 0
-305 -509 0
-306 -510 0
-307 -511 0
-308 -512 0
-305 -749 0
-306 -750 0
-307 -751 0
-308 -752 0
-305 -945 0
-306 -946 0
-307 -947 0
-308 -948 0
-305 -965 0
-306 -966 0
-307 -967 0
-308 -968 0
-305 -993 0
-306 -994 0
-307 -995 0
-308 -996 0
-309 -481 0
-310 -482 0
-311 -483 0
-312 -484 0
-309 -517 0
-310 -518 0
-311 -519 0
-312 -520 0
-309 -773 0
-310 -774 0
-311 -775 0
-312 -776 0
-309 -949 0
-310 -950 0
-311 -951 0
-312 -952 0
-309 -1169 0
-310 -1170 0
-311 -1171 0
-312 -1172 0
-313 -497 0
-314 -498 0
-315 -499 0
-316 -500 0
-313 -533 0
-314 -534 0
-315 -535 0
-316 -536 0
-313 -765 0
-314 -766 0
-315 -767 0
-316 -768 0
-313 -953 0
-314 -954 0
-315 -955 0
-316 -956 0
-313 -1161 0
-314 -1162 0
-315 -1163 0
-316 -1164 0
-317 -449 0
-318 -450 0
-319 -451 0
-320 -452 0
-317 -505 0
-318 -506 0
-319 -507 0
-320 -508 0
-317 -957 0
-318 -958 0
-319 -959 0
-320 -960 0
-317 -977 0
-318 -978 0
-319 -979 0
-320 -980 0
-317 -997 0
-318 -998 0
-319 -999 0
-320 -1000 0
-321 -453 0
-322 -454 0
-323 -455 0
-324 -456 0
-321 -513 0
-322 -514 0
-323 -515 0
-324 -516 0
-321 -729 0
-322 -730 0
-323 -731 0
-324 -732 0
-321 -961 0
-322 -962 0
-323 -963 0
-324 -964 0
-321 -1037 0
-322 -1038 0
-323 -1039 0
-324 -1040 0
-321 -1177 0
-322 -1178 0
-323 -1179 0
-324 -1180 0
-325 -345 0
-326 -346 0
-327 -347 0
-328 -348 0
-325 -381 0
-326 -382 0
-327 -383 0
-328 -384 0
-325 -581 0
-326 -582 0
-327 -583 0
-328 -584 0
-325 -701 0
-326 -702 0
-327 -703 0
-328 -704 0
-325 -981 0
-326 -982 0
-327 -983 0
-328 -984 0
-329 -333 0
-330 -334 0
-331 -335 0
-332 -336 0
-329 -553 0
-330 -554 0
-331 -555 0
-332 -556 0
-329 -661 0
-330 -662 0
-331 -663 0
-332 -664 0
-329 -985 0
-330 -986 0
-331 -987 0
-332 -988 0
-333 -549 0
-334 -550 0
-335 -551 0
-336 -552 0
-333 -653 0
-334 -654 0
-335 -655 0
-336 -656 0
-333 -989 0
-334 -990 0
-335 -991 0
-336 -992 0
-337 -341 0
-338 -342 0
-339 -343 0
-340 -344 0
-337 -381 0
-338 -382 0
-339 -383 0
-340 -384 0
-337 -569 0
-338 -570 0
-339 -571 0
-340 -572 0
-337 -685 0
-338 -686 0
-339 -687 0
-340 -688 0
-337 -993 0
-338 -994 0
-339 -995 0
-340 -996 0
-341 -565 0
-342 -566 0
-343 -567 0
-344 -568 0
-341 -677 0
-342 -678 0
-343 -679 0
-344 -680 0
-341 -997 0
-342 -998 0
-343 -999 0
-344 -1000 0
-345 -541 0
-346 -542 0
-347 -543 0
-348 -544 0
-345 -637 0
-346 -638 0
-347 -639 0
-348 -640 0
-345 -1001 0
-346 -1002 0
-347 -1003 0
-348 -1004 0
-349 -417 0
-350 -418 0
-351 -419 0
-352 -420 0
-349 -837 0
-350 -838 0
-351 -839 0
-352 -840 0
-349 -985 0
-350 -986 0
-351 -987 0
-352 -988 0
-349 -1041 0
-350 -1042 0
-351 -1043 0
-352 -1044 0
-349 -1057 0
-350 -1058 0
-351 -1059 0
-352 -1060 0
-349 -1197 0
-350 -1198 0
-351 -1199 0
-352 -1200 0
-353 -421 0
-354 -422 0
-355 -423 0
-356 -424 0
-353 -821 0
-354 -822 0
-355 -823 0
-356 -824 0
-353 -845 0
-354 -846 0
-355 -847 0
-356 -848 0
-353 -1045 0
-354 -1046 0
-355 -1047 0
-356 -1048 0
-357 -405 0
-358 -406 0
-359 -407 0
-360 -408 0
-357 -857 0
-358 -858 0
-359 -859 0
-360 -860 0
-357 -989 0
-358 -990 0
-359 -991 0
-360 -992 0
-357 -1045 0
-358 -1046 0
-359 -1047 0
-360 -1048 0
-357 -1061 0
-358 -1062 0
-359 -1063 0
-360 -1064 0
-361 -433 0
-362 -434 0
-363 -435 0
-364 -436 0
-361 -721 0
-362 -722 0
-363 -723 0
-364 -724 0
-361 -853 0
-362 -854 0
-363 -855 0
-364 -856 0
-361 -993 0
-362 -994 0
-363 -995 0
-364 -996 0
-365 -417 0
-366 -418 0
-367 -419 0
-368 -420 0
-365 -865 0
-366 -866 0
-367 -867 0
-368 -868 0
-365 -1153 0
-366 -1154 0
-367 -1155 0
-368 -1156 0
-369 -437 0
-370 -438 0
-371 -439 0
-372 -440 0
-369 -709 0
-370 -710 0
-371 -711 0
-372 -712 0
-369 -825 0
-370 -826 0
-371 -827 0
-372 -828 0
-369 -861 0
-370 -862 0
-371 -863 0
-372 -864 0
-369 -1049 0
-370 -1050 0
-371 -1051 0
-372 -1052 0
-373 -421 0
-374 -422 0
-375 -423 0
-376 -424 0
-373 -717 0
-374 -718 0
-375 -719 0
-376 -720 0
-373 -873 0
-374 -874 0
-375 -875 0
-376 -876 0
-373 -997 0
-374 -998 0
-375 -999 0
-376 -1000 0
-373 -1049 0
-374 -1050 0
-375 -1051 0
-376 -1052 0
-373 -1065 0
-374 -1066 0
-375 -1067 0
-376 -1068 0
-377 -401 0
-378 -402 0
-379 -403 0
-380 -404 0
-377 -869 0
-378 -870 0
-379 -871 0
-380 -872 0
-377 -1001 0
-378 -1002 0
-379 -1003 0
-380 -1004 0
-377 -1053 0
-378 -1054 0
-379 -1055 0
-380 -1056 0
-377 -1069 0
-378 -1070 0
-379 -1071 0
-380 -1072 0
-381 -933 0
-382 -934 0
-383 -935 0
-384 -936 0
-381 -965 0
-382 -966 0
-383 -967 0
-384 -968 0
-385 -469 0
-386 -470 0
-387 -471 0
-388 -472 0
-385 -505 0
-386 -506 0
-387 -507 0
-388 -508 0
-385 -793 0
-386 -794 0
-387 -795 0
-388 -796 0
-385 -801 0
-386 -802 0
-387 -803 0
-388 -804 0
-385 -1061 0
-386 -1062 0
-387 -1063 0
-388 -1064 0
-389 -501 0
-390 -502 0
-391 -503 0
-392 -504 0
-389 -537 0
-390 -538 0
-391 -539 0
-392 -540 0
-389 -809 0
-390 -810 0
-391 -811 0
-392 -812 0
-389 -817 0
-390 -818 0
-391 -819 0
-392 -820 0
-389 -1065 0
-390 -1066 0
-391 -1067 0
-392 -1068 0
-393 -449 0
-394 -450 0
-395 -451 0
-396 -452 0
-393 -509 0
-394 -510 0
-395 -511 0
-396 -512 0
-393 -813 0
-394 -814 0
-395 -815 0
-396 -816 0
-393 -1069 0
-394 -1070 0
-395 -1071 0
-396 -1072 0
-393 -1157 0
-394 -1158 0
-395 -1159 0
-396 -1160 0
-397 -545 0
-398 -546 0
-399 -547 0
-400 -548 0
-397 -577 0
-398 -578 0
-399 -579 0
-400 -580 0
-397 -737 0
-398 -738 0
-399 -739 0
-400 -740 0
-397 -817 0
-398 -818 0
-399 -819 0
-400 -820 0
-401 -549 0
-402 -550 0
-403 -551 0
-404 -552 0
-401 -581 0
-402 -582 0
-403 -583 0
-404 -584 0
-401 -785 0
-402 -786 0
-403 -787 0
-404 -788 0
-401 -985 0
-402 -986 0
-403 -987 0
-404 -988 0
-401 -1157 0
-402 -1158 0
-403 -1159 0
-404 -1160 0
-405 -541 0
-406 -542 0
-407 -543 0
-408 -544 0
-405 -553 0
-406 -554 0
-407 -555 0
-408 -556 0
-405 -753 0
-406 -754 0
-407 -755 0
-408 -756 0
-405 -793 0
-406 -794 0
-407 -795 0
-408 -796 0
-405 -981 0
-406 -982 0
-407 -983 0
-408 -984 0
-409 -557 0
-410 -558 0
-411 -559 0
-412 -560 0
-409 -733 0
-410 -734 0
-411 -735 0
-412 -736 0
-409 -797 0
-410 -798 0
-411 -799 0
-412 -800 0
-409 -1057 0
-410 -1058 0
-411 -1059 0
-412 -1060 0
-409 -1073 0
-410 -1074 0
-411 -1075 0
-412 -1076 0
-413 -545 0
-414 -546 0
-415 -547 0
-416 -548 0
-413 -561 0
-414 -562 0
-415 -563 0
-416 -564 0
-413 -761 0
-414 -762 0
-415 -763 0
-416 -764 0
-413 -1061 0
-414 -1062 0
-415 -1063 0
-416 -1064 0
-417 -549 0
-418 -550 0
-419 -551 0
-420 -552 0
-417 -565 0
-418 -566 0
-419 -567 0
-420 -568 0
-417 -741 0
-418 -742 0
-419 -743 0
-420 -744 0
-417 -789 0
-418 -790 0
-419 -791 0
-420 -792 0
-417 -993 0
-418 -994 0
-419 -995 0
-420 -996 0
-421 -553 0
-422 -554 0
-423 -555 0
-424 -556 0
-421 -569 0
-422 -570 0
-423 -571 0
-424 -572 0
-421 -773 0
-422 -774 0
-423 -775 0
-424 -776 0
-421 -809 0
-422 -810 0
-423 -811 0
-424 -812 0
-421 -989 0
-422 -990 0
-423 -991 0
-424 -992 0
-425 -557 0
-426 -558 0
-427 -559 0
-428 -560 0
-425 -573 0
-426 -574 0
-427 -575 0
-428 -576 0
-425 -757 0
-426 -758 0
-427 -759 0
-428 -760 0
-425 -813 0
-426 -814 0
-427 -815 0
-428 -816 0
-425 -1189 0
-426 -1190 0
-427 -1191 0
-428 -1192 0
-429 -561 0
-430 -562 0
-431 -563 0
-432 -564 0
-429 -577 0
-430 -578 0
-431 -579 0
-432 -580 0
-429 -781 0
-430 -782 0
-431 -783 0
-432 -784 0
-429 -801 0
-430 -802 0
-431 -803 0
-432 -804 0
-429 -1065 0
-430 -1066 0
-431 -1067 0
-432 -1068 0
-429 -1077 0
-430 -1078 0
-431 -1079 0
-432 -1080 0
-433 -565 0
-434 -566 0
-435 -567 0
-436 -568 0
-433 -581 0
-434 -582 0
-435 -583 0
-436 -584 0
-433 -765 0
-434 -766 0
-435 -767 0
-436 -768 0
-433 -805 0
-434 -806 0
-435 -807 0
-436 -808 0
-433 -1001 0
-434 -1002 0
-435 -1003 0
-436 -1004 0
-433 -1149 0
-434 -1150 0
-435 -1151 0
-436 -1152 0
-437 -541 0
-438 -542 0
-439 -543 0
-440 -544 0
-437 -569 0
-438 -570 0
-439 -571 0
-440 -572 0
-437 -729 0
-438 -730 0
-439 -731 0
-440 -732 0
-437 -997 0
-438 -998 0
-439 -999 0
-440 -1000 0
-437 -1185 0
-438 -1186 0
-439 -1187 0
-440 -1188 0
-441 -573 0
-442 -574 0
-443 -575 0
-444 -576 0
-441 -777 0
-442 -778 0
-443 -779 0
-444 -780 0
-441 -1069 0
-442 -1070 0
-443 -1071 0
-444 -1072 0
-445 -625 0
-446 -626 0
-447 -627 0
-448 -628 0
-445 -837 0
-446 -838 0
-447 -839 0
-448 -840 0
-445 -929 0
-446 -930 0
-447 -931 0
-448 -932 0
-445 -1053 0
-446 -1054 0
-447 -1055 0
-448 -1056 0
-449 -461 0
-450 -462 0
-451 -463 0
-452 -464 0
-449 -525 0
-450 -526 0
-451 -527 0
-452 -528 0
-449 -593 0
-450 -594 0
-451 -595 0
-452 -596 0
-449 -877 0
-450 -878 0
-451 -879 0
-452 -880 0
-449 -1009 0
-450 -1010 0
-451 -1011 0
-452 -1012 0
-449 -1081 0
-450 -1082 0
-451 -1083 0
-452 -1084 0
-449 -1085 0
-450 -1086 0
-451 -1087 0
-452 -1088 0
-453 -465 0
-454 -466 0
-455 -467 0
-456 -468 0
-453 -529 0
-454 -530 0
-455 -531 0
-456 -532 0
-453 -841 0
-454 -842 0
-455 -843 0
-456 -844 0
-453 -961 0
-454 -962 0
-455 -963 0
-456 -964 0
-453 -1013 0
-454 -1014 0
-455 -1015 0
-456 -1016 0
-453 -1085 0
-454 -1086 0
-455 -1087 0
-456 -1088 0
-453 -1137 0
-454 -1138 0
-455 -1139 0
-456 -1140 0
-453 -1165 0
-454 -1166 0
-455 -1167 0
-456 -1168 0
-457 -469 0
-458 -470 0
-459 -471 0
-460 -472 0
-457 -533 0
-458 -534 0
-459 -535 0
-460 -536 0
-457 -629 0
-458 -630 0
-459 -631 0
-460 -632 0
-457 -845 0
-458 -846 0
-459 -847 0
-460 -848 0
-457 -925 0
-458 -926 0
-459 -927 0
-460 -928 0
-457 -933 0
-458 -934 0
-459 -935 0
-460 -936 0
-457 -1005 0
-458 -1006 0
-459 -1007 0
-460 -1008 0
-457 -1017 0
-458 -1018 0
-459 -1019 0
-460 -1020 0
-457 -1113 0
-458 -1114 0
-459 -1115 0
-460 -1116 0
-457 -1129 0
-458 -1130 0
-459 -1131 0
-460 -1132 0
-461 -481 0
-462 -482 0
-463 -483 0
-464 -484 0
-461 -601 0
-462 -602 0
-463 -603 0
-464 -604 0
-461 -833 0
-462 -834 0
-463 -835 0
-464 -836 0
-461 -929 0
-462 -930 0
-463 -931 0
-464 -932 0
-461 -937 0
-462 -938 0
-463 -939 0
-464 -940 0
-461 -1009 0
-462 -1010 0
-463 -1011 0
-464 -1012 0
-461 -1041 0
-462 -1042 0
-463 -1043 0
-464 -1044 0
-461 -1117 0
-462 -1118 0
-463 -1119 0
-464 -1120 0
-461 -1141 0
-462 -1142 0
-463 -1143 0
-464 -1144 0
-465 -485 0
-466 -486 0
-467 -487 0
-468 -488 0
-465 -837 0
-466 -838 0
-467 -839 0
-468 -840 0
-465 -941 0
-466 -942 0
-467 -943 0
-468 -944 0
-465 -1013 0
-466 -1014 0
-467 -1015 0
-468 -1016 0
-465 -1073 0
-466 -1074 0
-467 -1075 0
-468 -1076 0
-465 -1089 0
-466 -1090 0
-467 -1091 0
-468 -1092 0
-465 -1133 0
-466 -1134 0
-467 -1135 0
-468 -1136 0
-469 -489 0
-470 -490 0
-471 -491 0
-472 -492 0
-469 -589 0
-470 -590 0
-471 -591 0
-472 -592 0
-469 -849 0
-470 -850 0
-471 -851 0
-472 -852 0
-469 -1017 0
-470 -1018 0
-471 -1019 0
-472 -1020 0
-469 -1089 0
-470 -1090 0
-471 -1091 0
-472 -1092 0
-469 -1165 0
-470 -1166 0
-471 -1167 0
-472 -1168 0
-469 -1201 0
-470 -1202 0
-471 -1203 0
-472 -1204 0
-473 -605 0
-474 -606 0
-475 -607 0
-476 -608 0
-473 -841 0
-474 -842 0
-475 -843 0
-476 -844 0
-473 -933 0
-474 -934 0
-475 -935 0
-476 -936 0
-473 -1045 0
-474 -1046 0
-475 -1047 0
-476 -1048 0
-477 -593 0
-478 -594 0
-479 -595 0
-480 -596 0
-477 -853 0
-478 -854 0
-479 -855 0
-480 -856 0
-477 -933 0
-478 -934 0
-479 -935 0
-480 -936 0
-477 -1041 0
-478 -1042 0
-479 -1043 0
-480 -1044 0
-477 -1197 0
-478 -1198 0
-479 -1199 0
-480 -1200 0
-477 -1201 0
-478 -1202 0
-479 -1203 0
-480 -1204 0
-481 -493 0
-482 -494 0
-483 -495 0
-484 -496 0
-481 -609 0
-482 -610 0
-483 -611 0
-484 -612 0
-481 -845 0
-482 -846 0
-483 -847 0
-484 -848 0
-481 -1021 0
-482 -1022 0
-483 -1023 0
-484 -1024 0
-481 -1073 0
-482 -1074 0
-483 -1075 0
-484 -1076 0
-481 -1093 0
-482 -1094 0
-483 -1095 0
-484 -1096 0
-481 -1169 0
-482 -1170 0
-483 -1171 0
-484 -1172 0
-485 -497 0
-486 -498 0
-487 -499 0
-488 -500 0
-485 -857 0
-486 -858 0
-487 -859 0
-488 -860 0
-485 -937 0
-486 -938 0
-487 -939 0
-488 -940 0
-485 -1093 0
-486 -1094 0
-487 -1095 0
-488 -1096 0
-485 -1173 0
-486 -1174 0
-487 -1175 0
-488 -1176 0
-489 -501 0
-490 -502 0
-491 -503 0
-492 -504 0
-489 -597 0
-490 -598 0
-491 -599 0
-492 -600 0
-489 -717 0
-490 -718 0
-491 -719 0
-492 -720 0
-489 -861 0
-490 -862 0
-491 -863 0
-492 -864 0
-489 -941 0
-490 -942 0
-491 -943 0
-492 -944 0
-489 -945 0
-490 -946 0
-491 -947 0
-492 -948 0
-489 -1045 0
-490 -1046 0
-491 -1047 0
-492 -1048 0
-489 -1117 0
-490 -1118 0
-491 -1119 0
-492 -1120 0
-489 -1137 0
-490 -1138 0
-491 -1139 0
-492 -1140 0
-493 -513 0
-494 -514 0
-495 -515 0
-496 -516 0
-493 -617 0
-494 -618 0
-495 -619 0
-496 -620 0
-493 -849 0
-494 -850 0
-495 -851 0
-496 -852 0
-493 -933 0
-494 -934 0
-495 -935 0
-496 -936 0
-493 -949 0
-494 -950 0
-495 -951 0
-496 -952 0
-493 -1021 0
-494 -1022 0
-495 -1023 0
-496 -1024 0
-493 -1025 0
-494 -1026 0
-495 -1027 0
-496 -1028 0
-493 -1121 0
-494 -1122 0
-495 -1123 0
-496 -1124 0
-493 -1145 0
-494 -1146 0
-495 -1147 0
-496 -1148 0
-493 -1181 0
-494 -1182 0
-495 -1183 0
-496 -1184 0
-497 -517 0
-498 -518 0
-499 -519 0
-500 -520 0
-497 -721 0
-498 -722 0
-499 -723 0
-500 -724 0
-497 -853 0
-498 -854 0
-499 -855 0
-500 -856 0
-497 -953 0
-498 -954 0
-499 -955 0
-500 -956 0
-497 -1029 0
-498 -1030 0
-499 -1031 0
-500 -1032 0
-497 -1097 0
-498 -1098 0
-499 -1099 0
-500 -1100 0
-497 -1141 0
-498 -1142 0
-499 -1143 0
-500 -1144 0
-497 -1169 0
-498 -1170 0
-499 -1171 0
-500 -1172 0
-497 -1189 0
-498 -1190 0
-499 -1191 0
-500 -1192 0
-501 -521 0
-502 -522 0
-503 -523 0
-504 -524 0
-501 -605 0
-502 -606 0
-503 -607 0
-504 -608 0
-501 -865 0
-502 -866 0
-503 -867 0
-504 -868 0
-501 -1033 0
-502 -1034 0
-503 -1035 0
-504 -1036 0
-501 -1077 0
-502 -1078 0
-503 -1079 0
-504 -1080 0
-501 -1097 0
-502 -1098 0
-503 -1099 0
-504 -1100 0
-501 -1125 0
-502 -1126 0
-503 -1127 0
-504 -1128 0
-501 -1173 0
-502 -1174 0
-503 -1175 0
-504 -1176 0
-505 -621 0
-506 -622 0
-507 -623 0
-508 -624 0
-505 -857 0
-506 -858 0
-507 -859 0
-508 -860 0
-505 -957 0
-506 -958 0
-507 -959 0
-508 -960 0
-505 -1049 0
-506 -1050 0
-507 -1051 0
-508 -1052 0
-509 -609 0
-510 -610 0
-511 -611 0
-512 -612 0
-509 -869 0
-510 -870 0
-511 -871 0
-512 -872 0
-509 -945 0
-510 -946 0
-511 -947 0
-512 -948 0
-513 -525 0
-514 -526 0
-515 -527 0
-516 -528 0
-513 -625 0
-514 -626 0
-515 -627 0
-516 -628 0
-513 -861 0
-514 -862 0
-515 -863 0
-516 -864 0
-513 -1025 0
-514 -1026 0
-515 -1027 0
-516 -1028 0
-513 -1101 0
-514 -1102 0
-515 -1103 0
-516 -1104 0
-513 -1125 0
-514 -1126 0
-515 -1127 0
-516 -1128 0
-513 -1177 0
-514 -1178 0
-515 -1179 0
-516 -1180 0
-513 -1189 0
-514 -1190 0
-515 -1191 0
-516 -1192 0
-517 -529 0
-518 -530 0
-519 -531 0
-520 -532 0
-517 -717 0
-518 -718 0
-519 -719 0
-520 -720 0
-517 -873 0
-518 -874 0
-519 -875 0
-520 -876 0
-517 -949 0
-518 -950 0
-519 -951 0
-520 -952 0
-517 -1029 0
-518 -1030 0
-519 -1031 0
-520 -1032 0
-517 -1077 0
-518 -1078 0
-519 -1079 0
-520 -1080 0
-517 -1101 0
-518 -1102 0
-519 -1103 0
-520 -1104 0
-517 -1129 0
-518 -1130 0
-519 -1131 0
-520 -1132 0
-517 -1161 0
-518 -1162 0
-519 -1163 0
-520 -1164 0
-521 -533 0
-522 -534 0
-523 -535 0
-524 -536 0
-521 -613 0
-522 -614 0
-523 -615 0
-524 -616 0
-521 -877 0
-522 -878 0
-523 -879 0
-524 -880 0
-521 -929 0
-522 -930 0
-523 -931 0
-524 -932 0
-521 -953 0
-522 -954 0
-523 -955 0
-524 -956 0
-521 -1033 0
-522 -1034 0
-523 -1035 0
-524 -1036 0
-521 -1037 0
-522 -1038 0
-523 -1039 0
-524 -1040 0
-521 -1049 0
-522 -1050 0
-523 -1051 0
-524 -1052 0
-521 -1121 0
-522 -1122 0
-523 -1123 0
-524 -1124 0
-521 -1197 0
-522 -1198 0
-523 -1199 0
-524 -1200 0
-525 -585 0
-526 -586 0
-527 -587 0
-528 -588 0
-525 -721 0
-526 -722 0
-527 -723 0
-528 -724 0
-525 -865 0
-526 -866 0
-527 -867 0
-528 -868 0
-525 -957 0
-526 -958 0
-527 -959 0
-528 -960 0
-525 -961 0
-526 -962 0
-527 -963 0
-528 -964 0
-525 -1053 0
-526 -1054 0
-527 -1055 0
-528 -1056 0
-525 -1113 0
-526 -1114 0
-527 -1115 0
-528 -1116 0
-525 -1133 0
-526 -1134 0
-527 -1135 0
-528 -1136 0
-529 -869 0
-530 -870 0
-531 -871 0
-532 -872 0
-529 -925 0
-530 -926 0
-531 -927 0
-532 -928 0
-529 -1105 0
-530 -1106 0
-531 -1107 0
-532 -1108 0
-529 -1145 0
-530 -1146 0
-531 -1147 0
-532 -1148 0
-529 -1177 0
-530 -1178 0
-531 -1179 0
-532 -1180 0
-533 -621 0
-534 -622 0
-535 -623 0
-536 -624 0
-533 -833 0
-534 -834 0
-535 -835 0
-536 -836 0
-533 -1005 0
-534 -1006 0
-535 -1007 0
-536 -1008 0
-533 -1037 0
-534 -1038 0
-535 -1039 0
-536 -1040 0
-533 -1105 0
-534 -1106 0
-535 -1107 0
-536 -1108 0
-533 -1161 0
-534 -1162 0
-535 -1163 0
-536 -1164 0
-537 -589 0
-538 -590 0
-539 -591 0
-540 -592 0
-537 -873 0
-538 -874 0
-539 -875 0
-540 -876 0
-537 -929 0
-538 -930 0
-539 -931 0
-540 -932 0
-537 -1081 0
-538 -1082 0
-539 -1083 0
-540 -1084 0
-537 -1181 0
-538 -1182 0
-539 -1183 0
-540 -1184 0
-541 -817 0
-542 -818 0
-543 -819 0
-544 -820 0
-541 -921 0
-542 -922 0
-543 -923 0
-544 -924 0
-541 -981 0
-542 -982 0
-543 -983 0
-544 -984 0
-541 -1081 0
-542 -1082 0
-543 -1083 0
-544 -1084 0
-545 -793 0
-546 -794 0
-547 -795 0
-548 -796 0
-545 -885 0
-546 -886 0
-547 -887 0
-548 -888 0
-545 -1089 0
-546 -1090 0
-547 -1091 0
-548 -1092 0
-549 -797 0
-550 -798 0
-551 -799 0
-552 -800 0
-549 -897 0
-550 -898 0
-551 -899 0
-552 -900 0
-549 -985 0
-550 -986 0
-551 -987 0
-552 -988 0
-549 -1201 0
-550 -1202 0
-551 -1203 0
-552 -1204 0
-553 -709 0
-554 -710 0
-555 -711 0
-556 -712 0
-553 -893 0
-554 -894 0
-555 -895 0
-556 -896 0
-553 -989 0
-554 -990 0
-555 -991 0
-556 -992 0
-557 -789 0
-558 -790 0
-559 -791 0
-560 -792 0
-557 -905 0
-558 -906 0
-559 -907 0
-560 -908 0
-557 -1093 0
-558 -1094 0
-559 -1095 0
-560 -1096 0
-561 -809 0
-562 -810 0
-563 -811 0
-564 -812 0
-561 -901 0
-562 -902 0
-563 -903 0
-564 -904 0
-561 -1097 0
-562 -1098 0
-563 -1099 0
-564 -1100 0
-561 -1109 0
-562 -1110 0
-563 -1111 0
-564 -1112 0
-565 -705 0
-566 -706 0
-567 -707 0
-568 -708 0
-565 -813 0
-566 -814 0
-567 -815 0
-568 -816 0
-565 -913 0
-566 -914 0
-567 -915 0
-568 -916 0
-565 -993 0
-566 -994 0
-567 -995 0
-568 -996 0
-569 -713 0
-570 -714 0
-571 -715 0
-572 -716 0
-569 -801 0
-570 -802 0
-571 -803 0
-572 -804 0
-569 -909 0
-570 -910 0
-571 -911 0
-572 -912 0
-569 -997 0
-570 -998 0
-571 -999 0
-572 -1000 0
-573 -805 0
-574 -806 0
-575 -807 0
-576 -808 0
-573 -1101 0
-574 -1102 0
-575 -1103 0
-576 -1104 0
-573 -1193 0
-574 -1194 0
-575 -1195 0
-576 -1196 0
-577 -917 0
-578 -918 0
-579 -919 0
-580 -920 0
-577 -1105 0
-578 -1106 0
-579 -1107 0
-580 -1108 0
-577 -1185 0
-578 -1186 0
-579 -1187 0
-580 -1188 0
-581 -881 0
-582 -882 0
-583 -883 0
-584 -884 0
-581 -1001 0
-582 -1002 0
-583 -1003 0
-584 -1004 0
-581 -1153 0
-582 -1154 0
-583 -1155 0
-584 -1156 0
-585 -645 0
-586 -646 0
-587 -647 0
-588 -648 0
-585 -697 0
-586 -698 0
-587 -699 0
-588 -700 0
-585 -1053 0
-586 -1054 0
-587 -1055 0
-588 -1056 0
-589 -633 0
-590 -634 0
-591 -635 0
-592 -636 0
-589 -653 0
-590 -654 0
-591 -655 0
-592 -656 0
-589 -1185 0
-590 -1186 0
-591 -1187 0
-592 -1188 0
-593 -637 0
-594 -638 0
-595 -639 0
-596 -640 0
-593 -657 0
-594 -658 0
-595 -659 0
-596 -660 0
-593 -789 0
-594 -790 0
-595 -791 0
-596 -792 0
-593 -1041 0
-594 -1042 0
-595 -1043 0
-596 -1044 0
-597 -645 0
-598 -646 0
-599 -647 0
-600 -648 0
-597 -665 0
-598 -666 0
-599 -667 0
-600 -668 0
-597 -1045 0
-598 -1046 0
-599 -1047 0
-600 -1048 0
-601 -649 0
-602 -650 0
-603 -651 0
-604 -652 0
-601 -669 0
-602 -670 0
-603 -671 0
-604 -672 0
-601 -1041 0
-602 -1042 0
-603 -1043 0
-604 -1044 0
-605 -657 0
-606 -658 0
-607 -659 0
-608 -660 0
-605 -677 0
-606 -678 0
-607 -679 0
-608 -680 0
-605 -793 0
-606 -794 0
-607 -795 0
-608 -796 0
-605 -801 0
-606 -802 0
-607 -803 0
-608 -804 0
-605 -969 0
-606 -970 0
-607 -971 0
-608 -972 0
-605 -1045 0
-606 -1046 0
-607 -1047 0
-608 -1048 0
-605 -1109 0
-606 -1110 0
-607 -1111 0
-608 -1112 0
-609 -661 0
-610 -662 0
-611 -663 0
-612 -664 0
-609 -681 0
-610 -682 0
-611 -683 0
-612 -684 0
-609 -797 0
-610 -798 0
-611 -799 0
-612 -800 0
-609 -805 0
-610 -806 0
-611 -807 0
-612 -808 0
-609 -965 0
-610 -966 0
-611 -967 0
-612 -968 0
-613 -669 0
-614 -670 0
-615 -671 0
-616 -672 0
-613 -689 0
-614 -690 0
-615 -691 0
-616 -692 0
-613 -1049 0
-614 -1050 0
-615 -1051 0
-616 -1052 0
-617 -673 0
-618 -674 0
-619 -675 0
-620 -676 0
-617 -693 0
-618 -694 0
-619 -695 0
-620 -696 0
-621 -681 0
-622 -682 0
-623 -683 0
-624 -684 0
-621 -701 0
-622 -702 0
-623 -703 0
-624 -704 0
-621 -809 0
-622 -810 0
-623 -811 0
-624 -812 0
-621 -817 0
-622 -818 0
-623 -819 0
-624 -820 0
-621 -977 0
-622 -978 0
-623 -979 0
-624 -980 0
-621 -1049 0
-622 -1050 0
-623 -1051 0
-624 -1052 0
-625 -633 0
-626 -634 0
-627 -635 0
-628 -636 0
-625 -685 0
-626 -686 0
-627 -687 0
-628 -688 0
-625 -813 0
-626 -814 0
-627 -815 0
-628 -816 0
-625 -973 0
-626 -974 0
-627 -975 0
-628 -976 0
-625 -1053 0
-626 -1054 0
-627 -1055 0
-628 -1056 0
-625 -1157 0
-626 -1158 0
-627 -1159 0
-628 -1160 0
-625 -1193 0
-626 -1194 0
-627 -1195 0
-628 -1196 0
-629 -641 0
-630 -642 0
-631 -643 0
-632 -644 0
-629 -693 0
-630 -694 0
-631 -695 0
-632 -696 0
-633 -733 0
-634 -734 0
-635 -735 0
-636 -736 0
-633 -781 0
-634 -782 0
-635 -783 0
-636 -784 0
-633 -885 0
-634 -886 0
-635 -887 0
-636 -888 0
-633 -1085 0
-634 -1086 0
-635 -1087 0
-636 -1088 0
-633 -1105 0
-634 -1106 0
-635 -1107 0
-636 -1108 0
-641 -1017 0
-642 -1018 0
-643 -1019 0
-644 -1020 0
-641 -1085 0
-642 -1086 0
-643 -1087 0
-644 -1088 0
-645 -729 0
-646 -730 0
-647 -731 0
-648 -732 0
-645 -741 0
-646 -742 0
-647 -743 0
-648 -744 0
-645 -881 0
-646 -882 0
-647 -883 0
-648 -884 0
-645 -893 0
-646 -894 0
-647 -895 0
-648 -896 0
-649 -749 0
-650 -750 0
-651 -751 0
-652 -752 0
-649 -1009 0
-650 -1010 0
-651 -1011 0
-652 -1012 0
-649 -1089 0
-650 -1090 0
-651 -1091 0
-652 -1092 0
-657 -737 0
-658 -738 0
-659 -739 0
-660 -740 0
-657 -757 0
-658 -758 0
-659 -759 0
-660 -760 0
-657 -889 0
-658 -890 0
-659 -891 0
-660 -892 0
-657 -901 0
-658 -902 0
-659 -903 0
-660 -904 0
-657 -1089 0
-658 -1090 0
-659 -1091 0
-660 -1092 0
-657 -1093 0
-658 -1094 0
-659 -1095 0
-660 -1096 0
-661 -1201 0
-662 -1202 0
-663 -1203 0
-664 -1204 0
-665 -745 0
-666 -746 0
-667 -747 0
-668 -748 0
-665 -1093 0
-666 -1094 0
-667 -1095 0
-668 -1096 0
-669 -753 0
-670 -754 0
-671 -755 0
-672 -756 0
-669 -765 0
-670 -766 0
-671 -767 0
-672 -768 0
-669 -897 0
-670 -898 0
-671 -899 0
-672 -900 0
-669 -909 0
-670 -910 0
-671 -911 0
-672 -912 0
-673 -1021 0
-674 -1022 0
-675 -1023 0
-676 -1024 0
-673 -1097 0
-674 -1098 0
-675 -1099 0
-676 -1100 0
-677 -1033 0
-678 -1034 0
-679 -1035 0
-680 -1036 0
-677 -1181 0
-678 -1182 0
-679 -1183 0
-680 -1184 0
-681 -761 0
-682 -762 0
-683 -763 0
-684 -764 0
-681 -777 0
-682 -778 0
-683 -779 0
-684 -780 0
-681 -905 0
-682 -906 0
-683 -907 0
-684 -908 0
-681 -917 0
-682 -918 0
-683 -919 0
-684 -920 0
-681 -1097 0
-682 -1098 0
-683 -1099 0
-684 -1100 0
-681 -1101 0
-682 -1102 0
-683 -1103 0
-684 -1104 0
-685 -1025 0
-686 -1026 0
-687 -1027 0
-688 -1028 0
-685 -1197 0
-686 -1198 0
-687 -1199 0
-688 -1200 0
-689 -769 0
-690 -770 0
-691 -771 0
-692 -772 0
-689 -1037 0
-690 -1038 0
-691 -1039 0
-692 -1040 0
-689 -1101 0
-690 -1102 0
-691 -1103 0
-692 -1104 0
-693 -773 0
-694 -774 0
-695 -775 0
-696 -776 0
-693 -785 0
-694 -786 0
-695 -787 0
-696 -788 0
-693 -913 0
-694 -914 0
-695 -915 0
-696 -916 0
-693 -921 0
-694 -922 0
-695 -923 0
-696 -924 0
-697 -725 0
-698 -726 0
-699 -727 0
-700 -728 0
-697 -1105 0
-698 -1106 0
-699 -1107 0
-700 -1108 0
-701 -1005 0
-702 -1006 0
-703 -1007 0
-704 -1008 0
-701 -1081 0
-702 -1082 0
-703 -1083 0
-704 -1084 0
-705 -945 0
-706 -946 0
-707 -947 0
-708 -948 0
-705 -1117 0
-706 -1118 0
-707 -1119 0
-708 -1120 0
-709 -933 0
-710 -934 0
-711 -935 0
-712 -936 0
-709 -1121 0
-710 -1122 0
-711 -1123 0
-712 -1124 0
-713 -957 0
-714 -958 0
-715 -959 0
-716 -960 0
-713 -1113 0
-714 -1114 0
-715 -1115 0
-716 -1116 0
-717 -821 0
-718 -822 0
-719 -823 0
-720 -824 0
-717 -913 0
-718 -914 0
-719 -915 0
-720 -916 0
-717 -1077 0
-718 -1078 0
-719 -1079 0
-720 -1080 0
-721 -829 0
-722 -830 0
-723 -831 0
-724 -832 0
-721 -909 0
-722 -910 0
-723 -911 0
-724 -912 0
-721 -1189 0
-722 -1190 0
-723 -1191 0
-724 -1192 0
-725 -837 0
-726 -838 0
-727 -839 0
-728 -840 0
-725 -929 0
-726 -930 0
-727 -931 0
-728 -932 0
-725 -1105 0
-726 -1106 0
-727 -1107 0
-728 -1108 0
-729 -877 0
-730 -878 0
-731 -879 0
-732 -880 0
-733 -845 0
-734 -846 0
-735 -847 0
-736 -848 0
-733 -925 0
-734 -926 0
-735 -927 0
-736 -928 0
-733 -1057 0
-734 -1058 0
-735 -1059 0
-736 -1060 0
-733 -1085 0
-734 -1086 0
-735 -1087 0
-736 -1088 0
-733 -1137 0
-734 -1138 0
-735 -1139 0
-736 -1140 0
-737 -833 0
-738 -834 0
-739 -835 0
-740 -836 0
-737 -937 0
-738 -938 0
-739 -939 0
-740 -940 0
-737 -1089 0
-738 -1090 0
-739 -1091 0
-740 -1092 0
-737 -1133 0
-738 -1134 0
-739 -1135 0
-740 -1136 0
-741 -849 0
-742 -850 0
-743 -851 0
-744 -852 0
-741 -1165 0
-742 -1166 0
-743 -1167 0
-744 -1168 0
-745 -841 0
-746 -842 0
-747 -843 0
-748 -844 0
-745 -933 0
-746 -934 0
-747 -935 0
-748 -936 0
-745 -1093 0
-746 -1094 0
-747 -1095 0
-748 -1096 0
-749 -853 0
-750 -854 0
-751 -855 0
-752 -856 0
-749 -933 0
-750 -934 0
-751 -935 0
-752 -936 0
-749 -1089 0
-750 -1090 0
-751 -1091 0
-752 -1092 0
-753 -821 0
-754 -822 0
-755 -823 0
-756 -824 0
-753 -845 0
-754 -846 0
-755 -847 0
-756 -848 0
-753 -1169 0
-754 -1170 0
-755 -1171 0
-756 -1172 0
-757 -861 0
-758 -862 0
-759 -863 0
-760 -864 0
-757 -941 0
-758 -942 0
-759 -943 0
-760 -944 0
-757 -1093 0
-758 -1094 0
-759 -1095 0
-760 -1096 0
-761 -849 0
-762 -850 0
-763 -851 0
-764 -852 0
-761 -949 0
-762 -950 0
-763 -951 0
-764 -952 0
-761 -1061 0
-762 -1062 0
-763 -1063 0
-764 -1064 0
-761 -1097 0
-762 -1098 0
-763 -1099 0
-764 -1100 0
-761 -1141 0
-762 -1142 0
-763 -1143 0
-764 -1144 0
-765 -865 0
-766 -866 0
-767 -867 0
-768 -868 0
-765 -1173 0
-766 -1174 0
-767 -1175 0
-768 -1176 0
-769 -857 0
-770 -858 0
-771 -859 0
-772 -860 0
-769 -957 0
-770 -958 0
-771 -959 0
-772 -960 0
-769 -1101 0
-770 -1102 0
-771 -1103 0
-772 -1104 0
-773 -825 0
-774 -826 0
-775 -827 0
-776 -828 0
-773 -861 0
-774 -862 0
-775 -863 0
-776 -864 0
-773 -1177 0
-774 -1178 0
-775 -1179 0
-776 -1180 0
-777 -877 0
-778 -878 0
-779 -879 0
-780 -880 0
-777 -953 0
-778 -954 0
-779 -955 0
-780 -956 0
-777 -1069 0
-778 -1070 0
-779 -1071 0
-780 -1072 0
-777 -1101 0
-778 -1102 0
-779 -1103 0
-780 -1104 0
-777 -1129 0
-778 -1130 0
-779 -1131 0
-780 -1132 0
-781 -865 0
-782 -866 0
-783 -867 0
-784 -868 0
-781 -961 0
-782 -962 0
-783 -963 0
-784 -964 0
-781 -1065 0
-782 -1066 0
-783 -1067 0
-784 -1068 0
-781 -1105 0
-782 -1106 0
-783 -1107 0
-784 -1108 0
-781 -1145 0
-782 -1146 0
-783 -1147 0
-784 -1148 0
-785 -829 0
-786 -830 0
-787 -831 0
-788 -832 0
-785 -833 0
-786 -834 0
-787 -835 0
-788 -836 0
-785 -1161 0
-786 -1162 0
-787 -1163 0
-788 -1164 0
-789 -965 0
-790 -966 0
-791 -967 0
-792 -968 0
-789 -1057 0
-790 -1058 0
-791 -1059 0
-792 -1060 0
-789 -1093 0
-790 -1094 0
-791 -1095 0
-792 -1096 0
-793 -1061 0
-794 -1062 0
-795 -1063 0
-796 -1064 0
-793 -1089 0
-794 -1090 0
-795 -1091 0
-796 -1092 0
-797 -1073 0
-798 -1074 0
-799 -1075 0
-800 -1076 0
-797 -1201 0
-798 -1202 0
-799 -1203 0
-800 -1204 0
-801 -821 0
-802 -822 0
-803 -823 0
-804 -824 0
-801 -1077 0
-802 -1078 0
-803 -1079 0
-804 -1080 0
-801 -1109 0
-802 -1110 0
-803 -1111 0
-804 -1112 0
-805 -973 0
-806 -974 0
-807 -975 0
-808 -976 0
-805 -1101 0
-806 -1102 0
-807 -1103 0
-808 -1104 0
-809 -969 0
-810 -970 0
-811 -971 0
-812 -972 0
-809 -1065 0
-810 -1066 0
-811 -1067 0
-812 -1068 0
-809 -1097 0
-810 -1098 0
-811 -1099 0
-812 -1100 0
-813 -829 0
-814 -830 0
-815 -831 0
-816 -832 0
-813 -1189 0
-814 -1190 0
-815 -1191 0
-816 -1192 0
-813 -1193 0
-814 -1194 0
-815 -1195 0
-816 -1196 0
-817 -825 0
-818 -826 0
-819 -827 0
-820 -828 0
-817 -1081 0
-818 -1082 0
-819 -1083 0
-820 -1084 0
-821 -1045 0
-822 -1046 0
-823 -1047 0
-824 -1048 0
-825 -1049 0
-826 -1050 0
-827 -1051 0
-828 -1052 0
-829 -1053 0
-830 -1054 0
-831 -1055 0
-832 -1056 0
-829 -1149 0
-830 -1150 0
-831 -1151 0
-832 -1152 0
-833 -961 0
-834 -962 0
-835 -963 0
-836 -964 0
-833 -985 0
-834 -986 0
-835 -987 0
-836 -988 0
-833 -1149 0
-834 -1150 0
-835 -1151 0
-836 -1152 0
-833 -1165 0
-834 -1166 0
-835 -1167 0
-836 -1168 0
-837 -925 0
-838 -926 0
-839 -927 0
-840 -928 0
-837 -933 0
-838 -934 0
-839 -935 0
-840 -936 0
-837 -1057 0
-838 -1058 0
-839 -1059 0
-840 -1060 0
-841 -929 0
-842 -930 0
-843 -931 0
-844 -932 0
-841 -937 0
-842 -938 0
-843 -939 0
-844 -940 0
-845 -941 0
-846 -942 0
-847 -943 0
-848 -944 0
-845 -981 0
-846 -982 0
-847 -983 0
-848 -984 0
-849 -937 0
-850 -938 0
-851 -939 0
-852 -940 0
-849 -993 0
-850 -994 0
-851 -995 0
-852 -996 0
-849 -1173 0
-850 -1174 0
-851 -1175 0
-852 -1176 0
-853 -941 0
-854 -942 0
-855 -943 0
-856 -944 0
-853 -945 0
-854 -946 0
-855 -947 0
-856 -948 0
-857 -933 0
-858 -934 0
-859 -935 0
-860 -936 0
-857 -949 0
-858 -950 0
-859 -951 0
-860 -952 0
-857 -1061 0
-858 -1062 0
-859 -1063 0
-860 -1064 0
-861 -953 0
-862 -954 0
-863 -955 0
-864 -956 0
-861 -989 0
-862 -990 0
-863 -991 0
-864 -992 0
-861 -1125 0
-862 -1126 0
-863 -1127 0
-864 -1128 0
-861 -1169 0
-862 -1170 0
-863 -1171 0
-864 -1172 0
-865 -949 0
-866 -950 0
-867 -951 0
-868 -952 0
-865 -1001 0
-866 -1002 0
-867 -1003 0
-868 -1004 0
-865 -1125 0
-866 -1126 0
-867 -1127 0
-868 -1128 0
-865 -1161 0
-866 -1162 0
-867 -1163 0
-868 -1164 0
-869 -929 0
-870 -930 0
-871 -931 0
-872 -932 0
-869 -953 0
-870 -954 0
-871 -955 0
-872 -956 0
-869 -1069 0
-870 -1070 0
-871 -1071 0
-872 -1072 0
-873 -957 0
-874 -958 0
-875 -959 0
-876 -960 0
-873 -961 0
-874 -962 0
-875 -963 0
-876 -964 0
-873 -1065 0
-874 -1066 0
-875 -1067 0
-876 -1068 0
-877 -925 0
-878 -926 0
-879 -927 0
-880 -928 0
-877 -997 0
-878 -998 0
-879 -999 0
-880 -1000 0
-877 -1177 0
-878 -1178 0
-879 -1179 0
-880 -1180 0
-881 -921 0
-882 -922 0
-883 -923 0
-884 -924 0
-881 -981 0
-882 -982 0
-883 -983 0
-884 -984 0
-885 -889 0
-886 -890 0
-887 -891 0
-888 -892 0
-889 -1073 0
-890 -1074 0
-891 -1075 0
-892 -1076 0
-893 -897 0
-894 -898 0
-895 -899 0
-896 -900 0
-893 -985 0
-894 -986 0
-895 -987 0
-896 -988 0
-897 -989 0
-898 -990 0
-899 -991 0
-900 -992 0
-901 -905 0
-902 -906 0
-903 -907 0
-904 -908 0
-901 -1109 0
-902 -1110 0
-903 -1111 0
-904 -1112 0
-905 -1189 0
-906 -1190 0
-907 -1191 0
-908 -1192 0
-909 -913 0
-910 -914 0
-911 -915 0
-912 -916 0
-909 -993 0
-910 -994 0
-911 -995 0
-912 -996 0
-913 -997 0
-914 -998 0
-915 -999 0
-916 -1000 0
-917 -1077 0
-918 -1078 0
-919 -1079 0
-920 -1080 0
-921 -1001 0
-922 -1002 0
-923 -1003 0
-924 -1004 0
-925 -1009 0
-926 -1010 0
-927 -1011 0
-928 -1012 0
-925 -1105 0
-926 -1106 0
-927 -1107 0
-928 -1108 0
-925 -1129 0
-926 -1130 0
-927 -1131 0
-928 -1132 0
-929 -1081 0
-930 -1082 0
-931 -1083 0
-932 -1084 0
-929 -1153 0
-930 -1154 0
-931 -1155 0
-932 -1156 0
-933 -1201 0
-934 -1202 0
-935 -1203 0
-936 -1204 0
-937 -1017 0
-938 -1018 0
-939 -1019 0
-940 -1020 0
-937 -1093 0
-938 -1094 0
-939 -1095 0
-940 -1096 0
-937 -1141 0
-938 -1142 0
-939 -1143 0
-940 -1144 0
-941 -1021 0
-942 -1022 0
-943 -1023 0
-944 -1024 0
-941 -1089 0
-942 -1090 0
-943 -1091 0
-944 -1092 0
-941 -1137 0
-942 -1138 0
-943 -1139 0
-944 -1140 0
-945 -1029 0
-946 -1030 0
-947 -1031 0
-948 -1032 0
-949 -1101 0
-950 -1102 0
-951 -1103 0
-952 -1104 0
-949 -1145 0
-950 -1146 0
-951 -1147 0
-952 -1148 0
-953 -1097 0
-954 -1098 0
-955 -1099 0
-956 -1100 0
-957 -1029 0
-958 -1030 0
-959 -1031 0
-960 -1032 0
-961 -1037 0
-962 -1038 0
-963 -1039 0
-964 -1040 0
-961 -1085 0
-962 -1086 0
-963 -1087 0
-964 -1088 0
-961 -1133 0
-962 -1134 0
-963 -1135 0
-964 -1136 0
-965 -993 0
-966 -994 0
-967 -995 0
-968 -996 0
-969 -989 0
-970 -990 0
-971 -991 0
-972 -992 0
-969 -1125 0
-970 -1126 0
-971 -1127 0
-972 -1128 0
-973 -1001 0
-974 -1002 0
-975 -1003 0
-976 -1004 0
-973 -1125 0
-974 -1126 0
-975 -1127 0
-976 -1128 0
-977 -997 0
-978 -998 0
-979 -999 0
-980 -1000 0
-977 -1185 0
-978 -1186 0
-979 -1187 0
-980 -1188 0
-985 -1041 0
-986 -1042 0
-987 -1043 0
-988 -1044 0
-989 -1045 0
-990 -1046 0
-991 -1047 0
-992 -1048 0
-997 -1049 0
-998 -1050 0
-999 -1051 0
-1000 -1052 0
-1001 -1053 0
-1002 -1054 0
-1003 -1055 0
-1004 -1056 0
-1005 -1133 0
-1006 -1134 0
-1007 -1135 0
-1008 -1136 0
-1009 -1017 0
-1010 -1018 0
-1011 -1019 0
-1012 -1020 0
-1025 -1033 0
-1026 -1034 0
-1027 -1035 0
-1028 -1036 0
-1025 -1173 0
-1026 -1174 0
-1027 -1175 0
-1028 -1176 0
-1033 -1145 0
-1034 -1146 0
-1035 -1147 0
-1036 -1148 0
-1033 -1177 0
-1034 -1178 0
-1035 -1179 0
-1036 -1180 0
-1053 -1149 0
-1054 -1150 0
-1055 -1151 0
-1056 -1152 0
-1057 -1073 0
-1058 -1074 0
-1059 -1075 0
-1060 -1076 0
-1061 -1109 0
-1062 -1110 0
-1063 -1111 0
-1064 -1112 0
-1065 -1077 0
-1066 -1078 0
-1067 -1079 0
-1068 -1080 0
-1069 -1157 0
-1070 -1158 0
-1071 -1159 0
-1072 -1160 0
-1069 -1193 0
-1070 -1194 0
-1071 -1195 0
-1072 -1196 0
-1073 -1093 0
-1074 -1094 0
-1075 -1095 0
-1076 -1096 0
-1077 -1097 0
-1078 -1098 0
-1079 -1099 0
-1080 -1100 0
-1085 -1157 0
-1086 -1158 0
-1087 -1159 0
-1088 -1160 0
-1089 -1165 0
-1090 -1166 0
-1091 -1167 0
-1092 -1168 0
-1093 -1169 0
-1094 -1170 0
-1095 -1171 0
-1096 -1172 0
-1097 -1109 0
-1098 -1110 0
-1099 -1111 0
-1100 -1112 0
-1097 -1173 0
-1098 -1174 0
-1099 -1175 0
-1100 -1176 0
-1101 -1177 0
-1102 -1178 0
-1103 -1179 0
-1104 -1180 0
-1101 -1189 0
-1102 -1190 0
-1103 -1191 0
-1104 -1192 0
-1101 -1193 0
-1102 -1194 0
-1103 -1195 0
-1104 -1196 0
-1105 -1161 0
-1106 -1162 0
-1107 -1163 0
-1108 -1164 0
-1105 -1185 0
-1106 -1186 0
-1107 -1187 0
-1108 -1188 0
-1121 -1153 0
-1122 -1154 0
-1123 -1155 0
-1124 -1156 0
-1129 -1161 0
-1130 -1162 0
-1131 -1163 0
-1132 -1164 0
-1137 -1165 0
-1138 -1166 0
-1139 -1167 0
-1140 -1168 0
-1141 -1169 0
-1142 -1170 0
-1143 -1171 0
-1144 -1172 0
-1145 -1177 0
-1146 -1178 0
-1147 -1179 0
-1148 -1180 0
1 0
450 0
527 0
