40 397
0 1
0 5
0 7
0 9
0 10
0 12
0 15
0 16
0 17
0 18
0 21
0 23
0 24
0 25
0 26
0 29
0 33
0 37
0 39
1 2
1 3
1 6
1 9
1 10
1 11
1 12
1 15
1 17
1 18
1 19
1 21
1 23
1 25
1 26
1 28
1 30
1 35
1 37
1 39
2 3
2 4
2 7
2 11
2 12
2 13
2 14
2 16
2 18
2 19
2 20
2 22
2 24
2 26
2 27
2 29
2 31
2 34
2 35
2 37
3 4
3 8
3 10
3 12
3 13
3 15
3 17
3 19
3 20
3 21
3 23
3 25
3 26
3 27
3 28
3 32
3 37
3 39
4 5
4 9
4 11
4 13
4 14
4 16
4 18
4 20
4 21
4 22
4 24
4 27
4 28
4 29
4 30
4 33
4 35
4 37
4 39
5 6
5 10
5 13
5 14
5 15
5 16
5 18
5 21
5 22
5 23
5 24
5 27
5 29
5 30
5 32
5 35
5 37
6 7
6 8
6 12
6 14
6 16
6 17
6 18
6 21
6 23
6 24
6 25
6 27
6 29
6 30
6 31
6 32
6 35
6 36
6 37
7 8
7 9
7 13
7 15
7 17
7 18
7 19
7 20
7 22
7 24
7 25
7 26
7 28
7 31
7 32
7 33
7 35
7 38
8 9
8 16
8 18
8 19
8 21
8 23
8 25
8 26
8 27
8 29
8 30
8 32
8 33
8 34
8 35
8 36
8 37
8 39
9 10
9 14
9 17
9 19
9 20
9 22
9 24
9 26
9 27
9 28
9 31
9 33
9 35
9 36
9 37
10 11
10 12
10 16
10 19
10 20
10 21
10 22
10 24
10 27
10 28
10 29
10 31
10 33
10 34
10 35
11 12
11 13
11 17
11 21
11 22
11 23
11 25
11 26
11 28
11 29
11 30
11 32
11 34
11 36
11 37
11 38
12 13
12 18
12 20
12 22
12 23
12 24
12 27
12 29
12 30
12 31
12 33
12 35
12 39
13 14
13 19
13 21
13 23
13 24
13 25
13 26
13 28
13 30
13 31
13 32
13 34
13 36
14 15
14 16
14 20
14 23
14 25
14 26
14 28
14 31
14 32
14 33
14 34
14 35
14 36
15 16
15 17
15 21
15 24
15 26
15 27
15 29
15 30
15 32
15 33
15 35
15 36
15 38
15 39
16 17
16 18
16 22
16 25
16 26
16 27
16 28
16 31
16 33
16 34
16 36
16 38
17 18
17 19
17 23
17 27
17 28
17 29
17 30
17 32
17 34
17 35
17 36
17 38
18 19
18 24
18 26
18 28
18 29
18 31
18 33
18 34
18 37
19 20
19 25
19 27
19 29
19 30
19 32
19 34
19 36
19 38
20 21
20 22
20 26
20 29
20 30
20 31
20 32
20 34
20 36
20 38
21 22
21 23
21 27
21 31
21 32
21 33
21 37
22 23
22 24
22 28
22 30
22 32
22 33
22 34
22 36
22 38
22 39
23 24
23 25
23 29
23 31
23 33
23 36
23 38
24 25
24 32
24 34
24 35
24 36
24 38
24 39
25 26
25 30
25 33
25 34
25 38
25 39
26 27
26 28
26 32
26 38
27 28
27 29
27 33
27 34
27 35
27 39
28 29
28 36
28 37
28 38
29 30
29 39
30 31
30 32
30 37
30 38
30 39
31 32
31 33
31 35
31 37
31 38
31 39
32 33
32 36
32 39
33 37
33 38
33 39
34 35
34 36
34 38
35 36
35 37
35 39
37 39
38 39
