p cnf 303 12824
24 0
25 0
26 0
27 0
28 0
29 0
30 0
31 0
32 0
33 0
34 0
35 0
57 0
59 0
61 0
103 0
105 0
107 0
108 0
109 0
110 0
111 0
112 0
113 0
114 0
115 0
116 0
117 0
118 0
119 0
8 94 0
10 19 0
10 136 0
12 16 0
12 145 0
14 20 0
14 155 0
15 150 0
16 46 0
19 45 0
20 50 0
21 43 0
21 69 0
22 41 0
22 66 0
39 62 0
39 86 0
39 98 0
39 124 0
39 142 0
39 143 0
40 64 0
40 88 0
41 65 0
41 89 0
41 127 0
41 147 0
41 163 0
42 67 0
43 70 0
43 132 0
43 137 0
43 149 0
44 53 0
44 72 0
44 80 0
44 95 0
44 97 0
45 48 0
45 90 0
45 127 0
46 97 0
46 124 0
47 50 0
47 67 0
47 90 0
47 139 0
48 64 0
48 87 0
48 89 0
48 138 0
49 94 0
49 131 0
49 145 0
50 89 0
50 91 0
50 128 0
51 71 0
51 146 0
52 68 0
52 84 0
53 86 0
53 96 0
53 135 0
53 155 0
54 93 0
54 95 0
54 132 0
54 136 0
55 63 0
55 150 0
56 95 0
56 125 0
56 134 0
58 92 0
58 126 0
58 129 0
60 91 0
60 130 0
60 133 0
62 86 0
62 102 0
63 87 0
63 88 0
63 151 0
63 158 0
64 88 0
64 121 0
65 89 0
65 104 0
66 89 0
66 90 0
66 104 0
66 147 0
67 91 0
67 164 0
68 92 0
68 141 0
68 157 0
69 93 0
69 106 0
69 137 0
70 94 0
70 106 0
71 93 0
71 95 0
71 96 0
71 122 0
71 168 0
72 96 0
72 120 0
72 153 0
73 86 0
73 97 0
73 102 0
73 142 0
73 143 0
78 96 0
82 122 0
82 130 0
86 97 0
86 120 0
86 125 0
86 134 0
86 282 0
87 127 0
87 227 0
88 104 0
88 124 0
88 196 0
88 230 0
89 90 0
89 129 0
89 177 0
89 222 0
89 291 0
90 157 0
90 223 0
90 289 0
91 92 0
91 104 0
91 131 0
91 263 0
91 303 0
92 128 0
92 296 0
93 94 0
93 122 0
93 130 0
93 133 0
93 236 0
93 281 0
94 179 0
94 272 0
95 96 0
95 135 0
95 242 0
96 123 0
96 132 0
96 135 0
96 186 0
96 187 0
97 125 0
97 174 0
97 231 0
98 151 0
99 147 0
99 164 0
100 137 0
100 141 0
101 120 0
101 142 0
120 134 0
120 144 0
120 151 0
121 126 0
121 163 0
121 164 0
122 133 0
122 141 0
122 149 0
123 132 0
124 162 0
125 144 0
125 151 0
127 174 0
128 147 0
128 173 0
129 164 0
130 141 0
131 137 0
131 177 0
135 142 0
135 148 0
1 21 100 0
2 101 143 0
3 92 246 0
4 163 217 0
4 163 295 0
4 228 295 0
5 56 215 0
5 190 215 0
5 195 215 0
6 137 214 0
6 149 214 0
6 194 214 0
6 214 245 0
7 128 229 0
7 147 226 0
7 226 229 0
7 226 301 0
8 51 54 0
8 56 180 0
8 106 154 0
8 146 207 0
8 180 193 0
9 149 181 0
9 192 232 0
9 232 238 0
10 48 164 0
10 48 278 0
10 82 159 0
10 140 159 0
11 36 80 0
11 80 172 0
11 80 248 0
11 139 205 0
11 139 297 0
12 85 154 0
13 138 225 0
13 138 298 0
13 146 204 0
13 146 247 0
14 44 239 0
14 47 277 0
14 81 160 0
14 144 160 0
15 38 84 0
15 84 254 0
15 84 268 0
16 21 100 0
16 85 134 0
16 85 151 0
16 125 169 0
16 134 169 0
17 22 104 0
17 47 65 0
17 47 176 0
17 48 126 0
17 65 66 0
17 104 147 0
17 139 147 0
17 147 294 0
18 44 176 0
18 62 80 0
18 62 201 0
18 80 142 0
18 86 142 0
18 142 201 0
19 75 172 0
19 129 140 0
20 81 126 0
21 51 218 0
21 92 173 0
22 48 218 0
22 99 155 0
22 99 204 0
23 51 133 0
23 52 165 0
23 69 70 0
23 70 84 0
23 70 183 0
23 137 183 0
39 73 167 0
39 102 215 0
40 73 125 0
40 73 126 0
41 66 178 0
41 104 295 0
42 70 129 0
42 70 130 0
43 69 152 0
43 106 232 0
45 65 81 0
45 140 159 0
46 55 160 0
46 55 261 0
46 85 154 0
46 86 153 0
47 65 178 0
47 66 178 0
48 58 161 0
49 52 159 0
49 52 260 0
49 69 82 0
49 83 154 0
50 66 140 0
50 81 160 0
50 90 300 0
51 54 70 0
51 54 154 0
51 54 262 0
52 70 152 0
53 97 253 0
53 144 160 0
54 82 159 0
54 106 152 0
55 143 165 0
56 85 144 0
56 85 151 0
56 120 181 0
56 151 217 0
58 121 140 0
58 121 284 0
58 164 219 0
60 82 83 0
60 83 141 0
60 122 233 0
60 141 216 0
62 80 167 0
62 129 162 0
62 133 168 0
62 134 168 0
62 167 201 0
63 81 176 0
63 176 225 0
64 81 176 0
64 176 225 0
65 129 157 0
65 129 162 0
65 130 157 0
65 139 178 0
65 178 294 0
66 125 158 0
66 126 158 0
66 139 178 0
66 178 294 0
68 91 106 0
69 84 152 0
69 126 177 0
69 133 173 0
69 134 153 0
69 152 183 0
70 84 152 0
70 123 125 0
70 152 183 0
71 79 194 0
73 80 167 0
73 130 148 0
73 167 201 0
74 123 150 0
75 174 178 0
75 182 217 0
75 193 217 0
76 106 216 0
76 141 216 0
76 216 238 0
77 219 228 0
77 219 302 0
79 95 253 0
79 149 180 0
79 194 233 0
79 233 245 0
81 126 129 0
81 126 220 0
81 164 220 0
82 100 150 0
82 100 241 0
83 130 133 0
83 133 145 0
83 133 269 0
83 141 145 0
83 141 269 0
85 125 134 0
85 134 206 0
85 151 206 0
86 133 237 0
86 153 180 0
86 162 217 0
87 160 249 0
87 162 278 0
87 164 288 0
87 174 288 0
87 249 261 0
87 278 299 0
87 283 299 0
88 278 288 0
88 278 299 0
89 174 215 0
90 139 147 0
90 139 163 0
90 173 214 0
91 137 194 0
91 137 245 0
91 177 264 0
92 147 229 0
92 147 301 0
93 154 235 0
93 168 181 0
93 168 232 0
93 177 216 0
94 141 269 0
94 157 214 0
95 142 193 0
95 148 189 0
95 153 168 0
95 154 185 0
95 168 240 0
95 185 262 0
95 234 253 0
95 239 253 0
96 235 262 0
97 158 284 0
97 172 273 0
97 176 273 0
97 178 273 0
98 144 184 0
102 142 180 0
104 147 226 0
106 137 214 0
120 125 169 0
121 140 283 0
122 130 156 0
123 135 154 0
125 169 206 0
126 129 140 0
129 140 283 0
130 145 156 0
130 156 269 0
132 154 189 0
133 145 156 0
133 156 269 0
134 169 206 0
135 154 189 0
1 21 106 214 0
1 23 123 148 0
1 69 162 174 0
2 14 65 81 0
2 18 162 174 0
2 50 65 81 0
2 102 143 180 0
3 21 173 177 0
3 23 106 232 0
3 23 149 183 0
4 144 295 302 0
4 150 174 184 0
4 153 162 168 0
4 158 169 280 0
4 197 295 302 0
5 62 174 190 0
5 172 173 177 0
5 173 174 177 0
5 173 177 258 0
6 42 161 277 0
6 147 159 287 0
7 45 171 198 0
7 106 159 264 0
7 137 159 264 0
7 145 153 168 0
7 163 177 226 0
8 156 168 244 0
8 180 182 273 0
9 80 189 271 0
9 153 196 217 0
11 17 176 297 0
11 50 52 300 0
11 139 176 292 0
13 22 218 225 0
13 22 218 298 0
14 47 157 220 0
16 74 205 225 0
16 132 145 189 0
17 104 136 163 0
17 104 136 295 0
17 104 163 172 0
17 104 172 295 0
17 127 160 288 0
17 136 139 163 0
17 136 163 294 0
17 139 163 172 0
17 160 162 174 0
17 162 174 204 0
17 162 174 255 0
17 163 172 294 0
18 53 162 174 0
18 98 201 205 0
18 102 205 215 0
18 124 160 265 0
18 127 160 265 0
18 160 162 174 0
19 23 106 149 0
19 99 140 221 0
19 101 143 175 0
19 126 161 220 0
20 76 204 268 0
20 126 161 164 0
21 22 128 159 0
21 22 131 159 0
21 100 255 258 0
21 128 159 264 0
21 131 159 264 0
21 159 173 177 0
22 104 204 226 0
22 159 173 177 0
22 172 173 177 0
22 173 177 258 0
23 51 132 154 0
23 84 145 149 0
23 123 148 154 0
23 123 148 175 0
23 123 150 175 0
23 145 149 183 0
40 73 158 163 0
40 79 158 171 0
40 81 155 175 0
40 81 158 175 0
40 81 158 176 0
40 81 158 221 0
40 101 149 158 0
40 144 158 171 0
40 144 158 176 0
40 144 158 271 0
42 51 82 157 0
42 68 82 218 0
42 78 157 168 0
42 78 157 202 0
42 82 157 202 0
42 82 157 207 0
42 140 157 218 0
42 140 157 275 0
42 140 157 286 0
43 69 82 83 0
44 134 150 202 0
45 50 288 300 0
45 104 140 288 0
46 102 167 265 0
48 75 173 177 0
48 77 143 224 0
48 77 202 224 0
48 126 139 258 0
49 69 136 255 0
49 106 152 264 0
49 133 156 205 0
50 76 164 218 0
50 104 178 287 0
51 60 156 240 0
52 60 156 292 0
52 130 146 175 0
53 54 253 262 0
53 102 167 189 0
55 56 81 169 0
55 56 169 225 0
55 78 188 255 0
56 63 144 184 0
56 84 144 217 0
56 85 150 181 0
56 85 181 271 0
56 144 184 217 0
58 81 139 163 0
58 81 139 284 0
58 81 163 286 0
58 81 284 286 0
58 138 140 219 0
58 140 219 221 0
60 82 146 216 0
60 82 216 241 0
62 149 153 168 0
63 80 139 225 0
64 80 139 225 0
65 81 139 140 0
66 123 148 204 0
67 68 136 198 0
67 82 218 292 0
67 140 157 218 0
67 140 218 268 0
67 157 218 292 0
67 218 268 292 0
68 218 268 292 0
70 82 83 183 0
71 72 145 200 0
71 83 153 165 0
71 85 165 239 0
71 153 165 239 0
71 165 239 240 0
72 78 195 244 0
72 165 168 240 0
72 165 239 240 0
74 162 187 233 0
74 163 215 225 0
74 163 225 284 0
74 229 284 285 0
74 284 285 301 0
75 138 173 177 0
76 127 139 173 0
76 139 173 178 0
76 149 168 216 0
76 173 178 300 0
77 141 218 279 0
77 152 177 250 0
78 101 232 240 0
78 123 219 246 0
78 168 173 177 0
78 181 190 240 0
78 181 195 240 0
78 181 195 244 0
79 133 153 245 0
79 148 167 201 0
79 148 167 253 0
79 153 162 174 0
80 99 140 283 0
80 124 127 293 0
81 139 163 220 0
81 146 163 220 0
81 163 220 286 0
82 100 175 275 0
83 106 154 189 0
83 138 145 149 0
83 138 149 269 0
83 145 149 207 0
83 149 207 269 0
83 153 165 168 0
83 153 168 241 0
83 153 168 255 0
85 101 206 271 0
85 153 165 168 0
85 153 168 184 0
85 153 168 258 0
86 189 201 234 0
86 213 237 239 0
86 261 265 280 0
87 139 162 170 0
87 151 193 261 0
88 251 261 280 0
90 147 172 294 0
91 149 164 184 0
92 156 246 260 0
92 157 219 292 0
93 137 166 183 0
93 150 166 204 0
93 154 240 244 0
93 240 244 262 0
93 250 260 279 0
96 120 169 195 0
97 151 154 206 0
97 158 172 215 0
98 123 148 163 0
98 144 146 175 0
98 144 175 275 0
98 153 163 168 0
98 163 173 177 0
99 100 153 168 0
99 133 173 177 0
99 138 140 283 0
99 140 221 283 0
100 126 173 177 0
101 149 162 174 0
101 149 173 177 0
121 129 161 283 0
123 125 148 149 0
123 143 148 154 0
123 143 148 205 0
123 143 148 275 0
124 160 174 288 0
124 160 265 288 0
126 161 164 220 0
126 161 220 283 0
127 160 162 265 0
127 160 265 288 0
128 159 177 264 0
128 159 264 287 0
129 161 220 283 0
131 159 264 287 0
132 135 150 166 0
134 162 163 174 0
2 18 139 162 265 0
2 55 153 162 168 0
2 73 146 173 287 0
3 52 70 162 174 0
3 52 153 168 177 0
4 138 143 162 163 0
4 165 173 177 240 0
5 10 270 286 293 0
5 22 218 286 288 0
5 41 174 223 301 0
5 41 193 273 288 0
5 188 195 221 284 0
6 147 192 272 300 0
6 162 174 204 228 0
7 137 159 192 219 0
7 137 159 238 250 0
8 142 143 180 212 0
8 142 145 160 180 0
8 142 160 162 180 0
8 163 180 182 217 0
8 168 216 235 263 0
8 180 182 188 220 0
11 14 277 298 300 0
12 52 156 159 279 0
12 52 156 260 279 0
13 54 211 262 297 0
15 140 143 164 165 0
16 83 168 240 255 0
16 85 168 184 266 0
16 85 168 258 266 0
17 40 58 176 283 0
17 50 163 174 226 0
17 80 124 255 288 0
17 80 174 255 288 0
17 85 139 162 204 0
17 104 145 163 202 0
17 139 160 162 170 0
17 139 162 170 204 0
17 139 162 170 255 0
17 139 163 202 275 0
18 56 176 225 280 0
18 142 162 174 202 0
18 162 174 202 267 0
19 22 106 177 232 0
19 23 140 157 275 0
19 82 157 202 292 0
19 106 138 177 181 0
19 140 157 208 218 0
19 140 157 208 275 0
19 140 157 208 286 0
20 65 140 275 294 0
20 81 158 176 270 0
20 81 158 221 270 0
20 81 163 171 258 0
20 144 158 225 271 0
21 52 153 168 177 0
21 138 159 177 264 0
21 146 159 173 224 0
21 171 173 177 203 0
22 42 58 218 268 0
22 58 140 218 268 0
22 83 138 177 258 0
22 131 146 172 287 0
22 136 144 173 177 0
22 138 159 177 197 0
22 138 172 177 197 0
22 146 172 173 287 0
22 146 173 258 287 0
23 56 145 153 217 0
23 56 145 153 295 0
23 84 137 162 174 0
23 84 148 175 188 0
23 102 145 148 167 0
23 106 132 202 275 0
23 149 183 202 275 0
38 50 126 161 164 0
38 54 154 239 253 0
40 44 148 158 205 0
40 44 155 188 205 0
40 47 81 163 219 0
40 73 155 163 255 0
40 133 138 158 269 0
40 133 158 207 269 0
40 144 155 171 199 0
40 144 155 176 199 0
40 144 155 199 271 0
42 58 70 157 219 0
42 79 157 160 162 0
42 82 136 140 218 0
42 82 136 198 218 0
42 134 157 206 271 0
42 136 140 218 268 0
42 136 140 268 275 0
42 136 140 268 286 0
42 138 140 146 157 0
44 71 209 239 247 0
45 50 212 299 300 0
46 123 148 158 271 0
46 123 150 158 271 0
49 123 148 157 207 0
51 60 153 156 244 0
52 83 149 168 226 0
52 130 151 219 263 0
53 153 162 174 184 0
54 168 173 177 241 0
56 69 153 168 181 0
56 84 145 153 217 0
56 85 143 165 239 0
56 143 153 165 239 0
56 143 165 239 240 0
58 140 143 150 219 0
58 140 143 170 219 0
58 140 150 202 219 0
58 140 202 219 255 0
60 80 82 216 275 0
62 145 173 177 201 0
62 173 177 201 205 0
66 123 150 166 204 0
66 134 137 179 245 0
67 138 140 146 157 0
67 138 140 146 268 0
67 138 146 157 292 0
67 138 146 268 292 0
68 82 138 146 292 0
68 140 154 218 268 0
70 73 147 155 232 0
70 82 145 183 202 0
74 149 151 162 180 0
74 151 176 195 295 0
74 280 284 298 301 0
75 144 151 217 226 0
76 146 164 219 268 0
76 149 163 216 217 0
76 164 214 218 277 0
77 138 140 141 216 0
77 140 141 218 238 0
77 140 145 199 214 0
77 141 204 218 292 0
77 163 164 219 292 0
78 134 168 195 244 0
78 146 172 173 177 0
78 146 173 177 258 0
78 181 190 235 248 0
79 80 148 249 284 0
79 137 141 149 233 0
79 148 201 249 284 0
81 163 171 220 258 0
82 106 159 177 264 0
82 106 159 264 287 0
83 139 145 149 258 0
83 139 149 258 269 0
83 145 149 171 258 0
83 145 153 165 200 0
83 145 153 200 241 0
83 145 153 200 255 0
83 149 171 258 269 0
84 143 148 154 189 0
84 143 148 189 205 0
84 143 148 189 275 0
85 145 153 165 239 0
85 145 153 184 239 0
85 145 153 239 258 0
86 150 181 182 190 0
86 150 181 193 195 0
87 149 162 174 194 0
87 149 237 278 288 0
87 158 190 225 300 0
88 159 174 261 280 0
88 160 204 251 280 0
89 140 158 163 174 0
89 160 163 174 188 0
89 164 173 220 242 0
90 159 173 204 219 0
90 159 173 205 219 0
90 159 173 219 303 0
90 162 164 173 176 0
91 140 164 174 302 0
91 188 213 277 300 0
92 139 157 163 292 0
92 140 148 157 159 0
92 141 156 192 260 0
92 173 250 277 300 0
92 207 224 277 300 0
93 159 161 177 226 0
94 141 145 149 207 0
94 145 152 232 245 0
94 173 188 269 292 0
96 154 239 240 244 0
96 170 172 240 262 0
97 148 154 176 181 0
97 148 181 187 292 0
97 148 232 261 273 0
97 154 165 239 253 0
97 158 195 215 217 0
98 127 155 162 233 0
98 144 166 175 302 0
99 140 143 150 283 0
99 140 143 170 283 0
99 140 143 255 283 0
99 140 202 255 283 0
101 140 143 194 199 0
101 143 161 175 194 0
101 143 175 185 199 0
101 143 175 199 245 0
102 129 162 174 215 0
102 144 160 162 265 0
102 144 160 265 288 0
106 138 140 149 177 0
106 138 140 152 177 0
106 138 140 177 181 0
106 138 140 177 232 0
123 143 150 154 166 0
123 143 150 166 205 0
123 143 150 166 275 0
126 146 153 168 220 0
126 153 168 220 286 0
129 153 168 221 283 0
135 143 150 166 275 0
1 7 123 145 177 219 0
2 73 147 150 195 232 0
4 143 162 163 178 244 0
4 144 147 162 163 172 0
4 145 153 162 173 239 0
5 136 144 173 177 276 0
5 138 177 197 258 264 0
6 60 166 219 287 294 0
6 136 138 147 226 300 0
6 138 147 159 216 300 0
6 139 162 170 255 265 0
6 140 166 219 245 294 0
6 144 147 173 222 228 0
6 160 162 174 194 255 0
6 162 174 181 194 255 0
6 162 174 197 216 255 0
7 136 137 145 152 183 0
7 136 137 145 157 192 0
7 136 137 145 163 192 0
7 136 137 159 177 192 0
7 137 159 163 250 272 0
7 137 159 192 272 297 0
7 137 177 192 214 249 0
7 145 156 157 175 216 0
7 156 157 163 246 279 0
8 141 170 193 233 255 0
8 142 143 153 156 180 0
8 147 180 182 265 293 0
9 142 154 204 237 253 0
9 142 154 208 253 271 0
11 50 172 188 244 300 0
11 50 211 287 294 297 0
11 139 140 176 208 276 0
13 54 166 204 262 268 0
15 48 213 277 283 300 0
16 60 150 168 226 244 0
16 62 149 168 240 266 0
17 81 147 173 222 228 0
17 156 163 193 202 294 0
17 163 202 208 249 294 0
17 163 202 215 275 294 0
18 120 153 155 182 231 0
18 139 160 162 170 265 0
18 142 144 148 190 237 0
19 41 138 174 295 301 0
19 47 209 212 277 299 0
19 66 81 204 271 294 0
19 138 140 146 157 208 0
20 42 139 164 229 289 0
20 139 147 173 222 228 0
20 144 158 159 176 225 0
21 60 157 218 279 292 0
21 60 218 260 268 292 0
21 104 136 139 163 173 0
21 138 171 177 203 264 0
21 146 171 173 203 224 0
22 58 157 218 277 292 0
22 128 136 138 144 197 0
22 138 163 177 197 258 0
23 60 165 239 240 262 0
23 70 123 145 163 270 0
23 83 141 157 194 281 0
23 106 195 198 232 275 0
23 141 145 157 194 216 0
23 141 145 157 194 226 0
23 141 145 157 194 281 0
23 149 161 183 195 275 0
36 50 278 287 294 299 0
36 53 213 235 253 262 0
37 45 261 265 280 299 0
37 52 235 260 262 279 0
37 52 260 277 279 300 0
37 53 251 253 261 280 0
37 54 250 260 262 279 0
38 47 220 268 283 299 0
40 76 139 149 163 221 0
40 121 138 140 284 302 0
42 50 139 162 265 286 0
42 81 139 164 219 229 0
42 136 138 140 146 268 0
43 65 139 172 215 229 0
44 154 209 234 235 247 0
44 154 212 235 239 247 0
44 197 209 235 239 262 0
45 144 151 158 161 162 0
45 144 151 158 161 288 0
45 144 151 161 162 191 0
45 144 151 161 162 199 0
45 144 151 161 191 288 0
45 144 151 161 199 288 0
47 126 209 212 277 299 0
47 209 212 277 278 288 0
47 209 247 277 278 288 0
48 210 213 277 278 300 0
48 210 248 277 278 300 0
50 210 213 278 288 300 0
50 210 248 283 288 300 0
51 82 132 157 180 200 0
52 71 260 274 279 298 0
53 71 189 201 213 248 0
53 210 235 248 253 262 0
54 83 209 247 253 262 0
54 209 234 247 253 262 0
56 141 149 150 169 181 0
56 143 153 165 168 234 0
56 143 165 168 234 240 0
58 81 171 195 197 284 0
58 140 143 219 255 263 0
60 138 140 145 157 233 0
60 138 140 149 157 279 0
62 80 137 182 205 295 0
62 80 145 170 173 177 0
62 127 150 160 162 227 0
62 138 145 177 201 264 0
62 138 177 201 205 264 0
63 140 161 175 208 214 0
63 140 161 208 214 221 0
63 140 199 208 214 221 0
66 123 150 155 207 254 0
68 136 140 149 218 268 0
68 138 146 149 268 292 0
69 80 153 162 174 200 0
72 84 146 150 168 240 0
72 84 149 168 216 228 0
72 84 150 170 239 240 0
74 151 162 176 200 280 0
74 153 163 168 198 258 0
74 162 163 280 284 298 0
74 163 196 215 285 293 0
75 140 159 172 188 197 0
75 149 163 164 174 226 0
76 140 164 218 219 277 0
76 163 173 230 244 300 0
76 164 168 218 229 277 0
76 164 172 188 218 277 0
76 173 230 244 295 300 0
77 138 140 141 145 177 0
77 138 140 141 177 188 0
77 140 141 175 181 218 0
77 140 164 172 219 292 0
77 140 199 214 269 302 0
77 153 157 168 190 194 0
77 153 157 168 194 196 0
78 85 154 205 232 270 0
78 138 168 177 258 264 0
79 140 143 180 208 245 0
79 140 180 205 208 245 0
80 134 163 174 175 288 0
80 142 148 155 190 237 0
81 139 147 173 222 228 0
81 139 147 173 226 228 0
84 141 145 157 194 226 0
84 141 145 157 194 281 0
85 136 144 153 168 255 0
86 150 174 181 190 193 0
86 159 160 162 265 295 0
87 151 158 160 196 217 0
88 139 154 162 170 265 0
89 160 174 208 230 284 0
90 150 162 163 174 204 0
90 162 163 177 205 215 0
92 139 144 151 202 203 0
92 140 157 159 194 288 0
92 140 157 170 218 240 0
92 141 159 163 213 225 0
92 172 177 208 277 294 0
93 137 140 149 183 197 0
93 137 140 183 197 211 0
94 136 140 157 219 269 0
94 138 141 144 145 155 0
94 138 141 144 145 255 0
94 139 170 173 188 240 0
94 159 183 214 264 279 0
94 250 260 263 269 292 0
95 142 145 182 197 239 0
95 142 154 182 199 274 0
96 136 140 146 164 188 0
96 136 140 164 258 275 0
96 147 153 168 223 301 0
96 153 154 159 239 264 0
96 160 172 240 248 262 0
97 138 204 269 273 292 0
97 139 147 151 206 302 0
97 148 154 159 167 181 0
98 138 163 177 197 264 0
98 138 163 177 241 264 0
98 145 153 159 163 239 0
98 145 153 163 225 239 0
98 146 163 173 224 287 0
99 140 167 194 202 283 0
100 145 146 156 230 241 0
101 138 149 177 197 264 0
101 138 149 177 239 264 0
101 139 149 162 170 265 0
101 139 149 162 240 265 0
101 139 149 162 248 265 0
101 140 143 161 163 245 0
101 140 143 161 185 217 0
101 143 161 163 175 245 0
101 143 171 221 266 275 0
101 146 149 173 224 287 0
102 140 143 171 180 208 0
102 143 175 180 199 245 0
102 144 160 162 174 251 0
102 144 160 174 251 288 0
102 147 155 163 167 215 0
104 136 146 173 217 300 0
104 139 140 159 173 287 0
104 140 159 171 173 287 0
104 140 159 171 264 287 0
104 140 159 173 177 300 0
104 140 159 173 287 290 0
104 140 159 173 287 300 0
125 141 155 184 190 284 0
129 145 153 221 239 283 0
130 136 149 151 219 241 0
131 146 159 173 217 287 0
1 100 136 152 183 184 228 0
2 45 265 274 280 288 298 0
2 46 174 191 239 253 256 0
2 46 251 257 259 283 299 0
2 55 274 278 280 288 298 0
3 50 177 248 283 294 299 0
3 78 136 139 153 171 291 0
3 78 154 188 200 207 240 0
3 82 145 146 149 183 196 0
3 82 145 149 183 196 286 0
3 106 145 152 190 232 286 0
3 145 149 152 183 190 286 0
4 139 163 172 178 207 272 0
5 140 188 195 204 283 284 0
5 162 170 172 221 270 286 0
5 176 188 195 257 271 284 0
6 140 162 174 188 204 288 0
6 147 159 170 216 228 240 0
6 166 207 218 219 245 294 0
7 123 140 219 224 281 293 0
7 137 139 159 250 288 302 0
7 137 159 160 188 192 272 0
7 137 159 163 177 192 214 0
7 139 145 153 228 239 258 0
7 149 153 168 177 181 219 0
7 162 165 174 177 233 239 0
7 162 165 174 188 239 264 0
8 143 145 147 152 180 182 0
8 159 168 204 226 235 263 0
9 142 154 171 177 203 253 0
9 142 154 188 190 204 237 0
9 146 148 149 166 189 275 0
9 146 148 162 174 190 303 0
9 153 169 188 190 217 295 0
9 162 174 189 190 202 267 0
10 40 153 163 176 191 258 0
11 139 200 208 216 273 292 0
12 82 143 155 157 200 270 0
14 56 153 157 165 202 270 0
14 106 136 159 177 255 264 0
14 132 141 145 149 197 204 0
16 39 150 162 169 193 273 0
16 106 136 152 184 214 228 0
16 150 151 158 195 285 295 0
17 139 145 150 163 202 217 0
17 139 163 207 255 270 275 0
18 56 150 173 181 204 271 0
19 99 178 192 204 271 294 0
19 139 161 163 195 220 286 0
19 145 146 149 152 183 190 0
19 145 146 149 152 183 196 0
19 145 149 152 183 190 286 0
19 145 149 152 183 196 286 0
20 46 191 234 251 253 256 0
20 124 139 174 178 226 293 0
20 136 138 139 140 142 163 0
20 136 138 139 163 178 193 0
20 136 138 139 163 178 242 0
20 136 138 140 163 193 294 0
20 138 163 172 178 193 294 0
20 139 147 161 173 226 302 0
20 163 172 178 193 207 294 0
21 56 136 144 149 166 217 0
21 56 144 152 163 217 228 0
21 78 195 225 232 248 270 0
21 80 142 148 155 180 190 0
21 98 144 145 146 204 205 0
21 133 136 145 154 173 224 0
21 133 136 145 173 205 224 0
21 133 136 145 177 205 224 0
22 104 140 173 226 258 290 0
22 126 140 164 218 245 286 0
22 136 138 144 177 188 197 0
23 56 145 153 169 181 188 0
36 38 154 212 234 235 253 0
36 38 212 277 283 288 300 0
36 38 213 235 239 253 262 0
36 38 213 239 240 253 262 0
36 51 234 240 253 257 262 0
37 50 159 250 269 292 300 0
37 50 213 250 260 279 300 0
37 52 154 240 244 260 279 0
38 44 152 156 235 239 262 0
38 45 260 277 287 288 294 0
39 101 145 149 152 183 243 0
43 82 123 146 156 236 245 0
43 123 136 146 232 245 274 0
43 123 136 146 236 245 262 0
44 51 234 240 248 257 262 0
44 150 151 153 164 182 233 0
44 150 151 164 168 193 233 0
44 160 168 174 191 256 280 0
44 160 168 191 256 265 280 0
44 160 191 234 251 256 280 0
44 174 191 239 256 261 280 0
44 176 212 234 235 247 262 0
44 191 239 251 256 261 280 0
44 191 239 256 261 265 280 0
44 197 199 212 235 239 262 0
44 209 234 235 247 262 278 0
44 209 239 240 244 247 262 0
44 234 251 254 256 261 280 0
45 50 159 162 212 218 300 0
45 81 138 173 177 199 209 0
45 156 209 247 277 299 300 0
45 160 251 274 280 288 298 0
45 160 265 274 280 298 299 0
45 261 265 274 280 288 298 0
45 261 265 274 280 298 299 0
46 73 234 254 256 261 265 0
46 123 150 188 256 270 271 0
46 137 142 155 162 163 193 0
46 137 142 155 163 174 182 0
46 137 142 155 163 193 288 0
46 137 142 155 182 288 295 0
46 137 142 155 193 288 295 0
46 160 162 257 259 265 283 0
46 160 191 239 253 256 265 0
46 191 259 261 265 283 299 0
46 251 257 259 261 278 299 0
47 209 220 247 268 283 299 0
48 160 164 257 259 265 280 0
48 160 251 257 259 280 283 0
48 164 257 259 261 265 280 0
48 191 259 261 265 278 280 0
48 257 259 261 265 278 280 0
48 257 259 261 265 280 283 0
49 123 150 157 166 207 245 0
49 140 156 164 183 208 264 0
49 154 159 235 250 257 259 0
49 154 188 235 250 257 260 0
49 159 188 235 250 257 262 0
49 159 191 235 250 257 262 0
49 235 250 257 259 260 262 0
49 250 254 256 260 277 300 0
50 67 140 143 202 208 270 0
50 82 139 141 161 198 287 0
50 160 210 248 278 288 300 0
50 177 210 248 278 288 294 0
50 210 248 283 287 294 299 0
51 132 142 143 148 153 186 0
51 154 210 235 239 248 253 0
51 154 213 234 235 248 253 0
51 213 235 239 248 253 262 0
52 154 212 235 260 274 279 0
52 159 212 235 262 274 279 0
52 212 235 260 262 274 279 0
52 235 260 262 274 279 298 0
53 213 240 244 248 253 262 0
55 160 211 213 239 253 280 0
55 160 211 239 253 280 297 0
55 160 212 280 283 298 299 0
55 160 274 278 280 298 299 0
55 211 234 253 261 280 297 0
55 212 261 280 283 298 299 0
55 261 274 280 283 298 299 0
56 69 145 153 181 200 239 0
56 85 143 153 162 165 181 0
56 85 143 153 165 181 233 0
56 85 143 165 168 234 298 0
56 137 139 141 150 169 181 0
56 137 141 150 169 181 271 0
56 139 141 147 150 169 181 0
56 139 141 150 155 169 181 0
56 139 141 150 169 181 204 0
56 139 147 150 169 181 238 0
56 139 147 150 169 181 246 0
56 139 150 155 169 181 238 0
56 139 150 169 181 204 238 0
56 141 143 149 150 154 169 0
56 147 150 169 173 181 271 0
56 147 150 169 181 246 271 0
56 150 169 181 204 238 271 0
58 138 142 161 185 219 221 0
58 138 142 161 194 219 221 0
60 138 140 154 157 233 269 0
60 145 146 150 156 216 229 0
60 145 146 150 156 216 230 0
60 146 156 205 216 230 241 0
62 80 137 143 145 182 295 0
62 80 137 163 182 205 217 0
62 80 145 173 177 226 275 0
62 80 153 170 173 177 205 0
62 145 146 173 201 224 287 0
62 146 168 173 177 201 266 0
62 146 173 201 205 224 287 0
63 140 161 176 208 214 222 0
64 65 144 151 158 160 174 0
64 131 170 217 224 258 287 0
64 135 225 232 266 270 271 0
65 84 148 172 188 189 294 0
65 129 136 150 198 245 268 0
65 138 150 155 162 167 170 0
65 138 150 155 162 167 174 0
65 138 150 160 162 167 170 0
65 138 150 160 162 167 174 0
66 138 142 163 187 204 214 0
66 138 142 163 195 204 214 0
66 138 142 187 204 214 302 0
66 138 142 195 204 214 302 0
67 124 173 216 255 288 293 0
67 124 178 197 204 216 288 0
67 132 140 180 200 207 208 0
67 136 146 156 157 208 233 0
70 130 136 151 194 219 241 0
71 124 184 199 200 239 295 0
71 144 158 163 184 200 239 0
72 84 145 156 168 226 266 0
72 84 149 150 163 168 202 0
74 139 151 176 188 225 285 0
74 140 151 158 195 282 285 0
74 140 151 162 194 229 233 0
75 140 142 151 153 208 217 0
75 140 162 164 170 172 270 0
75 144 151 200 217 227 239 0
75 170 172 270 283 286 288 0
76 140 147 159 173 287 290 0
76 140 164 188 218 219 229 0
76 145 149 162 213 216 275 0
76 151 192 216 236 240 275 0
76 164 173 218 268 292 293 0
76 164 188 218 219 229 255 0
77 153 157 168 177 192 287 0
77 159 172 199 214 269 302 0
78 106 144 159 255 264 287 0
78 136 144 146 155 173 177 0
78 138 144 146 177 255 264 0
78 151 165 181 186 190 244 0
79 80 158 232 266 271 276 0
79 85 170 177 232 237 266 0
80 142 144 148 173 190 233 0
80 142 144 148 190 237 255 0
80 142 148 155 173 190 233 0
80 142 148 155 180 181 190 0
80 142 148 155 190 232 233 0
81 121 129 139 176 195 221 0
81 139 144 147 173 216 228 0
81 139 147 148 173 216 228 0
81 139 147 154 173 216 228 0
81 139 147 159 173 216 228 0
81 139 147 166 173 216 228 0
82 132 146 157 168 180 218 0
83 139 149 172 188 255 269 0
83 142 149 224 235 258 269 0
83 145 149 171 172 188 255 0
84 137 145 156 177 192 219 0
84 137 145 156 177 192 272 0
84 137 145 156 177 214 238 0
84 137 145 156 177 219 238 0
84 137 145 156 177 238 272 0
84 137 145 159 177 192 214 0
84 137 145 159 177 192 219 0
84 137 145 159 177 192 272 0
84 137 145 172 177 192 214 0
84 137 145 172 177 192 219 0
84 137 145 172 177 192 272 0
84 137 145 177 192 214 257 0
84 137 145 177 192 214 260 0
84 137 145 177 192 219 257 0
84 137 145 177 192 219 260 0
84 137 145 177 192 257 272 0
84 137 145 177 192 260 272 0
84 141 145 152 157 245 281 0
84 141 145 157 173 194 216 0
85 136 144 150 153 168 195 0
85 150 151 158 195 217 280 0
85 150 151 158 195 282 285 0
85 150 151 158 195 285 295 0
86 139 150 154 169 181 193 0
86 150 169 181 182 205 269 0
86 160 162 172 174 240 295 0
87 167 169 172 261 265 280 0
90 143 147 148 173 216 228 0
90 162 163 204 232 292 295 0
91 159 183 261 264 265 279 0
92 139 140 149 157 208 286 0
92 140 144 148 216 228 289 0
92 154 172 177 222 277 294 0
94 154 188 197 239 240 244 0
95 142 150 154 182 253 274 0
95 142 156 182 240 244 283 0
95 148 154 156 168 208 233 0
96 139 140 143 149 182 232 0
96 140 164 192 255 275 295 0
96 143 155 179 182 232 293 0
96 154 170 188 198 240 257 0
97 136 142 145 149 201 208 0
98 140 145 153 163 170 239 0
98 140 145 153 163 193 239 0
98 142 147 155 163 167 201 0
98 150 155 167 201 205 296 0
99 140 159 162 163 173 287 0
99 140 159 162 163 264 287 0
100 145 146 150 156 163 229 0
100 145 146 150 156 209 230 0
100 145 146 156 220 229 241 0
101 140 143 149 163 171 173 0
101 140 143 154 161 185 302 0
101 143 161 221 245 266 275 0
101 144 146 149 173 176 287 0
101 150 155 169 206 238 271 0
102 140 143 171 180 216 284 0
102 140 143 180 185 199 232 0
102 141 145 147 155 167 215 0
102 141 145 155 167 215 301 0
102 145 147 150 155 167 215 0
102 145 155 167 215 241 296 0
102 147 150 155 167 205 215 0
102 147 155 167 205 215 241 0
102 155 157 167 205 215 241 0
104 140 159 197 264 287 294 0
126 138 140 146 164 245 286 0
126 145 146 153 200 220 239 0
126 145 153 168 177 197 220 0
126 145 153 200 220 239 286 0
127 143 160 166 170 233 265 0
128 136 140 171 177 260 264 0
130 140 149 152 157 173 177 0
131 142 146 149 159 173 287 0
1 3 52 235 269 274 292 298 0
1 44 212 234 240 244 247 269 0
1 52 159 235 269 274 279 298 0
1 53 170 213 240 253 257 269 0
2 46 234 253 254 256 260 265 0
2 46 239 251 253 254 256 262 0
3 22 139 163 187 220 283 286 0
3 37 52 154 165 235 269 292 0
3 49 250 254 256 277 287 294 0
3 139 146 161 163 187 220 283 0
3 139 146 161 163 195 220 283 0
3 139 161 163 187 220 283 286 0
3 139 161 163 195 220 283 286 0
4 38 189 191 201 211 213 234 0
5 136 138 144 177 197 255 264 0
5 136 144 145 150 173 177 239 0
5 136 144 145 173 177 239 255 0
5 140 162 170 172 212 221 270 0
5 144 184 190 204 221 284 294 0
5 146 173 181 258 276 287 301 0
6 38 208 221 224 283 294 299 0
6 50 172 177 208 221 228 300 0
7 136 137 145 172 192 292 293 0
7 136 137 152 154 177 183 219 0
7 137 144 145 149 157 197 239 0
7 140 149 153 168 177 188 233 0
7 149 153 163 168 177 197 216 0
8 136 142 143 145 148 152 153 0
8 138 146 149 157 162 174 226 0
8 138 146 149 162 174 226 268 0
8 142 171 173 177 203 244 283 0
9 142 145 149 168 253 283 295 0
9 142 145 153 160 173 208 253 0
9 142 145 153 189 204 245 274 0
9 142 154 160 163 189 237 283 0
9 142 154 160 188 189 204 237 0
10 145 149 158 165 171 208 276 0
10 149 158 165 168 171 213 267 0
11 38 213 277 283 297 299 300 0
12 23 136 144 158 208 266 276 0
12 38 210 220 268 283 299 300 0
12 38 234 240 248 253 257 262 0
13 65 210 212 213 277 283 300 0
13 146 169 181 211 239 262 286 0
15 106 159 166 174 177 255 259 0
15 140 142 143 165 207 261 303 0
16 125 143 155 163 166 220 231 0
16 125 143 155 163 166 231 268 0
17 85 144 153 198 199 249 295 0
17 140 145 163 175 202 215 294 0
18 104 138 150 160 167 174 255 0
19 49 154 183 235 250 257 259 0
19 104 155 178 186 216 218 271 0
19 139 146 161 163 187 206 220 0
19 139 146 161 163 187 211 220 0
19 139 146 161 163 195 206 220 0
19 139 146 161 163 195 211 220 0
19 139 161 163 187 206 220 286 0
19 139 161 163 187 211 220 286 0
20 45 147 149 197 215 265 301 0
20 47 140 163 172 193 207 290 0
20 58 138 159 161 194 214 221 0
20 127 136 139 140 163 193 207 0
20 127 142 155 202 265 276 288 0
20 136 138 139 140 163 193 245 0
20 136 139 156 163 178 207 242 0
21 37 50 139 183 210 264 279 0
21 98 136 144 146 148 232 255 0
21 122 136 168 170 171 233 238 0
21 133 136 138 141 145 177 275 0
21 133 136 138 145 177 205 240 0
21 133 136 145 149 205 224 226 0
22 50 138 146 152 177 247 258 0
22 131 147 157 173 216 218 292 0
23 137 145 162 177 192 219 257 0
23 137 145 177 192 219 226 260 0
36 37 154 159 191 235 250 279 0
36 37 191 240 250 260 262 279 0
36 38 162 213 274 277 283 300 0
36 38 177 212 277 278 294 299 0
36 38 189 201 212 235 239 262 0
36 38 213 262 277 283 299 300 0
36 48 159 218 277 278 287 294 0
36 154 197 209 213 239 240 253 0
36 154 197 212 213 235 239 253 0
36 154 209 213 234 235 247 253 0
36 209 212 213 277 278 299 300 0
36 209 213 234 240 247 253 262 0
36 209 213 235 239 247 253 262 0
36 212 213 239 240 247 253 262 0
37 38 191 239 251 253 261 280 0
37 38 213 250 260 277 279 300 0
37 45 162 209 220 247 268 300 0
37 50 159 213 250 279 287 294 0
37 55 161 199 209 278 280 288 0
37 62 191 213 239 253 256 280 0
38 129 210 212 213 278 299 300 0
38 154 210 212 235 239 248 253 0
38 168 210 212 235 248 253 262 0
38 210 212 213 277 278 288 300 0
38 210 212 213 277 283 299 300 0
38 210 212 248 277 278 299 300 0
38 212 213 234 235 248 253 262 0
39 60 146 156 159 226 229 241 0
40 81 139 140 208 214 221 303 0
41 45 157 209 212 220 287 288 0
41 73 136 137 145 180 189 245 0
41 84 149 156 207 244 249 269 0
41 102 138 140 171 174 295 301 0
42 48 136 174 198 204 268 296 0
44 145 149 150 151 164 168 193 0
44 147 155 168 254 261 265 280 0
44 147 155 191 234 261 265 280 0
44 149 150 151 164 168 182 302 0
44 160 204 239 254 265 273 280 0
44 191 204 234 251 261 273 280 0
45 145 205 251 261 280 288 298 0
45 160 165 212 265 280 298 299 0
45 160 205 251 269 280 288 298 0
45 160 205 265 269 280 288 298 0
45 160 212 230 251 280 288 298 0
45 174 205 261 269 280 288 298 0
45 209 212 220 268 287 294 299 0
45 212 221 251 261 280 298 299 0
46 137 139 142 155 163 174 193 0
46 137 141 142 155 162 193 295 0
46 137 142 155 162 182 238 295 0
46 137 142 155 162 193 238 295 0
46 137 142 155 162 193 285 295 0
46 137 142 155 163 174 193 249 0
46 137 142 155 163 174 193 293 0
46 137 142 155 163 182 246 288 0
46 137 142 155 163 182 285 288 0
46 137 142 155 174 182 249 295 0
46 137 142 155 174 193 285 295 0
46 154 234 251 253 254 256 261 0
46 160 162 178 188 191 265 278 0
46 160 162 178 191 259 265 283 0
46 160 162 223 251 257 259 283 0
46 160 170 257 259 265 278 299 0
46 162 164 188 191 227 261 265 0
46 178 188 191 251 261 283 299 0
47 183 191 254 260 264 277 279 0
47 183 254 256 260 264 277 279 0
48 126 140 188 208 258 293 303 0
48 160 169 188 257 265 278 280 0
48 160 249 257 259 265 278 280 0
49 140 156 164 173 183 193 208 0
49 140 156 164 183 188 213 264 0
49 153 154 159 170 172 250 259 0
49 153 154 159 172 191 248 250 0
49 153 154 170 250 257 259 260 0
49 153 159 172 188 244 250 262 0
49 154 159 170 172 240 250 259 0
49 154 159 172 191 240 248 250 0
49 154 159 240 248 250 257 259 0
49 154 170 172 191 240 250 260 0
49 154 170 172 240 250 259 260 0
49 154 172 191 240 248 250 260 0
49 154 173 183 235 257 259 260 0
49 154 218 235 250 257 259 260 0
49 159 172 191 235 248 250 262 0
49 191 235 250 257 260 262 288 0
50 84 173 213 260 279 297 300 0
50 139 160 177 210 248 278 288 0
50 139 160 177 210 248 283 299 0
50 139 172 177 210 248 283 288 0
50 139 177 210 248 261 283 288 0
50 139 210 248 261 283 287 288 0
50 160 210 213 222 283 288 300 0
51 62 163 185 233 238 266 295 0
51 154 157 168 213 235 248 253 0
51 154 168 169 213 235 248 253 0
51 154 169 210 234 235 248 253 0
51 154 213 234 240 248 253 257 0
51 162 210 234 235 248 253 262 0
51 170 213 234 240 253 257 262 0
51 187 210 235 239 248 253 262 0
51 210 239 240 248 253 257 262 0
51 213 234 235 248 253 262 293 0
52 53 154 189 201 210 240 248 0
52 60 205 212 235 260 262 292 0
52 140 162 213 260 277 279 300 0
52 140 211 260 277 279 297 300 0
52 159 205 235 262 269 292 298 0
52 159 213 239 277 279 297 300 0
52 159 213 277 279 287 294 297 0
52 159 235 262 274 278 279 298 0
52 184 213 260 277 279 297 300 0
52 213 239 260 277 279 297 300 0
52 213 260 277 279 287 294 297 0
53 80 174 184 200 211 248 288 0
53 146 160 211 253 265 280 297 0
54 60 205 250 260 262 292 298 0
54 166 189 197 201 209 239 262 0
54 172 197 209 239 253 262 283 0
54 185 189 201 212 239 247 262 0
55 145 160 205 280 283 288 298 0
55 160 170 211 234 253 280 297 0
55 160 189 201 211 234 280 297 0
55 160 205 269 278 280 288 298 0
56 65 138 144 151 160 174 178 0
56 65 138 144 151 160 174 224 0
56 65 138 144 160 174 249 298 0
56 80 144 155 176 177 199 225 0
56 84 143 170 197 239 240 255 0
56 136 139 150 155 169 181 246 0
56 137 138 141 150 169 181 224 0
56 137 141 150 155 169 178 181 0
56 137 141 150 169 178 181 232 0
56 139 150 154 169 204 232 238 0
56 139 150 163 169 181 204 246 0
56 141 150 163 169 181 204 271 0
56 150 155 163 169 181 246 271 0
58 138 143 159 161 185 214 221 0
60 84 137 145 177 214 238 260 0
60 137 138 139 140 145 149 157 0
60 138 140 149 154 157 205 208 0
60 145 146 156 162 209 216 241 0
60 145 146 156 162 216 220 241 0
60 145 146 156 166 216 230 241 0
60 145 146 156 209 216 229 241 0
60 145 146 156 209 216 230 241 0
60 145 146 156 216 220 229 241 0
60 146 150 156 162 205 209 216 0
60 146 150 156 205 209 216 229 0
60 146 150 156 205 216 220 229 0
60 146 150 156 205 216 220 230 0
60 146 156 159 205 226 229 241 0
62 80 137 143 145 163 182 217 0
62 138 139 150 160 173 178 225 0
62 138 146 168 177 201 264 266 0
62 146 168 173 201 224 266 287 0
62 146 173 201 205 221 287 298 0
64 80 81 188 196 271 275 276 0
64 80 144 158 169 230 232 270 0
64 144 151 155 158 174 288 295 0
64 144 151 158 160 174 288 295 0
65 123 138 150 160 162 174 188 0
65 136 138 139 140 177 217 294 0
65 138 150 152 155 162 174 188 0
65 138 150 152 160 162 170 188 0
65 138 150 152 160 162 174 188 0
66 134 144 149 155 188 233 239 0
67 82 141 157 159 173 226 287 0
68 140 149 172 215 218 268 269 0
72 83 122 145 148 168 180 189 0
73 150 151 153 164 193 233 271 0
74 140 151 162 166 196 204 233 0
74 143 151 155 176 225 255 285 0
74 149 151 176 195 280 282 302 0
74 153 158 168 193 195 216 301 0
75 144 151 164 200 227 239 295 0
75 144 163 200 239 283 288 293 0
75 153 159 163 168 173 226 233 0
76 164 173 181 188 218 229 268 0
77 136 141 144 151 219 245 255 0
77 140 141 145 156 173 214 229 0
77 141 145 156 177 214 229 279 0
78 137 143 175 195 232 248 298 0
78 137 175 190 225 232 240 270 0
78 137 175 195 205 232 244 270 0
78 166 181 190 204 225 232 244 0
79 149 168 169 172 233 242 258 0
80 127 144 162 167 171 202 233 0
80 137 142 155 162 182 205 295 0
80 137 142 155 174 182 205 295 0
80 137 143 145 155 162 182 295 0
80 137 143 145 155 174 182 295 0
80 137 143 155 162 182 205 295 0
80 137 143 155 174 182 205 295 0
80 139 142 148 155 163 190 233 0
80 142 148 154 155 190 204 233 0
80 142 148 155 168 190 233 239 0
80 142 148 155 173 177 180 190 0
80 142 148 155 173 180 190 204 0
80 142 148 155 173 180 190 283 0
80 142 148 155 190 208 233 271 0
81 139 147 161 173 216 220 302 0
81 139 147 161 173 220 222 302 0
82 83 84 168 198 226 241 246 0
82 83 138 157 166 174 220 226 0
84 102 142 149 151 156 235 269 0
84 102 149 151 156 235 267 269 0
84 136 137 145 162 177 192 272 0
84 136 137 145 177 192 214 226 0
84 136 138 149 151 156 244 269 0
84 141 143 145 157 194 216 218 0
84 141 144 145 152 157 226 245 0
84 141 144 145 157 194 202 216 0
84 141 144 145 157 194 204 216 0
84 141 145 157 158 194 196 216 0
84 149 151 156 172 207 244 269 0
84 149 156 172 174 207 248 269 0
85 136 144 145 153 195 239 255 0
85 150 151 158 176 195 280 295 0
89 160 163 170 174 230 240 244 0
90 150 162 171 174 189 231 292 0
91 140 159 188 197 250 269 297 0
91 159 165 183 239 264 279 286 0
92 137 141 144 148 157 159 216 0
92 138 139 140 146 157 180 208 0
92 138 140 146 149 157 160 172 0
92 140 143 144 150 157 226 228 0
92 140 144 157 180 187 193 218 0
92 141 145 156 204 238 260 262 0
92 149 163 173 177 193 292 293 0
94 139 153 154 170 172 185 246 0
96 136 140 144 146 150 164 259 0
96 139 147 154 155 184 235 288 0
96 140 153 159 188 193 239 289 0
96 143 162 179 182 190 232 269 0
96 143 162 181 182 188 237 243 0
96 145 153 163 190 200 205 239 0
96 150 153 159 168 193 202 301 0
99 138 143 161 194 220 221 283 0
100 145 146 150 156 220 229 284 0
100 145 146 156 209 219 229 241 0
100 146 150 156 205 209 230 269 0
100 146 150 156 205 220 229 269 0
101 138 140 143 154 171 204 255 0
101 140 143 158 166 171 232 268 0
102 141 147 155 167 176 205 284 0
102 141 155 167 205 215 253 296 0
102 144 147 155 163 167 176 294 0
102 145 150 155 156 157 167 215 0
102 145 150 155 163 167 215 296 0
102 145 155 167 176 241 284 301 0
102 147 150 155 167 176 205 284 0
102 147 155 163 167 176 205 241 0
102 147 155 163 167 176 209 258 0
102 147 155 167 176 205 241 284 0
102 149 155 167 205 215 241 296 0
104 136 140 162 171 173 260 287 0
104 136 140 171 177 260 264 300 0
104 136 140 171 197 260 264 287 0
104 136 144 146 173 178 184 290 0
104 136 145 146 173 178 240 300 0
104 138 140 159 177 264 295 300 0
104 138 150 160 167 174 255 288 0
106 138 140 152 173 178 224 295 0
106 138 140 173 178 217 224 232 0
106 138 140 173 178 232 275 295 0
122 136 146 151 157 219 241 245 0
125 137 142 155 162 163 182 205 0
125 137 142 155 163 174 182 205 0
125 137 142 155 174 182 205 295 0
125 137 142 155 182 205 288 295 0
125 137 143 145 155 162 163 182 0
125 137 143 145 155 162 182 295 0
125 137 143 145 155 163 174 182 0
125 137 143 145 155 163 182 288 0
125 137 143 145 155 174 182 295 0
125 137 143 145 155 182 288 295 0
125 137 143 155 162 182 205 295 0
125 137 143 155 163 174 182 205 0
125 137 143 155 163 182 205 288 0
125 137 143 155 174 182 205 295 0
125 137 143 155 182 205 288 295 0
127 138 150 160 162 167 170 202 0
127 138 150 160 162 167 170 255 0
127 138 150 160 167 170 202 288 0
127 138 150 160 167 170 255 288 0
130 138 140 149 152 157 177 197 0
130 138 140 149 157 166 177 197 0
130 140 149 157 166 173 177 197 0
131 146 159 173 244 276 287 302 0
132 142 143 148 150 168 233 240 0
132 142 143 148 165 168 233 240 0
133 136 150 153 155 168 169 197 0
133 136 150 153 155 168 169 234 0
133 136 150 153 155 168 169 247 0
133 136 150 153 155 169 197 200 0
133 136 150 153 155 169 200 239 0
133 136 150 153 155 169 200 247 0
133 136 153 155 165 168 169 197 0
133 136 153 155 165 168 169 234 0
133 136 153 155 165 168 169 247 0
133 136 153 155 165 169 197 200 0
133 136 153 155 165 169 200 239 0
133 136 153 155 165 169 200 247 0
135 143 150 166 174 205 219 246 0
1 7 183 198 224 241 264 269 292 0
1 36 209 213 235 239 247 253 269 0
2 13 212 251 257 259 278 280 299 0
2 37 212 251 257 259 278 280 299 0
2 79 166 180 188 200 201 266 271 0
3 37 38 173 183 191 277 279 300 0
3 50 183 211 264 279 287 294 297 0
3 52 145 212 240 244 262 274 292 0
3 77 198 211 241 264 277 297 300 0
3 139 146 161 163 164 187 220 278 0
3 139 146 161 163 164 195 220 278 0
3 139 161 163 164 195 220 278 286 0
4 136 138 139 140 145 163 170 240 0
4 145 153 162 171 177 195 239 293 0
5 136 147 155 164 169 174 286 293 0
5 140 155 165 169 170 172 212 221 0
5 140 164 170 188 195 230 276 284 0
5 140 169 172 174 212 221 261 270 0
5 155 162 169 172 174 221 228 286 0
5 159 162 170 172 261 270 283 286 0
5 162 164 165 170 172 240 270 286 0
6 136 146 156 198 227 233 277 284 0
6 139 197 204 208 220 221 268 287 0
6 163 173 174 188 226 228 255 288 0
6 197 204 208 220 221 224 268 294 0
7 84 198 212 235 241 262 264 274 0
7 136 137 146 152 154 163 177 183 0
7 136 137 149 172 177 192 197 270 0
7 137 145 159 170 177 240 250 292 0
7 137 162 172 173 188 192 214 244 0
7 142 145 153 200 205 214 228 239 0
7 145 154 157 160 186 197 233 239 0
9 142 154 159 190 204 237 292 293 0
9 142 154 160 166 189 208 268 271 0
9 142 160 162 165 174 182 202 231 0
9 143 148 162 165 174 182 231 234 0
9 153 159 160 169 188 192 209 214 0
10 37 250 254 260 277 279 287 294 0
10 145 149 158 165 171 213 241 276 0
11 16 137 142 155 174 175 210 295 0
11 18 191 209 211 265 280 283 297 0
12 39 140 151 161 164 172 199 258 0
12 136 140 144 155 158 161 164 190 0
12 140 144 155 158 161 164 172 190 0
13 160 191 211 239 251 253 280 297 0
13 162 212 257 259 261 265 278 280 0
14 38 211 234 251 253 261 280 297 0
15 17 213 254 274 277 278 288 300 0
16 52 211 212 235 260 269 274 292 0
16 53 137 251 253 261 280 297 298 0
16 55 211 212 225 261 283 298 299 0
16 56 150 151 158 167 205 224 295 0
16 139 144 149 150 164 168 193 233 0
16 139 144 150 153 164 165 193 233 0
16 139 144 150 153 164 193 233 266 0
16 139 144 150 164 168 193 233 296 0
16 140 143 151 158 195 205 224 295 0
16 144 149 150 153 164 180 193 271 0
16 150 151 164 168 193 233 271 302 0
17 18 150 151 153 158 162 168 191 0
17 104 145 160 181 202 215 293 295 0
17 142 145 163 197 202 215 239 294 0
20 38 210 212 213 268 283 288 300 0
20 127 144 151 158 176 204 225 232 0
20 136 138 139 140 153 163 168 275 0
20 136 138 139 140 163 168 219 225 0
20 136 139 145 156 163 178 193 207 0
20 136 139 147 163 178 181 193 207 0
20 136 139 147 163 178 193 207 217 0
20 136 153 163 168 178 194 207 294 0
20 138 139 145 156 163 172 178 242 0
21 56 144 146 149 154 163 217 290 0
21 56 144 148 163 216 217 232 275 0
21 80 142 148 155 169 195 237 267 0
21 133 136 138 145 149 205 226 229 0
22 104 150 160 167 174 207 255 288 0
22 136 138 144 149 177 185 197 255 0
23 137 145 160 172 177 192 219 226 0
23 137 145 162 172 174 177 192 214 0
23 137 145 162 172 177 192 214 226 0
23 137 145 162 177 192 214 226 257 0
23 137 145 172 174 177 192 202 219 0
23 146 149 168 174 183 205 243 266 0
36 38 159 213 240 277 283 299 300 0
36 65 138 139 140 145 157 172 202 0
36 130 159 191 235 250 262 274 298 0
36 133 154 189 197 201 209 213 239 0
36 153 209 213 239 247 248 253 262 0
36 153 212 213 234 247 248 253 262 0
36 154 189 197 201 212 213 235 239 0
36 154 197 212 213 239 240 245 253 0
36 157 162 209 212 213 220 278 300 0
36 159 191 212 240 250 262 274 279 0
36 160 174 191 212 278 280 298 299 0
36 160 191 251 274 278 280 298 299 0
36 162 209 212 213 277 283 287 294 0
36 189 201 212 213 234 240 247 262 0
36 191 212 240 250 260 262 274 279 0
36 191 251 261 274 280 283 298 299 0
36 209 212 213 277 283 287 288 294 0
36 209 213 247 274 277 283 288 300 0
37 130 191 213 250 254 260 277 300 0
37 159 191 213 250 254 277 279 300 0
37 159 204 213 250 254 277 279 300 0
37 159 213 250 254 256 277 279 300 0
37 160 164 188 212 251 257 280 299 0
37 162 212 257 259 261 265 280 283 0
37 188 212 251 257 261 278 280 299 0
37 191 212 259 261 265 278 280 299 0
37 212 251 257 259 261 278 280 299 0
37 213 250 254 256 260 277 279 300 0
38 154 168 170 210 212 240 253 257 0
38 154 168 172 210 212 240 248 253 0
38 154 168 210 212 235 248 253 277 0
38 154 189 201 210 212 234 235 248 0
38 154 212 213 234 235 248 253 288 0
38 154 212 213 239 240 248 253 257 0
38 160 191 211 239 251 253 280 297 0
38 172 210 212 234 235 248 253 262 0
38 191 211 250 260 277 279 297 300 0
38 210 212 234 240 248 253 257 262 0
38 210 212 235 239 248 253 262 277 0
38 212 213 239 240 248 253 257 262 0
39 84 139 149 151 156 244 269 293 0
39 120 139 161 163 183 197 220 283 0
39 145 149 151 152 161 183 243 286 0
41 138 140 174 215 217 292 293 301 0
43 139 146 161 163 187 211 220 283 0
43 139 161 163 195 206 220 283 286 0
44 139 144 150 151 153 164 193 233 0
44 139 145 149 150 151 164 182 240 0
44 145 150 151 153 164 193 233 302 0
44 153 159 185 209 239 244 247 262 0
44 159 209 234 235 241 242 247 262 0
44 160 166 168 184 204 251 268 280 0
44 168 172 204 251 254 261 273 280 0
44 168 187 191 231 256 261 265 280 0
44 191 204 206 225 234 261 265 285 0
44 197 200 209 239 240 244 262 278 0
45 138 144 160 161 199 202 263 288 0
45 138 153 177 199 209 221 264 298 0
45 138 173 177 189 199 209 221 298 0
45 138 173 177 199 209 221 224 225 0
45 138 173 177 199 209 221 280 298 0
45 153 160 204 251 274 280 298 299 0
45 159 221 251 261 274 280 288 298 0
45 160 206 211 224 225 251 274 288 0
45 160 206 211 225 251 274 298 299 0
45 160 224 225 251 274 280 285 299 0
45 167 174 195 212 261 280 288 298 0
45 167 174 205 261 269 280 298 299 0
45 205 221 261 265 269 280 288 298 0
45 205 251 261 269 280 291 298 299 0
45 211 224 225 251 261 274 280 288 0
46 137 139 142 155 160 163 182 288 0
46 137 142 145 155 174 193 246 295 0
46 137 142 151 155 162 182 205 295 0
46 137 142 155 162 163 182 205 249 0
46 154 162 191 223 251 259 261 283 0
46 170 172 188 244 261 265 278 288 0
47 154 166 204 220 250 260 268 279 0
47 159 162 199 209 212 235 277 283 0
48 160 172 223 248 259 265 280 283 0
48 160 172 248 249 259 265 278 280 0
48 169 199 251 257 259 261 278 280 0
48 188 206 225 251 257 261 278 285 0
48 206 225 251 257 259 261 278 285 0
49 140 149 156 164 173 183 208 299 0
49 140 149 156 164 183 213 264 299 0
49 153 154 159 170 172 173 183 188 0
49 153 154 159 170 183 188 257 264 0
49 154 159 166 173 183 191 235 257 0
49 154 159 172 188 218 235 248 250 0
49 154 173 183 191 235 257 260 288 0
49 154 188 218 240 248 250 257 260 0
49 159 170 172 183 240 259 262 264 0
50 136 139 160 210 248 278 287 288 0
50 136 139 210 248 261 278 288 300 0
50 136 139 210 248 261 283 287 299 0
50 136 160 177 210 248 278 294 299 0
50 139 160 172 210 248 283 287 288 0
50 139 169 210 213 222 278 299 300 0
50 139 213 250 260 269 287 292 297 0
50 140 159 173 183 213 269 297 300 0
50 140 159 183 213 264 279 293 300 0
50 159 211 250 269 287 292 294 297 0
50 159 213 250 263 279 287 294 297 0
50 173 183 213 260 269 292 293 300 0
50 183 211 260 264 279 287 294 297 0
50 211 250 260 269 287 292 294 297 0
50 211 250 260 279 292 293 298 300 0
51 67 143 145 148 149 154 156 292 0
51 153 154 248 250 257 259 260 279 0
51 153 159 172 188 248 250 262 279 0
51 153 170 172 188 250 260 262 279 0
51 153 248 250 257 259 260 262 279 0
51 154 168 169 170 213 240 253 257 0
51 154 169 172 213 239 240 248 253 0
51 154 172 213 234 240 248 253 272 0
51 154 186 188 210 234 235 248 253 0
51 169 213 234 235 236 248 253 262 0
51 170 189 201 213 239 240 244 262 0
51 184 186 213 234 235 248 253 262 0
51 184 213 234 240 248 253 257 262 0
51 235 250 257 259 260 262 269 292 0
52 139 140 213 260 269 277 287 297 0
52 140 159 162 211 269 277 287 294 0
52 140 194 213 260 277 279 297 300 0
52 154 159 161 240 244 274 279 298 0
52 154 159 205 235 269 283 292 298 0
52 154 205 240 244 260 269 279 298 0
52 157 159 211 220 279 287 294 297 0
52 157 211 236 260 277 279 297 300 0
52 159 168 184 213 277 279 297 300 0
52 159 199 209 235 262 274 279 298 0
53 152 200 211 253 261 265 280 297 0
53 154 170 172 188 189 201 213 240 0
53 154 187 210 218 235 248 253 288 0
53 154 189 190 201 210 218 235 248 0
53 161 197 211 251 253 261 280 297 0
53 189 201 211 261 265 280 282 297 0
53 205 211 213 251 253 261 269 280 0
53 206 211 224 225 253 261 265 297 0
54 85 154 156 211 266 275 286 296 0
54 138 168 177 197 238 240 241 264 0
54 149 150 154 209 237 239 247 253 0
54 166 185 212 234 247 253 262 268 0
55 153 160 205 269 278 280 298 299 0
55 160 183 191 212 278 280 298 299 0
55 160 197 205 269 278 280 298 299 0
55 160 206 211 213 224 225 239 253 0
55 160 206 211 225 239 253 297 298 0
55 160 211 224 225 274 278 280 288 0
55 161 199 209 212 280 283 288 298 0
55 166 261 268 274 278 280 288 298 0
55 174 189 201 211 213 234 261 280 0
55 189 201 211 213 234 261 277 280 0
55 197 205 261 269 278 280 298 299 0
55 199 209 220 274 280 283 298 299 0
56 65 138 144 151 155 174 187 224 0
56 65 138 144 151 160 162 170 298 0
56 84 142 145 153 171 188 192 295 0
56 84 143 146 150 194 239 240 284 0
56 120 141 149 150 154 163 169 202 0
56 143 149 150 154 155 169 246 271 0
56 147 150 169 181 232 238 271 297 0
58 136 146 156 157 163 208 209 233 0
58 136 146 156 157 163 208 233 277 0
58 138 142 145 159 161 185 214 221 0
60 136 155 165 169 200 240 247 258 0
60 137 138 139 140 154 157 233 275 0
60 138 140 143 145 149 156 157 274 0
60 141 145 146 156 159 220 226 230 0
60 141 146 156 159 205 209 226 229 0
60 146 150 156 162 189 205 216 220 0
62 80 138 143 145 172 177 264 275 0
62 138 139 150 160 173 177 224 225 0
62 138 139 150 160 177 224 225 264 0
62 138 150 160 162 174 178 225 264 0
62 138 150 160 173 174 178 225 293 0
63 140 144 161 176 204 208 214 249 0
63 140 144 175 191 199 208 214 249 0
63 140 161 176 188 198 204 208 214 0
63 140 175 188 198 199 208 214 249 0
64 144 151 155 158 162 174 295 299 0
64 144 151 155 158 163 174 217 288 0
64 144 151 158 160 162 174 295 299 0
64 144 151 158 160 163 174 217 288 0
65 101 138 144 151 160 174 182 298 0
65 136 138 139 140 163 177 288 294 0
65 137 138 143 144 160 174 196 200 0
65 137 138 143 144 160 174 200 249 0
65 137 138 144 160 169 174 196 200 0
65 137 138 144 160 169 174 200 249 0
66 143 144 149 150 155 168 180 188 0
66 143 149 150 155 167 168 233 249 0
66 143 149 150 155 168 188 233 258 0
66 143 150 155 158 167 168 233 245 0
66 143 150 155 167 168 194 233 258 0
70 126 143 146 156 170 177 182 233 0
71 85 150 153 169 175 206 275 295 0
71 136 153 155 165 169 197 200 258 0
71 144 158 163 165 200 239 247 270 0
71 144 158 169 184 205 239 269 295 0
71 144 163 165 196 199 200 224 239 0
72 84 138 143 170 197 239 240 255 0
73 139 144 149 150 153 164 180 193 0
73 144 149 150 164 193 233 240 271 0
74 138 140 151 163 171 174 178 280 0
74 139 144 147 151 200 280 284 295 0
74 140 151 162 166 177 180 196 255 0
74 147 171 225 229 240 255 272 284 0
75 142 143 149 151 194 200 207 217 0
75 147 151 164 200 208 247 255 295 0
75 149 152 153 159 163 168 173 226 0
75 153 159 163 168 173 182 233 302 0
76 137 140 164 182 188 218 229 277 0
76 140 162 163 164 218 289 294 301 0
76 151 153 164 168 188 218 268 289 0
77 138 139 163 172 199 219 263 273 0
77 141 145 146 156 157 175 181 226 0
77 142 149 153 157 168 215 217 229 0
77 145 153 188 200 224 225 239 241 0
77 153 157 168 183 215 226 241 264 0
78 137 143 175 186 195 225 232 244 0
78 137 175 190 204 232 240 270 298 0
78 137 175 195 204 225 232 248 270 0
78 154 190 204 205 232 240 270 279 0
80 137 142 155 162 163 182 205 217 0
80 137 142 155 163 174 182 205 217 0
80 137 142 155 182 205 282 288 295 0
80 137 143 145 155 162 163 182 217 0
80 137 143 145 155 163 174 182 217 0
80 137 143 145 155 182 282 288 295 0
80 137 143 155 162 163 182 205 217 0
80 137 143 155 182 205 282 288 295 0
80 138 142 148 155 177 180 190 264 0
80 139 142 144 148 173 180 190 204 0
80 139 142 144 148 177 180 190 193 0
80 142 144 148 173 180 190 255 276 0
80 142 144 148 173 180 190 255 283 0
80 142 144 148 177 180 190 193 232 0
80 142 144 148 177 180 190 276 283 0
80 142 144 148 177 190 233 276 283 0
80 142 144 148 180 190 232 255 276 0
81 104 143 160 166 170 233 265 299 0
83 136 139 145 149 188 205 255 285 0
83 136 146 150 151 157 196 219 245 0
83 136 146 151 157 190 219 241 245 0
83 136 146 151 157 196 219 241 245 0
84 102 149 151 156 172 238 248 269 0
84 136 137 145 177 188 192 272 297 0
84 136 138 142 145 149 151 156 235 0
84 136 138 149 151 156 181 235 269 0
84 136 138 149 151 156 235 269 287 0
84 136 141 149 151 156 207 257 269 0
84 136 142 145 149 151 156 178 244 0
84 136 142 149 151 156 178 235 269 0
84 136 145 149 151 156 171 207 257 0
84 136 145 149 151 156 181 207 244 0
84 138 142 145 149 151 156 172 244 0
84 141 143 144 145 157 194 216 219 0
84 141 145 150 157 194 216 218 232 0
84 141 145 152 157 218 219 226 245 0
84 145 149 151 156 172 197 207 248 0
84 149 151 156 172 207 229 235 269 0
84 149 151 156 172 207 235 269 281 0
85 137 139 144 163 173 188 199 283 0
85 139 144 158 164 173 183 188 295 0
85 143 151 158 176 195 217 255 285 0
85 144 150 151 153 158 163 188 258 0
85 150 151 158 167 190 224 275 282 0
85 150 151 158 176 195 233 280 282 0
85 150 151 158 176 195 263 280 282 0
85 150 151 158 188 195 217 224 275 0
88 143 148 149 160 162 172 174 204 0
89 139 153 164 168 193 220 286 288 0
89 139 163 180 192 195 211 220 286 0
89 153 164 168 193 220 283 286 288 0
89 163 164 197 220 239 255 286 289 0
91 138 139 145 148 149 151 164 165 0
91 140 159 162 236 239 250 269 291 0
92 140 149 157 205 207 239 244 269 0
92 142 143 144 145 154 249 258 274 0
92 142 143 144 145 205 255 257 283 0
93 137 149 182 183 188 205 233 269 0
94 157 160 169 172 187 188 219 248 0
96 145 153 159 174 195 239 264 301 0
98 147 153 155 164 167 193 201 205 0
100 136 145 146 150 156 172 220 229 0
100 145 146 150 156 162 167 194 209 0
100 145 146 150 156 194 209 219 229 0
102 120 139 161 163 206 220 276 283 0
102 120 139 161 163 211 220 276 283 0
102 137 143 171 173 180 221 266 275 0
102 140 143 149 166 171 180 221 268 0
102 141 149 155 164 167 205 215 296 0
102 144 145 147 155 163 164 167 176 0
102 144 147 150 155 163 167 172 176 0
102 145 147 149 155 164 167 215 301 0
102 145 147 155 164 167 215 219 226 0
102 145 149 150 155 167 215 275 301 0
102 147 150 155 163 167 176 205 258 0
102 147 155 160 164 167 215 226 266 0
102 147 155 163 167 176 193 205 258 0
102 147 155 163 167 176 205 219 258 0
102 147 155 163 167 176 205 258 294 0
102 149 155 164 167 205 215 241 301 0
104 127 136 144 145 146 173 184 300 0
104 136 140 150 167 171 173 260 287 0
104 136 146 153 156 173 175 178 290 0
104 136 146 154 163 173 244 274 300 0
104 136 146 166 173 182 268 290 295 0
104 138 150 157 160 162 167 174 255 0
104 138 150 160 162 167 170 243 255 0
104 138 150 160 162 167 174 202 303 0
104 138 150 160 167 170 255 288 296 0
104 138 150 160 167 170 255 288 303 0
104 138 150 160 167 174 202 251 288 0
104 139 144 146 159 174 183 188 258 0
104 139 144 146 159 174 188 250 258 0
106 138 140 173 178 181 217 224 250 0
106 138 140 173 178 181 224 294 295 0
126 137 138 140 141 146 164 223 286 0
126 137 138 140 141 164 215 218 275 0
126 137 138 140 141 164 218 275 291 0
126 145 153 173 177 197 200 220 239 0
127 138 150 152 160 162 170 188 255 0
127 138 150 152 160 170 188 255 288 0
127 139 142 143 148 155 160 162 233 0
127 143 148 149 160 170 188 265 270 0
127 143 148 167 173 202 233 265 270 0
127 143 150 160 166 167 232 233 265 0
128 139 144 146 159 174 183 188 258 0
128 139 144 146 159 174 188 250 258 0
130 143 144 150 155 163 169 174 217 0
130 144 148 150 155 163 169 174 295 0
130 144 150 155 163 169 174 193 217 0
130 144 150 155 163 169 174 202 217 0
130 144 150 155 163 169 174 217 242 0
130 144 150 155 163 169 174 242 295 0
130 144 150 155 163 174 202 270 295 0
130 144 150 155 169 174 202 295 302 0
130 144 150 155 169 174 228 242 295 0
130 144 150 155 174 202 270 295 302 0
132 142 143 148 149 165 168 180 240 0
132 142 143 148 153 165 168 233 235 0
133 136 150 153 155 161 168 234 270 0
133 136 153 155 161 165 168 247 270 0
133 136 153 155 161 165 200 239 270 0
133 143 146 163 168 181 198 205 212 0
133 143 146 163 168 181 198 212 274 0
133 143 146 163 168 181 198 212 279 0
133 143 146 163 168 181 198 212 292 0
134 136 153 155 156 157 165 168 235 0
134 136 153 155 156 165 168 235 268 0
1 3 52 140 240 244 269 274 297 298 0
1 51 240 248 250 257 259 260 269 279 0
2 15 213 220 247 274 277 283 299 300 0
2 18 39 147 148 155 160 163 190 237 0
2 37 81 188 191 206 212 265 283 299 0
3 37 191 213 250 254 269 277 292 300 0
3 38 157 191 211 220 250 279 297 300 0
3 45 144 158 160 161 162 202 207 263 0
3 52 140 145 211 274 277 287 294 297 0
4 138 139 163 172 178 192 205 215 269 0
4 144 174 184 199 205 213 225 269 293 0
4 184 199 205 223 265 270 271 280 293 0
5 104 147 167 171 178 217 228 291 294 0
5 139 168 181 188 190 199 221 257 284 0
5 141 146 166 173 193 238 258 268 287 0
5 142 161 176 182 188 195 213 219 284 0
5 158 169 172 174 221 261 270 286 293 0
5 164 169 172 174 223 261 270 286 293 0
6 138 147 157 181 192 215 216 240 287 0
6 138 162 173 174 178 188 196 216 255 0
6 139 162 170 197 204 205 228 265 269 0
6 160 162 166 174 182 187 194 204 268 0
7 136 137 145 192 197 255 268 292 293 0
7 136 137 145 192 219 250 268 292 293 0
7 137 145 149 154 156 177 214 238 244 0
7 140 157 160 162 165 174 195 239 264 0
8 136 142 144 148 153 173 176 177 229 0
8 139 140 157 160 162 194 218 244 265 0
8 142 143 144 148 149 152 153 236 237 0
8 142 148 173 176 177 188 237 238 283 0
8 171 173 177 181 188 203 204 268 294 0
9 136 144 155 171 173 176 177 189 203 0
9 138 143 162 165 174 182 231 255 267 0
9 141 142 146 153 154 173 190 217 253 0
10 144 149 158 165 168 170 171 208 267 0
10 145 149 158 165 171 208 230 241 267 0
10 149 158 165 168 171 208 230 241 267 0
11 191 211 240 250 257 260 262 279 297 0
11 213 239 248 253 254 256 261 265 280 0
11 213 250 254 256 260 269 277 292 300 0
12 136 140 144 155 161 164 190 199 273 0
12 140 142 144 151 155 158 161 164 172 0
12 140 142 151 155 158 161 164 172 258 0
13 144 148 151 160 163 174 204 224 275 0
13 148 160 163 172 174 197 224 239 275 0
14 132 143 145 149 168 197 207 235 285 0
15 154 156 189 201 213 234 235 254 256 0
15 157 209 212 213 220 283 287 294 299 0
16 36 191 240 250 260 269 274 292 298 0
16 37 212 225 257 259 261 265 283 299 0
16 51 170 211 213 234 240 253 257 269 0
16 58 150 151 164 165 168 193 233 271 0
16 125 143 155 166 220 231 238 268 295 0
16 139 144 149 150 153 164 180 193 235 0
16 139 144 150 164 168 192 193 233 239 0
16 139 144 150 164 168 193 233 239 293 0
16 144 150 153 164 193 197 233 239 271 0
16 150 151 153 164 193 233 271 273 302 0
17 139 149 150 153 162 168 204 233 235 0
18 138 143 148 149 162 172 174 255 270 0
19 46 160 174 196 204 234 253 254 262 0
20 138 140 147 163 172 193 275 293 294 0
20 138 145 153 156 163 168 172 178 294 0
20 139 140 142 163 172 188 207 219 255 0
20 144 148 158 173 176 182 190 225 245 0
20 144 154 158 168 171 173 190 225 237 0
20 144 154 158 171 176 203 204 225 232 0
21 40 139 156 157 158 164 172 173 213 0
21 50 183 210 211 264 269 292 297 300 0
21 80 142 144 148 169 195 237 255 267 0
21 80 142 148 155 169 173 180 195 276 0
21 80 142 148 155 169 173 195 233 276 0
21 133 136 138 145 155 197 226 239 275 0
21 133 141 145 172 177 180 208 224 269 0
23 38 145 168 211 212 213 235 248 253 0
23 60 144 168 199 212 235 247 258 295 0
23 137 145 159 162 174 177 192 214 245 0
23 137 145 162 168 174 177 192 260 272 0
23 137 145 162 174 177 192 214 226 260 0
23 137 145 165 177 192 214 226 239 257 0
23 146 149 162 163 168 174 183 205 266 0
36 37 38 161 191 199 265 280 283 299 0
36 37 212 240 248 250 260 261 262 279 0
36 85 191 250 260 262 269 274 292 298 0
36 132 142 143 148 149 150 168 180 240 0
36 145 160 174 191 205 278 280 288 298 0
36 154 159 191 240 250 274 279 283 298 0
36 154 189 197 201 212 213 239 240 242 0
36 157 164 209 213 220 247 274 288 300 0
36 162 209 213 247 253 274 277 278 300 0
36 164 189 201 209 212 213 277 299 300 0
36 185 189 197 201 209 213 239 240 262 0
36 189 201 212 213 235 239 247 262 283 0
36 191 196 251 261 274 278 280 288 298 0
36 209 213 220 247 262 268 283 299 300 0
36 209 213 241 247 274 277 278 288 300 0
36 209 213 247 253 274 277 278 288 300 0
36 209 213 247 274 277 278 287 294 299 0
37 38 191 206 225 239 251 253 261 298 0
37 80 189 191 213 239 256 261 265 280 0
37 139 159 177 213 250 254 256 277 279 0
37 154 159 188 212 235 250 257 279 280 0
37 154 159 212 235 250 256 257 259 279 0
37 160 178 191 212 259 265 278 280 299 0
37 191 212 240 248 250 257 260 262 279 0
37 213 234 253 254 256 260 261 265 280 0
38 123 191 201 211 239 261 265 280 297 0
38 140 159 191 211 250 269 277 297 300 0
38 154 168 212 213 235 248 253 257 288 0
38 154 172 210 212 234 235 236 248 253 0
38 154 212 213 220 234 235 248 253 268 0
38 188 189 210 212 234 235 248 253 262 0
38 189 191 201 211 234 261 265 280 297 0
38 191 211 220 250 260 268 279 297 300 0
38 198 204 210 212 234 235 248 253 262 0
38 210 212 235 239 248 253 261 262 288 0
39 145 146 149 151 152 157 161 183 189 0
39 145 149 151 152 183 190 198 243 286 0
39 145 149 151 152 183 198 217 243 286 0
41 138 139 140 160 172 174 255 295 301 0
42 68 140 159 161 172 177 199 214 264 0
42 134 136 153 155 165 168 208 235 268 0
43 139 146 161 163 195 206 220 275 283 0
43 139 161 163 164 187 211 220 278 286 0
43 139 161 163 180 187 211 220 283 286 0
44 136 138 143 149 150 155 166 169 173 0
44 136 143 149 150 155 166 169 173 238 0
44 136 143 149 150 155 166 173 238 270 0
44 145 149 150 151 164 168 182 239 242 0
44 147 155 166 176 239 261 265 268 280 0
44 147 155 166 184 239 261 265 268 280 0
44 153 154 189 205 212 213 234 244 247 0
44 160 166 204 206 225 234 251 268 285 0
45 138 177 199 209 221 258 264 280 298 0
45 140 160 174 205 269 280 288 297 298 0
45 145 160 185 205 245 251 280 298 299 0
45 145 205 211 224 225 261 265 280 299 0
45 159 164 201 205 209 247 277 299 300 0
45 159 189 201 209 212 218 277 299 300 0
45 173 174 195 212 261 280 288 293 298 0
45 196 206 224 225 251 261 274 285 299 0
46 52 145 146 149 151 152 196 243 258 0
46 136 138 144 150 155 157 163 188 199 0
46 137 142 151 155 162 175 178 182 295 0
46 137 142 155 162 163 182 246 265 293 0
46 138 144 150 155 157 163 188 199 301 0
46 145 150 151 155 156 163 168 212 288 0
46 154 160 162 188 191 197 239 251 283 0
46 154 162 188 204 227 257 261 265 283 0
46 159 160 166 168 189 201 204 265 268 0
46 160 162 170 188 227 240 251 257 278 0
46 160 170 188 197 239 257 265 283 299 0
47 140 157 159 209 212 220 223 283 299 0
47 140 157 166 209 212 220 278 289 299 0
47 154 191 219 222 250 254 260 277 279 0
47 156 166 204 220 222 250 260 268 279 0
47 156 166 220 250 256 260 268 279 281 0
47 157 159 199 209 212 220 278 286 299 0
47 157 159 209 220 223 247 278 286 288 0
48 139 160 177 210 222 239 248 277 278 0
48 160 163 188 191 265 278 279 280 303 0
48 160 169 170 172 188 240 265 278 280 0
48 169 172 188 244 261 265 280 283 288 0
49 140 156 164 170 173 183 193 213 240 0
49 153 154 166 204 248 250 257 259 260 0
49 153 154 172 218 248 250 259 260 288 0
49 153 166 170 172 188 250 260 262 263 0
49 154 159 183 191 220 254 264 268 300 0
49 154 159 189 201 204 250 254 277 300 0
49 159 166 170 172 204 240 250 259 262 0
49 159 197 220 239 250 254 256 268 300 0
50 136 139 160 170 210 240 278 287 288 0
50 136 160 170 210 240 278 287 294 299 0
50 136 210 213 244 261 283 294 299 300 0
50 139 140 148 162 174 198 210 218 268 0
50 139 160 170 172 177 210 240 283 299 0
50 139 160 184 210 239 248 278 287 299 0
50 139 170 172 210 222 240 278 287 299 0
50 139 205 210 248 261 269 278 288 300 0
50 140 152 159 183 213 264 269 297 300 0
50 140 159 213 250 263 272 279 297 300 0
50 140 162 197 212 213 250 260 279 300 0
50 140 162 211 224 225 250 260 269 300 0
50 147 160 163 172 210 248 278 299 300 0
50 152 159 194 213 250 279 292 293 300 0
50 152 213 250 260 263 272 279 297 300 0
50 160 170 172 177 210 240 278 294 299 0
50 170 172 177 210 240 261 278 294 299 0
50 172 210 239 248 261 278 288 294 300 0
50 177 188 210 222 248 261 283 294 299 0
50 213 224 250 260 279 287 292 293 294 0
51 70 159 172 183 240 248 259 264 279 0
51 136 140 145 154 235 250 257 259 260 0
51 136 140 159 235 250 257 259 262 269 0
51 136 154 235 250 257 259 260 279 292 0
51 140 145 153 154 235 250 257 259 260 0
51 140 153 159 172 188 244 250 262 279 0
51 145 154 159 166 235 250 257 259 292 0
51 154 168 169 189 201 210 240 244 248 0
51 154 170 172 213 234 240 253 261 277 0
51 157 162 172 213 234 240 248 253 262 0
51 157 169 213 234 240 248 253 257 262 0
51 168 172 210 220 235 248 253 262 268 0
51 169 210 211 212 235 239 248 253 269 0
52 72 149 157 160 165 168 174 177 258 0
52 130 198 210 211 264 277 278 297 300 0
52 139 159 200 211 239 277 279 287 297 0
52 139 191 211 248 260 277 279 287 297 0
52 140 145 205 213 239 260 277 293 300 0
52 140 157 162 213 220 239 260 269 300 0
52 140 161 191 213 260 277 279 297 300 0
52 140 205 213 239 260 269 277 297 300 0
52 145 154 159 205 211 240 244 292 298 0
52 145 154 205 211 224 225 235 260 292 0
52 159 173 211 214 220 268 279 297 300 0
53 126 145 146 148 156 180 197 241 263 0
53 160 211 251 253 280 282 286 292 293 0
54 138 141 150 153 168 177 192 197 264 0
54 154 183 197 260 264 274 279 281 298 0
55 140 160 162 211 220 239 253 268 280 0
55 160 191 247 264 274 280 283 298 299 0
55 161 173 199 209 274 280 283 288 298 0
55 170 206 211 225 239 253 261 297 298 0
55 206 211 213 224 225 234 253 261 277 0
55 240 244 261 265 274 278 280 298 299 0
56 65 138 139 140 150 157 163 181 208 0
56 84 143 150 153 188 233 239 283 284 0
56 136 145 153 155 156 157 165 235 255 0
56 136 145 155 156 157 165 240 244 258 0
56 136 145 155 156 165 240 244 255 268 0
56 136 150 151 155 169 170 181 246 271 0
56 136 153 155 156 157 165 168 235 255 0
56 136 153 155 156 157 165 235 239 255 0
56 136 153 155 156 165 235 239 258 268 0
56 137 140 141 150 169 171 178 181 202 0
58 136 146 156 157 160 163 171 233 277 0
58 136 146 156 157 163 171 180 215 277 0
58 136 146 156 157 171 233 245 277 284 0
58 136 146 156 157 190 208 215 233 277 0
58 138 140 142 159 161 164 194 204 214 0
58 138 140 143 159 161 164 194 214 274 0
58 144 151 155 158 161 174 283 288 295 0
60 136 145 146 150 153 156 209 226 229 0
60 136 145 146 153 156 220 226 229 241 0
60 136 153 155 165 169 194 197 200 258 0
60 138 140 143 145 146 157 168 202 277 0
60 138 140 143 152 154 156 157 214 269 0
60 140 143 145 157 168 202 218 220 254 0
60 140 143 145 157 168 202 218 238 277 0
60 140 143 145 168 198 202 218 254 277 0
60 143 145 157 168 202 218 277 286 292 0
60 146 150 156 205 209 216 230 262 295 0
60 146 156 162 166 189 205 209 216 241 0
60 146 156 162 166 205 209 216 226 241 0
62 80 142 144 148 150 153 173 206 208 0
62 138 139 150 160 162 173 178 270 288 0
62 138 139 150 160 173 177 178 267 288 0
62 138 143 160 162 173 174 178 225 241 0
62 138 143 160 174 178 241 264 276 293 0
62 138 144 150 160 162 173 174 178 225 0
62 138 150 152 160 162 173 174 224 225 0
62 138 150 152 160 162 174 197 224 225 0
62 138 150 160 162 173 174 177 178 225 0
62 138 150 160 162 173 174 177 224 225 0
62 138 150 160 162 174 178 264 270 299 0
62 138 150 160 173 174 177 224 225 293 0
63 140 144 176 198 199 204 208 214 249 0
63 140 144 176 199 208 214 233 249 293 0
63 140 176 188 191 199 208 214 222 246 0
64 104 144 159 174 177 183 188 197 258 0
64 144 151 155 158 162 163 174 217 299 0
64 144 151 158 160 162 163 174 217 299 0
65 136 138 139 140 163 177 195 222 294 0
65 137 138 143 144 151 160 174 182 200 0
65 137 138 143 144 160 162 170 196 200 0
65 137 138 144 151 160 169 174 182 200 0
65 137 138 144 160 162 169 170 196 200 0
65 137 138 144 160 162 169 170 200 249 0
65 139 140 157 163 172 173 207 217 224 0
66 139 144 146 159 170 174 188 250 258 0
66 140 143 149 150 155 158 167 168 233 0
66 141 143 149 150 155 158 167 168 233 0
66 143 149 150 155 167 168 180 225 249 0
66 143 149 150 155 167 168 215 233 258 0
66 143 149 150 155 167 168 225 233 258 0
66 143 150 155 158 167 168 194 233 239 0
66 143 150 155 168 188 194 233 239 258 0
68 138 139 140 146 149 162 172 239 268 0
69 140 144 145 148 177 205 217 226 293 0
69 140 144 145 162 177 188 205 217 226 0
69 140 144 145 177 188 205 217 226 293 0
71 85 150 153 169 206 217 221 266 275 0
71 136 153 155 161 165 197 200 258 270 0
71 136 153 155 165 169 197 200 255 276 0
71 136 155 161 165 197 200 240 258 270 0
71 136 155 165 169 197 200 240 248 258 0
71 144 149 155 158 169 181 184 239 295 0
71 144 155 158 169 184 185 197 239 295 0
71 144 158 184 185 200 219 239 274 295 0
71 144 163 199 200 205 230 239 258 269 0
71 144 165 197 199 200 212 219 239 295 0
72 84 146 150 173 194 196 239 240 284 0
72 136 145 155 156 157 165 235 240 255 0
72 136 145 155 156 157 165 240 244 258 0
72 136 145 155 156 165 235 240 255 268 0
72 136 145 155 156 165 235 240 258 268 0
74 136 139 147 151 182 220 255 280 282 0
74 136 143 144 151 158 176 195 255 280 0
74 137 142 155 193 196 205 246 288 295 0
74 137 143 145 155 162 175 178 182 295 0
74 140 157 162 165 168 173 180 187 188 0
74 142 149 163 171 202 235 248 284 285 0
74 143 150 151 153 158 258 261 293 295 0
75 138 145 153 159 182 188 239 258 264 0
75 138 146 159 163 173 258 287 292 293 0
75 145 150 153 159 174 239 255 258 264 0
76 138 146 153 157 163 168 221 255 283 0
76 139 160 162 174 188 193 209 219 245 0
76 140 153 160 166 168 174 188 255 268 0
77 142 149 150 157 168 174 216 233 240 0
78 137 143 151 175 195 214 225 232 240 0
78 137 143 175 186 195 204 232 244 298 0
79 142 143 148 176 180 208 214 221 246 0
79 149 151 159 165 192 233 239 242 246 0
80 136 142 144 148 154 163 190 204 233 0
80 138 142 143 148 155 177 190 233 264 0
80 139 142 144 148 177 190 193 237 276 0
80 141 142 144 145 148 150 190 237 274 0
80 142 144 148 169 177 195 232 237 267 0
80 142 148 154 155 169 173 195 237 267 0
80 142 148 154 155 169 173 195 237 276 0
80 142 148 154 155 169 195 232 237 267 0
80 142 148 155 168 180 190 197 276 283 0
80 142 148 155 169 173 177 180 195 276 0
80 142 148 155 169 173 177 195 233 276 0
80 142 148 155 169 173 177 195 237 267 0
80 142 148 155 169 173 177 195 237 276 0
80 142 148 155 169 173 181 195 233 267 0
80 142 148 155 180 190 204 217 232 276 0
83 136 141 146 150 151 157 173 219 245 0
83 136 141 146 151 157 190 201 219 245 0
83 136 141 146 151 157 196 219 245 247 0
83 136 143 146 150 151 157 173 219 245 0
83 136 146 149 150 151 157 190 219 246 0
83 136 146 149 151 157 173 190 219 241 0
83 136 146 150 151 157 182 219 245 246 0
83 136 146 150 151 190 219 245 268 272 0
84 102 145 149 151 156 205 229 238 244 0
84 102 145 149 156 172 197 205 207 244 0
84 136 138 145 149 151 156 181 238 244 0
84 136 142 145 149 151 156 171 224 244 0
84 136 142 145 149 151 156 207 235 276 0
84 136 142 145 149 151 156 207 248 288 0
84 136 142 145 149 151 156 224 235 288 0
84 136 142 149 151 156 207 235 269 288 0
84 136 145 149 156 174 207 229 235 287 0
84 138 141 142 149 151 156 172 235 269 0
84 138 142 149 151 156 172 197 235 269 0
84 138 142 149 151 156 172 235 269 287 0
84 138 145 149 151 156 172 181 238 244 0
84 141 143 145 150 157 168 194 196 216 0
84 141 144 145 152 157 196 216 219 245 0
84 141 144 145 152 157 216 219 245 283 0
84 142 145 149 151 156 172 177 224 235 0
84 142 145 149 151 156 172 224 235 287 0
84 142 149 151 156 171 172 178 248 269 0
84 142 149 151 156 172 177 178 248 269 0
84 149 156 162 172 174 197 207 235 269 0
85 137 150 151 158 176 195 205 217 224 0
85 139 144 168 172 173 188 199 283 295 0
85 143 145 151 158 195 255 280 284 295 0
85 143 149 151 158 176 195 255 280 282 0
85 143 151 158 172 188 195 204 280 282 0
85 143 151 158 176 195 224 269 275 282 0
85 143 151 158 176 195 255 269 280 282 0
85 143 151 158 182 195 255 263 280 282 0
85 143 151 158 195 205 215 224 255 282 0
85 147 150 151 155 157 158 195 280 295 0
85 147 150 151 158 176 195 217 263 285 0
85 149 150 151 158 176 195 224 275 295 0
85 149 150 151 158 195 269 280 291 295 0
85 150 151 158 176 195 205 224 233 282 0
85 150 151 158 176 195 217 224 275 284 0
85 150 151 158 195 205 215 224 269 295 0
89 138 140 154 159 219 220 290 296 302 0
89 138 140 157 162 172 219 228 229 277 0
89 139 149 153 164 168 217 220 258 286 0
89 139 164 206 217 220 258 264 270 286 0
89 143 144 149 150 155 167 168 180 217 0
91 152 159 194 213 250 265 272 279 297 0
92 140 142 143 144 145 147 255 274 303 0
96 145 153 160 173 184 198 204 205 239 0
98 136 142 143 158 162 163 165 178 193 0
98 142 143 145 158 162 163 165 182 293 0
98 142 143 158 162 163 165 175 182 208 0
98 142 143 158 162 163 165 182 266 293 0
99 136 140 156 162 163 171 226 264 287 0
99 138 142 145 161 194 220 221 229 283 0
100 145 146 147 150 156 209 219 229 295 0
100 145 146 150 156 166 167 189 220 230 0
100 146 156 180 194 205 220 229 241 269 0
100 146 156 194 205 219 220 229 241 269 0
101 147 150 169 202 206 233 246 271 288 0
101 147 150 169 206 216 233 246 271 288 0
102 120 139 161 163 164 206 220 225 278 0
102 120 139 161 163 164 206 220 276 278 0
102 136 147 155 156 164 167 176 255 284 0
102 138 139 150 160 173 178 202 204 276 0
102 140 143 180 185 199 216 229 233 284 0
102 141 145 147 149 155 163 167 176 226 0
102 141 145 150 155 157 163 164 167 176 0
102 141 145 155 164 167 172 215 236 296 0
102 144 147 155 163 164 167 176 205 236 0
102 144 147 155 163 167 176 188 193 205 0
102 145 147 149 150 155 167 176 258 284 0
102 145 147 149 155 167 176 241 284 295 0
102 145 150 155 166 167 176 268 284 296 0
102 147 149 155 163 167 176 219 241 258 0
102 147 149 155 164 167 176 258 266 284 0
102 147 155 164 167 176 193 255 266 284 0
102 149 155 167 181 204 205 215 241 301 0
102 150 155 160 167 205 215 253 295 296 0
104 136 140 150 167 171 260 264 287 300 0
104 136 140 171 173 214 237 260 287 298 0
104 136 146 149 161 163 173 178 219 300 0
104 136 146 166 173 181 182 268 295 300 0
104 138 150 153 160 162 167 174 202 205 0
104 139 144 159 173 174 177 188 250 258 0
106 127 138 139 143 162 172 173 233 288 0
106 140 143 146 150 154 175 177 189 201 0
106 140 143 146 150 154 175 177 243 253 0
106 140 143 146 154 175 177 188 189 253 0
106 140 143 146 154 175 177 188 201 243 0
106 140 146 154 175 177 188 189 201 205 0
106 140 146 154 175 177 188 205 243 253 0
120 139 142 161 163 183 220 276 283 286 0
121 141 144 145 156 186 199 204 270 295 0
122 136 146 151 190 219 241 245 268 272 0
122 136 146 151 196 219 241 245 268 272 0
124 138 139 143 150 160 178 204 225 264 0
126 137 138 140 141 164 181 218 223 286 0
126 145 153 157 177 197 200 220 239 258 0
127 138 142 143 166 167 233 255 265 276 0
127 138 143 149 160 166 170 188 255 265 0
127 138 143 149 166 170 188 255 265 270 0
127 138 143 166 170 173 233 255 265 270 0
127 143 148 149 170 188 202 214 265 270 0
127 143 149 150 160 166 170 188 265 270 0
127 143 149 150 166 167 202 231 265 270 0
128 139 144 159 174 177 183 188 197 258 0
128 139 144 159 174 188 197 250 258 287 0
130 136 151 155 166 208 219 241 245 258 0
130 136 151 157 196 208 219 241 245 258 0
130 136 151 173 182 214 219 241 245 246 0
130 136 151 196 204 208 219 241 245 246 0
130 143 144 150 155 163 169 174 274 295 0
130 144 150 155 162 163 169 174 202 295 0
130 144 150 155 169 174 202 228 265 295 0
130 144 150 155 169 174 220 242 295 302 0
131 138 140 158 165 173 174 178 224 240 0
132 140 143 146 150 154 175 177 201 243 0
132 140 143 146 150 154 175 177 243 253 0
132 140 143 146 154 175 177 188 201 243 0
132 140 143 146 154 175 177 188 243 253 0
132 140 146 150 154 175 177 201 205 243 0
132 140 146 150 154 175 177 205 243 253 0
132 140 146 154 175 177 188 201 205 243 0
132 140 146 154 175 177 188 205 243 253 0
132 142 143 148 150 153 163 168 233 235 0
132 143 148 165 167 168 174 184 233 240 0
133 136 150 152 153 155 168 169 173 202 0
133 136 150 153 155 161 168 197 257 270 0
133 136 150 153 155 161 200 205 239 270 0
133 136 152 153 155 165 169 173 200 202 0
133 136 153 155 161 165 168 191 234 270 0
133 136 153 155 161 165 168 239 257 270 0
133 143 146 157 161 163 168 181 205 212 0
133 143 146 157 161 163 181 212 239 292 0
133 143 146 163 181 188 198 205 212 239 0
133 143 146 163 181 198 205 239 270 286 0
133 143 146 163 181 198 239 270 286 292 0
134 136 145 155 156 165 235 240 268 278 0
134 136 145 155 156 165 243 244 248 268 0
134 142 144 151 154 155 158 162 190 201 0
134 142 151 154 155 158 162 167 190 201 0
135 138 143 150 154 166 194 214 255 301 0
135 141 143 150 166 193 195 205 214 269 0
135 143 150 163 166 193 195 205 214 269 0
1 3 37 42 170 172 188 191 240 250 269 0
1 36 156 197 205 212 213 239 240 253 266 0
2 14 166 197 210 239 240 248 253 257 262 0
2 36 191 224 225 265 274 280 283 285 299 0
2 37 154 213 239 253 254 256 265 279 280 0
2 44 139 150 153 160 162 172 174 233 293 0
2 64 144 158 160 162 169 174 200 295 299 0
2 166 191 197 204 211 239 251 253 280 297 0
3 37 38 184 198 199 241 250 277 279 300 0
3 37 212 235 250 256 257 259 262 269 292 0
3 71 170 172 188 191 250 269 274 292 298 0
3 170 172 188 191 212 240 250 262 274 279 0
3 170 172 188 191 240 250 262 274 279 298 0
3 170 172 188 209 213 239 240 247 253 262 0
4 139 143 151 153 154 170 199 225 235 293 0
5 140 155 158 160 169 172 174 212 223 283 0
5 140 155 169 172 174 188 200 283 286 297 0
5 142 144 172 179 195 204 221 223 230 284 0
5 142 157 161 184 188 190 221 257 277 284 0
5 155 158 160 162 165 170 172 188 221 286 0
6 145 159 197 204 205 213 250 268 292 293 0
8 142 143 156 170 206 216 229 233 257 271 0
8 142 144 171 173 176 177 203 217 238 240 0
9 141 149 158 162 175 177 232 255 263 284 0
9 153 159 169 187 192 209 214 226 228 295 0
9 160 162 165 172 174 182 202 229 231 267 0
10 137 143 144 145 151 161 168 191 202 207 0
10 137 144 145 151 161 168 169 184 202 207 0
10 137 144 145 151 161 168 169 199 202 207 0
10 137 144 145 151 168 169 202 207 241 258 0
10 143 145 149 158 165 171 213 230 242 276 0
10 144 149 158 165 167 168 171 173 208 267 0
10 149 158 160 165 168 171 208 230 256 267 0
10 149 158 165 168 171 208 211 230 276 280 0
12 136 140 142 144 155 161 164 184 199 284 0
12 136 140 142 151 155 161 164 199 215 258 0
12 136 140 144 150 158 161 164 190 270 296 0
12 140 142 144 155 161 164 172 184 199 284 0
12 140 142 151 155 161 164 172 199 215 258 0
12 140 144 155 161 164 172 190 199 273 282 0
12 144 149 158 165 167 168 171 208 241 276 0
13 140 146 162 169 177 199 226 239 262 295 0
13 142 146 171 200 208 219 239 275 286 293 0
13 147 163 210 212 230 248 277 278 288 300 0
13 154 212 235 250 257 259 260 261 269 292 0
13 188 191 206 212 225 251 261 278 285 299 0
14 136 145 146 149 150 151 152 219 255 272 0
15 40 55 137 139 167 174 175 176 194 206 0
15 159 191 211 234 250 277 279 297 300 303 0
15 183 191 211 260 264 277 279 287 294 297 0
16 58 139 144 150 164 168 193 206 233 235 0
16 82 140 144 145 147 155 159 171 174 258 0
16 82 142 151 157 164 169 172 213 226 248 0
16 139 144 147 150 153 164 193 233 235 245 0
16 140 150 151 164 165 168 171 193 233 271 0
16 149 150 151 153 164 180 193 206 239 271 0
16 150 151 158 167 176 190 215 224 275 282 0
17 82 147 157 163 165 166 168 173 174 202 0
17 104 144 159 174 177 183 188 197 227 258 0
18 139 149 153 160 162 194 202 239 243 265 0
18 142 143 144 148 154 180 190 230 255 295 0
18 143 145 148 157 197 212 215 233 262 303 0
19 46 160 168 174 253 254 256 257 287 294 0
20 127 136 147 156 163 168 178 207 215 294 0
20 136 138 157 163 178 192 242 258 260 294 0
20 136 139 142 147 156 163 178 207 217 219 0
20 139 142 145 156 163 172 178 207 219 258 0
20 139 145 147 156 163 172 178 193 207 301 0
20 139 145 156 163 172 178 193 206 207 217 0
20 139 147 159 161 173 214 215 222 249 302 0
20 139 147 159 173 193 204 214 226 228 249 0
20 144 148 149 158 171 173 182 190 214 225 0
20 144 151 158 173 176 177 216 225 231 291 0
20 145 153 156 163 168 172 178 207 272 294 0
21 36 139 209 212 213 220 240 268 283 288 0
21 38 183 191 210 213 264 277 279 294 297 0
21 50 145 173 183 210 211 274 292 294 297 0
21 54 139 146 159 161 163 195 210 220 283 0
21 80 142 145 148 155 169 195 237 274 276 0
21 84 136 138 142 149 151 244 269 288 289 0
21 84 136 145 149 151 171 197 207 226 257 0
22 50 52 137 152 164 197 198 205 208 224 0
23 137 145 160 168 172 174 177 192 202 214 0
23 137 145 160 174 177 192 202 204 214 260 0
23 137 145 162 168 174 177 192 226 257 272 0
23 137 145 162 168 177 192 209 214 226 260 0
23 137 145 162 174 177 188 192 214 245 257 0
23 137 145 162 177 192 199 214 226 241 260 0
36 139 189 201 209 212 213 277 283 287 288 0
36 144 208 209 212 221 266 277 283 299 300 0
36 145 159 191 205 251 261 278 280 298 299 0
36 153 154 166 209 213 239 244 247 253 268 0
36 153 154 176 189 201 212 213 234 244 247 0
36 153 154 189 197 201 209 213 239 248 278 0
36 153 162 209 213 247 248 260 277 278 300 0
36 154 208 212 221 235 239 247 253 266 271 0
36 157 196 209 213 220 247 274 283 288 300 0
36 159 191 205 261 265 269 280 283 298 299 0
36 160 174 191 206 224 225 274 278 285 288 0
36 167 174 191 261 273 274 280 283 288 298 0
36 208 209 212 221 266 271 277 278 299 300 0
37 139 159 191 213 250 254 269 277 287 292 0
37 145 154 159 160 188 212 235 250 257 292 0
37 145 159 160 212 235 250 257 259 262 292 0
37 153 154 159 170 212 250 257 259 279 280 0
37 153 154 159 188 212 248 250 257 279 280 0
37 154 159 170 188 212 240 250 257 261 279 0
37 154 159 173 183 212 235 256 257 259 279 0
37 154 160 188 212 235 250 257 260 269 292 0
37 154 212 235 250 256 257 259 260 279 288 0
37 159 160 188 212 235 250 257 262 269 292 0
37 159 160 188 212 235 250 257 262 279 299 0
37 159 183 212 235 257 259 262 264 279 280 0
37 160 162 172 178 188 212 244 251 278 280 0
37 160 172 206 212 225 244 251 259 278 299 0
37 188 212 218 235 250 257 260 262 279 280 0
37 189 201 213 234 251 254 256 260 261 280 0
37 212 235 250 257 259 260 262 269 280 292 0
37 212 240 248 250 257 259 260 261 262 279 0
38 154 168 172 188 189 212 213 235 248 253 0
38 154 168 186 188 189 212 213 235 248 253 0
38 154 169 170 172 210 212 234 240 253 288 0
38 154 170 172 188 189 201 210 212 234 240 0
38 154 170 172 188 189 212 213 234 240 253 0
38 154 172 188 189 201 212 213 234 235 248 0
38 154 184 188 189 201 212 213 235 239 248 0
38 168 170 172 188 189 201 212 213 240 262 0
38 170 188 189 212 213 234 240 253 257 262 0
38 200 207 213 235 239 248 253 262 270 286 0
39 139 145 149 151 152 171 183 198 243 286 0
39 145 146 149 151 152 161 170 183 184 240 0
39 145 149 151 152 170 183 184 198 240 286 0
41 102 138 139 140 142 151 158 174 295 301 0
41 138 139 140 172 174 215 223 292 293 301 0
41 138 140 160 171 174 197 232 239 295 301 0
41 138 140 160 172 174 214 246 273 295 301 0
42 70 139 145 162 170 183 198 202 265 302 0
42 70 139 162 169 174 183 197 198 264 295 0
42 82 154 157 218 232 243 244 245 274 288 0
43 139 146 161 163 175 187 200 206 220 283 0
43 139 146 161 163 180 187 206 220 275 283 0
43 139 154 161 163 180 195 211 220 283 286 0
44 136 138 143 149 150 155 166 173 201 270 0
44 136 143 148 149 155 166 169 173 188 238 0
44 136 143 148 149 155 166 173 188 238 270 0
44 139 141 145 149 150 151 164 165 193 240 0
44 139 142 145 150 153 160 172 174 178 233 0
44 139 144 149 150 151 164 187 193 240 302 0
44 139 145 150 151 164 168 182 233 240 302 0
44 142 149 150 151 153 164 193 208 221 273 0
44 145 188 197 212 235 239 241 253 262 274 0
44 147 155 172 174 191 205 239 261 280 287 0
44 147 155 174 191 206 208 225 234 261 285 0
44 149 150 151 153 163 164 182 229 239 302 0
44 149 150 151 153 164 166 182 192 268 293 0
44 160 176 184 191 204 234 242 249 251 280 0
45 138 140 149 171 173 177 199 209 221 298 0
45 138 146 173 199 209 221 224 225 287 302 0
45 138 153 173 177 199 208 209 221 271 298 0
45 143 206 211 212 221 224 225 251 261 299 0
45 144 149 160 161 162 199 202 207 209 263 0
45 145 167 174 205 232 236 261 280 288 298 0
45 153 160 183 212 251 260 264 280 298 299 0
45 157 164 201 205 209 220 247 260 299 300 0
45 160 167 174 212 221 280 288 293 298 301 0
45 160 174 211 221 224 225 240 274 280 288 0
45 163 204 212 230 251 261 273 280 298 299 0
45 196 206 211 212 221 224 225 251 261 299 0
46 136 138 144 150 155 163 167 198 199 268 0
46 136 138 144 150 155 163 188 198 199 268 0
46 136 138 144 150 157 158 163 167 199 270 0
46 136 138 144 150 157 158 163 188 199 270 0
46 137 139 142 155 174 193 211 238 295 298 0
46 138 144 150 155 157 163 167 199 206 301 0
46 138 144 150 155 157 163 167 199 219 301 0
46 138 144 150 155 157 163 167 199 229 296 0
46 145 150 151 153 155 156 163 166 168 288 0
46 145 150 151 153 155 162 163 168 207 266 0
46 145 150 151 155 156 162 163 166 168 285 0
46 145 153 155 156 162 163 165 166 168 184 0
46 145 153 155 156 162 165 168 184 212 295 0
46 160 162 169 178 191 204 251 259 270 278 0
46 160 163 188 191 204 227 265 282 283 288 0
46 160 166 191 204 223 227 251 259 278 299 0
46 160 172 214 244 249 251 259 272 278 299 0
46 160 188 193 223 231 249 251 257 283 299 0
46 162 166 188 191 204 223 227 251 261 278 0
46 162 188 204 208 223 257 261 265 270 278 0
46 166 204 206 239 251 253 260 261 268 270 0
47 140 191 206 225 250 254 260 269 277 285 0
47 154 166 191 250 260 268 269 277 292 296 0
47 155 159 177 204 222 246 250 254 277 279 0
47 159 191 204 219 222 246 250 254 277 279 0
47 191 201 213 222 250 254 260 269 277 292 0
48 136 139 149 158 164 170 192 208 217 302 0
48 139 149 157 158 164 208 217 248 288 302 0
48 160 163 223 251 257 259 278 279 280 282 0
49 153 154 172 183 188 204 244 260 264 288 0
49 159 166 177 191 250 253 262 268 277 294 0
49 166 189 201 204 250 260 262 268 277 300 0
50 136 139 170 210 222 240 261 283 287 299 0
50 139 140 148 157 162 188 198 210 218 265 0
50 139 140 159 213 250 263 269 272 287 293 0
50 139 148 162 198 210 218 265 268 286 297 0
50 139 154 162 168 171 174 198 210 286 297 0
50 139 172 177 210 222 239 248 261 278 288 0
50 139 172 210 222 248 261 283 284 299 300 0
50 140 146 152 162 211 250 260 268 279 300 0
50 140 162 165 213 250 260 272 279 300 303 0
50 140 211 250 260 265 269 272 287 294 297 0
50 152 157 159 173 211 219 250 279 297 300 0
50 157 159 170 213 219 250 265 279 297 300 0
50 159 161 208 213 250 269 287 292 294 297 0
50 159 183 197 213 264 268 279 297 300 303 0
50 159 188 213 236 250 263 269 292 293 300 0
50 160 177 188 210 239 248 283 291 294 299 0
51 67 140 143 145 148 156 215 218 233 262 0
51 133 189 200 201 210 211 239 248 269 280 0
51 136 140 183 235 257 259 260 262 264 279 0
51 136 153 154 183 235 257 259 260 264 279 0
51 140 153 170 173 183 188 257 260 262 269 0
51 141 149 169 170 172 210 234 240 253 262 0
51 149 154 160 168 186 210 231 235 248 253 0
51 153 154 157 159 170 172 214 250 259 279 0
51 153 154 159 160 170 172 250 259 279 280 0
51 153 154 159 170 172 250 256 259 279 280 0
51 154 157 170 172 184 213 234 236 240 253 0
51 154 159 160 170 172 240 250 259 279 280 0
51 154 159 160 179 235 250 257 259 279 280 0
51 154 159 172 208 235 244 250 259 279 292 0
51 154 170 172 208 240 250 259 260 269 292 0
51 154 172 186 189 201 213 234 240 248 277 0
51 154 172 188 208 235 244 250 260 279 292 0
51 157 162 168 169 170 172 213 240 253 262 0
51 162 170 172 198 213 234 240 253 262 268 0
51 170 172 186 187 189 201 213 234 240 262 0
52 136 140 152 161 162 213 260 269 277 300 0
52 139 140 159 161 211 239 277 279 287 297 0
52 139 164 198 210 211 250 277 279 287 297 0
52 140 157 161 162 184 213 220 260 269 300 0
52 140 161 205 208 213 260 269 277 293 300 0
52 140 161 211 239 260 269 277 287 294 297 0
52 145 159 188 213 239 274 277 292 297 300 0
52 145 159 205 211 224 225 235 262 279 283 0
52 145 159 211 239 274 277 292 297 300 303 0
52 159 211 220 239 268 269 287 292 293 294 0
52 161 191 210 211 264 277 279 287 294 297 0
52 161 198 210 213 220 250 268 279 297 300 0
53 140 160 162 206 211 225 253 265 285 286 0
53 160 197 206 211 225 253 265 282 297 298 0
54 141 146 150 153 159 173 177 247 266 274 0
54 143 176 189 201 209 234 237 247 262 274 0
54 149 153 167 185 197 204 212 239 253 262 0
54 154 166 167 185 189 201 212 239 242 247 0
55 140 152 153 162 170 211 239 253 261 280 0
55 140 160 206 211 225 265 274 283 288 298 0
55 140 161 162 174 189 201 211 234 261 280 0
55 140 162 174 211 220 234 253 261 268 280 0
55 145 205 224 225 240 261 278 280 285 299 0
55 160 161 200 206 211 224 225 239 253 297 0
55 160 206 211 224 225 241 247 274 283 299 0
55 205 206 211 225 235 261 269 283 288 298 0
55 206 225 240 244 261 274 283 285 288 298 0
56 65 136 139 140 177 197 224 225 239 294 0
56 69 138 147 150 169 181 197 216 264 271 0
56 84 138 139 149 156 172 182 244 269 293 0
56 120 149 150 154 155 169 170 202 224 238 0
56 136 139 145 153 155 156 165 235 255 268 0
56 136 144 145 153 155 156 165 184 235 268 0
56 136 144 145 156 165 204 240 241 244 268 0
56 136 144 145 156 165 204 240 244 255 268 0
56 136 144 153 155 156 165 168 191 235 268 0
56 136 144 153 156 157 165 168 204 235 241 0
56 136 144 153 156 157 165 168 204 235 258 0
56 136 145 153 155 157 161 165 208 235 258 0
56 136 150 153 155 156 157 165 168 199 235 0
56 136 150 153 155 156 165 168 199 235 268 0
56 136 153 155 156 157 165 168 219 235 258 0
56 136 153 155 156 157 165 235 239 241 258 0
56 136 153 155 156 165 166 168 235 258 268 0
56 136 153 155 156 165 168 240 244 255 268 0
56 136 153 155 161 165 208 235 239 255 268 0
56 136 155 156 157 165 235 239 240 255 266 0
56 136 155 156 165 168 235 240 255 266 268 0
56 136 155 156 165 168 235 240 258 266 268 0
56 136 155 156 165 239 240 244 258 266 268 0
56 138 147 150 169 181 197 216 224 264 271 0
56 139 147 150 163 169 170 173 181 224 288 0
56 144 146 148 149 154 163 164 175 216 217 0
58 136 140 146 156 157 161 162 180 208 277 0
58 136 146 147 156 157 161 180 188 208 220 0
58 136 146 147 156 157 161 208 220 233 245 0
60 136 138 140 143 144 145 156 157 205 255 0
60 136 138 155 165 168 169 197 214 240 258 0
60 136 155 162 165 168 169 184 234 240 258 0
60 137 138 139 140 154 157 180 219 233 274 0
60 137 138 140 149 152 154 157 177 214 274 0
60 138 140 143 145 146 166 168 198 202 220 0
60 138 140 143 145 146 166 168 198 202 277 0
60 138 140 143 154 156 157 158 160 180 279 0
60 138 140 143 154 156 157 180 200 274 286 0
60 138 143 145 146 157 168 202 277 286 292 0
60 140 143 145 146 157 168 202 218 275 277 0
60 140 143 145 149 157 168 185 202 218 277 0
60 140 143 145 157 166 168 185 202 218 277 0
60 140 143 145 157 168 202 217 218 220 268 0
60 140 143 145 166 168 198 202 218 220 270 0
60 143 145 157 168 202 218 270 277 292 297 0
60 143 145 166 168 198 202 212 218 220 292 0
62 69 138 139 142 149 153 159 178 194 288 0
62 80 137 142 144 148 150 153 154 162 206 0
62 136 138 150 160 162 174 177 224 264 276 0
62 138 139 143 144 160 178 204 241 264 276 0
62 138 139 144 150 160 173 178 204 255 276 0
62 138 139 150 160 162 173 177 178 267 299 0
62 138 139 150 160 162 173 177 178 270 299 0
62 138 139 150 160 162 173 177 224 270 299 0
62 138 139 150 160 172 173 177 178 270 288 0
62 138 139 150 160 172 177 190 224 264 276 0
62 138 139 150 160 172 177 224 264 270 276 0
62 138 139 150 160 177 188 224 264 270 288 0
62 138 143 152 160 162 173 174 224 241 276 0
62 138 143 152 160 174 224 241 264 276 293 0
62 138 143 160 162 173 174 177 224 225 241 0
62 138 143 160 162 174 178 241 264 270 299 0
62 138 150 152 160 162 174 197 204 224 299 0
62 138 150 160 162 173 174 177 178 204 299 0
62 138 150 160 174 177 224 264 270 276 293 0
62 142 143 148 150 151 153 154 176 195 206 0
62 142 143 148 150 151 153 173 176 195 206 0
63 139 147 155 164 166 199 221 224 225 245 0
64 139 144 151 155 158 170 215 265 288 295 0
64 139 144 151 155 158 170 265 288 291 295 0
64 139 144 151 158 160 170 265 288 291 295 0
65 122 139 158 164 192 194 217 228 286 292 0
65 136 138 139 140 157 163 177 181 222 225 0
65 137 138 143 144 151 160 162 170 182 200 0
65 137 138 144 151 160 162 169 170 182 200 0
65 139 140 157 163 172 207 216 224 225 281 0
66 136 139 144 146 170 173 174 183 188 258 0
66 139 140 144 146 152 159 174 183 188 258 0
66 139 144 146 159 167 174 188 245 250 258 0
66 139 144 159 167 173 174 177 188 250 258 0
66 139 144 159 170 174 177 188 197 250 258 0
66 141 143 144 150 155 167 168 175 233 245 0
66 141 143 144 150 155 167 168 233 239 245 0
66 141 143 149 150 155 158 167 168 180 239 0
66 141 143 149 150 155 167 168 175 180 258 0
66 143 144 149 150 155 167 168 175 233 262 0
66 143 149 150 155 158 167 168 172 180 208 0
66 143 149 150 155 167 168 172 180 248 258 0
66 143 149 150 155 167 168 172 233 258 280 0
66 143 150 155 162 167 168 233 245 258 295 0
67 136 146 147 156 157 171 173 178 226 233 0
67 140 143 145 146 148 156 197 233 262 270 0
67 143 145 146 148 154 197 208 212 233 292 0
68 136 138 140 160 198 227 229 255 268 284 0
69 140 144 145 188 205 217 226 264 287 293 0
70 136 137 146 147 159 164 171 175 236 287 0
70 140 143 146 150 154 175 177 189 224 253 0
70 140 143 146 150 154 175 177 201 224 243 0
70 140 143 146 150 154 175 177 224 243 253 0
70 140 146 150 154 162 167 175 177 189 253 0
70 140 146 150 154 162 167 175 177 201 243 0
70 140 146 150 154 162 167 175 177 243 253 0
70 140 146 150 154 162 174 175 177 189 253 0
70 140 146 150 154 162 174 175 177 201 243 0
70 140 146 150 154 162 175 177 178 189 253 0
70 140 146 150 154 162 175 177 178 201 243 0
70 140 146 150 154 162 175 177 224 243 253 0
70 140 146 150 154 175 177 178 189 253 293 0
70 140 146 150 154 175 177 178 201 243 293 0
70 140 146 150 154 175 177 178 243 253 293 0
70 140 146 150 154 175 177 189 201 224 293 0
70 140 146 150 154 175 177 189 205 224 253 0
70 140 146 150 154 175 177 201 205 224 243 0
70 140 146 150 154 175 177 201 224 243 293 0
70 140 146 150 154 175 177 205 224 243 253 0
70 140 146 150 154 175 177 224 243 253 293 0
71 104 140 171 181 188 197 208 264 287 294 0
71 136 144 155 165 169 172 184 200 240 247 0
71 136 144 158 163 185 200 224 230 239 255 0
71 136 145 146 152 157 177 181 185 188 202 0
71 136 145 146 152 157 177 181 188 194 202 0
71 136 145 146 152 157 181 188 194 207 281 0
71 136 145 146 152 177 181 185 188 202 272 0
71 136 145 146 152 177 181 188 194 202 272 0
71 136 145 146 152 181 188 194 202 272 281 0
71 136 145 146 152 181 188 194 207 272 281 0
71 136 153 155 161 165 169 200 247 258 263 0
71 136 153 155 161 165 191 197 200 255 270 0
71 136 153 155 165 169 197 200 205 248 255 0
71 136 153 155 165 169 197 200 214 248 255 0
71 136 155 161 165 184 197 200 240 255 270 0
71 144 145 150 151 153 158 163 165 169 177 0
71 144 155 158 169 177 198 239 258 274 295 0
71 144 155 163 169 198 199 205 239 258 269 0
72 136 144 145 155 156 165 184 235 240 268 0
72 136 144 145 155 156 165 191 235 240 268 0
72 136 144 145 156 157 165 204 240 244 258 0
72 136 145 155 156 157 165 170 243 244 258 0
72 136 145 155 156 157 165 189 244 248 255 0
72 136 145 155 156 157 165 243 244 248 258 0
72 136 145 155 156 165 243 244 248 255 268 0
72 136 145 155 157 161 165 208 240 244 258 0
72 139 144 158 163 165 171 173 188 240 283 0
72 139 144 158 165 171 173 188 240 283 295 0
74 137 143 145 155 163 174 175 178 182 220 0
74 139 140 151 158 176 180 188 280 282 286 0
74 139 142 147 163 202 208 266 284 285 303 0
74 139 143 174 184 199 205 206 240 244 261 0
74 140 157 162 165 166 167 177 187 239 255 0
74 140 157 162 165 166 173 180 187 204 239 0
74 141 143 163 180 196 202 217 280 284 298 0
74 142 153 158 160 163 168 177 205 258 276 0
74 160 174 184 199 205 206 240 244 270 293 0
75 138 145 153 159 205 216 228 239 258 264 0
75 140 142 143 157 159 161 165 166 172 188 0
75 140 144 159 161 164 200 208 227 239 295 0
75 147 149 151 164 194 200 227 239 255 295 0
76 137 147 155 160 197 210 213 220 278 288 0
76 139 145 149 153 160 200 239 240 265 281 0
76 147 153 158 163 173 178 198 219 226 233 0
76 153 160 168 173 174 220 228 229 268 286 0
77 136 138 141 143 144 204 205 216 255 279 0
77 136 138 141 145 146 156 157 177 204 233 0
77 141 145 146 150 156 157 177 194 226 229 0
77 141 146 149 157 161 192 194 226 235 279 0
78 142 143 145 146 147 152 153 166 256 280 0
80 139 142 144 148 159 177 190 193 204 233 0
80 139 142 144 148 177 190 225 237 292 293 0
80 139 142 144 151 153 163 164 171 182 231 0
80 139 142 144 151 153 163 164 182 231 271 0
80 139 142 151 153 155 163 164 171 182 231 0
80 139 142 151 153 155 163 164 171 182 232 0
80 139 142 151 153 155 163 164 181 182 271 0
80 139 142 151 153 155 163 176 182 231 271 0
80 139 144 151 153 163 164 171 182 232 267 0
80 139 144 151 153 163 164 181 182 267 271 0
80 139 144 151 153 163 164 182 231 267 271 0
80 139 144 151 153 163 171 176 181 182 267 0
80 142 144 145 148 180 190 199 202 241 274 0
80 142 144 148 154 159 166 177 190 233 283 0
80 142 144 148 154 169 173 195 233 255 276 0
80 142 144 151 153 163 164 171 176 182 232 0
80 142 144 151 153 163 164 176 182 231 271 0
80 142 148 154 155 169 195 197 204 237 276 0
80 142 148 155 169 173 177 180 195 267 280 0
80 142 148 155 169 173 195 210 237 267 290 0
80 142 151 153 155 163 164 171 176 181 182 0
80 142 151 153 155 163 164 171 176 182 231 0
80 142 151 153 155 163 164 176 182 232 271 0
80 144 151 153 163 164 176 181 182 267 271 0
80 144 151 153 163 164 176 182 232 267 271 0
80 151 153 155 163 164 171 176 181 182 267 0
80 151 153 155 163 164 171 176 182 231 267 0
80 151 153 155 163 164 176 181 182 267 271 0
80 151 153 155 163 164 176 182 231 267 271 0
80 151 153 155 163 164 176 182 232 267 271 0
82 133 152 153 155 165 169 172 173 200 202 0
83 136 141 146 149 151 157 182 190 205 219 0
83 136 141 146 151 157 173 190 214 219 245 0
83 136 141 146 151 157 182 196 219 228 245 0
83 136 146 149 150 151 157 161 190 219 247 0
83 136 146 149 150 151 190 219 246 268 272 0
84 102 141 145 149 151 156 172 181 197 235 0
84 102 145 149 151 156 177 197 205 235 238 0
84 136 138 142 145 149 151 156 177 248 288 0
84 136 142 145 149 151 156 160 205 207 235 0
84 136 142 145 149 151 156 224 248 287 289 0
84 136 142 149 151 156 171 178 228 244 269 0
84 136 142 149 151 156 171 178 257 269 287 0
84 136 145 149 151 156 170 193 207 226 240 0
84 136 145 149 151 156 187 196 207 248 288 0
84 138 142 145 149 151 156 171 172 238 257 0
84 138 149 151 156 172 177 197 228 257 269 0
84 139 142 149 151 156 177 197 235 269 293 0
84 139 142 149 151 156 197 224 235 238 269 0
84 141 144 145 152 157 175 216 218 219 245 0
84 142 149 151 156 172 177 178 197 235 269 0
84 142 149 151 156 172 178 197 235 258 269 0
84 142 149 151 156 172 178 226 235 269 288 0
84 142 149 151 156 172 178 248 269 287 289 0
84 142 149 151 156 172 224 235 238 258 269 0
84 145 149 151 156 172 181 207 235 238 287 0
85 136 137 145 162 163 172 180 189 194 224 0
85 139 143 144 150 158 163 173 188 258 278 0
85 139 143 144 150 168 173 188 199 283 295 0
85 139 144 158 173 178 188 263 283 295 302 0
85 139 144 163 168 173 178 183 188 199 278 0
85 143 147 151 158 176 195 255 282 284 285 0
85 144 150 151 158 176 190 224 275 282 284 0
89 142 149 152 160 174 188 217 276 284 288 0
91 142 143 145 151 168 171 250 274 277 288 0
92 136 144 149 164 173 177 185 217 255 276 0
92 138 163 176 177 181 185 195 197 244 284 0
92 142 143 144 170 188 205 245 250 255 275 0
92 142 144 145 150 181 199 202 205 238 249 0
94 136 139 144 148 149 155 169 171 173 224 0
94 139 144 148 149 155 163 173 214 216 228 0
95 140 146 153 155 164 200 247 258 281 286 0
97 138 142 149 155 164 188 201 204 205 211 0
97 196 206 221 226 257 266 271 273 285 300 0
98 141 142 143 145 158 162 163 165 175 193 0
98 141 142 143 145 158 162 163 165 178 182 0
98 141 142 143 145 158 162 163 165 193 293 0
98 145 147 150 155 163 167 193 201 209 233 0
100 145 146 150 156 167 171 189 209 229 284 0
101 140 143 154 163 164 171 185 192 223 246 0
101 147 150 169 174 206 233 246 271 288 302 0
102 136 140 143 144 171 180 192 216 246 255 0
102 136 147 150 155 163 167 176 199 202 211 0
102 136 147 155 156 164 167 181 215 284 295 0
102 138 139 142 143 155 160 178 241 264 276 0
102 138 139 142 150 155 160 166 178 264 276 0
102 138 139 143 147 155 160 178 241 264 276 0
102 138 139 143 147 155 160 178 241 264 288 0
102 138 139 147 150 155 160 178 202 264 276 0
102 138 139 150 152 160 204 224 255 264 288 0
102 138 139 150 160 173 178 204 242 255 276 0
102 138 139 150 160 177 204 224 255 264 288 0
102 138 142 150 160 173 174 178 202 276 293 0
102 138 143 160 162 173 174 178 204 241 276 0
102 138 143 160 162 174 178 204 241 264 299 0
102 138 143 160 173 178 204 241 265 288 293 0
102 138 143 160 178 204 241 264 265 288 293 0
102 138 150 160 162 173 174 178 255 267 288 0
102 138 150 160 162 173 178 204 255 265 276 0
102 138 150 160 162 178 202 204 264 265 299 0
102 138 150 160 162 178 255 264 265 267 288 0
102 138 150 160 173 174 178 204 255 276 293 0
102 138 150 160 173 178 202 265 267 288 293 0
102 138 150 160 174 178 202 204 264 276 293 0
102 142 145 147 150 155 163 167 176 245 258 0
102 144 145 147 149 150 155 163 167 176 236 0
102 145 150 155 157 167 176 193 204 219 284 0
102 147 149 150 155 163 167 176 205 233 253 0
102 147 155 163 164 166 167 176 258 268 294 0
102 147 155 164 166 167 176 205 258 268 284 0
102 149 155 167 193 201 205 215 220 241 301 0
104 136 139 144 146 159 174 183 184 188 255 0
104 136 145 146 163 173 177 181 244 296 300 0
104 136 146 148 153 156 173 175 178 244 300 0
104 136 146 153 156 173 175 178 204 244 300 0
104 138 145 150 157 160 162 167 174 202 296 0
104 138 150 153 160 162 167 170 202 205 219 0
104 138 150 160 162 167 170 219 240 255 296 0
104 139 144 155 159 174 177 188 197 250 258 0
104 139 144 159 168 173 174 177 183 188 258 0
104 139 144 159 173 174 183 188 227 258 287 0
104 139 144 159 173 174 188 250 258 287 301 0
104 139 144 159 174 177 188 197 250 258 284 0
104 139 144 159 174 188 197 227 250 258 287 0
104 140 159 162 163 177 199 209 264 265 300 0
106 140 146 150 154 175 177 189 201 205 270 0
120 139 142 146 161 163 183 211 220 276 283 0
120 139 142 152 161 163 183 206 220 276 283 0
120 139 142 161 163 183 197 206 220 225 283 0
120 139 142 161 163 183 197 206 220 276 283 0
120 139 142 161 163 183 197 211 220 225 283 0
120 139 142 161 163 183 197 211 220 276 283 0
124 138 139 143 152 160 197 204 224 225 241 0
124 138 139 143 160 174 178 204 225 241 264 0
124 138 139 150 160 173 177 204 224 255 276 0
124 138 139 150 160 177 178 202 204 225 264 0
124 138 143 150 160 173 178 204 225 265 293 0
124 138 143 160 173 174 178 204 225 241 293 0
124 138 150 160 178 204 225 255 264 265 293 0
124 138 150 160 178 204 255 264 265 276 293 0
126 137 138 140 141 145 164 204 218 223 275 0
126 137 138 140 141 146 164 214 223 275 295 0
126 137 138 140 141 164 173 218 286 291 293 0
126 137 138 140 141 164 218 223 286 293 295 0
126 138 140 150 164 166 188 194 218 265 275 0
126 145 153 163 166 177 197 200 204 220 239 0
127 138 143 144 150 155 166 167 233 265 267 0
127 143 146 149 160 166 170 175 239 265 270 0
127 143 148 149 150 170 172 188 202 265 270 0
128 136 139 144 146 159 174 184 188 250 255 0
128 136 146 152 163 177 202 203 232 238 240 0
128 139 144 159 174 183 188 197 230 258 287 0
130 136 151 182 196 205 219 239 241 245 246 0
130 142 143 144 150 155 160 163 174 270 295 0
130 142 144 150 155 160 163 174 202 217 270 0
130 143 144 147 150 155 174 220 270 295 302 0
130 144 148 150 155 169 173 174 220 295 302 0
130 144 150 155 174 202 220 228 265 270 295 0
131 132 138 140 158 162 165 173 178 240 275 0
131 138 140 158 161 173 178 217 224 255 263 0
132 140 146 150 154 162 175 177 201 243 285 0
132 142 143 145 148 165 181 200 233 239 240 0
132 142 143 148 149 150 163 168 180 240 253 0
133 136 138 143 150 152 153 155 168 169 289 0
133 136 138 143 152 153 155 165 168 169 173 0
133 136 138 150 152 153 155 169 200 202 214 0
133 136 138 152 153 155 165 168 169 202 214 0
133 136 138 152 153 155 165 169 200 202 289 0
133 136 142 143 144 164 165 168 170 193 214 0
133 136 142 143 164 165 167 168 170 193 214 0
133 136 143 144 162 164 165 168 170 242 257 0
133 136 143 153 164 165 167 168 170 242 257 0
133 136 150 152 153 155 161 173 200 202 270 0
133 136 150 153 155 161 191 197 200 230 270 0
133 136 153 155 161 162 165 194 200 247 270 0
133 136 153 155 161 163 165 168 234 270 288 0
133 136 153 155 161 165 168 184 214 239 270 0
133 139 143 146 163 168 178 181 198 212 269 0
133 143 146 157 158 161 163 168 181 212 292 0
133 143 146 157 161 163 168 181 205 270 286 0
133 143 146 157 161 163 168 181 212 292 301 0
133 143 146 157 161 163 181 205 239 270 286 0
133 143 146 163 181 188 198 212 239 292 293 0
134 136 144 156 165 168 204 235 240 266 268 0
134 136 145 153 155 156 157 165 215 240 244 0
134 137 138 140 149 150 161 179 226 287 303 0
134 137 138 140 150 161 179 226 245 287 302 0
135 137 141 145 150 166 175 178 189 206 255 0
135 139 140 143 150 166 205 214 218 246 302 0
1 3 170 172 188 191 212 235 250 269 274 292 0
1 11 208 209 221 234 235 247 253 266 269 271 0
1 15 153 156 189 201 209 213 234 247 248 269 0
1 15 183 191 240 244 260 264 269 274 292 298 0
1 136 140 145 147 158 159 166 172 175 255 270 0
1 205 212 224 257 259 261 265 280 283 293 299 0
2 81 133 139 160 163 174 200 229 242 281 288 0
2 134 166 189 191 197 201 204 211 265 280 297 0
2 146 152 166 204 210 212 213 277 278 288 300 0
2 146 152 166 204 210 212 213 277 283 299 300 0
2 146 166 204 210 212 213 234 277 278 288 300 0
2 146 166 204 210 212 239 240 248 253 257 262 0
2 147 155 166 191 197 211 239 253 265 280 297 0
2 166 168 197 204 210 212 213 277 283 299 300 0
2 166 187 197 204 210 212 235 239 248 253 262 0
2 166 197 204 210 212 213 220 268 278 299 300 0
2 166 197 204 210 212 213 234 277 278 299 300 0
2 166 197 204 210 212 213 277 283 287 294 299 0
2 166 197 204 210 212 239 248 277 283 288 300 0
3 38 170 172 188 213 244 274 277 283 299 300 0
3 100 138 140 144 149 152 157 171 173 177 296 0
3 170 172 188 191 240 250 262 269 274 292 298 0
3 170 172 188 209 213 235 247 277 278 299 300 0
4 143 154 162 164 188 191 204 206 218 225 293 0
4 143 154 204 206 225 227 257 259 278 293 299 0
4 191 204 205 206 216 218 225 259 278 288 293 0
4 205 223 257 259 261 270 271 278 280 293 299 0
5 136 140 147 155 169 174 188 212 221 239 257 0
5 137 140 158 164 169 172 174 194 200 270 286 0
5 140 151 164 170 172 182 188 212 226 270 293 0
5 140 164 169 172 174 200 205 212 261 269 270 0
5 142 144 155 157 158 163 174 217 249 281 284 0
5 142 144 170 172 174 176 190 213 276 283 284 0
5 142 172 176 179 188 190 204 255 271 284 296 0
5 149 158 162 169 172 174 239 246 270 283 286 0
5 154 164 165 172 174 180 188 237 270 286 288 0
6 136 140 157 159 197 204 212 221 287 289 294 0
6 138 139 140 142 171 174 185 215 217 228 301 0
6 138 149 153 160 162 174 178 196 197 204 216 0
6 159 160 197 204 211 250 265 268 269 292 293 0
7 137 146 157 224 225 228 245 250 276 292 293 0
7 138 140 141 154 156 157 158 208 216 246 269 0
7 138 141 142 156 157 158 170 240 246 255 279 0
7 140 141 145 156 162 164 170 195 198 213 240 0
7 141 145 150 157 162 166 216 244 245 284 295 0
8 136 142 143 144 145 147 148 152 200 240 245 0
8 138 140 146 149 155 160 162 174 194 255 268 0
8 138 147 155 170 171 177 181 188 197 203 264 0
8 141 148 150 163 172 173 176 177 208 237 271 0
8 142 148 149 153 163 166 173 176 177 268 283 0
8 146 147 157 160 162 173 174 216 218 244 303 0
9 140 143 152 154 156 157 172 231 233 270 303 0
9 153 159 160 168 169 181 188 192 234 257 272 0
9 160 189 191 201 206 225 251 256 266 271 285 0
10 137 138 143 144 145 151 161 168 199 207 255 0
10 137 138 144 145 151 161 168 169 184 207 255 0
10 137 143 144 145 151 161 191 200 202 207 236 0
10 137 143 145 151 155 167 168 184 202 207 258 0
10 137 143 145 151 155 167 168 202 207 241 258 0
10 137 145 151 155 167 168 169 202 207 241 258 0
10 143 145 149 158 165 171 204 213 242 274 276 0
10 144 149 158 165 167 168 171 176 221 241 276 0
11 184 198 199 211 241 261 265 278 280 297 299 0
12 23 70 137 146 156 168 177 205 238 266 272 0
12 136 140 142 144 151 155 161 164 199 215 248 0
12 140 142 144 149 155 158 161 164 172 184 188 0
12 140 142 149 155 158 161 164 172 184 258 296 0
12 140 142 151 155 161 164 172 199 258 273 282 0
12 140 144 147 150 158 161 164 172 190 265 270 0
12 140 144 149 155 161 164 172 190 199 263 284 0
12 140 144 150 158 161 164 172 190 204 265 270 0
13 16 210 211 212 234 240 248 253 257 269 274 0
13 139 144 148 160 163 177 178 219 247 249 275 0
13 148 157 160 163 172 174 177 178 247 251 275 0
14 136 141 145 146 149 151 152 157 173 219 255 0
14 136 145 146 149 150 151 152 173 219 268 272 0
14 136 145 146 149 151 152 197 219 241 268 272 0
14 166 197 204 211 250 260 277 279 297 298 300 0
15 152 160 191 211 239 253 265 277 280 282 297 0
15 159 191 211 250 257 259 277 279 287 294 297 0
16 36 137 205 212 224 261 265 280 283 293 299 0
16 38 137 189 191 201 239 261 265 280 285 297 0
16 72 138 140 146 164 170 184 188 221 241 258 0
16 80 124 150 169 189 196 199 231 237 275 295 0
16 138 140 143 146 164 170 184 188 221 241 258 0
16 139 140 144 150 164 168 171 190 193 206 233 0
16 139 141 144 149 150 164 165 168 180 193 206 0
16 139 144 150 164 168 190 193 233 273 293 302 0
16 139 144 150 164 187 193 197 233 237 239 240 0
16 139 144 150 164 193 197 233 237 239 240 293 0
16 142 145 149 150 154 162 193 261 270 275 284 0
16 143 151 158 167 176 195 215 217 224 255 275 0
16 143 151 158 167 190 197 205 217 224 239 269 0
16 149 150 151 153 164 165 180 193 271 273 302 0
16 149 150 151 164 165 168 180 193 239 271 293 0
16 149 150 151 164 168 180 193 195 239 271 302 0
16 150 151 153 164 166 190 193 233 268 271 302 0
16 150 151 153 164 190 193 197 233 239 271 302 0
18 36 166 197 200 204 207 270 277 283 286 300 0
18 139 143 148 162 170 197 202 227 233 265 267 0
18 142 145 148 154 155 159 190 217 237 274 294 0
18 142 148 154 155 159 169 171 173 190 208 237 0
18 143 145 148 149 154 157 172 212 247 274 303 0
18 143 145 148 149 156 157 174 247 262 270 274 0
18 143 148 149 150 162 174 178 197 202 227 270 0
19 126 137 138 141 164 218 221 266 275 291 292 0
20 129 145 153 157 208 218 239 266 267 279 297 0
20 136 139 140 163 175 193 207 215 223 225 270 0
20 136 145 156 163 178 188 193 207 255 272 294 0
20 138 139 140 145 156 163 172 188 193 255 272 0
20 138 139 140 161 163 174 208 214 223 255 302 0
20 138 139 140 161 164 174 208 214 223 255 301 0
20 138 139 140 161 174 204 208 214 223 228 296 0
20 138 139 140 161 174 204 208 214 223 296 302 0
20 138 139 145 147 156 163 172 178 193 219 240 0
20 138 144 151 158 176 177 215 222 225 232 264 0
20 138 153 155 163 168 172 178 180 240 258 294 0
20 139 140 145 156 162 163 172 174 181 207 242 0
20 144 145 148 154 158 171 173 204 214 225 274 0
20 144 145 158 163 171 173 182 205 208 225 301 0
20 144 151 158 173 176 177 216 225 232 245 291 0
21 39 146 147 150 158 167 187 197 219 224 295 0
21 39 147 150 158 167 187 197 219 224 286 295 0
21 138 139 141 144 146 150 199 202 207 208 221 0
21 138 139 141 144 148 171 199 207 218 221 255 0
21 138 139 141 145 146 150 199 207 221 255 259 0
21 138 139 141 146 150 188 199 202 207 208 221 0
21 138 139 141 146 150 188 199 202 207 221 275 0
21 138 139 141 150 175 199 207 218 221 255 259 0
21 154 170 172 188 212 213 234 235 247 253 300 0
21 170 172 188 212 213 239 240 247 253 262 300 0
22 138 150 158 165 174 177 188 197 238 240 258 0
22 145 146 147 153 159 173 180 219 223 239 287 0
22 146 147 149 153 159 168 173 180 217 272 287 0
22 146 147 153 159 168 173 179 217 219 287 301 0
22 146 147 153 159 168 173 179 217 272 287 301 0
23 123 150 154 157 163 192 194 218 228 249 281 0
23 136 137 145 162 165 177 192 219 226 235 239 0
23 136 137 145 162 174 177 187 190 192 209 214 0
23 137 145 162 174 177 188 192 205 260 269 272 0
23 137 145 172 174 177 188 192 202 226 245 272 0
23 145 149 150 151 168 170 184 188 192 216 240 0
36 37 38 139 183 191 198 264 277 279 283 287 0
36 65 139 140 157 159 163 204 208 224 225 271 0
36 136 154 197 209 221 235 239 253 266 271 283 0
36 139 156 164 209 212 213 240 253 277 287 288 0
36 145 160 167 191 204 205 251 280 283 288 298 0
36 149 153 159 212 213 234 244 247 253 262 263 0
36 153 154 156 159 209 213 239 244 247 253 278 0
36 153 154 167 189 201 212 213 234 242 244 247 0
36 153 163 199 209 213 234 244 247 253 262 282 0
36 154 159 183 191 235 251 264 274 279 283 298 0
36 157 199 209 212 213 220 253 278 287 294 299 0
36 157 209 213 235 247 253 260 277 278 288 300 0
36 159 160 191 206 211 224 225 251 274 278 288 0
36 159 167 174 191 196 261 274 280 283 288 298 0
36 159 184 198 199 240 241 250 262 274 279 298 0
36 160 191 205 206 225 265 269 278 285 288 298 0
36 160 191 205 240 251 266 269 280 283 298 299 0
36 160 191 205 250 251 260 269 280 283 298 299 0
36 160 191 206 212 224 225 235 251 283 285 288 0
36 164 208 209 212 221 253 266 271 277 299 300 0
36 189 199 201 204 212 213 234 235 241 247 262 0
36 209 213 235 241 247 253 260 277 278 288 300 0
37 42 145 191 208 221 250 254 260 271 277 300 0
37 140 145 159 160 170 188 212 240 250 257 262 0
37 153 154 170 183 212 257 259 260 264 279 280 0
37 153 170 188 212 250 257 260 262 279 280 299 0
37 153 172 188 206 212 225 248 250 260 262 279 0
37 154 159 160 169 170 212 240 250 257 259 279 0
37 154 159 160 173 183 212 235 257 259 269 292 0
37 154 160 172 212 218 235 244 250 259 260 279 0
37 154 183 188 206 212 225 235 257 260 264 279 0
37 154 188 206 212 225 235 250 257 260 279 299 0
37 156 189 201 213 234 254 256 261 265 279 280 0
37 159 160 172 183 188 212 235 244 262 264 279 0
37 159 173 183 212 218 235 257 259 262 279 280 0
37 160 162 170 178 188 199 212 257 265 278 280 0
37 160 170 188 191 199 212 227 265 278 280 299 0
37 172 183 188 212 240 244 260 262 264 279 280 0
37 172 188 212 235 244 250 260 262 279 280 299 0
37 191 208 221 250 254 260 266 271 277 279 300 0
38 81 191 206 211 234 253 261 265 292 293 298 0
38 140 145 191 205 211 239 250 260 277 293 300 0
38 152 154 160 170 172 210 212 239 240 253 288 0
38 154 155 168 170 200 207 210 240 244 253 286 0
38 154 160 169 172 210 212 234 240 248 253 288 0
38 154 169 184 188 189 201 212 213 234 235 248 0
38 154 200 207 210 234 235 248 253 270 277 286 0
38 159 188 191 211 220 250 268 279 297 300 303 0
38 159 191 197 211 250 265 277 279 286 297 300 0
38 160 188 191 206 211 234 251 253 271 280 297 0
38 160 191 206 211 224 225 234 250 253 265 297 0
38 169 170 172 189 201 212 213 234 240 262 288 0
38 170 191 206 211 224 225 239 253 261 265 297 0
38 177 200 207 210 248 270 277 278 286 294 299 0
38 184 198 199 213 241 250 260 277 279 297 300 0
38 191 201 205 211 234 250 251 253 261 280 297 0
39 137 145 149 151 152 180 183 198 211 243 286 0
39 137 145 149 151 152 181 183 189 198 206 286 0
39 145 146 149 151 152 161 174 183 184 240 248 0
39 145 146 149 151 152 170 183 184 198 240 270 0
39 145 149 151 152 161 170 180 183 184 240 286 0
39 145 149 151 152 161 172 183 217 220 243 245 0
39 145 149 151 152 165 170 183 198 240 258 286 0
41 137 138 139 140 172 174 177 192 214 295 301 0
41 138 140 160 161 164 174 208 229 258 271 295 0
43 139 140 143 147 150 166 167 171 178 230 233 0
43 139 161 163 164 175 195 200 211 220 278 286 0
44 136 138 143 148 149 155 166 169 188 197 264 0
44 136 138 143 148 149 155 166 188 197 264 270 0
44 136 143 144 149 150 155 166 173 186 246 270 0
44 139 142 150 151 153 160 172 174 178 182 233 0
44 139 142 152 161 163 183 187 220 276 283 285 0
44 139 142 161 163 183 187 206 220 276 283 286 0
44 139 142 161 163 183 187 211 220 225 283 286 0
44 139 142 161 163 183 187 211 220 276 283 286 0
44 139 142 161 163 183 187 220 276 283 285 286 0
44 139 142 161 163 183 195 197 220 225 283 285 0
44 139 142 161 163 183 195 197 220 276 283 285 0
44 139 145 147 150 151 164 165 182 192 233 240 0
44 139 145 150 151 163 164 182 229 233 240 245 0
44 145 149 150 151 153 164 180 193 235 239 302 0
44 153 189 197 205 208 212 239 244 262 266 271 0
44 154 199 201 205 212 213 234 235 247 266 269 0
45 70 136 137 146 147 159 164 171 175 177 236 0
45 138 146 173 199 209 221 224 228 280 287 298 0
45 143 204 224 225 230 251 261 274 280 285 299 0
45 145 160 196 205 206 211 221 224 225 251 299 0
45 156 163 188 201 205 209 212 277 282 288 300 0
45 159 176 209 212 218 232 277 283 287 288 294 0
45 164 224 225 230 261 265 274 280 285 288 293 0
45 174 196 206 221 224 225 261 270 274 285 288 0
46 136 138 141 144 150 155 157 163 167 199 238 0
46 136 138 144 150 155 157 163 167 182 199 219 0
46 136 138 144 150 155 157 163 167 199 202 219 0
46 137 139 142 143 145 151 155 162 163 182 245 0
46 137 145 149 151 152 161 172 183 189 196 286 0
46 139 145 151 155 156 163 165 166 168 285 288 0
46 140 145 150 151 155 156 162 163 168 207 218 0
46 143 160 206 234 253 254 256 260 265 287 294 0
46 145 149 151 152 157 161 183 196 243 270 286 0
46 145 149 151 152 157 183 189 190 198 220 270 0
46 145 151 153 155 156 162 163 165 168 212 254 0
46 145 151 153 155 156 163 165 166 168 285 288 0
46 145 151 155 156 162 163 165 166 168 181 285 0
46 145 153 155 156 162 163 165 166 184 200 239 0
46 147 154 155 160 189 201 212 234 251 254 280 0
46 155 160 168 181 212 253 254 256 260 265 280 0
46 160 163 188 191 204 230 251 270 278 282 288 0
46 166 170 172 223 240 249 259 261 265 283 299 0
47 136 176 183 204 254 257 260 264 277 279 300 0
47 140 145 159 166 177 183 204 220 246 264 268 0
47 140 157 159 197 199 209 212 220 239 278 299 0
47 140 162 197 209 212 220 239 240 244 268 278 0
47 145 197 220 250 254 256 260 264 268 292 296 0
47 146 156 159 164 204 209 220 223 247 277 299 0
47 147 155 159 183 197 254 264 277 279 281 301 0
47 156 204 207 250 254 260 269 277 279 281 296 0
48 50 136 157 160 172 204 218 221 281 286 290 0
48 139 149 153 158 162 164 170 208 217 262 302 0
48 139 149 155 156 157 158 162 163 164 217 240 0
48 139 149 155 158 164 170 208 217 246 268 302 0
48 160 163 169 204 249 251 257 259 278 280 303 0
48 178 204 227 251 257 259 261 269 278 280 292 0
49 137 149 159 166 204 240 248 250 257 259 262 0
50 136 140 159 170 184 211 213 250 279 293 300 0
50 136 140 183 213 260 263 264 269 272 293 300 0
50 139 140 157 162 213 250 260 269 272 286 287 0
50 139 147 160 163 210 222 239 248 278 287 299 0
50 139 160 170 172 184 210 240 283 284 287 299 0
50 140 145 152 213 250 260 265 274 293 300 303 0
50 145 152 188 213 250 260 263 274 292 297 300 0
50 147 163 210 248 261 279 283 286 293 299 300 0
50 159 165 172 213 244 250 272 279 297 300 303 0
50 163 210 222 239 248 261 278 287 288 294 296 0
51 136 140 145 153 154 159 170 173 183 257 259 0
51 140 154 159 172 183 188 208 240 244 264 279 0
51 140 154 159 183 188 208 235 257 264 272 279 0
51 140 154 183 188 208 240 248 257 260 264 279 0
51 140 208 235 250 256 257 259 260 262 269 280 0
51 143 148 152 165 167 170 172 227 240 258 303 0
51 143 149 152 165 166 172 180 188 240 255 303 0
51 144 169 170 172 187 189 201 210 239 240 262 0
51 153 159 170 188 212 250 256 257 262 279 301 0
51 153 170 191 206 225 250 257 260 262 279 285 0
51 154 159 183 188 206 225 235 257 264 279 285 0
51 154 170 172 187 198 213 236 239 240 253 268 0
51 157 169 170 172 187 188 213 234 240 253 262 0
51 159 160 166 170 172 188 240 250 262 269 292 0
51 163 170 172 213 220 239 240 253 262 268 273 0
51 168 169 180 184 188 213 231 235 248 253 262 0
51 168 187 188 189 201 213 240 244 248 262 277 0
51 169 172 179 188 204 240 248 250 260 262 279 0
52 140 145 157 159 162 184 205 213 220 263 300 0
52 140 145 159 168 191 213 220 268 274 297 300 0
52 140 145 162 168 211 239 260 274 277 287 294 0
52 140 159 161 162 211 239 277 279 295 300 303 0
52 140 159 162 188 200 213 239 269 272 277 300 0
52 140 159 184 198 212 235 241 262 269 274 297 0
52 140 197 200 213 239 260 269 277 287 294 297 0
52 145 159 186 205 212 235 240 262 281 292 293 0
52 145 159 204 205 212 232 235 240 262 279 283 0
52 145 164 198 210 211 250 274 277 292 297 300 0
52 145 184 205 213 220 260 263 268 292 297 300 0
52 145 191 205 211 239 248 260 277 292 293 300 0
52 145 198 205 210 211 264 277 283 292 297 300 0
52 154 159 161 167 205 212 235 269 283 292 293 0
52 157 198 210 213 220 264 278 279 287 294 297 0
52 159 161 211 222 269 277 281 287 292 294 297 0
52 161 191 210 211 239 248 264 277 279 297 300 0
52 161 191 210 213 250 277 279 287 294 297 303 0
52 177 205 226 235 260 262 265 269 279 283 298 0
52 194 211 224 225 235 246 260 262 274 279 283 0
53 144 154 170 172 187 189 201 213 240 288 293 0
53 154 169 184 189 190 198 201 204 213 235 248 0
54 138 154 156 167 197 205 212 239 253 266 287 0
54 146 173 205 229 234 240 241 247 266 269 287 0
54 149 154 204 212 224 234 237 247 253 287 294 0
54 154 176 185 188 189 199 201 209 234 245 247 0
54 166 185 192 199 212 234 241 247 253 262 283 0
54 167 179 204 212 224 232 234 247 253 262 287 0
55 161 211 234 242 253 261 265 280 282 292 293 0
55 174 196 206 224 225 230 261 274 278 285 299 0
56 84 145 149 151 156 172 178 228 238 244 288 0
56 136 139 144 153 156 165 168 204 235 258 268 0
56 136 141 144 145 150 153 156 165 204 235 268 0
56 136 141 144 150 153 156 165 168 204 235 268 0
56 136 141 145 150 153 155 156 157 165 235 258 0
56 136 144 145 153 155 157 161 165 208 235 241 0
56 136 144 145 153 156 157 165 184 204 215 235 0
56 136 144 145 155 156 161 165 184 198 240 244 0
56 136 144 145 156 161 165 184 198 204 240 244 0
56 136 144 145 156 165 170 204 241 243 244 268 0
56 136 144 145 156 165 204 243 244 248 255 268 0
56 136 144 153 155 156 161 165 184 235 239 268 0
56 136 144 153 155 156 165 191 239 240 244 268 0
56 136 144 153 156 157 165 204 219 235 239 255 0
56 136 144 153 161 165 168 184 204 208 235 268 0
56 136 144 156 165 168 204 235 240 255 266 268 0
56 136 145 147 153 155 156 165 235 255 268 301 0
56 136 145 150 151 155 156 157 165 170 243 244 0
56 136 145 150 153 155 156 157 165 199 240 244 0
56 136 145 150 153 155 161 165 198 199 208 235 0
56 136 145 153 155 156 157 165 197 235 239 258 0
56 136 145 155 156 161 165 198 240 244 255 303 0
56 136 145 155 156 165 215 243 244 248 258 268 0
56 136 150 151 153 155 156 157 161 165 235 239 0
56 136 150 155 156 165 168 199 235 240 266 268 0
56 136 155 156 165 239 243 244 248 255 266 268 0
56 136 155 161 165 208 239 240 244 255 266 268 0
56 137 138 141 150 162 163 169 170 178 181 217 0
56 138 139 147 150 163 169 170 173 178 181 288 0
56 138 139 150 155 169 173 178 181 214 224 288 0
56 138 139 150 163 169 173 178 181 204 214 216 0
56 138 149 150 151 155 169 178 181 246 271 288 0
58 136 144 151 158 160 161 163 174 217 278 288 0
58 136 146 147 149 156 157 161 171 233 277 303 0
58 136 146 147 156 157 161 178 180 208 226 277 0
58 136 146 147 156 157 163 188 190 208 220 233 0
58 136 146 154 156 157 163 208 220 232 233 245 0
58 138 140 143 161 194 199 209 214 221 284 294 0
58 138 142 159 161 164 175 194 195 204 214 274 0
58 139 144 151 155 158 173 174 178 283 288 295 0
58 144 151 158 160 161 163 168 174 217 288 290 0
60 106 137 152 153 156 159 179 181 188 262 287 0
60 136 155 162 165 168 169 173 197 214 240 258 0
60 136 155 162 165 169 191 200 214 239 240 258 0
60 138 140 143 145 146 168 185 198 202 254 277 0
60 138 143 145 146 150 156 159 199 220 226 229 0
60 138 143 145 146 157 168 188 202 212 277 292 0
60 143 145 157 168 202 218 220 254 286 292 293 0
60 143 145 168 198 202 218 220 254 270 292 297 0
60 145 146 156 162 166 189 194 216 219 241 295 0
60 146 150 156 166 167 175 194 205 216 229 262 0
62 80 142 144 148 150 153 206 230 236 255 295 0
62 80 142 147 148 150 153 155 160 206 225 226 0
62 136 138 150 160 162 173 174 177 224 267 288 0
62 137 142 148 150 151 153 154 169 176 195 206 0
62 138 139 143 160 162 172 178 204 225 241 264 0
62 138 139 143 160 162 178 181 216 225 241 264 0
62 138 139 143 160 177 181 224 241 264 270 276 0
62 138 139 143 160 178 190 204 216 241 264 276 0
62 138 139 144 150 160 162 173 178 202 267 299 0
62 138 139 144 150 160 173 177 204 224 255 288 0
62 138 139 144 150 160 173 177 224 255 270 276 0
62 138 139 150 152 155 160 166 173 204 224 225 0
62 138 143 152 160 174 224 241 264 267 288 293 0
62 138 143 160 162 173 174 177 178 241 267 299 0
62 138 143 160 162 174 177 204 224 241 264 299 0
62 138 143 160 172 173 174 177 224 225 241 293 0
62 138 144 145 150 152 160 174 224 225 264 293 0
62 138 144 150 152 160 174 190 224 225 264 293 0
62 138 144 150 160 162 173 174 177 224 270 299 0
62 138 144 150 160 174 177 178 264 270 288 293 0
62 138 150 160 162 169 172 173 174 177 178 299 0
62 138 150 160 162 173 174 177 224 227 267 288 0
62 138 150 160 162 174 178 188 204 264 267 288 0
62 142 143 146 148 150 151 153 158 176 195 206 0
63 144 154 155 171 182 190 199 232 237 294 301 0
64 139 144 151 155 158 162 170 215 265 295 299 0
64 139 144 151 158 160 162 170 215 265 295 299 0
65 136 139 140 147 163 177 207 217 224 225 294 0
65 137 138 140 141 147 159 172 175 255 264 291 0
65 139 140 144 147 154 157 172 177 189 225 275 0
65 139 140 149 154 157 172 177 201 207 224 225 0
66 136 139 144 146 164 170 174 180 188 250 258 0
66 136 139 144 146 168 170 174 188 250 258 291 0
66 136 139 144 154 170 173 174 177 188 250 258 0
66 136 139 144 167 174 177 181 183 188 197 258 0
66 139 140 144 146 159 173 174 188 250 258 301 0
66 139 144 159 168 170 173 174 177 188 250 258 0
66 141 143 144 149 150 155 165 167 168 180 239 0
66 143 144 149 150 155 158 167 168 170 180 235 0
66 143 144 150 155 167 168 172 208 233 239 245 0
66 143 149 150 155 162 167 168 175 180 182 295 0
67 140 143 145 146 148 149 154 174 197 208 212 0
67 143 145 146 148 149 154 205 208 247 270 292 0
67 143 145 146 148 149 205 208 239 262 270 292 0
67 143 145 146 148 154 156 212 233 239 274 292 0
67 143 145 146 148 156 233 239 262 270 274 292 0
69 140 144 145 148 162 177 205 217 226 279 302 0
69 140 144 145 148 162 182 190 205 217 226 287 0
69 140 144 145 148 162 182 205 217 226 287 291 0
69 140 149 153 156 157 159 164 177 179 208 240 0
69 140 149 153 157 159 161 164 177 199 208 235 0
70 140 143 145 146 150 154 175 177 189 201 202 0
70 140 143 145 146 150 154 175 177 201 202 243 0
70 140 143 145 146 150 154 175 177 201 243 275 0
70 140 143 145 146 150 154 175 177 202 243 253 0
70 140 143 145 146 150 154 175 177 243 253 275 0
70 140 143 146 148 154 175 177 188 189 224 253 0
70 140 143 146 148 154 175 177 188 224 243 253 0
70 140 143 146 150 154 175 177 178 189 201 298 0
70 140 143 146 150 154 175 177 178 243 253 298 0
70 140 145 146 150 154 175 177 189 201 205 275 0
70 140 145 146 150 154 175 177 189 202 205 253 0
70 140 146 148 154 162 167 175 177 188 189 201 0
70 140 146 148 154 162 167 175 177 188 243 253 0
70 140 146 148 154 162 175 177 178 188 189 253 0
70 140 146 148 154 162 175 177 188 189 224 253 0
70 140 146 148 154 162 175 177 188 201 224 243 0
70 140 146 148 154 162 175 177 188 224 243 253 0
70 140 146 148 154 175 177 178 188 189 253 293 0
70 140 146 148 154 175 177 178 188 243 253 293 0
70 140 146 148 154 175 177 188 189 224 253 293 0
70 140 146 148 154 175 177 188 201 205 224 243 0
70 140 146 148 154 175 177 188 201 224 243 293 0
70 140 146 150 154 175 177 178 189 205 253 298 0
70 140 146 150 154 175 177 178 201 205 243 298 0
71 136 144 145 146 150 152 157 177 181 185 207 0
71 136 144 145 146 150 152 177 181 185 202 272 0
71 136 144 145 146 150 152 177 181 185 207 272 0
71 136 144 145 146 150 152 177 181 194 207 272 0
71 136 145 146 150 152 157 177 181 188 194 207 0
71 136 145 146 150 152 157 181 188 194 202 281 0
71 136 145 146 152 157 181 188 194 202 281 292 0
71 136 150 153 155 165 169 197 199 200 202 204 0
71 136 153 155 161 165 169 188 194 197 200 255 0
71 136 153 155 162 165 169 200 205 214 247 255 0
71 136 153 155 165 169 187 194 197 200 248 255 0
71 144 155 158 169 184 196 215 239 247 283 295 0
71 144 158 163 165 169 172 185 188 239 292 293 0
71 144 163 169 171 189 199 205 239 240 258 269 0
72 100 138 140 144 149 152 157 176 177 197 296 0
72 100 138 140 144 149 157 166 171 177 197 301 0
72 136 144 145 155 156 157 165 174 184 235 240 0
72 136 144 145 155 156 165 170 184 189 244 268 0
72 136 144 145 155 156 165 184 189 244 248 268 0
72 136 144 145 156 157 165 170 189 204 244 255 0
72 136 144 145 156 157 165 184 189 204 235 248 0
72 136 144 145 156 157 165 191 204 219 235 240 0
72 136 144 145 156 165 189 204 235 241 248 268 0
72 136 144 145 161 165 191 204 208 240 244 268 0
72 136 155 156 157 165 168 170 243 244 255 266 0
72 136 155 156 157 165 189 235 239 248 255 266 0
72 136 155 156 165 168 170 243 244 258 266 268 0
72 136 155 156 165 168 189 235 248 255 266 268 0
72 136 155 156 165 168 243 244 248 255 266 268 0
72 136 155 156 165 189 235 239 248 258 266 268 0
72 139 144 158 159 164 165 171 173 188 240 295 0
73 136 137 145 162 163 172 173 178 179 189 194 0
73 136 137 145 162 163 172 175 180 189 194 224 0
73 139 144 149 150 164 168 193 206 235 239 273 0
74 137 141 142 151 155 182 205 231 288 295 302 0
74 137 142 143 145 155 182 196 197 246 288 295 0
74 139 141 149 161 163 165 174 191 194 240 285 0
74 150 151 153 158 160 170 184 230 233 244 295 0
74 153 160 166 168 181 195 204 216 258 268 301 0
75 138 164 175 188 208 258 270 286 288 293 302 0
75 139 146 153 158 168 176 220 224 225 275 302 0
75 140 142 147 193 200 201 202 255 283 295 303 0
75 140 143 146 159 172 176 188 213 214 238 242 0
76 136 177 197 198 204 208 220 221 248 268 271 0
76 138 146 153 157 163 164 168 233 255 258 268 0
76 139 146 154 160 162 172 174 175 200 220 295 0
76 139 153 160 161 166 168 174 204 233 258 281 0
77 137 152 155 168 169 177 214 226 232 238 245 0
77 137 152 155 169 177 204 214 226 230 238 258 0
77 149 157 160 165 168 174 196 216 217 240 295 0
78 138 143 150 151 168 180 197 216 232 233 264 0
78 142 143 145 146 147 149 152 160 166 240 302 0
78 143 145 148 149 150 151 173 180 200 236 270 0
79 136 139 142 145 149 156 181 207 226 238 258 0
79 141 143 159 171 180 183 192 194 208 210 292 0
79 142 154 159 160 166 189 200 205 266 267 271 0
79 153 154 189 205 212 224 244 247 266 271 278 0
80 124 146 154 166 178 189 195 197 262 275 287 0
80 138 139 140 146 150 164 171 184 198 200 247 0
80 138 139 140 146 150 164 184 197 198 200 255 0
80 138 139 140 146 150 164 184 197 198 200 258 0
80 138 139 140 146 150 164 184 198 200 247 255 0
80 138 142 144 148 169 177 195 237 255 264 276 0
80 139 140 142 151 153 155 163 171 182 231 283 0
80 139 140 144 151 153 163 171 182 231 267 283 0
80 139 141 142 144 148 150 177 180 190 204 217 0
80 139 142 144 151 153 163 164 171 172 182 232 0
80 139 142 151 153 155 163 164 171 181 182 233 0
80 139 142 151 153 155 163 171 176 182 232 283 0
80 139 144 151 153 163 164 171 181 182 267 283 0
80 139 151 153 155 163 164 171 182 231 258 267 0
80 139 151 153 155 163 164 182 188 231 267 271 0
80 139 151 153 155 163 171 176 182 231 267 280 0
80 140 142 144 151 153 163 164 176 181 182 271 0
80 140 142 144 151 153 163 176 182 231 271 283 0
80 140 151 153 155 163 164 171 176 182 232 267 0
80 140 151 153 155 163 176 182 232 267 271 283 0
80 141 142 144 148 150 169 177 180 190 208 267 0
80 142 144 146 148 154 190 204 224 237 283 287 0
80 142 144 148 154 169 173 177 195 237 255 267 0
80 142 144 148 169 173 195 199 202 233 241 276 0
80 142 144 148 177 190 193 225 230 233 283 301 0
80 142 144 151 153 163 164 171 176 179 181 182 0
80 144 151 153 163 164 167 171 176 193 231 267 0
80 144 151 153 163 164 167 171 176 193 232 267 0
80 151 153 155 163 164 171 176 182 232 267 283 0
82 132 146 157 180 197 200 218 236 270 295 303 0
83 136 141 143 146 149 151 157 197 204 208 219 0
83 136 146 149 150 151 157 172 196 198 208 219 0
83 136 146 149 150 151 157 182 196 204 219 292 0
84 102 141 145 149 151 156 171 172 177 181 244 0
84 136 141 145 149 151 156 171 205 207 248 288 0
84 136 142 149 151 156 171 178 195 196 244 269 0
84 136 145 149 151 156 181 207 215 248 288 301 0
84 138 139 140 143 144 146 151 155 165 203 208 0
84 138 139 140 143 144 146 151 165 202 203 208 0
84 138 145 149 151 155 156 172 177 229 235 287 0
84 138 149 151 156 172 181 195 196 235 269 288 0
84 139 140 143 144 146 150 151 155 203 207 208 0
84 139 140 143 144 146 151 165 202 203 207 208 0
84 139 140 143 144 146 151 165 203 207 208 255 0
84 139 140 143 144 146 151 165 203 207 208 275 0
84 139 142 149 151 156 177 181 235 258 269 293 0
84 139 142 149 151 156 181 235 238 258 269 293 0
84 139 143 144 146 150 151 203 207 208 275 297 0
84 141 142 145 149 151 156 172 178 181 244 276 0
84 141 143 146 149 163 168 181 198 212 273 292 0
84 142 149 151 156 160 172 178 181 197 235 269 0
84 142 149 151 156 171 172 178 244 269 287 288 0
84 142 149 151 156 172 224 228 238 244 258 269 0
84 142 149 151 156 172 224 228 238 244 269 276 0
84 145 149 151 156 171 172 181 197 207 238 244 0
85 136 137 145 149 162 163 172 180 189 224 303 0
85 136 137 145 149 163 170 172 180 189 224 296 0
85 136 137 145 162 163 172 173 178 180 189 194 0
85 136 137 145 162 163 172 173 178 180 189 245 0
85 136 137 145 163 170 172 173 178 180 189 194 0
85 136 137 145 163 170 172 180 189 194 224 303 0
85 141 143 149 151 157 158 165 195 255 280 295 0
85 143 144 151 158 176 190 215 224 255 275 282 0
85 143 147 149 151 155 158 176 195 255 282 285 0
85 144 150 151 153 158 173 188 198 230 258 295 0
85 144 150 151 158 176 190 224 233 275 284 295 0
86 136 141 142 145 149 155 156 163 187 193 215 0
88 137 138 139 140 141 153 171 207 255 267 297 0
89 138 140 157 162 170 172 219 220 229 290 302 0
89 139 146 164 211 217 220 224 225 258 264 270 0
89 143 150 153 155 163 167 168 194 227 233 249 0
91 138 149 160 166 174 222 228 229 255 288 289 0
91 139 144 149 155 156 164 169 191 202 212 213 0
92 139 141 161 162 163 191 213 260 267 283 299 0
92 139 142 145 149 151 192 215 224 236 258 271 0
92 145 147 149 153 156 189 204 205 283 289 302 0
94 138 139 140 143 144 151 155 157 165 203 208 0
98 142 147 150 155 164 167 201 220 238 266 295 0
100 138 140 144 149 152 157 163 171 173 177 229 0
100 138 140 144 149 152 157 171 173 177 188 229 0
100 138 140 144 149 157 166 171 177 197 216 229 0
100 138 140 149 152 155 157 177 179 197 229 238 0
100 142 143 148 149 152 165 168 173 174 180 240 0
100 146 156 164 176 189 205 209 219 230 241 269 0
100 146 156 166 180 205 219 220 229 241 269 284 0
101 137 138 141 150 151 169 170 206 214 224 238 0
101 138 147 150 169 170 197 206 224 238 264 271 0
101 139 144 148 149 151 153 160 175 193 256 267 0
101 144 147 148 149 151 153 160 175 193 207 208 0
102 136 147 149 153 155 156 164 167 201 205 215 0
102 136 147 150 155 163 164 167 176 255 266 274 0
102 138 139 143 152 160 162 204 224 241 264 299 0
102 138 139 147 150 152 155 160 197 224 255 288 0
102 138 139 147 150 155 160 162 173 178 255 299 0
102 138 139 147 150 155 160 172 173 178 255 276 0
102 138 139 150 152 160 162 173 202 204 224 276 0
102 138 139 150 152 160 173 178 204 253 255 288 0
102 138 139 150 160 173 177 190 204 224 255 276 0
102 138 142 143 160 162 173 178 241 255 265 276 0
102 138 142 150 155 160 162 173 178 204 265 299 0
102 138 142 150 160 162 173 174 177 224 255 276 0
102 138 142 150 160 173 177 202 224 265 276 293 0
102 138 143 145 150 160 173 178 204 265 288 293 0
102 138 143 147 150 155 160 162 173 174 178 299 0
102 138 143 147 155 160 162 173 174 178 241 299 0
102 138 143 150 152 160 162 174 178 204 264 276 0
102 138 143 150 160 162 174 178 188 204 264 276 0
102 138 143 152 160 162 204 224 241 264 265 288 0
102 138 143 160 162 173 174 177 204 224 241 276 0
102 138 143 160 162 173 178 204 215 225 241 265 0
102 138 143 160 162 173 178 241 255 265 267 299 0
102 138 143 160 162 178 202 241 264 265 267 299 0
102 138 143 160 173 174 178 204 215 225 241 293 0
102 138 143 160 174 178 202 241 264 267 288 293 0
102 138 143 160 178 188 204 241 264 265 276 293 0
102 138 143 160 178 204 241 255 264 265 276 293 0
102 138 143 171 175 180 204 208 216 223 255 274 0
102 138 145 150 160 162 173 178 202 204 265 299 0
102 138 147 150 155 160 162 173 174 178 255 299 0
102 138 147 150 155 160 162 178 255 264 265 299 0
102 138 147 150 155 160 174 178 255 264 276 293 0
102 138 150 152 160 162 173 202 204 224 265 299 0
102 138 150 152 160 162 173 204 224 255 265 288 0
102 138 150 152 160 162 174 197 202 204 224 276 0
102 138 150 160 162 173 174 177 202 224 267 299 0
102 138 150 160 162 174 177 224 255 264 267 299 0
102 138 150 160 162 174 178 188 202 204 264 299 0
102 138 150 160 162 177 202 224 264 265 267 299 0
102 138 150 160 173 177 202 224 265 267 288 293 0
102 138 150 160 178 181 204 255 264 265 288 293 0
102 141 145 154 155 156 157 164 167 176 274 284 0
102 141 149 155 163 164 167 193 205 215 219 301 0
102 145 149 150 155 157 163 164 167 176 197 236 0
102 145 149 150 155 157 163 167 176 193 197 236 0
102 147 155 156 160 164 166 167 193 215 268 301 0
102 149 150 155 157 160 163 164 167 176 197 205 0
104 106 136 138 140 147 159 174 258 264 295 301 0
104 127 136 139 146 152 163 173 203 232 244 255 0
104 136 138 144 150 157 160 161 167 170 255 288 0
104 136 139 144 159 173 174 184 188 250 255 287 0
104 136 139 144 159 174 177 183 184 188 197 255 0
104 136 140 171 173 177 199 209 214 237 260 300 0
104 136 142 146 164 166 173 182 268 294 295 296 0
104 136 144 146 166 173 176 190 197 268 295 300 0
104 138 140 150 160 162 167 174 194 202 208 263 0
104 138 150 155 160 162 166 167 174 219 241 258 0
104 138 150 157 160 161 162 167 174 202 258 295 0
104 138 150 160 162 167 170 177 208 226 228 255 0
104 138 150 160 162 167 170 190 211 219 255 298 0
104 138 150 160 162 167 174 194 202 219 263 295 0
104 138 150 160 167 170 205 211 219 255 288 298 0
104 139 143 144 150 159 174 177 183 188 197 258 0
104 139 144 154 159 168 174 177 188 197 250 258 0
104 139 144 159 168 173 174 188 250 258 284 287 0
104 139 144 159 168 174 177 183 188 197 227 258 0
104 140 143 144 149 150 155 159 167 168 172 180 0
104 140 143 149 150 155 159 167 168 172 180 182 0
104 140 143 149 150 155 159 167 168 172 182 233 0
104 140 143 149 150 155 159 168 172 180 188 258 0
106 136 137 140 152 162 184 192 218 219 227 297 0
106 136 138 140 147 159 173 174 215 258 295 301 0
106 140 143 146 150 154 164 175 177 201 243 302 0
106 140 143 146 154 163 175 177 188 243 253 263 0
106 140 146 150 154 163 175 177 201 205 243 246 0
106 140 146 150 154 167 175 177 189 201 205 216 0
106 140 146 150 154 175 177 189 205 216 253 284 0
106 140 146 154 175 177 188 201 204 205 243 263 0
106 143 148 152 153 165 167 168 170 184 233 235 0
120 139 142 146 161 163 164 183 211 220 225 278 0
120 139 142 146 161 163 164 183 211 220 276 278 0
120 139 142 152 161 163 164 183 211 220 225 278 0
120 139 142 161 163 164 183 197 206 220 276 278 0
120 139 142 161 163 164 183 197 211 220 225 278 0
120 139 142 161 163 164 183 206 220 225 278 286 0
120 139 142 161 163 164 183 206 220 276 278 286 0
120 139 142 161 163 164 183 211 220 225 278 286 0
121 136 141 144 145 156 186 198 199 268 270 295 0
124 138 139 142 143 160 178 204 225 241 255 264 0
124 138 139 143 147 155 160 178 225 241 264 265 0
124 138 139 150 155 160 166 173 178 204 216 288 0
124 138 139 150 160 173 177 202 204 224 225 265 0
124 138 139 150 160 173 177 202 224 225 265 267 0
124 138 142 150 160 173 177 202 224 225 265 293 0
124 138 143 147 155 160 173 174 178 225 241 293 0
124 138 143 150 152 160 197 204 224 225 265 293 0
124 138 143 160 173 177 204 224 225 241 265 293 0
124 138 143 160 173 178 181 204 241 265 276 293 0
124 138 147 150 155 160 173 174 178 225 255 293 0
124 138 147 150 155 160 174 178 255 264 276 293 0
124 138 147 150 155 160 178 202 225 264 265 293 0
124 138 150 160 173 177 202 224 225 265 267 293 0
124 138 150 160 173 177 204 224 225 255 265 293 0
124 138 150 160 177 202 204 224 264 265 276 293 0
124 138 150 160 178 188 202 204 264 265 276 293 0
126 137 138 140 141 146 153 164 214 215 275 295 0
126 137 138 140 141 164 204 214 218 223 232 286 0
126 137 138 140 146 149 150 164 194 223 258 275 0
126 137 138 140 150 164 167 194 204 218 223 275 0
126 137 138 140 164 188 194 214 218 265 275 295 0
126 145 153 166 177 197 200 204 220 239 240 268 0
127 138 139 142 143 155 162 166 214 217 227 233 0
127 138 142 143 166 170 217 225 233 255 265 288 0
127 138 142 150 152 160 162 170 188 202 205 219 0
127 139 142 143 148 149 150 155 160 162 167 172 0
127 139 142 143 148 149 150 155 162 167 202 270 0
127 143 148 149 150 166 167 202 214 217 265 270 0
127 143 148 149 150 167 202 214 227 265 270 275 0
128 136 139 144 146 151 159 165 174 183 188 255 0
128 136 139 144 159 174 184 188 197 250 255 287 0
128 136 144 146 151 152 176 177 197 203 217 232 0
128 138 140 150 160 167 174 205 228 229 255 288 0
128 138 140 150 160 167 174 228 229 255 288 294 0
128 138 150 152 160 162 170 188 219 229 243 255 0
128 138 150 152 160 162 174 188 202 219 229 285 0
128 138 150 152 160 174 188 202 205 228 229 288 0
128 138 150 160 162 167 170 202 205 224 225 229 0
128 138 150 160 162 167 170 211 229 255 298 303 0
130 136 151 196 201 204 219 224 225 241 245 285 0
130 142 144 150 155 160 169 174 242 265 295 302 0
130 144 147 150 155 160 169 174 202 220 228 295 0
130 144 150 155 169 173 174 202 220 228 293 295 0
132 138 142 143 145 148 149 150 156 168 180 240 0
132 142 143 145 148 156 165 200 233 236 239 240 0
132 142 143 148 149 150 168 180 218 240 276 301 0
132 143 145 148 156 165 168 172 184 207 233 240 0
133 136 138 143 149 152 153 155 165 169 200 289 0
133 136 141 144 146 147 164 171 179 202 218 268 0
133 136 141 146 154 203 207 218 232 245 268 301 0
133 136 143 144 150 153 164 168 170 172 184 187 0
133 136 150 152 153 155 169 173 194 200 202 205 0
133 139 143 146 163 168 178 181 198 205 270 286 0
133 139 143 146 163 178 181 182 198 205 212 239 0
133 143 146 163 177 181 188 198 239 270 274 286 0
134 136 143 144 145 156 157 165 204 240 244 255 0
134 136 143 145 155 156 165 168 235 240 247 268 0
134 136 144 145 150 156 157 165 204 240 244 255 0
134 136 144 145 156 165 166 191 204 235 240 268 0
134 136 145 153 155 156 157 161 165 219 240 244 0
134 136 145 153 155 156 165 170 195 226 235 268 0
134 136 145 155 157 161 165 170 189 191 208 235 0
134 137 138 140 149 150 161 179 216 224 287 302 0
135 138 150 160 162 174 178 182 202 204 264 299 0
1 50 159 177 205 213 224 250 269 285 292 293 294 0
1 136 140 145 147 151 155 159 166 174 258 271 303 0
1 205 206 212 224 225 251 257 259 261 283 293 299 0
2 20 166 191 197 204 211 250 260 268 279 297 300 0
2 139 166 197 204 210 212 234 248 277 283 287 299 0
2 140 166 189 191 197 201 204 211 234 265 280 293 0
2 140 166 191 197 204 211 220 234 251 253 280 293 0
2 146 152 166 204 210 212 213 234 277 278 299 300 0
2 147 155 161 166 191 197 211 239 251 253 280 297 0
2 147 155 166 168 197 210 212 213 277 283 299 300 0
2 147 155 166 197 210 212 213 220 268 283 299 300 0
2 147 155 166 197 210 212 213 234 277 278 288 300 0
2 147 155 166 197 210 212 213 234 277 278 299 300 0
2 147 155 166 197 210 212 234 235 248 253 262 277 0
2 154 163 166 197 204 210 212 234 235 248 253 273 0
2 166 188 191 197 204 211 250 260 277 279 297 300 0
2 166 190 197 204 212 213 235 239 248 253 262 277 0
2 166 191 197 204 206 211 225 239 251 253 297 298 0
2 166 197 198 204 210 212 213 251 277 283 299 300 0
3 100 142 143 148 149 150 152 168 173 233 240 272 0
3 137 145 146 149 152 180 183 190 217 245 255 267 0
3 150 160 170 172 191 235 265 274 278 280 288 298 0
3 170 172 188 191 240 261 265 274 280 283 288 298 0
3 170 172 188 209 213 240 247 277 283 287 294 299 0
4 143 151 154 174 199 200 207 225 270 271 286 293 0
4 144 145 149 153 158 160 161 173 174 177 201 219 0
5 136 140 142 144 149 170 174 181 195 221 255 284 0
5 136 144 155 170 172 183 255 264 283 286 288 293 0
5 139 144 166 167 173 178 183 188 214 217 268 278 0
5 142 144 149 170 172 174 181 195 221 271 284 294 0
5 142 144 164 166 172 175 189 195 197 255 284 296 0
5 143 158 165 170 172 205 221 267 269 286 292 293 0
5 144 168 176 181 190 194 197 204 231 263 276 284 0
6 139 153 155 163 168 170 173 182 194 216 242 265 0
7 138 141 149 156 157 158 166 193 246 255 268 279 0
8 136 141 150 171 173 177 181 185 188 208 255 296 0
8 141 150 155 159 170 171 173 177 181 188 203 226 0
8 147 159 170 171 172 173 177 181 188 203 240 301 0
8 159 170 171 173 177 181 188 204 208 233 235 268 0
9 136 142 144 145 163 166 170 221 233 253 255 268 0
9 153 159 163 169 192 202 205 255 257 269 272 288 0
9 153 160 168 169 181 187 188 192 194 205 234 269 0
10 58 140 147 169 170 175 177 187 204 216 224 270 0
10 137 138 143 144 145 151 161 199 200 207 236 255 0
10 137 138 143 144 145 151 181 191 200 207 255 258 0
10 137 138 144 145 151 169 181 198 199 200 207 255 0
10 137 138 144 145 151 169 198 199 200 207 236 255 0
10 137 139 143 144 145 151 161 168 173 199 202 207 0
10 137 141 143 144 145 151 157 165 168 207 255 258 0
10 137 143 144 145 151 180 200 202 207 236 241 258 0
10 137 143 145 151 155 167 168 190 191 202 207 258 0
10 137 143 145 151 155 167 181 200 202 207 241 258 0
10 137 144 145 151 169 191 198 200 202 207 228 236 0
10 137 145 151 155 161 167 168 169 191 202 207 258 0
10 141 149 150 158 165 168 171 173 181 208 276 283 0
10 143 144 145 149 158 165 167 171 176 221 242 276 0
10 144 145 149 158 165 170 171 173 176 181 213 267 0
10 149 158 160 165 168 170 171 204 208 230 276 284 0
11 140 145 146 149 158 175 177 188 194 205 224 248 0
11 140 183 191 211 235 260 262 264 265 269 278 297 0
11 185 189 201 209 213 245 247 277 278 288 297 300 0
12 136 140 142 151 155 161 164 199 238 258 284 301 0
12 140 141 142 146 155 158 161 164 172 184 212 258 0
12 140 144 147 150 158 161 162 164 172 190 195 270 0
12 140 144 149 158 165 168 170 171 208 230 241 267 0
12 140 144 150 161 164 172 190 199 229 265 270 284 0
12 140 160 162 205 224 248 257 259 265 269 280 283 0
12 144 149 158 159 165 167 168 171 204 208 255 276 0
12 188 205 224 244 251 257 261 262 280 283 293 299 0
13 139 144 147 148 155 160 163 208 215 224 249 275 0
13 139 148 149 157 160 163 180 224 237 247 275 293 0
13 140 173 183 191 220 260 268 269 274 287 294 298 0
13 143 145 154 157 191 220 250 260 272 279 298 300 0
13 143 154 183 191 239 260 264 269 277 279 298 300 0
13 156 159 166 183 209 213 247 264 268 277 279 300 0
14 37 154 165 170 240 250 257 260 269 278 292 299 0
14 136 145 146 151 152 157 190 219 241 245 246 247 0
14 138 140 141 145 147 152 156 178 202 208 241 274 0
15 140 154 161 191 235 250 254 260 269 274 297 298 0
15 154 169 172 188 200 207 239 240 244 253 270 286 0
15 159 212 218 239 253 259 261 274 277 283 288 300 0
15 208 209 221 235 247 260 266 271 277 283 299 300 0
16 69 149 161 162 168 172 174 190 238 255 264 284 0
16 137 142 143 145 149 160 162 177 193 267 275 284 0
16 137 142 143 149 154 160 162 193 214 215 270 275 0
16 139 144 149 150 163 164 180 193 229 237 239 240 0
16 143 151 158 166 167 190 204 205 217 224 258 284 0
17 23 137 145 159 163 168 177 180 188 192 272 293 0
17 37 200 206 207 225 257 259 261 270 278 286 299 0
17 60 136 150 153 155 165 168 169 199 202 204 234 0
18 138 140 142 143 146 155 162 172 174 219 238 258 0
18 143 145 148 154 156 157 212 215 233 247 295 303 0
18 144 151 153 163 164 171 175 176 182 231 267 284 0
19 36 156 172 191 209 212 213 235 264 277 288 300 0
19 36 184 199 204 241 251 261 274 280 283 288 298 0
20 127 136 139 145 147 156 163 178 200 207 215 239 0
20 127 142 145 155 162 168 184 211 248 265 275 276 0
20 134 139 145 156 163 172 178 193 195 196 207 217 0
20 136 139 142 145 147 156 163 178 182 207 276 301 0
20 136 139 142 145 156 163 178 182 207 215 240 301 0
20 138 139 140 145 155 156 163 172 188 193 240 255 0
20 138 139 140 147 161 163 164 176 208 214 223 225 0
20 138 139 145 147 156 163 172 178 193 200 239 292 0
20 138 160 163 172 175 178 181 192 240 242 294 301 0
20 139 143 144 147 149 150 155 173 175 187 216 228 0
20 139 144 147 148 149 154 161 173 222 258 275 302 0
20 139 144 147 161 170 173 187 215 222 240 249 302 0
20 139 144 147 173 175 182 214 215 216 228 266 284 0
20 144 151 158 173 176 177 214 215 216 225 231 245 0
21 36 138 139 141 146 150 171 199 202 207 221 224 0
21 84 136 142 145 149 151 155 171 177 178 197 244 0
21 84 138 142 145 149 151 172 181 228 229 248 288 0
21 84 145 149 151 172 181 197 207 215 228 238 244 0
21 136 138 139 141 144 145 146 148 199 207 221 255 0
21 138 139 141 144 145 146 148 171 199 207 221 255 0
21 138 139 141 144 145 146 148 199 207 221 255 276 0
21 138 139 141 144 145 146 150 171 199 202 207 221 0
21 138 139 141 144 145 150 171 199 202 207 218 221 0
21 138 139 141 144 146 148 171 199 207 221 255 276 0
21 138 139 141 144 146 148 171 199 207 221 255 284 0
21 138 139 141 144 146 148 199 207 208 221 255 301 0
21 138 139 141 144 148 199 207 218 221 255 270 275 0
21 138 139 141 144 148 199 207 218 221 255 275 284 0
21 138 139 141 144 150 171 199 202 207 218 221 284 0
21 138 139 141 144 150 171 199 202 207 218 221 293 0
21 138 139 141 146 148 171 188 199 207 221 255 270 0
21 138 139 141 146 148 188 199 205 207 221 255 275 0
21 138 139 141 146 148 188 199 207 221 255 263 275 0
21 138 139 141 146 150 171 199 207 214 221 255 259 0
21 138 139 141 148 175 188 199 207 218 221 224 255 0
21 138 139 141 148 188 199 207 208 218 221 255 301 0
21 139 170 172 188 189 197 201 212 213 239 240 262 0
21 154 159 170 172 188 212 213 235 237 239 247 253 0
21 154 167 170 172 188 212 213 234 240 247 253 300 0
21 157 170 172 188 209 212 213 220 240 283 299 300 0
22 36 158 160 184 198 212 241 265 280 283 288 298 0
23 80 139 140 144 151 153 163 164 182 231 267 275 0
23 137 145 160 162 174 177 192 205 209 214 260 269 0
23 138 143 146 151 165 171 174 183 203 271 275 293 0
23 146 147 148 149 151 162 168 174 183 188 240 266 0
23 146 149 152 154 168 172 183 188 205 228 266 303 0
36 39 145 160 163 174 191 240 278 280 288 296 298 0
36 124 138 139 143 160 173 177 204 224 225 241 285 0
36 132 136 139 143 148 150 167 168 170 184 233 240 0
36 136 144 154 197 200 212 221 235 239 253 266 278 0
36 136 167 189 201 212 221 234 235 247 262 266 271 0
36 136 176 189 201 212 221 234 235 247 262 266 271 0
36 139 156 164 201 205 209 212 213 240 277 287 288 0
36 145 191 204 205 240 251 261 278 280 288 289 298 0
36 153 154 167 209 213 234 241 242 244 245 247 253 0
36 153 164 209 212 213 219 244 253 260 277 288 300 0
36 154 156 185 189 201 205 212 213 234 235 247 300 0
36 154 167 189 201 205 212 213 234 235 237 241 247 0
36 154 199 201 205 209 213 247 253 277 278 299 300 0
36 156 157 164 201 205 209 212 213 220 235 299 300 0
36 156 189 197 201 209 213 235 239 277 278 299 300 0
36 159 165 174 191 206 212 224 225 261 278 285 288 0
36 159 174 191 196 204 261 273 274 280 283 288 298 0
36 159 184 198 199 204 212 235 241 250 262 274 279 0
36 188 191 201 205 209 213 234 235 247 253 262 283 0
36 208 209 221 240 247 260 266 271 277 283 299 300 0
36 209 213 234 235 247 253 260 262 277 283 299 300 0
37 52 161 178 184 199 210 241 264 269 277 292 300 0
37 136 140 160 166 191 212 251 259 269 278 280 288 0
37 139 140 177 178 204 213 220 250 254 260 268 269 0
37 140 154 173 183 206 212 225 235 257 259 260 269 0
37 140 154 200 207 235 250 257 259 260 269 270 280 0
37 140 159 178 188 212 235 250 257 262 269 280 288 0
37 145 154 159 172 188 212 235 244 250 280 288 292 0
37 147 155 159 166 178 213 220 222 250 268 279 300 0
37 154 159 173 183 212 235 257 259 269 280 292 299 0
37 154 170 172 178 212 240 250 259 260 279 280 288 0
37 154 178 188 206 212 214 225 235 250 257 260 279 0
37 154 188 204 213 250 253 254 260 271 277 279 300 0
37 159 162 166 212 218 235 250 257 259 262 279 280 0
37 159 177 213 227 246 250 254 256 277 279 294 302 0
37 160 178 188 191 204 212 223 251 270 278 280 299 0
37 160 188 200 207 235 250 257 260 262 270 279 286 0
37 162 191 200 206 207 225 259 261 265 270 278 286 0
37 166 183 188 189 204 213 220 260 264 268 279 300 0
37 178 183 191 213 220 254 260 264 268 269 292 300 0
37 208 221 234 253 254 256 257 261 265 266 271 280 0
38 82 154 155 200 210 220 239 240 248 253 257 286 0
38 139 160 210 212 213 222 230 277 283 287 288 291 0
38 144 169 170 172 189 212 213 239 240 253 262 288 0
38 147 154 155 170 198 210 212 234 240 253 257 266 0
38 149 154 186 210 212 218 231 234 235 248 253 257 0
38 154 160 168 170 172 188 189 201 210 212 240 288 0
38 159 174 191 211 250 265 272 277 279 297 300 303 0
38 172 200 207 210 239 240 248 253 262 270 277 286 0
39 139 145 146 149 151 152 159 161 171 183 189 190 0
39 145 146 149 151 152 161 165 170 183 240 258 270 0
39 145 146 149 151 152 161 172 174 183 184 243 248 0
39 145 146 149 151 152 172 183 198 217 243 268 270 0
43 136 140 144 145 148 162 188 205 217 226 238 287 0
43 139 140 143 147 148 150 167 171 178 230 233 243 0
43 139 146 161 163 172 180 187 206 220 264 281 283 0
44 136 138 141 143 149 150 155 166 173 192 214 270 0
44 136 138 143 149 150 155 166 169 197 239 264 297 0
44 136 138 143 149 150 155 166 197 239 264 270 274 0
44 139 141 166 192 212 234 240 242 244 247 260 262 0
44 139 142 146 161 163 164 183 187 220 276 278 285 0
44 139 142 146 161 163 164 183 195 211 220 276 283 0
44 139 142 146 161 163 183 195 211 220 258 276 283 0
44 139 142 152 161 163 164 171 183 195 220 276 278 0
44 139 142 152 161 163 164 183 195 206 220 225 283 0
44 139 142 152 161 163 171 183 187 206 220 276 283 0
44 139 142 161 163 164 171 183 195 220 276 278 286 0
44 139 142 161 163 164 183 195 197 211 220 276 278 0
44 139 142 161 163 164 183 195 206 220 276 278 286 0
44 139 142 161 163 164 183 195 211 220 225 283 286 0
44 139 149 150 151 164 182 206 240 242 271 273 293 0
44 141 145 149 150 151 153 154 164 165 193 205 239 0
44 147 160 174 189 191 196 201 204 231 239 280 301 0
44 150 151 154 164 165 182 233 240 274 293 296 302 0
44 160 168 176 184 191 204 206 225 242 249 265 285 0
45 159 160 164 207 209 212 218 277 287 294 299 302 0
45 159 160 174 205 211 221 224 225 269 270 280 299 0
45 196 204 212 223 225 261 265 270 280 282 298 299 0
46 136 138 142 144 150 155 157 163 167 193 199 202 0
46 136 138 144 150 155 163 167 174 191 199 255 268 0
46 137 145 149 151 152 172 183 189 190 198 245 286 0
46 138 144 150 155 157 163 165 188 199 215 230 296 0
46 139 154 160 165 177 189 191 196 201 204 239 251 0
46 139 160 172 174 177 204 208 231 234 253 254 262 0
46 145 150 155 156 163 168 184 218 270 286 288 292 0
46 145 151 153 155 165 200 207 239 254 266 288 295 0
46 145 151 153 155 165 200 207 239 266 285 288 295 0
46 154 166 174 188 204 205 225 239 253 261 268 271 0
46 154 170 172 199 218 227 248 259 261 265 278 299 0
46 159 160 174 189 201 205 228 234 254 256 280 300 0
46 159 160 182 187 189 201 205 225 234 251 254 256 0
46 160 168 174 182 187 197 204 224 253 254 260 273 0
46 163 164 191 204 225 251 259 261 270 271 282 299 0
47 144 145 190 191 201 207 250 254 260 262 277 279 0
47 145 162 172 191 209 213 247 250 253 274 277 278 0
47 145 191 207 220 222 250 254 260 262 268 292 296 0
47 147 155 159 166 183 201 213 259 264 268 277 279 0
47 147 155 159 166 197 220 239 250 268 279 287 294 0
47 156 159 164 209 220 240 244 247 274 277 286 299 0
47 156 159 166 183 220 229 246 256 264 268 279 296 0
47 156 159 183 204 222 254 264 269 277 280 281 292 0
47 156 198 204 250 254 260 268 269 272 277 289 292 0
47 159 166 183 197 204 207 262 264 268 269 277 279 0
47 164 199 209 213 220 223 247 253 274 277 286 299 0
47 166 176 178 198 220 222 250 256 260 262 268 279 0
48 139 144 149 156 157 158 162 163 164 170 192 217 0
48 139 144 149 157 158 162 164 170 192 208 217 302 0
48 139 149 153 154 156 157 158 163 164 217 235 237 0
48 139 149 153 156 157 162 164 170 194 217 225 302 0
48 139 149 155 157 158 163 164 170 205 208 217 288 0
48 139 149 156 157 158 162 164 170 188 205 217 228 0
48 139 149 157 158 162 163 164 170 192 205 208 217 0
48 140 147 170 172 188 227 240 261 265 269 278 280 0
49 139 154 159 166 177 189 191 201 222 250 268 277 0
49 147 159 172 173 183 218 235 248 259 262 288 301 0
49 159 162 163 166 172 188 191 235 244 250 262 303 0
49 159 183 189 191 201 224 254 262 264 277 279 300 0
50 136 140 159 172 188 213 228 244 250 279 297 300 0
50 139 140 152 162 205 211 224 250 260 263 269 287 0
50 139 145 146 205 208 213 220 250 260 287 292 293 0
50 145 188 194 200 205 208 213 250 260 292 297 300 0
51 136 153 154 157 159 170 172 188 219 250 279 292 0
51 140 159 166 173 183 188 208 235 257 262 269 272 0
51 145 153 154 170 250 257 259 260 261 280 288 292 0
51 149 157 160 168 186 213 231 235 246 248 253 262 0
51 154 159 169 183 188 235 257 263 264 279 284 291 0
51 154 172 188 235 248 250 256 260 269 270 280 292 0
51 178 208 235 250 257 259 260 261 262 279 280 292 0
52 136 140 159 162 191 200 213 239 263 269 277 300 0
52 138 145 154 165 235 260 274 279 280 283 288 298 0
52 140 161 211 220 226 239 260 268 269 289 297 300 0
52 140 162 199 212 240 244 260 262 265 269 274 283 0
52 140 164 184 198 210 213 239 250 269 277 293 300 0
52 140 199 205 212 232 235 260 262 265 269 283 293 0
52 145 154 159 165 240 244 274 278 279 280 298 299 0
52 145 161 191 205 212 216 220 240 244 260 262 292 0
52 145 183 198 205 210 211 239 277 278 292 293 300 0
52 154 165 176 205 230 235 260 269 279 283 288 298 0
52 159 161 197 205 211 234 269 277 286 292 297 300 0
52 161 199 210 213 239 241 250 263 277 279 297 300 0
52 188 198 210 213 239 250 269 277 278 292 293 300 0
52 198 210 213 239 250 277 279 283 287 292 293 294 0
54 137 145 148 149 163 173 174 178 180 215 228 282 0
54 137 145 148 150 162 163 173 178 180 185 194 299 0
54 138 145 153 159 164 174 179 250 262 274 279 298 0
54 146 158 163 168 171 173 203 224 240 241 287 290 0
54 154 163 172 197 209 224 231 236 239 253 282 287 0
55 140 165 196 199 205 209 220 269 278 280 288 298 0
56 65 141 145 155 156 169 171 174 181 215 249 270 0
56 84 138 142 149 156 172 177 178 182 248 269 288 0
56 136 139 144 153 156 161 165 168 191 198 204 235 0
56 136 139 145 155 156 165 170 181 189 244 255 268 0
56 136 141 144 145 150 153 155 156 161 165 198 235 0
56 136 141 144 150 153 161 165 198 204 208 235 239 0
56 136 144 145 156 161 165 170 198 204 243 244 255 0
56 136 144 150 153 156 157 165 199 204 235 239 280 0
56 136 144 153 155 157 161 165 168 191 208 235 303 0
56 136 144 156 161 165 191 198 204 239 240 244 266 0
56 136 145 150 151 153 155 156 157 165 191 235 256 0
56 136 145 153 155 161 165 198 208 240 241 244 255 0
56 136 145 155 156 157 165 170 219 239 243 244 258 0
56 136 145 155 156 161 165 198 205 240 244 255 269 0
56 136 145 155 156 165 167 171 174 243 244 258 268 0
56 136 145 155 156 165 170 181 189 239 244 255 268 0
56 136 145 155 161 165 170 208 235 241 243 255 268 0
56 136 150 153 155 157 161 165 172 208 235 239 255 0
56 136 155 156 161 165 168 170 198 240 244 258 266 0
56 136 155 161 165 168 208 235 243 248 258 266 268 0
56 137 138 150 154 169 204 216 224 232 238 271 297 0
56 138 139 147 150 151 163 169 181 197 216 264 297 0
56 138 140 146 149 150 154 157 169 207 208 246 255 0
56 140 149 150 154 157 166 169 202 207 208 218 246 0
56 142 148 150 151 153 160 161 163 169 176 199 288 0
58 123 140 146 161 163 176 208 214 225 275 279 293 0
58 136 140 146 156 157 162 163 171 172 233 277 303 0
58 136 142 146 147 156 157 163 171 180 190 276 277 0
58 136 142 146 147 156 157 175 180 208 215 276 277 0
58 136 142 146 156 157 178 180 208 215 226 276 277 0
58 136 146 147 154 156 157 161 180 194 208 220 236 0
58 136 146 147 156 157 161 171 180 182 243 244 277 0
58 136 146 147 156 157 173 178 180 208 215 226 277 0
58 136 146 148 153 156 157 160 162 171 175 215 277 0
58 136 146 156 157 160 171 202 233 267 277 284 303 0
58 136 146 156 157 171 180 190 202 215 267 288 303 0
58 138 140 142 158 161 194 195 208 209 214 221 290 0
58 138 142 149 159 161 164 194 214 265 274 284 291 0
58 144 145 151 155 158 161 163 174 217 239 278 288 0
58 144 145 151 155 158 161 174 197 239 278 288 295 0
58 144 145 151 155 158 161 174 239 278 288 293 295 0
58 144 151 155 158 159 161 174 238 278 287 288 295 0
58 144 151 155 158 161 168 174 180 238 278 288 295 0
58 144 151 157 158 160 174 199 214 277 278 288 295 0
58 144 151 158 160 161 162 174 175 229 278 295 299 0
60 136 138 153 155 165 169 197 200 220 246 255 297 0
60 136 138 155 165 168 169 187 214 234 240 255 277 0
60 136 152 153 155 163 165 169 173 200 202 217 255 0
60 136 153 155 161 162 165 168 169 194 214 234 258 0
60 138 139 140 143 144 154 156 157 158 171 193 279 0
60 138 140 142 143 145 160 168 198 218 255 268 277 0
60 138 140 143 145 146 168 172 186 198 202 268 277 0
60 138 140 143 145 146 168 188 198 202 262 268 277 0
60 138 143 145 146 157 168 188 202 270 277 291 292 0
60 140 143 145 146 149 157 168 175 186 202 218 277 0
60 140 143 145 166 168 172 174 188 198 202 218 277 0
60 143 145 166 168 188 198 202 215 218 270 277 292 0
60 143 145 168 188 198 202 218 220 254 270 292 303 0
62 106 136 139 142 152 159 172 178 188 192 224 264 0
62 136 138 139 143 160 173 177 178 214 241 276 297 0
62 138 139 143 144 160 173 178 241 255 267 276 297 0
62 138 139 143 152 160 172 173 188 224 241 267 288 0
62 138 139 143 152 160 173 188 224 241 267 288 293 0
62 138 139 143 155 160 177 178 241 255 264 267 288 0
62 138 139 144 147 150 155 160 173 178 188 202 288 0
62 138 139 144 150 152 160 162 197 224 225 255 285 0
62 138 139 144 150 160 162 172 178 255 264 270 299 0
62 138 139 145 150 152 160 162 190 224 264 267 288 0
62 138 139 150 152 160 173 204 214 216 224 225 228 0
62 138 139 150 152 160 173 204 214 224 225 228 263 0
62 138 141 150 160 162 174 177 224 225 227 238 264 0
62 138 142 143 148 150 151 153 159 176 195 206 264 0
62 138 143 144 160 162 173 174 178 190 241 267 299 0
62 138 143 160 162 172 173 174 177 178 204 241 299 0
62 138 144 150 152 160 162 173 174 204 224 255 299 0
62 138 144 150 160 162 173 174 178 181 204 216 299 0
62 138 150 155 160 173 174 177 224 255 267 276 293 0
62 138 150 160 162 172 174 178 188 204 228 264 288 0
62 138 150 160 172 174 177 178 181 264 270 276 293 0
62 142 143 144 148 150 151 153 158 195 206 247 271 0
62 142 143 148 150 151 153 159 176 195 197 206 285 0
62 142 143 148 150 151 153 176 195 206 208 247 280 0
62 142 148 150 151 153 154 169 173 176 177 195 206 0
62 142 148 150 151 153 154 169 176 195 206 236 265 0
62 142 148 150 151 153 158 169 176 195 206 232 285 0
63 144 154 155 163 171 180 182 190 199 232 292 293 0
64 139 144 151 158 160 162 163 170 217 265 291 299 0
64 139 144 151 158 160 163 170 215 217 265 287 288 0
65 136 139 140 182 207 217 224 225 238 242 281 294 0
65 139 140 143 157 159 163 172 192 207 217 224 281 0
66 136 139 144 146 164 170 173 174 188 250 258 276 0
66 136 139 144 146 167 168 171 174 184 188 250 255 0
66 136 139 144 166 167 174 177 188 197 250 258 268 0
66 138 140 150 160 162 167 170 177 229 243 255 303 0
66 139 140 144 159 168 171 173 174 177 183 188 258 0
66 139 140 144 159 174 177 183 188 197 258 284 293 0
66 141 143 144 150 155 168 172 188 192 233 239 245 0
66 143 150 155 167 168 174 183 233 239 245 257 258 0
67 136 142 146 147 149 156 157 171 172 190 233 276 0
67 140 143 145 146 148 149 172 197 208 212 262 274 0
67 140 143 145 146 148 154 156 197 233 270 274 303 0
67 140 143 145 146 148 156 215 233 247 262 270 303 0
67 140 143 145 146 149 154 156 166 197 205 212 215 0
67 140 143 145 146 149 166 197 208 262 270 274 303 0
67 143 145 146 148 149 154 156 197 212 274 292 303 0
67 143 145 146 148 149 154 156 217 247 270 292 303 0
67 143 145 146 148 154 205 208 233 247 270 292 303 0
67 143 145 146 154 166 208 212 233 239 274 292 303 0
68 136 138 140 147 172 188 198 215 227 255 268 269 0
68 136 140 142 143 151 171 184 197 203 207 271 275 0
68 136 143 144 146 151 166 171 184 202 203 207 293 0
68 136 153 155 161 162 165 188 192 200 247 258 270 0
68 136 153 155 161 165 168 169 170 192 197 258 269 0
68 136 155 161 165 168 192 194 197 240 248 255 270 0
68 138 140 142 146 162 163 172 179 233 268 269 276 0
68 140 143 145 166 168 172 188 198 202 218 238 277 0
68 143 145 150 166 168 198 202 218 231 270 277 292 0
69 84 139 159 162 166 173 177 178 185 245 265 292 0
69 133 138 155 160 169 178 192 197 246 264 288 291 0
69 136 140 149 153 156 157 158 159 161 177 208 290 0
69 139 140 144 145 148 155 188 205 217 226 287 291 0
69 140 144 145 148 162 174 177 205 215 217 224 226 0
69 140 144 145 148 163 174 205 217 224 226 287 292 0
69 140 144 145 150 182 188 205 217 226 287 291 293 0
69 140 147 149 153 157 159 162 164 177 179 208 235 0
69 140 149 153 154 157 159 164 177 179 195 208 240 0
69 140 149 153 155 156 157 159 164 170 177 208 277 0
69 140 149 153 155 157 159 161 164 170 177 208 214 0
69 140 149 153 155 157 159 161 164 177 208 238 248 0
69 140 149 153 155 157 159 164 169 170 177 208 214 0
69 140 149 153 156 157 158 159 161 164 177 208 235 0
69 140 149 153 156 157 158 159 164 177 208 220 235 0
69 140 149 153 156 157 159 161 164 170 177 199 208 0
69 140 149 153 157 158 159 161 172 177 208 240 283 0
70 140 143 145 146 148 154 175 177 188 189 202 253 0
70 140 143 145 146 148 154 175 177 188 189 253 275 0
70 140 143 146 148 154 175 177 178 188 189 253 298 0
70 140 143 146 148 154 175 177 178 188 201 243 298 0
70 140 145 146 148 154 175 177 188 189 201 202 205 0
70 140 145 146 150 154 167 175 177 205 243 253 275 0
70 140 146 148 154 175 177 178 188 189 201 205 298 0
70 140 146 150 154 162 174 175 177 205 243 253 298 0
71 136 138 143 152 153 155 161 165 169 200 214 255 0
71 136 138 152 153 155 165 169 191 200 202 214 255 0
71 136 140 144 145 146 150 152 181 194 207 272 281 0
71 136 153 155 161 165 170 188 200 244 247 255 270 0
71 136 155 165 169 184 194 197 200 214 240 258 295 0
71 144 145 150 151 153 165 171 180 185 199 219 295 0
71 144 155 163 165 169 171 177 197 199 239 276 280 0
72 136 141 144 145 150 155 156 157 165 195 240 244 0
72 136 141 144 145 150 155 156 157 165 219 235 240 0
72 136 144 145 150 156 157 165 189 199 204 235 248 0
72 136 144 145 155 156 157 165 189 191 235 240 283 0
72 136 144 145 161 165 189 204 208 235 248 255 268 0
72 136 144 155 156 157 165 168 170 184 189 244 266 0
72 136 144 156 165 168 170 189 204 235 255 266 268 0
72 136 144 156 165 168 191 204 243 244 248 266 268 0
72 136 144 156 165 170 189 204 235 239 255 266 268 0
72 136 144 156 165 170 189 204 239 244 258 266 268 0
72 136 145 155 156 157 165 167 171 174 189 244 255 0
72 136 145 155 156 165 167 171 174 189 244 255 268 0
73 136 137 145 162 163 172 178 180 189 194 224 288 0
73 136 137 145 163 170 172 175 180 189 194 224 288 0
73 144 150 153 154 163 164 192 193 229 233 271 274 0
74 137 141 142 143 145 151 155 162 182 245 265 295 0
74 140 160 174 178 184 199 205 206 217 224 225 296 0
74 140 162 166 174 184 199 205 206 224 225 261 268 0
74 140 162 182 184 199 205 206 225 242 261 265 297 0
74 147 160 164 198 206 215 225 228 235 248 255 301 0
75 137 141 153 157 158 159 161 164 168 173 216 255 0
75 139 145 146 153 158 163 176 200 220 239 240 291 0
75 140 144 149 194 200 201 208 227 240 247 283 295 0
75 140 149 160 164 170 172 199 240 260 263 270 288 0
75 188 193 204 214 251 257 261 270 272 280 286 288 0
76 138 139 147 177 197 208 218 221 229 255 268 293 0
76 139 146 147 152 154 172 177 198 208 220 221 268 0
76 140 156 166 172 177 208 221 250 256 260 268 269 0
76 146 157 172 177 204 208 212 219 221 222 230 277 0
76 172 176 177 197 198 204 208 220 221 248 273 303 0
77 136 139 144 145 147 158 159 166 174 255 258 270 0
77 139 153 162 168 181 197 198 199 205 226 241 260 0
77 160 161 165 191 210 211 241 264 277 283 297 300 0
78 137 143 145 175 195 198 199 202 224 225 232 244 0
78 138 143 148 150 151 152 168 180 197 215 233 264 0
78 140 143 157 164 169 172 174 180 181 197 220 270 0
79 136 143 149 150 166 173 189 193 214 238 240 244 0
79 140 144 152 170 173 180 192 194 205 208 249 250 0
79 142 148 163 167 176 180 208 214 215 217 246 273 0
79 144 154 156 164 176 189 197 205 209 235 239 266 0
79 153 159 176 189 205 209 244 247 262 266 271 283 0
79 159 171 180 183 192 205 208 210 239 245 246 292 0
79 180 185 188 201 209 231 235 247 262 266 271 278 0
80 123 138 139 150 151 166 198 200 258 271 275 286 0
80 137 139 151 153 155 163 164 179 182 232 267 271 0
80 138 139 140 143 146 164 171 184 198 200 241 247 0
80 138 139 140 143 146 164 184 198 200 241 247 258 0
80 138 139 140 146 150 161 164 184 191 200 247 258 0
80 138 139 140 146 150 161 164 184 199 200 247 258 0
80 138 139 140 150 164 171 177 184 197 198 200 275 0
80 138 139 140 150 164 177 184 197 198 200 255 275 0
80 138 139 140 150 164 177 184 197 198 200 258 275 0
80 138 139 146 150 164 171 175 184 197 198 200 286 0
80 138 139 146 150 164 171 175 184 198 200 247 286 0
80 138 139 146 150 164 175 184 197 198 200 255 286 0
80 138 139 146 150 164 175 184 197 198 200 258 286 0
80 138 139 146 150 164 175 184 198 200 247 255 286 0
80 138 139 146 150 164 184 198 200 247 258 275 286 0
80 138 139 150 164 177 184 197 198 200 255 275 286 0
80 138 139 150 164 177 184 197 198 200 258 275 286 0
80 138 142 148 154 155 169 177 195 233 264 275 276 0
80 139 140 142 144 151 153 162 163 164 171 182 232 0
80 139 140 142 151 153 155 162 163 171 181 182 283 0
80 139 140 142 151 153 155 163 171 176 182 232 233 0
80 139 140 142 151 153 155 163 171 182 232 280 283 0
80 139 140 144 151 153 163 182 224 231 267 271 283 0
80 139 140 151 153 155 163 171 182 231 233 267 283 0
80 139 140 151 153 155 163 171 182 232 233 267 283 0
80 139 142 144 148 177 190 193 204 208 232 233 271 0
80 139 142 144 151 153 163 164 171 180 181 182 255 0
80 139 151 153 155 163 164 171 182 219 232 233 267 0
80 139 151 153 155 163 164 171 182 232 267 280 283 0
80 139 151 153 155 163 167 176 193 202 232 271 276 0
80 139 151 153 155 163 171 172 176 182 231 267 284 0
80 140 142 144 151 153 162 163 164 171 176 182 231 0
80 140 142 144 151 153 163 171 176 179 182 232 283 0
80 140 142 144 151 153 163 171 176 182 195 232 283 0
80 140 144 151 153 162 163 164 171 176 181 182 267 0
80 140 144 151 153 162 163 171 176 182 232 267 283 0
80 140 144 151 153 163 164 165 171 176 182 231 267 0
80 141 142 144 148 150 180 190 204 230 255 283 301 0
80 142 144 148 154 163 177 190 208 237 271 276 283 0
80 142 144 148 169 173 193 195 232 237 255 276 280 0
80 142 144 151 153 163 164 171 176 181 182 224 255 0
80 142 144 151 153 163 164 171 176 181 182 224 302 0
80 144 151 153 163 164 171 176 182 224 232 267 283 0
80 144 151 153 163 164 171 176 182 231 267 280 283 0
80 151 153 155 163 164 167 171 176 193 195 231 267 0
83 136 140 146 150 151 173 182 196 219 245 268 272 0
83 136 141 146 149 150 151 180 196 208 219 268 272 0
83 136 146 150 151 157 190 201 204 205 219 245 276 0
84 136 142 149 151 156 181 207 215 257 258 269 287 0
84 138 139 140 143 146 150 151 202 203 208 258 271 0
84 138 139 140 143 146 151 165 203 208 258 270 271 0
84 138 139 140 146 150 162 170 171 199 202 266 295 0
84 138 139 140 146 162 170 171 199 202 235 241 266 0
84 138 139 142 143 144 146 151 165 203 208 270 293 0
84 138 139 143 146 150 151 171 202 203 208 271 297 0
84 138 139 143 146 151 165 171 203 208 271 275 293 0
84 138 139 146 162 164 170 175 199 241 255 266 286 0
84 138 139 149 156 172 174 178 181 215 244 269 287 0
84 138 139 149 156 172 174 178 238 244 269 287 289 0
84 138 140 143 146 151 165 171 174 203 208 271 275 0
84 138 149 151 156 172 181 197 235 269 287 288 289 0
84 139 140 143 144 146 151 165 166 203 207 208 270 0
84 139 141 142 145 149 151 156 205 207 215 235 288 0
84 139 141 142 149 151 156 207 226 238 244 269 276 0
84 139 142 143 144 146 150 151 203 204 207 208 293 0
84 139 142 149 151 156 171 178 181 238 248 269 288 0
84 139 142 149 151 156 171 178 181 244 269 276 289 0
84 139 143 144 146 151 165 200 203 207 208 267 293 0
84 139 143 146 150 151 202 203 207 208 258 271 297 0
84 139 143 146 151 165 203 207 208 255 258 271 293 0
84 140 143 144 146 150 151 171 174 202 203 207 208 0
84 140 143 146 150 151 155 171 174 203 207 208 271 0
84 140 143 146 150 151 171 174 200 203 207 208 271 0
84 141 144 145 152 157 181 196 197 214 216 239 245 0
84 141 145 152 157 166 181 196 197 214 216 239 245 0
84 142 149 151 156 172 195 196 224 238 244 269 276 0
84 143 144 146 150 151 155 171 174 203 207 208 293 0
85 136 137 139 143 144 158 171 173 188 255 283 295 0
85 136 137 144 145 163 170 172 173 180 189 224 245 0
85 136 137 145 149 162 163 172 180 189 224 264 296 0
85 136 137 145 149 162 163 172 180 189 224 282 296 0
85 136 137 145 162 163 172 178 180 189 224 245 302 0
85 136 137 145 163 170 172 173 178 180 189 245 296 0
85 136 137 145 163 170 172 173 180 189 194 204 224 0
85 136 137 145 163 170 172 180 189 194 204 224 264 0
85 136 137 145 163 170 172 180 189 198 224 245 296 0
85 136 138 140 147 150 172 200 204 205 258 270 275 0
85 136 139 140 144 150 164 171 173 188 199 202 295 0
85 136 144 145 149 150 153 159 162 168 177 205 225 0
85 137 142 149 150 154 160 162 193 205 214 267 273 0
85 137 143 144 151 158 176 190 217 224 233 275 284 0
85 137 143 147 151 155 158 166 195 258 269 282 285 0
85 143 149 151 158 166 174 176 195 204 258 280 295 0
85 143 151 158 170 172 188 195 216 240 280 282 301 0
86 136 143 147 150 153 164 172 175 253 255 260 288 0
86 137 141 155 166 172 174 190 193 199 215 238 270 0
88 141 144 145 156 180 186 194 205 219 269 273 282 0
90 138 159 188 218 222 241 277 287 292 293 300 303 0
91 139 143 144 149 151 166 192 203 207 235 248 255 0
92 136 139 141 147 157 173 178 186 188 190 215 216 0
92 146 151 155 162 171 174 202 203 258 271 279 295 0
94 144 208 218 250 257 259 260 279 281 292 293 294 0
95 139 143 160 164 175 193 200 226 240 272 275 286 0
96 136 138 140 141 147 170 172 173 188 210 234 255 0
98 138 142 147 153 155 160 164 167 172 201 205 220 0
98 141 145 149 155 160 163 166 167 193 201 268 296 0
100 138 140 144 145 149 152 157 171 173 177 179 229 0
100 138 140 144 149 152 157 171 173 177 227 301 302 0
100 142 143 148 149 150 152 168 173 180 240 272 288 0
100 146 150 156 167 189 194 205 209 227 229 269 302 0
101 137 138 139 150 154 169 173 175 178 204 206 232 0
101 137 138 141 150 151 153 168 169 170 206 224 238 0
101 137 138 141 150 159 169 206 214 215 224 255 288 0
101 137 138 141 150 169 178 182 206 214 232 233 288 0
101 138 144 147 148 149 151 153 156 160 178 193 293 0
101 139 144 147 148 149 151 153 160 164 182 266 276 0
101 139 144 147 148 149 151 153 160 172 182 266 276 0
101 141 147 150 151 162 163 169 206 214 233 271 295 0
101 141 147 150 163 169 174 206 214 215 232 233 271 0
101 141 149 150 158 169 170 204 206 215 245 270 271 0
101 144 148 149 151 153 160 166 193 261 266 276 293 0
101 147 150 159 163 169 170 206 214 233 238 271 288 0
102 138 139 142 150 155 160 178 190 227 242 264 276 0
102 138 139 143 150 152 160 162 188 204 224 264 299 0
102 138 139 150 152 160 162 190 197 202 204 224 276 0
102 138 139 150 160 173 177 178 243 255 265 267 276 0
102 138 143 145 160 162 173 174 178 188 204 241 299 0
102 138 143 150 160 162 174 177 204 215 224 225 264 0
102 138 143 150 160 174 177 178 188 204 264 288 293 0
102 138 143 152 160 162 174 178 197 202 241 267 299 0
102 138 143 152 160 162 174 224 241 255 264 267 288 0
102 138 143 152 160 173 204 224 241 255 265 288 293 0
102 138 143 152 160 178 197 204 241 255 265 288 293 0
102 138 143 160 162 173 174 177 178 188 204 241 299 0
102 138 150 152 160 172 173 202 204 224 265 276 293 0
102 138 150 155 160 162 166 173 174 177 178 204 288 0
102 138 150 155 160 162 166 173 174 178 181 204 288 0
102 138 150 160 162 170 173 178 202 204 243 265 299 0
102 138 150 160 162 172 173 178 202 214 265 267 288 0
102 138 150 160 162 174 177 204 215 224 225 255 264 0
102 138 150 160 170 178 188 204 255 264 265 276 293 0
102 138 150 160 172 178 188 204 255 264 265 276 293 0
102 141 142 143 144 149 151 152 155 158 162 165 205 0
102 141 142 144 149 151 152 154 155 158 162 165 251 0
102 141 145 155 156 157 160 164 167 175 176 236 284 0
102 141 145 155 157 160 163 165 167 204 215 219 227 0
102 143 154 163 171 180 184 198 199 208 221 266 275 0
102 145 149 150 155 164 167 172 181 215 219 220 296 0
104 106 140 143 146 148 154 162 174 175 188 189 253 0
104 106 143 148 149 150 152 153 168 174 180 184 235 0
104 136 139 144 145 146 163 173 175 184 244 283 296 0
104 138 140 144 153 156 159 163 175 176 177 264 300 0
104 138 140 150 153 160 162 167 174 205 219 251 255 0
104 138 145 150 160 162 167 174 202 208 285 295 296 0
104 138 150 157 160 167 170 202 211 224 225 228 288 0
104 139 144 159 168 174 177 188 197 250 258 263 301 0
104 139 144 159 174 177 183 188 197 239 241 244 258 0
104 140 142 159 162 177 199 204 209 226 264 265 300 0
104 140 143 149 150 155 158 159 167 168 172 180 275 0
104 140 143 149 150 155 158 159 167 168 172 233 275 0
104 140 143 149 150 155 159 168 172 174 188 233 258 0
104 140 143 150 155 159 167 168 172 226 233 245 258 0
106 136 138 140 147 159 163 171 174 205 258 264 295 0
106 136 138 140 147 159 163 171 174 217 228 258 264 0
106 136 143 148 150 152 167 168 170 184 233 240 294 0
106 137 138 140 147 148 159 174 223 258 264 274 301 0
106 138 140 164 173 178 195 224 232 263 285 294 295 0
106 140 143 145 146 150 154 175 177 189 216 253 275 0
106 140 143 145 146 150 154 175 177 189 242 253 275 0
106 140 143 145 146 150 154 175 177 201 224 243 273 0
106 140 143 146 150 154 175 177 189 192 204 253 295 0
106 140 145 146 154 175 177 188 201 202 205 243 270 0
106 140 146 150 154 162 166 167 175 177 189 216 253 0
106 143 145 148 156 165 168 172 184 207 233 240 288 0
106 143 148 150 152 167 168 170 172 184 233 240 294 0
106 143 148 152 165 167 168 170 172 184 233 240 294 0
120 139 142 146 161 163 164 183 206 220 225 270 278 0
124 138 139 142 150 160 173 174 177 178 188 202 276 0
124 138 139 143 147 150 155 160 173 174 178 190 225 0
124 138 139 143 147 155 160 173 178 181 241 243 276 0
124 138 139 143 160 173 177 204 214 224 225 227 241 0
124 138 139 145 150 160 172 173 177 224 225 255 267 0
124 138 139 150 160 173 177 178 181 202 204 227 276 0
124 138 139 150 160 173 178 181 204 214 225 255 297 0
124 138 139 150 160 173 178 181 204 225 227 255 297 0
124 138 139 150 160 177 204 224 243 255 264 276 297 0
124 138 142 144 150 155 160 173 178 204 265 276 293 0
124 138 143 147 150 152 155 160 173 174 178 225 293 0
124 138 143 152 160 174 178 197 204 216 225 241 293 0
124 138 147 150 155 160 173 177 224 225 255 265 293 0
124 138 147 150 155 160 174 177 224 255 264 276 293 0
124 143 145 154 157 160 166 233 239 270 274 275 288 0
125 141 145 155 158 163 184 190 202 215 228 238 245 0
126 137 138 140 141 153 164 204 214 215 218 232 286 0
127 138 141 150 153 155 160 162 165 166 167 170 258 0
127 138 142 143 148 149 150 167 172 225 255 265 288 0
127 138 142 143 150 166 167 217 233 245 255 265 275 0
127 138 143 144 149 150 155 166 167 172 216 265 270 0
127 138 143 144 149 150 155 166 167 172 265 270 275 0
127 139 142 143 144 148 155 162 172 202 233 270 275 0
127 139 142 143 148 150 155 162 167 173 202 233 270 0
127 139 142 143 155 160 162 166 216 225 233 258 288 0
127 139 142 151 155 162 170 200 202 209 258 265 276 0
127 142 143 149 166 170 188 202 217 225 265 275 288 0
127 143 146 148 149 170 173 175 188 194 202 265 267 0
127 143 146 148 150 167 172 175 202 204 233 265 270 0
127 143 148 149 150 167 202 204 214 227 243 265 270 0
127 143 148 149 170 172 188 202 227 243 265 267 288 0
128 136 138 150 160 167 174 198 202 229 272 285 288 0
128 138 150 153 160 162 167 170 205 228 229 255 303 0
130 142 143 144 150 155 160 163 168 174 217 253 270 0
131 138 140 173 178 193 217 224 263 280 292 293 302 0
132 136 138 143 145 148 150 156 168 184 233 240 292 0
132 136 138 143 145 148 153 156 165 168 184 233 235 0
132 136 139 143 148 162 165 168 174 184 233 240 292 0
132 136 142 143 145 148 150 153 156 168 233 235 293 0
132 136 143 145 148 149 150 156 168 180 184 207 240 0
132 136 143 145 148 149 156 165 168 180 184 207 240 0
132 136 143 145 148 150 153 156 168 184 207 233 235 0
132 136 143 148 150 153 156 167 168 174 184 233 235 0
132 138 139 142 143 148 150 153 162 168 178 233 235 0
132 138 143 145 148 149 150 156 168 172 180 184 240 0
132 139 143 145 148 156 165 167 168 184 233 240 265 0
132 139 143 148 150 162 168 172 184 233 240 265 293 0
132 142 143 145 148 149 153 165 180 200 235 236 239 0
133 136 138 141 143 146 147 157 164 171 179 207 255 0
133 136 138 141 144 146 147 157 164 202 203 236 290 0
133 136 138 141 146 147 150 164 203 207 236 255 268 0
133 136 138 141 146 147 164 180 202 203 255 268 293 0
133 136 138 143 150 152 153 155 168 169 194 205 214 0
133 136 138 150 152 153 155 161 168 202 205 270 289 0
133 136 141 143 144 146 147 164 171 179 207 218 268 0
133 136 141 144 146 147 164 179 203 207 218 268 293 0
133 136 141 146 147 150 157 164 180 199 202 203 218 0
133 136 142 143 162 164 165 167 168 170 181 193 257 0
133 136 150 151 153 155 161 182 184 200 247 257 270 0
133 136 150 152 153 155 162 169 173 184 200 202 257 0
133 136 151 153 155 161 165 168 182 205 214 234 270 0
133 139 143 146 149 163 168 181 198 205 270 286 303 0
133 139 143 146 155 163 168 169 181 198 286 292 301 0
133 139 143 146 157 161 163 177 181 205 212 239 273 0
134 136 143 144 145 153 156 157 165 204 235 241 255 0
134 136 144 153 156 157 165 168 170 204 215 243 244 0
134 136 144 156 157 165 168 170 204 215 243 244 266 0
134 136 150 155 156 165 168 177 199 235 240 266 268 0
134 136 153 155 156 157 165 168 170 215 243 244 281 0
134 136 153 155 156 165 167 168 171 174 243 244 268 0
134 136 155 156 165 168 170 189 195 215 244 266 268 0
134 137 138 139 140 150 161 177 178 179 226 245 302 0
134 137 138 140 150 161 166 179 226 245 268 287 303 0
135 136 139 143 144 150 154 166 171 194 219 225 285 0
135 140 145 146 154 162 166 201 208 214 233 274 295 0
1 2 16 138 191 205 212 225 259 265 283 285 293 299 0
1 153 191 205 212 224 244 250 257 260 269 285 292 293 0
1 154 159 170 191 205 212 224 240 250 257 279 285 293 0
2 19 43 170 172 188 191 205 244 251 269 280 298 299 0
2 84 152 191 197 204 206 211 225 239 253 265 285 297 0
2 139 146 152 166 204 210 212 213 239 277 278 287 288 0
2 139 166 177 197 204 210 212 213 234 277 278 288 296 0
2 139 166 197 204 210 212 213 234 277 283 287 297 299 0
2 140 147 155 166 191 197 211 220 234 251 253 280 297 0
2 146 147 152 155 166 168 210 212 213 277 278 288 300 0
2 146 154 166 172 189 201 204 212 213 234 235 248 288 0
2 146 154 166 184 187 204 212 213 234 235 248 253 299 0
2 146 166 177 204 210 212 213 220 234 268 283 294 299 0
2 147 163 166 197 204 210 212 213 234 277 283 299 300 0
2 149 154 166 170 197 204 210 212 234 240 246 253 257 0
2 152 166 170 191 197 204 210 212 239 240 244 253 262 0
2 157 166 174 191 197 204 210 212 213 277 283 288 300 0
2 159 166 191 197 204 213 220 250 263 268 279 297 300 0
2 166 177 197 204 210 212 213 234 277 278 288 294 296 0
2 166 191 197 204 206 211 224 225 239 242 251 253 297 0
3 37 154 165 170 172 188 191 240 250 261 279 283 299 0
3 137 145 146 149 152 183 190 222 229 242 245 249 257 0
3 137 145 146 149 152 183 196 224 225 229 255 267 293 0
3 137 145 149 152 172 183 196 215 224 225 245 268 286 0
3 153 159 170 172 188 197 209 213 239 241 248 253 262 0
3 160 170 172 188 191 221 235 265 274 280 283 298 299 0
3 170 172 188 208 209 221 239 240 247 253 262 266 271 0
5 136 140 142 147 169 174 212 221 261 270 272 276 289 0
5 136 140 147 149 155 165 169 174 223 246 283 286 302 0
5 136 147 149 155 164 169 174 186 246 261 286 288 302 0
5 142 144 146 148 176 195 197 223 224 257 281 284 294 0
5 142 144 157 168 169 170 172 176 195 213 234 277 284 0
5 142 157 176 179 188 190 204 213 220 230 257 277 284 0
5 153 158 159 165 170 172 188 223 270 283 286 292 293 0
6 157 160 183 188 197 204 213 220 260 264 265 279 297 0
7 138 139 143 147 149 166 178 183 188 197 217 230 264 0
7 140 147 150 166 174 183 199 207 216 224 231 283 286 0
7 145 149 163 165 168 170 174 181 184 192 204 205 240 0
8 138 146 149 162 174 194 204 216 224 225 268 295 303 0
8 139 140 170 171 173 177 181 185 188 203 268 293 296 0
8 141 146 148 150 163 173 176 182 224 229 237 243 287 0
9 136 148 178 188 191 201 204 251 253 261 266 271 280 0
9 137 142 145 159 171 190 204 208 216 221 233 274 301 0
9 140 143 150 157 163 164 166 176 197 233 262 270 278 0
9 144 176 189 191 201 213 231 251 256 261 266 280 287 0
10 137 138 145 151 155 167 169 200 207 232 241 255 258 0
10 137 141 144 145 150 151 157 161 166 168 169 191 207 0
10 137 141 144 145 151 157 161 169 199 200 207 236 255 0
10 137 143 145 151 155 161 167 184 200 202 207 236 258 0
10 144 149 158 164 165 168 169 170 171 208 241 276 302 0
10 144 149 158 165 167 168 169 171 221 230 241 271 276 0
10 153 160 170 172 188 206 211 225 251 274 278 288 298 0
11 139 140 168 174 181 191 197 211 241 261 280 283 288 0
11 140 154 159 162 167 191 240 244 250 269 274 283 298 0
11 146 156 162 164 175 189 201 209 210 212 213 277 300 0
12 136 141 144 149 150 158 165 167 168 171 173 208 267 0
12 136 141 144 149 150 158 165 167 168 171 221 271 276 0
12 136 143 144 149 158 165 167 168 171 173 208 242 276 0
12 140 160 162 188 205 208 224 248 251 257 269 278 280 0
12 140 162 164 178 188 205 224 248 257 261 265 269 280 0
12 141 144 149 150 158 165 167 168 171 178 213 230 276 0
12 160 162 170 188 205 224 240 257 265 269 280 283 293 0
12 160 162 178 205 224 244 251 257 259 269 278 280 293 0
12 160 162 191 205 206 224 225 244 251 259 269 283 293 0
12 172 205 206 224 225 248 251 259 261 269 278 293 299 0
13 140 145 188 191 205 211 250 260 263 265 277 293 300 0
13 144 147 148 151 155 160 163 174 177 178 197 239 275 0
13 152 161 191 200 211 217 239 242 251 253 261 280 297 0
13 154 157 188 210 212 214 239 248 277 283 288 293 300 0
13 156 182 183 213 229 242 254 256 260 264 277 279 300 0
14 136 145 146 149 151 152 157 172 173 196 219 241 246 0
14 138 141 145 147 152 156 164 169 175 178 202 205 208 0
14 140 141 145 147 152 156 162 164 169 202 205 208 224 0
14 140 141 145 147 152 156 162 164 202 205 208 224 270 0
14 140 141 145 147 152 156 165 178 202 208 224 238 269 0
14 140 141 145 147 152 156 192 202 208 221 224 270 274 0
14 152 159 166 188 197 204 211 250 277 279 297 298 300 0
14 166 197 204 213 220 250 260 265 268 279 285 297 300 0
15 136 144 162 163 204 213 235 254 255 260 277 278 300 0
15 138 139 143 177 184 188 212 221 255 257 277 283 299 0
15 177 184 200 207 257 259 270 277 283 286 294 296 299 0
16 58 138 140 143 146 150 164 170 184 221 258 279 300 0
16 69 146 152 161 162 163 168 172 174 188 192 224 225 0
16 137 142 143 145 149 160 162 173 177 193 205 270 284 0
16 137 142 143 145 149 160 162 173 177 193 215 270 275 0
16 137 142 149 150 154 160 162 173 177 193 205 270 284 0
16 137 142 149 150 154 160 162 177 190 193 205 270 273 0
16 139 144 149 150 153 163 164 180 187 193 229 293 302 0
16 139 144 149 150 163 164 166 168 180 193 229 268 293 0
16 139 150 151 163 164 168 192 193 206 229 233 239 271 0
16 142 143 145 149 154 160 162 177 193 205 232 267 284 0
16 142 145 149 150 152 154 159 160 162 193 273 275 276 0
16 142 145 149 150 154 160 162 185 193 205 270 273 295 0
16 142 150 154 155 158 162 176 190 194 201 205 221 237 0
16 144 150 154 164 168 190 193 197 205 233 239 271 302 0
16 144 150 154 164 168 192 193 195 205 233 245 271 302 0
16 144 150 154 164 168 193 233 235 271 273 274 293 302 0
18 138 139 149 164 170 194 208 212 217 225 276 277 302 0
18 138 139 150 164 176 177 184 197 198 201 258 275 286 0
18 138 143 148 155 162 174 197 204 227 233 239 258 270 0
18 139 140 148 160 162 164 168 172 216 218 265 268 302 0
18 139 144 151 153 157 161 163 171 172 176 182 232 267 0
18 142 148 155 173 180 188 190 204 224 225 283 292 293 0
18 143 144 151 153 163 164 175 176 181 182 202 271 283 0
18 166 197 200 204 207 210 220 248 268 270 278 286 300 0
18 166 197 204 210 212 235 239 248 253 262 277 283 300 0
20 66 137 138 139 140 141 160 164 174 218 229 275 289 0
20 84 142 157 191 197 204 211 250 260 269 292 297 300 0
20 134 142 146 154 166 198 204 210 212 235 248 253 268 0
20 136 138 145 155 156 163 178 188 193 240 255 294 301 0
20 136 138 145 156 163 178 188 193 200 239 255 272 294 0
20 136 139 140 153 155 156 163 168 180 181 207 215 240 0
20 137 139 143 147 149 154 173 174 175 187 226 228 258 0
20 138 163 167 168 172 178 180 217 240 253 275 292 294 0
20 138 163 172 175 178 180 181 192 240 242 258 294 301 0
20 139 145 147 149 159 161 173 202 204 216 274 283 302 0
20 139 145 156 163 172 178 193 197 207 217 239 292 301 0
20 140 142 151 155 163 172 197 202 207 216 217 239 294 0
20 142 146 147 154 155 166 168 170 172 210 212 240 253 0
20 142 154 166 168 170 172 189 197 201 204 210 212 240 0
20 142 166 191 197 204 211 250 260 277 279 287 294 297 0
20 143 144 145 148 154 158 171 190 204 225 237 238 274 0
21 36 136 139 153 164 209 221 227 244 247 271 277 288 0
21 133 136 138 141 145 149 154 170 180 222 240 269 270 0
21 133 138 145 149 172 177 180 181 208 221 229 266 274 0
21 136 138 139 141 144 148 199 205 207 218 221 255 267 0
21 136 138 139 141 146 150 171 188 199 207 208 221 255 0
21 136 138 139 141 148 171 188 199 207 218 221 255 284 0
21 137 138 139 141 144 146 148 199 205 207 221 255 275 0
21 138 139 141 142 144 146 150 153 175 199 202 205 221 0
21 138 139 141 144 145 146 148 155 199 207 221 255 273 0
21 138 139 141 144 145 148 155 199 207 218 221 255 284 0
21 138 139 141 144 146 148 158 161 191 207 208 221 255 0
21 138 139 141 144 146 150 171 199 202 207 221 224 250 0
21 138 139 141 144 146 150 175 199 202 207 221 224 284 0
21 138 139 141 144 150 171 199 202 207 208 218 221 240 0
21 138 139 141 145 146 150 171 188 199 202 207 221 276 0
21 138 139 141 145 148 171 188 199 207 218 221 255 284 0
21 138 139 141 146 150 155 171 188 199 202 207 221 273 0
21 138 139 141 146 150 158 161 191 202 207 221 259 275 0
21 138 139 141 146 150 171 188 199 202 207 221 276 290 0
21 138 139 141 146 150 171 188 199 207 208 221 240 255 0
21 138 139 141 150 158 161 175 188 191 202 207 218 221 0
21 139 170 172 188 189 201 212 213 235 237 239 247 262 0
21 139 170 172 188 191 197 212 213 235 239 242 253 262 0
21 153 159 170 172 188 189 197 201 212 213 239 248 262 0
21 154 170 172 188 189 201 209 213 234 240 242 247 300 0
21 154 170 172 188 189 201 209 213 237 239 240 247 300 0
21 159 162 170 172 188 191 209 212 213 240 277 283 294 0
21 170 172 185 188 212 213 234 235 237 247 253 262 294 0
21 170 172 188 189 197 201 209 213 235 239 241 262 294 0
22 139 144 151 155 157 158 163 174 178 219 226 288 295 0
22 139 144 151 155 158 163 172 174 178 226 272 288 295 0
22 146 147 149 153 159 168 173 179 205 217 219 224 287 0
23 136 137 145 147 162 165 168 177 192 199 214 235 255 0
23 136 140 144 146 149 152 168 183 205 219 255 257 266 0
23 137 145 152 159 173 174 177 192 202 214 226 233 239 0
23 137 145 162 165 174 177 192 205 209 239 260 269 272 0
23 138 139 146 162 164 170 175 184 199 241 255 266 286 0
23 140 146 148 149 168 180 183 197 207 214 226 266 270 0
23 145 149 151 165 168 174 184 188 192 222 226 240 248 0
23 145 149 162 165 174 184 192 200 222 226 239 240 248 0
23 146 149 153 154 157 168 172 183 202 204 205 243 266 0
36 69 140 149 153 157 158 159 161 164 170 173 177 208 0
36 81 145 174 191 205 206 211 250 260 261 278 288 298 0
36 84 138 139 141 142 145 146 150 175 199 202 205 221 0
36 132 138 142 143 145 148 150 153 181 200 233 235 239 0
36 136 144 154 167 176 189 201 212 221 235 239 247 266 0
36 138 139 185 197 212 213 235 239 242 253 262 283 287 0
36 138 145 154 159 180 191 235 240 250 274 278 292 298 0
36 139 157 209 212 213 220 235 253 260 278 287 299 303 0
36 140 145 159 191 205 212 218 240 250 251 261 262 280 0
36 141 149 154 159 183 191 212 231 235 264 274 279 283 0
36 143 162 164 172 191 201 209 212 213 220 250 268 300 0
36 144 176 199 208 212 221 235 239 247 253 262 266 283 0
36 145 154 159 191 212 218 235 250 251 261 274 279 280 0
36 145 159 160 191 205 206 211 225 250 251 278 298 299 0
36 145 167 183 191 205 260 261 264 265 278 280 298 299 0
36 149 153 154 167 212 213 234 238 241 247 248 253 263 0
36 149 153 159 164 209 212 213 244 253 263 277 288 300 0
36 149 154 159 183 191 204 212 231 235 251 264 274 279 0
36 153 156 209 213 234 247 248 253 262 277 278 299 300 0
36 154 172 185 191 208 212 221 234 235 247 253 266 271 0
36 156 160 164 176 209 213 239 240 247 262 277 299 300 0
36 156 162 163 164 189 201 209 212 213 219 235 277 300 0
36 157 164 189 201 205 209 212 213 220 227 289 299 300 0
36 157 209 213 220 240 244 247 253 260 278 287 294 299 0
36 159 160 174 191 196 205 240 266 269 280 283 288 298 0
36 159 174 191 212 221 230 250 261 273 280 283 298 299 0
36 159 184 198 199 205 241 251 261 269 278 280 288 298 0
36 159 191 235 250 261 262 265 274 278 279 280 298 299 0
36 163 174 191 206 225 240 261 274 283 285 296 298 299 0
36 163 209 213 235 247 260 277 278 282 287 288 294 303 0
36 166 184 198 199 241 251 261 268 274 278 280 298 299 0
36 174 191 204 206 212 224 225 240 261 266 283 285 299 0
36 174 191 240 250 260 261 262 274 279 280 283 298 299 0
36 191 204 206 211 221 224 225 230 251 261 274 283 299 0
37 38 172 200 206 207 210 239 240 248 253 269 270 286 0
37 140 154 183 188 200 207 235 256 257 260 264 270 279 0
37 145 149 154 160 188 212 235 250 257 260 263 288 292 0
37 153 159 187 188 212 218 244 250 257 262 279 280 288 0
37 153 160 170 172 188 200 207 250 260 262 270 279 286 0
37 154 157 160 172 212 219 235 244 250 259 260 279 299 0
37 154 169 170 172 173 183 212 240 256 259 260 279 288 0
37 159 172 178 183 188 212 235 244 262 264 279 280 299 0
37 159 191 200 207 218 235 250 257 262 269 270 286 292 0
37 160 162 163 164 191 204 206 212 225 227 251 259 271 0
37 160 164 166 170 172 199 212 232 240 259 265 280 288 0
38 136 140 159 191 213 250 251 261 277 279 287 294 297 0
38 139 177 205 210 212 213 269 277 278 288 291 293 296 0
38 140 159 162 164 188 191 213 228 250 263 269 277 300 0
38 140 160 162 187 191 196 206 211 234 253 265 271 280 0
38 140 191 200 213 239 250 260 269 272 277 287 293 294 0
38 145 157 159 165 191 205 213 220 250 265 292 293 300 0
38 145 184 198 199 205 213 241 250 260 277 292 297 300 0
38 149 154 169 172 188 189 201 210 212 231 239 240 248 0
38 154 155 189 200 201 207 210 234 235 248 261 286 299 0
38 154 155 189 200 201 207 210 234 240 248 257 286 288 0
38 154 168 172 188 189 200 201 207 210 235 248 270 286 0
38 165 170 183 191 211 239 242 253 261 264 265 280 297 0
38 170 183 191 206 211 234 253 261 264 265 271 280 297 0
38 186 188 189 200 201 207 210 235 239 248 262 270 286 0
39 137 145 149 151 152 172 180 183 189 198 211 270 286 0
39 139 145 146 149 151 152 161 165 170 171 183 217 240 0
39 139 145 146 149 151 152 165 170 171 180 183 198 240 0
39 145 146 149 151 152 157 161 165 174 183 243 248 258 0
39 145 146 149 151 152 161 170 183 184 202 243 248 268 0
39 145 146 149 151 152 165 170 180 183 189 198 248 258 0
39 145 146 149 151 152 172 183 189 190 198 217 268 270 0
39 145 146 149 151 152 180 183 184 190 198 240 248 291 0
39 145 149 150 151 152 161 165 166 183 189 190 258 286 0
39 145 149 151 152 161 165 170 180 183 240 258 268 286 0
39 145 149 151 152 180 183 184 195 198 215 240 248 286 0
39 145 149 151 152 180 183 184 198 240 248 268 286 291 0
43 136 140 144 145 148 162 174 177 205 217 226 238 251 0
43 138 139 143 147 148 150 160 167 178 230 233 255 270 0
44 136 138 143 144 147 149 150 155 166 169 197 229 264 0
44 139 142 143 149 150 160 172 178 209 212 264 277 287 0
44 139 142 152 161 163 171 183 187 220 225 270 283 285 0
44 139 142 152 161 163 183 195 211 220 224 225 281 283 0
44 139 142 161 163 164 171 183 187 197 206 220 276 278 0
44 139 142 161 163 164 183 187 190 197 220 225 278 285 0
44 139 142 161 163 183 195 217 220 258 276 283 285 286 0
44 139 145 150 151 164 165 166 193 233 240 268 273 293 0
44 139 147 155 174 176 191 196 197 208 239 261 280 287 0
44 155 156 160 176 183 218 239 251 254 260 264 279 280 0
44 156 168 174 176 184 207 224 237 254 256 261 262 280 0
44 166 199 204 212 213 232 235 236 239 242 247 262 294 0
44 172 189 191 205 212 213 234 240 244 247 262 266 269 0
45 138 144 145 149 153 156 158 160 161 202 235 263 288 0
45 138 153 175 177 199 208 209 221 224 225 245 264 271 0
45 138 167 177 199 201 204 209 221 225 238 264 283 298 0
45 147 160 163 185 206 211 224 225 251 263 273 274 299 0
45 157 159 162 209 218 220 223 234 242 247 253 262 300 0
45 159 160 209 212 218 220 223 253 257 268 299 300 303 0
45 159 199 204 209 212 218 224 226 232 277 287 299 300 0
46 136 138 144 150 155 163 174 188 191 199 206 268 283 0
46 136 138 144 150 158 163 167 174 191 199 204 268 270 0
46 137 145 146 149 151 152 172 183 189 196 198 219 245 0
46 137 145 149 151 152 180 183 189 196 198 245 268 286 0
46 138 147 155 160 196 229 234 253 254 260 265 273 300 0
46 139 145 150 153 155 156 163 168 184 207 254 285 288 0
46 139 145 150 153 155 156 163 168 184 254 270 286 288 0
46 142 145 149 151 152 161 174 183 184 196 220 243 248 0
46 145 149 151 152 181 183 196 198 220 228 243 245 268 0
46 145 150 151 153 155 162 168 212 218 266 279 285 295 0
46 154 160 163 206 225 227 251 257 259 278 282 285 299 0
47 140 143 145 154 191 212 224 225 250 254 260 277 281 0
47 140 154 159 166 172 191 201 208 213 220 250 268 269 0
47 140 156 157 159 162 164 172 182 191 209 212 220 242 0
47 140 156 177 191 226 250 254 260 269 271 277 289 296 0
47 154 156 159 197 239 250 254 256 269 277 281 292 296 0
47 154 191 198 206 225 246 250 254 260 268 277 279 285 0
47 156 170 190 204 222 240 250 254 257 260 277 279 281 0
47 157 164 172 191 205 209 219 220 223 247 264 288 289 0
47 159 177 198 204 220 246 250 254 262 268 279 294 296 0
47 159 183 191 201 207 213 246 254 262 264 269 277 279 0
47 159 191 212 222 224 250 254 262 269 277 281 292 296 0
48 139 144 146 152 155 158 159 172 177 184 208 221 282 0
48 139 149 153 154 155 158 164 170 205 208 217 228 268 0
48 139 149 153 154 157 158 163 164 170 173 192 208 217 0
48 139 149 153 154 157 158 164 170 173 192 208 217 228 0
48 139 149 153 155 156 157 163 164 170 173 217 225 288 0
48 139 149 153 156 157 158 162 163 164 170 205 217 262 0
48 139 149 153 157 158 162 164 192 205 208 217 235 302 0
50 136 137 141 142 143 145 150 155 173 224 246 258 274 0
50 136 137 159 181 194 211 213 250 272 279 292 297 300 0
50 139 147 160 163 170 172 198 210 240 277 278 299 300 0
50 140 145 152 159 197 212 213 250 268 274 297 300 303 0
50 140 145 152 162 205 212 213 222 250 260 268 281 300 0
50 140 145 170 197 205 208 211 250 260 265 277 297 300 0
50 140 159 161 170 184 208 211 250 272 279 297 300 303 0
50 147 160 163 177 210 222 248 279 283 286 293 294 299 0
50 149 160 176 177 210 213 225 246 271 283 285 288 294 0
50 152 211 222 224 225 250 260 265 279 281 287 294 297 0
50 153 180 181 188 194 213 228 250 260 269 292 297 300 0
50 160 172 184 198 204 210 218 222 248 283 284 299 300 0
51 136 140 154 160 172 240 248 250 259 260 279 280 296 0
51 139 143 149 152 153 163 166 172 175 180 184 258 268 0
51 145 170 183 188 206 225 240 257 260 262 264 285 292 0
51 152 154 162 169 170 172 190 213 217 234 236 240 253 0
51 169 170 172 207 210 211 234 236 240 253 269 270 286 0
52 138 139 143 144 147 150 151 155 157 164 208 224 303 0
52 140 145 157 198 210 213 220 239 250 274 278 293 300 0
52 140 152 159 162 173 183 211 224 263 269 277 287 300 0
52 140 161 162 173 191 210 211 222 239 269 277 281 300 0
52 140 161 188 198 210 211 234 264 277 279 297 300 303 0
52 140 162 181 200 208 213 239 260 263 269 277 300 303 0
52 145 154 159 165 196 207 230 235 278 280 288 292 298 0
52 145 154 159 165 205 207 240 244 280 283 288 292 298 0
52 145 154 165 179 205 235 246 260 279 280 283 288 298 0
52 170 173 188 198 205 210 211 269 277 279 283 297 300 0
52 170 198 199 210 211 240 241 250 277 278 279 297 300 0
53 139 153 157 162 168 170 172 184 193 238 244 258 265 0
53 148 149 154 157 184 187 188 189 190 213 235 248 253 0
53 184 188 189 198 201 204 213 224 225 235 248 262 285 0
54 137 145 162 163 173 180 189 194 224 244 264 299 302 0
54 138 141 150 159 168 177 197 223 238 244 264 265 295 0
54 138 146 159 177 197 205 238 239 241 244 264 266 269 0
54 141 146 150 158 163 168 173 177 238 244 247 266 274 0
54 141 147 150 153 160 168 173 177 215 223 265 273 295 0
54 142 154 165 174 183 207 260 264 269 274 276 292 298 0
54 154 166 185 204 212 224 239 245 247 253 260 287 300 0
55 145 161 191 209 221 247 250 274 277 280 283 288 298 0
55 173 206 211 224 225 230 240 244 261 273 274 283 299 0
56 136 139 144 156 157 165 170 204 239 241 243 244 266 0
56 136 141 144 145 149 150 157 161 165 204 208 240 244 0
56 136 141 144 145 150 156 161 165 198 204 243 244 248 0
56 136 141 144 145 150 157 161 165 177 204 208 240 244 0
56 136 141 149 150 154 162 163 169 186 202 208 218 295 0
56 136 141 150 153 155 156 161 165 168 198 235 255 280 0
56 136 143 145 155 161 165 170 208 235 243 255 268 277 0
56 136 144 145 153 156 157 165 177 184 204 219 235 249 0
56 136 145 155 156 157 165 170 243 244 258 276 280 298 0
56 136 145 155 156 165 166 170 181 189 244 249 255 268 0
56 136 153 155 157 161 165 191 208 219 226 235 239 258 0
56 137 142 143 147 148 150 151 153 160 163 176 181 276 0
56 138 140 143 146 149 150 154 157 163 169 207 208 246 0
56 138 140 146 149 150 154 157 169 208 246 255 269 271 0
56 138 140 146 149 150 157 166 169 181 186 207 208 246 0
56 138 146 149 150 157 169 181 207 208 246 270 292 293 0
56 139 140 141 145 149 150 154 162 163 169 202 270 295 0
56 139 140 144 158 163 165 169 171 173 182 188 240 278 0
56 139 144 159 165 169 171 173 182 188 199 240 283 295 0
56 142 143 148 150 151 153 160 161 163 176 199 267 295 0
56 149 150 155 163 169 181 207 208 218 246 268 292 293 0
58 136 146 147 154 156 157 163 180 181 194 202 208 267 0
58 136 146 147 156 157 171 180 182 190 202 215 267 303 0
58 136 146 147 156 157 171 180 188 190 202 215 267 303 0
58 136 146 147 156 157 171 188 190 202 233 267 277 284 0
58 136 146 156 157 182 190 202 208 215 224 225 233 267 0
58 138 140 142 158 161 164 194 195 209 214 269 282 290 0
58 138 142 159 161 175 185 193 204 214 216 221 232 278 0
58 144 145 151 155 158 161 162 174 239 240 278 295 299 0
58 144 151 153 157 158 160 161 174 238 278 287 288 295 0
58 144 151 155 158 161 162 163 174 217 284 287 290 299 0
58 144 151 155 158 161 174 240 277 278 287 288 295 301 0
58 144 151 158 159 160 161 163 174 192 214 217 283 288 0
60 136 138 143 152 153 155 165 169 173 194 200 205 255 0
60 136 144 155 161 162 165 168 169 172 184 187 239 240 0
60 136 144 155 161 165 169 172 184 188 200 239 240 279 0
60 136 155 162 165 169 170 184 188 194 197 200 240 258 0
60 137 138 139 140 147 154 155 156 157 180 205 219 228 0
60 138 140 143 144 154 157 180 205 208 219 246 258 271 0
60 140 143 145 146 157 168 185 200 202 216 217 218 277 0
60 140 143 145 149 166 168 174 180 188 198 202 218 220 0
60 140 143 145 157 168 188 202 215 218 224 225 262 277 0
60 143 145 157 161 168 188 202 217 218 239 270 277 292 0
60 143 145 157 168 172 188 202 217 218 270 274 277 292 0
62 136 138 139 150 160 173 177 188 190 204 214 224 288 0
62 136 138 150 160 174 178 188 216 243 264 270 288 293 0
62 138 139 142 143 155 160 173 178 190 228 241 255 276 0
62 138 139 144 150 160 172 178 190 204 216 255 264 288 0
62 138 139 150 155 160 162 169 173 177 178 202 258 299 0
62 138 139 150 160 172 173 177 190 224 227 270 288 297 0
62 138 141 143 160 162 173 174 177 216 224 238 241 276 0
62 138 142 144 150 160 162 174 177 224 255 264 276 299 0
62 138 143 144 152 160 162 173 174 204 224 241 255 288 0
62 138 143 144 152 160 162 173 174 224 241 255 267 288 0
62 138 143 144 160 162 173 174 177 178 181 204 241 299 0
62 138 143 144 160 162 173 174 177 178 204 227 241 299 0
62 138 143 144 160 174 177 224 241 255 264 270 288 293 0
62 138 143 147 152 155 160 162 174 178 197 241 255 299 0
62 138 144 147 150 152 155 160 162 174 202 224 264 299 0
62 138 144 147 150 155 160 162 173 174 177 178 202 299 0
62 138 144 150 152 160 162 174 178 188 263 264 267 288 0
62 138 144 150 152 160 169 172 174 224 263 264 288 293 0
62 138 144 150 155 160 162 169 174 177 224 255 264 288 0
62 138 144 150 160 162 173 174 177 178 190 214 255 276 0
62 138 144 150 160 162 174 178 181 243 255 264 276 299 0
62 138 144 150 160 172 174 178 181 255 264 270 276 293 0
62 138 150 155 160 162 166 169 173 174 177 178 181 299 0
62 141 142 145 148 150 151 153 169 176 195 206 274 285 0
62 141 142 148 150 151 153 169 173 176 177 195 206 208 0
62 141 142 148 150 151 153 169 173 176 195 199 204 206 0
62 142 148 150 151 153 154 169 173 176 188 195 206 265 0
64 136 139 144 151 155 156 158 162 170 265 291 295 299 0
64 136 141 145 146 149 151 152 178 219 255 272 286 299 0
64 139 142 144 146 155 158 159 164 174 192 217 226 295 0
64 139 142 144 146 155 158 163 164 170 172 192 217 226 0
64 139 142 144 146 155 158 163 164 172 174 192 217 226 0
64 139 142 144 146 155 158 164 170 172 192 217 226 295 0
64 139 144 151 158 160 163 170 215 217 220 265 288 301 0
65 85 137 142 147 149 150 154 155 162 193 205 215 295 0
65 136 139 140 157 163 182 197 207 224 225 239 242 292 0
65 136 139 140 157 163 197 207 215 217 224 239 270 292 0
65 138 140 146 147 155 159 166 171 233 238 258 264 291 0
65 139 140 144 145 149 154 157 172 177 189 202 207 225 0
65 139 140 157 159 163 172 192 205 207 224 269 281 294 0
66 136 139 140 144 146 154 159 173 174 184 188 250 255 0
66 136 139 144 146 154 170 171 174 183 184 188 255 263 0
66 136 139 144 146 166 168 170 174 188 245 250 258 268 0
66 136 139 144 146 167 171 174 180 183 184 188 255 284 0
66 136 139 144 146 170 171 173 174 183 184 188 255 291 0
66 136 139 144 168 170 174 177 188 196 197 245 250 258 0
66 137 140 143 144 149 150 151 155 165 168 175 188 233 0
66 137 140 143 144 149 150 155 168 175 188 233 239 257 0
66 137 143 149 150 155 158 167 168 175 183 233 239 257 0
66 138 140 142 168 181 204 205 207 214 269 287 296 302 0
66 138 140 150 160 162 167 174 177 202 228 229 251 303 0
66 138 140 150 160 162 167 174 177 202 229 233 243 303 0
66 139 140 144 154 159 173 174 177 188 230 250 258 284 0
67 136 140 142 143 145 146 154 166 171 197 213 233 270 0
67 140 143 145 146 148 149 154 166 208 212 214 217 247 0
67 140 143 145 146 148 149 156 197 212 215 218 262 274 0
67 140 143 145 146 149 150 154 156 166 197 212 215 217 0
67 140 143 145 146 150 156 166 174 197 212 233 262 303 0
67 140 143 145 146 150 156 166 212 215 220 233 239 262 0
67 140 143 145 146 154 166 197 208 212 218 233 274 303 0
67 143 145 146 148 149 172 208 239 262 270 274 292 303 0
67 143 145 146 148 154 155 156 174 212 217 233 247 292 0
67 143 145 146 166 208 225 233 247 262 270 274 288 292 0
68 136 138 139 142 143 144 146 151 155 181 184 202 203 0
68 136 138 139 143 146 151 184 202 203 242 258 267 271 0
68 136 138 140 142 143 144 145 151 171 184 197 203 224 0
68 136 138 143 146 151 155 166 171 184 202 203 271 293 0
68 136 138 143 146 151 171 184 203 242 255 267 271 293 0
68 136 139 140 142 143 144 151 171 184 197 203 207 275 0
68 136 155 161 165 168 169 170 192 214 234 240 246 255 0
68 136 155 161 165 192 200 239 240 246 248 258 269 270 0
68 140 143 145 149 150 166 168 174 181 198 202 218 220 0
68 143 145 166 168 198 202 218 232 236 270 277 286 292 0
69 139 140 144 145 148 163 174 205 217 226 264 287 292 0
69 140 149 153 156 157 159 161 172 177 199 208 235 290 0
69 140 149 153 156 157 159 162 164 170 173 177 208 237 0
70 140 143 145 146 148 154 167 175 177 188 243 253 275 0
70 140 143 146 148 154 175 177 178 188 243 253 296 298 0
70 140 145 146 148 154 167 175 177 188 189 201 205 275 0
71 136 138 143 149 152 153 155 165 169 200 214 248 258 0
71 136 144 145 146 150 152 166 181 194 202 204 272 281 0
71 136 144 158 163 169 177 185 197 198 212 219 239 255 0
71 136 150 153 155 161 165 199 200 202 204 247 248 270 0
71 139 144 145 150 151 153 178 180 184 196 198 199 295 0
71 144 159 163 180 184 189 196 199 200 215 239 240 274 0
71 144 163 180 184 189 199 200 215 239 240 274 292 293 0
72 84 139 142 144 146 150 151 200 202 203 207 208 293 0
72 136 139 155 156 165 189 215 235 239 248 255 266 268 0
72 136 141 144 145 150 161 165 198 204 208 240 244 277 0
72 136 145 150 155 156 165 170 189 195 199 215 235 268 0
72 136 155 156 157 165 167 171 174 189 239 244 258 266 0
72 136 155 156 165 168 170 226 235 241 243 258 266 268 0
72 139 140 144 158 159 163 165 169 171 173 188 240 278 0
72 139 144 156 159 163 164 165 171 173 188 199 240 263 0
72 139 144 158 163 165 171 173 178 183 188 189 240 278 0
73 136 137 145 149 163 170 172 173 175 180 189 224 240 0
73 136 137 145 153 162 163 172 173 178 180 189 190 194 0
73 136 137 145 153 162 163 172 173 178 180 189 190 245 0
73 136 137 145 162 163 172 178 180 189 190 224 245 299 0
73 136 137 145 163 170 172 175 179 189 194 224 240 296 0
74 140 144 150 158 161 164 167 170 172 218 270 276 293 0
74 149 153 156 159 163 168 177 181 184 185 188 199 261 0
74 153 158 159 166 168 173 177 193 195 268 292 293 301 0
75 136 138 139 140 162 188 204 208 219 257 270 286 302 0
75 136 138 140 170 178 188 191 204 270 286 288 302 303 0
75 138 139 172 188 191 204 220 258 270 283 286 288 302 0
75 138 140 145 146 153 158 159 161 164 239 258 264 287 0
75 140 165 168 169 174 182 190 216 232 233 238 275 303 0
75 142 143 144 161 163 164 178 192 200 204 207 261 280 0
75 154 162 197 239 249 256 257 259 261 265 270 280 286 0
76 136 144 145 146 152 163 176 177 178 181 203 244 300 0
76 136 146 147 177 198 200 207 213 220 221 239 248 286 0
76 139 150 158 159 161 164 172 217 218 255 258 259 277 0
76 146 172 200 204 207 208 217 221 230 239 262 268 287 0
76 170 181 197 204 210 220 240 244 261 265 283 288 293 0
77 136 145 147 155 159 162 163 166 172 215 258 260 293 0
77 137 140 174 183 185 198 207 224 239 241 260 264 284 0
77 145 149 150 153 157 170 194 196 200 216 217 235 239 0
78 142 143 148 149 150 151 159 167 168 172 173 180 214 0
78 143 151 154 167 173 174 186 190 204 232 240 250 251 0
78 144 169 187 189 200 207 210 211 234 248 253 262 277 0
78 154 188 194 200 207 210 218 234 240 248 253 263 266 0
78 160 170 172 200 207 213 239 240 244 253 262 272 277 0
79 142 145 159 166 168 189 201 213 219 230 271 289 301 0
79 143 159 163 171 180 183 194 199 208 210 230 272 292 0
79 144 154 156 159 176 189 205 212 213 235 247 269 278 0
79 144 156 189 204 205 212 213 240 244 247 262 269 283 0
79 144 159 185 189 200 201 209 235 239 247 262 266 283 0
79 144 176 179 188 197 201 205 209 239 240 244 262 266 0
79 153 156 164 176 189 197 209 239 244 262 266 271 274 0
79 154 172 177 180 188 199 201 209 235 242 247 266 271 0
80 136 142 144 148 159 169 177 195 208 237 255 276 294 0
80 138 139 140 142 143 146 150 155 164 184 198 200 247 0
80 138 139 140 142 146 150 155 164 184 197 198 200 202 0
80 138 139 140 143 146 161 164 171 184 191 200 241 247 0
80 138 139 140 143 146 161 164 184 191 197 200 241 258 0
80 138 139 140 143 146 161 164 184 199 200 241 247 258 0
80 138 139 140 143 146 164 184 190 197 198 200 241 258 0
80 138 139 140 143 164 171 177 184 197 198 200 241 275 0
80 138 139 140 146 150 157 161 164 171 184 199 200 247 0
80 138 139 140 146 150 157 161 164 184 197 199 200 258 0
80 138 139 140 146 150 164 168 169 184 198 212 247 255 0
80 138 139 140 146 150 164 168 169 184 198 212 247 258 0
80 138 139 140 150 161 164 171 177 184 197 199 200 275 0
80 138 139 143 146 164 171 184 197 198 200 241 275 286 0
80 138 139 143 146 164 175 184 198 200 241 247 258 286 0
80 138 139 146 150 161 164 175 184 191 197 200 258 286 0
80 138 139 146 150 164 184 198 199 200 247 255 275 286 0
80 138 139 150 161 164 177 184 191 197 200 258 275 286 0
80 138 142 148 154 155 169 177 195 226 237 264 276 283 0
80 138 142 148 155 159 169 177 182 195 233 264 276 280 0
80 139 140 144 151 153 162 163 171 182 195 232 267 283 0
80 139 140 144 151 153 163 164 171 182 224 231 255 267 0
80 139 140 151 153 155 162 163 164 171 181 182 219 267 0
80 139 140 151 153 155 162 163 164 171 182 232 267 280 0
80 139 141 142 144 148 150 190 199 202 204 217 225 233 0
80 139 151 153 155 163 167 170 176 182 232 267 271 284 0
80 140 142 151 153 155 163 167 171 176 193 232 258 283 0
80 141 142 144 145 148 150 159 166 177 180 190 274 294 0
80 141 142 144 148 150 159 166 177 180 190 193 204 217 0
80 141 142 144 148 150 163 180 190 199 202 232 292 293 0
80 141 142 148 150 154 155 169 173 177 182 195 233 267 0
80 142 144 147 148 150 153 154 160 162 163 193 206 276 0
80 142 144 148 154 159 172 177 190 208 217 226 237 271 0
80 142 144 148 168 169 177 178 181 195 229 233 276 295 0
80 151 153 155 163 164 167 171 176 190 193 231 267 283 0
81 99 136 141 146 168 170 171 207 218 220 233 238 268 0
82 136 137 141 142 143 145 150 155 173 175 224 258 263 0
82 136 137 141 142 143 145 150 160 171 173 224 246 274 0
82 136 137 141 142 143 145 155 171 173 175 224 241 246 0
82 136 137 141 142 143 145 160 173 175 224 241 246 258 0
82 136 137 141 142 143 145 160 173 175 224 241 258 263 0
82 136 137 141 142 145 150 155 173 202 205 224 258 263 0
82 142 143 145 148 149 150 156 168 173 216 233 240 272 0
83 136 141 146 149 151 157 163 172 190 198 204 208 219 0
83 136 146 149 150 151 157 161 174 204 215 219 246 247 0
84 102 136 138 149 156 181 197 205 214 229 235 238 269 0
84 122 145 146 157 159 165 172 177 180 193 238 239 255 0
84 138 139 140 143 144 146 150 151 200 203 208 242 270 0
84 138 139 140 143 146 150 151 203 208 242 258 270 271 0
84 138 139 140 146 158 161 162 170 171 191 241 255 266 0
84 138 139 142 143 144 146 150 151 181 203 208 270 293 0
84 138 139 146 164 170 174 175 199 205 241 255 266 286 0
84 138 140 142 143 144 146 151 165 171 174 203 208 275 0
84 138 143 144 146 150 151 171 174 202 203 208 276 293 0
84 138 145 149 151 156 171 172 215 229 255 257 270 289 0
84 139 140 142 143 144 146 150 151 168 203 207 208 255 0
84 139 140 142 143 144 146 150 151 200 203 207 208 250 0
84 139 140 143 146 150 151 171 200 202 203 207 208 271 0
84 139 142 143 146 150 151 202 203 207 208 258 271 293 0
84 139 142 149 151 156 160 170 172 224 235 265 269 288 0
84 139 143 144 146 150 151 200 203 207 208 242 267 297 0
84 140 142 143 144 146 150 151 155 171 174 203 207 208 0
84 140 142 143 144 146 150 151 171 174 203 207 208 255 0
84 140 143 146 151 155 165 171 174 203 207 208 242 271 0
84 141 143 146 157 158 161 163 181 212 238 239 279 284 0
84 142 143 144 146 151 165 171 174 202 203 207 208 293 0
84 142 143 146 150 151 171 174 203 207 208 271 275 293 0
84 143 144 146 150 151 171 174 200 203 207 208 267 293 0
85 136 137 144 145 163 170 172 177 178 180 189 190 245 0
85 136 137 145 159 163 170 171 172 173 180 189 224 245 0
85 136 137 145 162 163 172 175 180 189 190 224 245 299 0
85 136 137 145 162 163 172 180 189 204 224 245 264 296 0
85 136 138 140 143 147 150 172 200 204 205 255 267 275 0
85 136 143 144 151 158 166 171 176 195 204 268 285 295 0
85 137 139 144 149 154 158 159 164 168 173 178 188 295 0
85 137 139 144 149 154 158 164 173 184 188 198 241 295 0
85 137 142 143 149 154 162 184 193 198 204 205 270 273 0
85 144 147 150 151 157 158 176 190 205 216 224 282 284 0
86 136 138 140 147 150 161 172 200 205 227 255 262 275 0
88 137 138 141 143 153 168 171 200 207 255 267 270 280 0
88 138 142 146 150 161 167 194 201 211 219 221 228 269 0
91 136 142 144 145 150 160 164 202 205 207 211 224 255 0
91 138 139 140 142 143 145 150 155 164 205 208 224 236 0
92 136 140 144 145 163 164 173 176 177 193 216 218 292 0
92 139 145 159 188 189 191 220 222 254 262 268 287 292 0
92 170 172 178 204 208 220 222 240 244 253 260 268 300 0
96 144 153 158 159 165 177 185 197 200 239 270 274 295 0
98 136 138 141 142 155 156 157 167 197 201 205 219 233 0
98 136 138 142 145 150 155 156 157 167 194 201 219 295 0
98 136 138 147 155 156 164 167 201 219 226 240 244 295 0
98 136 141 153 155 156 157 167 170 201 205 219 233 245 0
98 136 142 145 155 156 157 160 167 181 201 219 226 241 0
98 136 145 150 155 156 157 167 170 193 201 219 226 295 0
98 139 145 153 161 163 165 187 206 220 258 276 283 286 0
100 138 140 144 149 152 157 171 173 177 214 227 229 302 0
101 137 138 139 150 169 173 178 194 204 206 216 232 295 0
101 137 138 141 150 154 169 175 178 206 214 232 233 288 0
101 137 138 141 150 169 170 197 206 208 224 258 264 271 0
101 138 139 147 150 162 169 178 206 208 214 238 258 288 0
101 138 139 150 169 170 178 197 204 206 208 238 258 264 0
101 138 139 150 169 173 177 178 202 204 206 233 275 295 0
101 138 144 147 148 149 151 153 155 160 172 177 193 266 0
101 139 144 147 148 149 151 153 155 166 172 193 266 284 0
101 139 144 148 149 151 153 156 160 182 207 208 224 261 0
101 144 147 148 149 151 153 155 156 160 166 172 193 293 0
102 136 138 150 160 162 172 174 178 181 202 204 264 299 0
102 136 141 142 145 155 166 167 176 204 226 268 284 296 0
102 136 141 145 155 156 167 176 204 240 244 268 284 296 0
102 136 145 146 147 155 156 160 164 167 175 176 241 284 0
102 138 139 142 143 160 177 178 181 190 204 241 264 276 0
102 138 139 147 150 152 155 160 172 189 224 255 264 288 0
102 138 139 150 152 160 162 172 173 202 204 224 253 288 0
102 138 142 143 160 162 173 174 177 214 224 241 255 276 0
102 138 142 143 160 162 177 178 241 255 264 265 276 299 0
102 138 142 150 160 174 177 188 224 242 255 264 276 293 0
102 138 143 144 152 160 162 174 178 197 241 255 267 299 0
102 138 143 152 160 162 174 178 197 204 214 241 253 299 0
102 138 143 155 160 162 166 173 174 177 224 241 267 299 0
102 138 143 160 162 174 177 190 204 224 241 255 264 276 0
102 138 145 149 150 155 157 160 163 164 167 175 176 197 0
102 138 147 150 152 155 160 174 178 197 245 255 288 293 0
102 138 150 155 160 162 166 173 174 177 178 181 267 288 0
102 138 150 160 173 174 177 181 188 224 255 267 276 293 0
102 147 149 155 156 160 164 167 193 215 219 237 253 295 0
102 150 155 159 163 167 173 193 205 208 215 258 271 296 0
104 106 140 143 150 155 159 167 168 170 172 182 233 244 0
104 136 138 141 144 146 150 161 173 176 178 219 290 296 0
104 136 138 150 154 157 160 162 167 170 224 225 255 269 0
104 136 139 145 146 149 156 163 168 173 182 190 216 244 0
104 136 141 144 146 150 161 173 176 194 217 219 255 294 0
104 136 141 144 146 150 173 176 184 194 217 283 294 296 0
104 138 140 150 153 160 167 174 202 219 224 225 228 288 0
104 138 150 153 154 160 162 167 170 202 211 219 269 298 0
104 139 144 159 164 168 174 180 183 188 197 258 284 287 0
104 140 143 149 150 151 155 159 165 167 168 172 180 249 0
104 140 143 149 150 153 155 159 166 167 168 172 233 249 0
106 136 138 140 147 155 159 163 172 173 174 215 217 255 0
106 136 138 140 147 155 159 172 173 174 214 223 250 301 0
106 136 138 140 147 159 160 161 164 172 174 223 229 264 0
106 136 143 148 152 153 165 167 168 174 184 233 235 294 0
106 137 138 140 147 159 160 163 174 208 223 258 264 271 0
106 140 143 146 150 154 175 177 192 197 201 239 243 263 0
106 140 146 150 154 162 163 174 175 177 189 205 253 295 0
120 139 142 146 160 161 163 183 202 206 220 225 267 283 0
120 139 142 152 161 163 164 183 206 220 225 270 278 302 0
121 141 144 145 156 158 168 180 186 204 230 238 270 295 0
124 138 139 143 147 150 155 160 173 174 177 178 225 297 0
124 138 139 143 152 160 173 178 181 204 241 255 276 293 0
124 138 139 150 160 172 174 178 186 204 225 238 255 264 0
124 138 143 145 147 150 155 160 172 173 174 178 276 293 0
124 138 143 147 155 160 174 178 190 225 241 264 285 293 0
124 143 145 149 150 154 157 160 166 197 205 270 275 288 0
126 138 140 146 150 164 192 194 208 214 215 246 258 286 0
127 136 138 143 149 155 166 167 171 184 188 198 265 270 0
127 139 142 143 149 150 155 160 162 166 167 214 227 288 0
127 142 143 148 149 150 167 202 214 216 225 243 265 288 0
127 142 143 148 149 170 172 188 202 204 217 225 265 288 0
127 143 148 149 150 170 172 202 214 243 265 270 275 288 0
127 143 149 150 166 167 173 202 204 214 217 265 270 288 0
127 143 166 167 172 197 202 228 233 239 265 267 275 288 0
128 136 138 150 160 161 167 170 228 229 255 258 272 288 0
128 136 139 143 144 146 150 159 174 182 188 241 250 255 0
128 136 146 152 163 177 181 202 203 217 240 245 267 283 0
128 138 148 150 160 167 174 219 229 232 243 255 288 294 0
128 138 149 150 160 162 167 170 180 190 219 228 229 255 0
128 138 150 152 153 160 170 188 229 255 281 288 294 303 0
128 138 150 153 160 162 167 170 205 219 228 229 255 281 0
128 138 150 160 162 167 174 202 205 211 219 224 225 229 0
130 136 143 151 173 182 196 208 214 219 228 241 245 250 0
130 142 143 144 150 155 160 163 164 174 197 217 270 296 0
130 143 144 150 155 162 163 164 174 175 197 217 270 293 0
131 138 140 146 149 170 173 178 195 205 217 224 240 269 0
131 138 140 173 178 195 217 224 258 263 280 292 293 302 0
132 136 138 143 145 148 150 156 184 200 233 236 239 240 0
132 136 138 143 145 148 156 159 165 168 184 233 240 257 0
132 136 139 142 143 145 148 149 150 153 156 168 180 235 0
132 138 139 143 145 148 149 156 165 168 180 184 240 265 0
132 138 142 143 145 148 153 165 181 200 233 235 239 292 0
132 138 143 145 148 150 156 172 181 184 200 233 239 240 0
132 139 142 143 145 148 165 174 178 200 233 236 239 240 0
132 140 146 150 154 162 173 175 177 192 201 214 216 243 0
132 142 143 145 148 149 153 156 165 180 181 200 235 239 0
132 142 143 145 148 150 153 163 200 233 235 236 239 253 0
133 136 138 140 141 144 146 147 157 164 180 203 207 226 0
133 136 138 141 146 147 150 157 164 199 202 203 236 277 0
133 136 138 141 146 147 150 164 171 180 199 202 268 271 0
133 136 138 141 146 147 157 164 166 177 202 203 236 255 0
133 136 138 150 153 155 161 188 191 197 200 205 214 270 0
133 136 140 143 144 162 164 165 168 170 187 188 257 295 0
133 136 142 143 144 149 153 162 164 165 168 170 192 193 0
133 136 142 143 144 153 162 164 165 168 170 172 184 193 0
133 136 143 144 149 150 164 168 170 181 184 187 192 257 0
133 136 143 144 150 151 162 164 168 170 172 188 239 242 0
133 136 143 144 150 151 162 164 168 170 172 220 239 242 0
133 136 150 152 153 155 161 162 163 169 173 200 202 257 0
133 139 143 146 148 157 158 161 163 181 212 232 239 269 0
133 139 143 146 148 157 158 161 163 181 212 239 269 296 0
133 139 143 146 158 161 163 178 181 188 198 239 286 292 0
133 139 143 146 163 181 188 198 212 224 239 273 292 303 0
133 143 146 155 157 161 163 168 169 181 188 205 275 286 0
133 143 146 163 168 181 188 198 224 270 273 274 286 296 0
134 136 139 144 145 153 156 161 165 204 215 235 241 268 0
134 136 143 153 155 156 157 165 168 170 189 197 244 262 0
134 136 144 161 165 168 170 189 198 204 208 235 241 266 0
134 137 138 139 140 150 161 177 178 179 192 216 245 302 0
134 137 138 140 143 149 150 161 179 204 216 239 287 302 0
134 137 138 140 145 150 161 179 197 226 239 245 287 303 0
134 137 138 140 149 150 161 172 177 179 199 226 264 302 0
135 136 138 140 143 147 150 155 172 200 205 250 255 277 0
135 138 139 150 160 172 173 177 178 182 201 202 267 288 0
135 138 143 160 172 173 178 182 204 241 243 265 276 293 0
135 138 143 160 178 182 201 202 241 264 265 267 288 293 0
1 3 170 172 188 189 201 205 209 213 235 239 247 266 279 0
1 38 184 198 199 206 224 225 241 250 260 277 279 297 300 0
1 46 154 165 191 205 212 224 235 250 257 260 269 271 292 0
1 140 143 162 178 191 206 212 224 225 235 250 257 260 269 0
1 140 159 162 178 191 205 212 224 235 250 257 269 285 299 0
1 140 160 162 169 178 188 205 206 212 224 225 251 257 283 0
1 183 205 212 224 235 257 259 260 261 264 269 285 292 293 0
2 23 174 205 206 213 224 225 239 253 254 256 260 285 293 0
2 58 144 157 158 160 169 174 199 200 272 288 289 290 295 0
2 82 148 184 197 198 199 204 211 239 241 253 265 280 297 0
2 139 166 197 198 204 210 212 213 220 265 268 278 287 288 0
2 140 147 155 159 166 191 197 211 239 250 277 279 297 300 0
2 140 147 155 166 189 191 197 201 211 234 250 251 280 297 0
2 140 161 166 187 191 197 204 211 234 249 251 253 280 297 0
2 146 147 152 155 166 210 212 213 220 234 268 283 299 300 0
2 146 147 155 166 200 207 210 213 239 277 283 286 299 300 0
2 146 152 166 168 181 187 189 201 204 212 213 235 248 262 0
2 146 163 166 189 198 201 204 210 212 234 235 248 262 273 0
2 146 166 168 181 186 187 189 201 204 210 212 235 248 262 0
2 146 166 170 172 184 204 210 212 236 239 240 253 262 288 0
2 146 166 170 204 212 213 220 239 240 253 257 262 268 282 0
2 147 155 159 166 173 183 191 197 213 277 279 287 294 297 0
2 147 155 163 166 168 177 197 210 212 213 277 283 288 294 0
2 147 155 166 172 191 197 211 239 244 251 253 280 292 293 0
2 147 155 166 191 197 211 220 234 251 253 280 286 292 293 0
2 147 155 166 197 198 210 212 213 265 268 277 283 288 300 0
2 147 155 166 197 198 210 212 248 265 268 277 283 288 300 0
2 152 159 166 172 191 197 204 213 244 250 277 279 297 300 0
2 155 166 197 200 204 207 210 213 234 277 283 286 288 300 0
2 166 170 188 191 197 204 213 250 260 265 277 279 297 300 0
2 166 170 197 198 204 212 213 220 234 240 253 257 262 268 0
2 166 174 177 191 197 204 210 212 213 220 268 283 294 299 0
2 166 177 197 198 204 210 212 213 220 265 268 283 288 294 0
2 166 183 191 197 204 211 212 220 234 251 253 264 280 297 0
2 166 188 191 197 204 211 220 234 249 251 253 268 280 297 0
2 166 191 197 204 211 212 220 239 250 253 265 277 280 297 0
2 166 197 200 204 207 210 220 248 268 270 283 286 288 300 0
3 136 154 170 172 188 191 209 221 234 240 247 253 266 271 0
3 144 170 172 188 208 209 221 240 247 266 277 278 299 300 0
3 145 146 149 152 171 172 180 183 190 224 225 245 283 293 0
3 154 159 170 172 188 209 213 234 235 237 247 253 292 293 0
3 160 170 172 174 188 191 204 205 240 269 278 280 288 298 0
4 136 140 150 151 160 182 184 225 233 236 243 265 284 303 0
5 136 147 155 159 166 170 174 212 261 268 280 283 298 303 0
5 138 140 141 146 150 157 170 172 194 202 216 238 240 288 0
5 139 140 146 149 155 157 163 164 192 208 217 225 248 288 0
5 139 142 143 144 150 151 155 157 170 177 199 217 284 295 0
5 140 146 155 159 163 164 167 171 174 216 242 263 288 302 0
5 141 142 144 155 157 158 163 174 189 217 219 238 240 256 0
5 142 143 158 169 172 174 188 221 223 239 276 286 292 293 0
5 142 144 146 172 176 190 200 204 213 231 281 284 298 300 0
5 145 164 170 172 183 188 205 261 264 270 286 288 292 293 0
5 159 164 170 172 196 212 225 250 251 261 270 273 280 298 0
5 160 167 170 172 177 205 226 250 260 265 269 280 283 298 0
6 136 138 139 142 157 166 173 178 182 221 242 265 287 303 0
6 138 147 150 157 158 180 181 191 192 197 239 256 259 300 0
6 145 157 159 183 197 200 204 205 211 263 264 265 292 297 0
7 136 140 141 145 156 162 164 195 198 205 208 238 255 269 0
7 137 140 142 147 160 163 175 183 207 211 216 233 246 283 0
7 138 140 141 145 154 156 157 158 161 164 171 174 202 275 0
7 141 146 150 157 162 164 166 175 176 204 205 216 219 245 0
7 141 148 149 150 152 156 157 162 164 170 176 197 216 244 0
7 141 150 157 162 166 167 205 216 219 229 244 245 295 296 0
7 142 145 149 150 160 163 168 170 184 192 204 205 240 288 0
8 137 141 157 158 159 168 172 173 174 188 204 226 292 293 0
8 137 158 159 166 168 174 204 216 244 264 268 276 292 293 0
8 138 149 170 171 177 181 188 197 208 226 264 292 293 294 0
8 139 140 144 146 157 160 162 168 170 218 237 243 255 265 0
8 143 145 149 152 153 162 163 170 177 182 194 204 217 275 0
9 136 144 153 159 163 169 184 192 198 202 205 219 255 269 0
9 143 145 148 149 154 156 157 188 197 212 219 243 253 274 0
9 145 147 155 156 174 189 191 196 205 213 261 271 280 300 0
9 149 150 151 153 164 165 180 182 225 253 266 271 293 302 0
9 153 159 162 174 188 192 205 209 214 226 228 257 269 295 0
9 188 190 191 194 205 208 251 253 256 261 266 271 273 280 0
10 137 138 143 144 145 151 161 181 195 199 200 207 228 255 0
10 137 138 145 151 155 167 168 169 195 207 228 241 255 258 0
10 137 141 144 145 151 157 161 169 179 191 200 207 232 255 0
11 140 145 146 149 150 172 175 177 188 197 204 216 224 245 0
11 154 170 212 240 250 257 259 260 261 265 279 280 283 299 0
11 163 182 209 213 224 242 247 274 277 283 287 294 299 303 0
11 164 189 201 209 210 213 220 224 247 268 274 287 294 299 0
11 185 189 201 209 213 245 247 277 283 287 288 292 293 294 0
12 19 20 137 138 154 161 165 171 173 174 175 177 215 241 0
12 69 141 144 149 150 158 165 167 168 169 171 221 271 276 0
12 136 162 164 172 188 205 224 227 248 261 262 265 280 293 0
12 137 140 151 156 172 173 177 183 195 208 242 258 269 283 0
12 137 140 156 172 173 177 183 184 193 206 208 258 269 283 0
12 137 140 156 172 177 183 184 195 213 242 258 264 279 283 0
12 140 160 162 170 188 205 218 224 240 251 257 269 278 280 0
12 141 144 149 150 158 165 167 168 171 176 178 221 230 276 0
12 143 154 172 188 208 224 248 251 261 269 280 283 288 293 0
12 143 154 218 224 244 251 257 259 261 262 278 280 293 299 0
12 144 149 158 160 165 167 168 171 173 204 208 230 241 267 0
12 154 162 164 172 188 205 224 227 248 261 262 265 280 293 0
12 160 162 178 205 206 224 225 248 257 259 262 265 283 293 0
12 160 170 188 191 205 224 240 257 265 269 280 283 293 299 0
13 81 145 156 176 191 208 250 254 260 269 271 277 292 300 0
13 139 142 143 164 167 172 174 184 192 211 225 244 258 293 0
13 139 151 172 210 212 239 248 277 279 283 286 288 297 300 0
13 139 157 165 183 188 191 205 220 260 264 269 287 292 298 0
13 146 169 172 174 177 199 208 218 220 226 239 240 251 274 0
13 159 164 188 191 230 250 251 261 274 277 279 298 300 302 0
14 136 137 140 146 147 152 160 162 163 174 198 205 208 294 0
14 136 140 141 145 147 152 156 162 165 202 205 207 213 301 0
14 136 140 141 145 147 152 156 186 202 213 221 224 267 269 0
14 136 141 142 150 151 152 153 156 158 167 174 255 258 271 0
14 136 145 146 150 151 152 157 172 173 190 219 245 246 255 0
14 138 140 141 145 147 152 156 178 186 202 208 221 267 274 0
14 138 140 141 145 147 152 156 178 192 202 205 208 221 270 0
14 138 141 145 147 152 156 175 178 202 205 208 221 270 279 0
15 140 159 160 162 172 191 213 235 239 250 277 279 287 294 0
15 147 155 169 174 191 212 257 259 268 277 278 288 296 300 0
15 153 156 197 200 209 213 239 244 253 262 277 278 288 300 0
15 165 191 206 224 225 230 261 265 274 283 285 288 292 293 0
15 184 186 200 207 210 235 239 248 253 261 262 270 286 288 0
15 199 204 213 219 222 240 248 254 260 277 278 281 299 300 0
16 36 137 140 205 207 218 224 261 265 270 280 283 293 299 0
16 58 137 140 145 162 191 205 212 224 235 250 257 260 285 0
16 58 138 140 143 146 150 164 170 184 221 230 255 279 294 0
16 137 142 143 145 149 155 160 162 173 177 193 205 255 284 0
16 137 142 143 145 149 162 169 173 177 182 195 205 267 284 0
16 137 142 143 146 149 154 162 169 173 182 205 267 284 287 0
16 137 142 143 149 154 160 162 173 177 193 205 255 267 273 0
16 137 142 145 149 150 160 162 173 177 193 202 270 275 284 0
16 137 142 149 150 154 160 162 169 182 217 273 275 276 280 0
16 138 139 140 141 143 146 150 164 170 184 221 238 255 275 0
16 138 140 143 150 164 170 171 173 184 190 197 221 253 275 0
16 139 150 151 153 164 193 197 233 235 239 245 271 273 293 0
16 141 144 150 153 163 164 165 166 193 206 229 233 268 271 0
16 141 149 150 151 158 165 195 205 215 224 233 240 269 295 0
16 142 143 145 149 154 162 169 193 197 205 239 244 267 284 0
16 142 145 149 150 152 154 160 162 173 177 193 205 270 273 0
16 142 145 149 150 152 154 160 162 173 177 193 267 273 275 0
16 150 151 153 154 164 193 197 233 235 239 271 274 293 302 0
17 134 137 138 140 149 150 161 177 178 179 205 216 287 302 0
18 138 139 140 143 162 166 170 178 197 218 233 255 265 270 0
18 138 139 149 155 164 173 188 208 212 217 220 225 240 302 0
18 140 141 142 148 150 154 155 171 172 173 188 190 233 293 0
18 140 142 151 153 155 163 171 175 176 182 231 258 283 296 0
18 140 143 145 146 148 149 157 172 174 175 219 247 262 270 0
18 140 143 145 149 150 154 156 157 166 172 174 205 212 247 0
18 141 142 143 148 154 155 172 173 177 190 204 237 283 294 0
18 141 142 144 148 150 154 168 190 193 199 202 228 233 283 0
18 142 146 148 154 155 173 183 188 190 224 225 228 237 287 0
18 151 153 155 162 163 164 171 176 179 182 232 258 267 280 0
19 37 50 164 169 170 189 193 195 201 204 214 228 234 264 0
19 106 136 138 147 159 174 223 232 246 255 258 264 284 301 0
19 126 138 144 146 150 160 164 223 245 265 286 292 293 301 0
20 136 137 138 144 151 158 176 177 222 225 232 245 264 291 0
20 136 138 139 140 145 147 156 163 195 196 215 240 242 301 0
20 136 140 147 153 163 167 168 180 181 207 215 217 272 294 0
20 136 144 151 154 158 163 173 176 177 182 216 225 232 291 0
20 137 139 144 145 147 173 175 182 205 214 215 216 228 275 0
20 137 139 144 147 161 173 187 193 204 214 215 216 228 283 0
20 138 139 140 143 144 161 163 174 198 204 208 214 223 303 0
20 138 139 140 148 161 163 176 208 214 223 224 225 228 255 0
20 138 139 142 145 156 163 172 178 182 206 215 238 276 301 0
20 139 144 147 161 173 193 211 214 216 249 270 275 285 302 0
20 139 145 156 163 172 178 182 206 207 215 217 242 276 301 0
20 139 145 156 163 172 178 182 207 217 225 242 276 285 301 0
20 142 146 152 166 172 204 210 212 234 240 248 253 262 288 0
20 142 147 154 155 166 184 197 210 212 234 235 248 253 299 0
20 142 147 155 166 186 197 210 212 234 235 248 253 262 277 0
20 142 159 166 188 191 197 204 211 239 250 277 279 297 300 0
20 142 166 184 197 198 204 211 241 250 260 277 279 297 300 0
20 142 166 187 188 189 197 204 210 212 235 239 248 253 262 0
20 143 144 149 154 158 163 168 171 180 182 190 208 225 296 0
21 36 153 154 189 201 208 209 221 234 235 247 271 278 300 0
21 84 139 149 172 174 178 207 215 217 229 248 269 288 289 0
21 102 154 170 172 181 188 189 197 212 213 235 237 239 300 0
21 136 137 138 139 141 146 148 153 199 207 221 255 258 275 0
21 136 138 139 141 144 146 148 155 171 199 207 221 255 301 0
21 136 139 153 154 170 172 188 197 209 221 235 239 253 271 0
21 137 138 139 141 142 144 145 146 150 153 199 202 221 275 0
21 138 139 141 142 144 145 146 150 155 168 199 202 221 275 0
21 138 139 141 142 146 150 168 175 188 199 202 205 208 221 0
21 138 139 141 144 145 146 150 199 202 207 221 224 276 284 0
21 138 139 141 144 145 150 153 175 199 202 207 218 221 276 0
21 138 139 141 144 146 150 155 171 199 202 207 221 224 240 0
21 138 139 141 144 148 163 199 207 216 218 221 229 255 275 0
21 138 139 141 144 150 158 161 175 191 202 207 218 221 284 0
21 138 139 141 145 146 150 155 171 188 199 202 207 221 293 0
21 138 139 141 145 148 158 161 171 188 191 207 218 221 255 0
21 138 139 141 146 150 155 171 188 199 202 207 221 224 288 0
21 138 139 141 146 150 158 161 191 202 207 208 221 259 300 0
21 138 139 141 148 158 161 188 191 207 208 218 221 255 284 0
21 138 139 141 148 175 188 199 207 216 218 221 232 250 255 0
21 139 154 170 172 173 188 191 197 209 213 235 239 253 281 0
21 139 156 167 170 172 188 212 213 234 237 240 247 253 262 0
21 139 170 172 188 191 209 212 213 235 250 277 278 288 295 0
21 139 170 172 188 212 213 224 234 240 241 242 247 253 262 0
21 149 153 154 170 172 188 209 213 235 239 242 247 253 300 0
21 154 159 170 172 185 188 197 209 213 231 235 236 239 253 0
21 154 170 172 188 197 209 213 239 240 253 277 278 299 300 0
21 157 159 164 170 172 188 199 209 213 220 235 247 288 300 0
21 159 170 172 188 191 209 212 213 227 240 277 283 299 300 0
21 164 170 172 188 209 213 235 239 247 253 262 277 288 300 0
21 167 170 172 188 191 212 213 234 240 242 247 253 262 294 0
21 167 170 172 188 212 213 235 237 239 242 247 253 262 300 0
21 170 172 173 188 191 212 213 234 235 237 247 253 262 300 0
21 170 172 188 191 197 209 213 227 235 239 277 283 299 300 0
21 170 172 188 197 199 204 212 213 235 239 241 253 262 300 0
21 170 172 188 209 213 235 239 247 253 262 277 278 288 300 0
21 170 172 188 209 213 239 240 247 253 262 277 278 288 300 0
21 170 172 188 209 213 239 240 247 253 262 277 283 299 300 0
22 136 139 144 151 155 158 162 163 174 178 217 226 272 299 0
22 138 139 144 151 155 157 158 163 174 178 226 288 289 295 0
22 139 144 151 155 157 158 163 174 178 217 226 229 272 288 0
22 139 144 151 155 158 159 163 172 174 178 192 226 288 295 0
23 42 82 141 146 154 157 180 218 232 243 245 248 257 288 0
23 80 136 138 139 140 146 153 166 170 184 188 199 241 266 0
23 124 205 206 213 224 225 234 253 254 256 260 261 285 293 0
23 136 140 144 145 147 155 159 166 171 174 184 211 238 293 0
23 138 139 140 146 153 156 162 170 175 184 199 202 213 241 0
23 139 142 143 146 151 153 165 171 183 203 204 207 251 297 0
23 140 142 143 146 151 165 171 174 183 203 207 255 271 279 0
23 140 143 146 151 165 171 174 183 203 207 242 255 267 271 0
23 142 143 146 151 165 171 174 183 203 207 215 271 275 293 0
23 145 149 150 160 168 174 184 188 192 222 226 240 248 249 0
36 132 136 139 143 148 149 150 159 162 168 174 180 184 240 0
36 132 140 143 148 149 150 167 168 174 180 184 192 240 288 0
36 136 142 189 193 197 201 212 221 235 239 262 266 271 283 0
36 136 144 153 174 191 204 255 261 273 274 278 280 298 299 0
36 136 144 156 164 173 209 212 213 219 235 277 295 299 300 0
36 136 144 156 164 212 221 237 239 240 247 253 262 266 273 0
36 136 166 199 209 221 234 235 242 247 253 262 266 268 271 0
36 136 185 189 201 209 221 224 235 239 247 262 266 271 287 0
36 140 145 154 159 191 205 212 218 240 250 261 265 280 297 0
36 140 191 235 250 260 261 262 265 274 278 279 280 288 298 0
36 144 164 172 173 191 201 205 209 212 213 253 277 299 300 0
36 145 160 191 196 204 205 206 224 225 230 251 278 285 299 0
36 145 167 174 191 205 206 211 225 230 240 261 278 288 298 0
36 154 157 159 160 164 176 209 213 220 235 239 247 288 300 0
36 154 157 159 160 176 209 213 220 235 239 247 278 299 300 0
36 154 159 184 198 199 211 224 225 235 241 250 274 278 279 0
36 154 159 191 204 205 212 218 235 250 251 261 269 279 280 0
36 154 159 191 205 212 218 235 250 251 261 269 273 279 280 0
36 154 159 197 201 205 209 213 218 239 253 277 283 299 300 0
36 159 160 176 197 209 213 235 236 239 262 277 278 299 300 0
36 159 160 191 218 235 250 251 262 269 274 280 292 298 299 0
36 159 162 164 172 199 201 205 209 212 213 253 277 287 294 0
36 160 163 183 191 196 205 251 264 269 278 280 296 298 299 0
36 160 163 183 191 205 251 260 264 269 278 280 296 298 299 0
36 162 172 173 189 199 201 205 209 212 213 277 278 291 300 0
36 164 185 189 197 201 208 209 221 239 240 242 262 266 271 0
36 167 176 201 205 208 209 221 235 239 247 253 262 266 271 0
36 167 184 198 199 211 224 225 241 251 261 274 278 280 288 0
36 184 198 199 204 205 230 241 251 261 269 278 280 288 298 0
36 197 204 208 212 221 235 237 239 241 242 253 262 266 271 0
37 136 164 172 186 206 212 225 246 248 251 259 261 292 299 0
37 137 140 149 212 240 244 250 257 259 260 262 269 280 299 0
37 140 145 159 166 177 178 191 208 221 250 268 271 277 294 0
37 140 145 173 183 188 200 207 235 257 260 262 270 280 299 0
37 140 154 159 160 191 200 207 218 240 244 250 257 270 279 0
37 140 159 200 206 207 225 240 244 250 257 259 262 270 279 0
37 145 149 153 154 159 170 172 188 212 250 263 280 288 292 0
37 145 154 159 162 172 178 183 212 240 244 259 264 280 292 0
37 145 159 178 189 201 204 213 220 250 254 262 268 292 300 0
37 159 160 172 188 212 235 248 250 262 265 279 280 283 288 0
37 162 178 188 200 207 235 250 257 260 262 270 279 280 286 0
38 76 152 156 208 221 250 260 261 265 269 280 287 292 294 0
38 139 160 170 172 177 198 204 210 212 240 277 283 288 291 0
38 139 160 191 192 200 206 211 225 237 239 251 253 297 298 0
38 141 150 160 184 198 199 211 217 239 250 253 265 280 297 0
38 145 184 198 199 211 241 250 260 263 274 277 292 297 300 0
38 154 155 168 169 172 200 207 210 235 248 253 277 286 299 0
38 154 198 200 204 207 210 235 239 248 253 270 284 286 291 0
38 159 170 173 183 184 191 200 211 239 277 279 292 293 300 0
38 165 184 198 199 206 211 224 225 234 241 251 253 261 297 0
39 137 145 146 149 151 152 157 172 180 183 190 198 206 243 0
39 137 145 146 149 151 152 172 180 183 198 206 215 243 302 0
39 137 145 146 149 151 152 180 181 183 189 198 211 217 219 0
39 139 145 146 149 151 152 161 165 171 174 183 240 248 270 0
39 139 145 149 151 152 161 165 171 172 174 183 240 248 286 0
43 136 140 144 145 148 177 188 190 205 217 226 228 238 293 0
44 136 138 143 148 149 155 162 166 169 173 188 214 216 295 0
44 136 138 143 148 149 155 166 167 169 173 174 188 214 216 0
44 139 142 161 163 172 181 183 187 197 206 220 225 270 283 0
44 143 148 150 152 158 159 188 195 204 224 254 266 277 300 0
44 143 148 150 152 159 191 195 205 224 254 266 277 293 294 0
44 143 148 152 155 158 159 188 195 224 254 256 266 277 294 0
44 147 148 155 156 168 176 180 181 196 251 254 261 262 280 0
45 80 140 162 163 164 172 205 209 212 220 253 264 277 300 0
45 138 142 143 144 146 151 165 173 178 198 199 200 276 288 0
46 136 137 144 145 149 151 152 183 184 189 190 198 255 286 0
46 136 138 141 144 150 153 155 163 174 180 184 188 199 268 0
46 136 138 141 144 150 155 163 184 188 199 230 265 268 296 0
46 136 138 144 147 150 155 163 166 188 191 199 230 265 268 0
46 136 138 144 150 155 163 166 188 191 199 220 265 268 278 0
46 136 138 144 150 155 163 171 174 188 191 199 230 268 296 0
46 136 138 144 150 158 163 166 167 191 199 204 265 268 270 0
46 137 145 146 149 151 152 154 180 183 190 198 243 268 272 0
46 137 145 146 149 151 152 172 180 183 189 190 198 245 268 0
46 137 145 149 151 152 172 183 190 198 243 245 268 270 286 0
46 138 168 189 201 204 205 225 251 254 257 261 287 292 294 0
46 142 154 159 160 168 172 174 176 204 208 253 254 273 276 0
46 142 154 160 166 168 176 189 201 205 251 256 268 276 280 0
46 142 154 160 166 172 178 244 251 259 271 276 283 293 299 0
46 145 150 151 153 155 156 157 163 200 212 239 254 277 288 0
46 145 150 151 153 155 168 207 218 266 269 285 288 292 295 0
46 159 168 170 174 189 201 204 205 206 240 244 254 261 262 0
46 160 163 166 178 188 190 191 225 249 265 271 278 282 299 0
46 160 189 201 204 224 225 228 231 234 251 254 260 270 300 0
47 136 140 143 146 151 171 184 203 207 242 255 267 271 301 0
47 136 142 143 146 151 171 177 184 202 203 207 253 271 293 0
47 138 147 157 164 167 187 189 191 216 229 234 256 270 298 0
47 138 147 157 164 167 187 191 205 216 229 234 253 256 298 0
47 140 145 148 154 159 181 183 191 222 223 254 264 277 296 0
47 140 154 156 159 166 183 220 246 256 264 268 269 287 294 0
47 145 147 155 156 166 183 219 260 262 264 268 277 289 292 0
47 145 156 204 205 212 222 224 225 250 254 260 262 277 279 0
47 145 159 166 178 183 215 222 256 264 268 272 273 277 292 0
47 156 159 176 206 225 246 250 254 256 270 277 279 285 296 0
47 166 197 198 204 219 246 250 260 264 268 269 277 289 292 0
48 139 140 146 149 154 160 164 170 208 217 225 228 237 303 0
48 139 140 149 153 156 157 158 162 163 164 170 207 217 279 0
48 139 144 146 152 159 160 172 176 177 198 204 208 217 221 0
48 139 144 149 154 157 158 164 170 173 205 208 217 228 237 0
48 139 149 153 154 155 156 157 158 162 163 164 205 217 235 0
48 139 149 153 154 157 158 163 164 173 182 205 208 217 235 0
48 139 149 155 157 158 164 170 173 192 202 208 217 228 280 0
48 139 149 157 158 163 164 170 204 205 208 217 237 262 280 0
48 162 163 164 204 206 218 225 227 249 251 257 259 261 285 0
49 159 191 192 204 207 220 250 253 254 262 268 292 296 300 0
50 136 137 141 142 145 150 160 173 180 202 205 224 246 258 0
50 136 154 188 210 248 249 257 261 278 287 291 294 296 299 0
50 138 139 140 142 143 146 162 198 210 218 245 255 265 288 0
50 139 140 148 154 162 171 188 198 210 218 224 225 265 277 0
50 139 140 170 184 186 200 208 211 238 250 260 269 287 297 0
50 139 145 152 159 173 183 200 205 213 272 287 292 297 303 0
50 140 152 159 168 170 212 213 250 263 265 277 279 297 300 0
50 140 162 172 183 188 197 213 220 244 260 263 264 279 300 0
50 152 159 166 173 183 188 204 213 268 279 285 292 293 300 0
51 136 143 144 147 148 149 152 153 165 180 258 259 293 303 0
51 136 145 150 153 154 166 170 250 257 259 260 288 292 296 0
51 139 143 145 148 152 160 172 184 197 227 239 240 258 303 0
51 139 143 145 148 152 160 172 184 197 229 239 240 258 303 0
51 143 144 145 149 152 153 160 166 172 180 184 255 259 303 0
51 200 207 235 250 256 257 259 260 262 263 270 279 280 286 0
52 137 146 148 150 154 160 162 166 167 197 204 207 218 229 0
52 138 154 159 167 173 183 199 205 212 235 236 265 269 279 0
52 139 164 173 188 195 196 198 210 211 277 279 287 297 302 0
52 140 145 157 191 197 205 208 213 220 239 260 272 297 300 0
52 141 145 149 154 161 186 191 205 212 220 235 240 260 292 0
52 145 154 159 165 167 176 201 230 235 283 288 291 292 298 0
52 145 154 159 165 211 224 225 240 244 274 278 279 280 299 0
52 145 157 198 210 213 220 250 274 278 287 292 293 294 303 0
52 154 159 167 186 199 205 212 220 235 236 263 269 283 292 0
52 157 170 191 198 210 211 220 240 264 269 278 292 297 300 0
52 161 168 170 191 210 211 239 240 250 277 278 279 297 300 0
52 164 168 170 198 210 213 220 224 250 268 279 287 297 300 0
52 164 198 199 210 213 239 240 241 263 264 277 279 297 300 0
52 188 198 200 210 211 224 239 264 277 278 279 287 294 297 0
54 137 145 148 162 163 170 172 173 178 180 194 228 296 299 0
54 138 140 153 154 164 204 236 250 260 265 269 274 293 298 0
54 138 141 146 150 153 159 168 177 197 205 238 264 266 269 0
54 138 153 156 212 233 239 242 247 253 262 283 287 292 293 0
54 138 154 159 166 183 211 224 225 264 268 269 274 283 292 0
54 159 163 166 204 205 212 250 262 268 269 281 283 292 296 0
54 159 164 183 205 212 218 220 228 251 262 264 268 269 292 0
56 65 141 143 146 155 168 174 175 181 182 212 215 234 287 0
56 136 144 150 157 161 165 170 199 204 208 235 239 240 266 0
56 136 144 150 157 161 165 199 204 208 235 239 240 249 266 0
56 136 144 153 154 156 161 165 204 235 239 247 255 268 280 0
56 136 144 153 155 157 161 165 168 177 191 208 215 235 249 0
56 136 144 153 156 161 165 166 204 239 240 241 244 268 280 0
56 136 144 153 156 161 165 168 177 191 198 204 235 247 274 0
56 136 144 157 161 165 168 204 208 215 240 244 255 266 302 0
56 136 145 150 155 156 157 161 165 195 199 205 243 244 248 0
56 136 145 153 155 156 165 177 243 244 248 258 268 276 285 0
56 136 153 155 156 157 165 167 171 174 215 239 243 244 255 0
56 137 138 139 150 151 155 169 173 178 181 208 214 258 288 0
56 138 142 143 148 150 151 153 160 163 176 199 232 288 296 0
56 142 143 147 148 150 151 153 160 163 173 176 177 232 276 0
56 142 143 148 150 151 153 158 160 163 176 232 276 283 296 0
56 142 147 148 150 151 153 160 163 169 173 176 177 285 288 0
56 143 149 150 154 157 166 169 207 208 218 246 270 271 292 0
56 144 148 149 163 166 170 175 188 202 204 217 227 244 267 0
56 149 150 155 169 170 181 207 208 218 220 246 268 292 293 0
58 136 138 141 146 151 164 168 171 179 207 231 238 244 268 0
58 136 139 144 151 155 158 159 174 178 238 283 288 289 295 0
58 136 139 144 151 155 158 174 178 194 283 287 288 289 295 0
58 136 140 146 147 156 157 162 163 180 182 190 208 277 303 0
58 136 140 146 149 154 156 157 160 161 180 208 232 277 295 0
58 136 140 146 149 156 157 161 162 163 171 178 180 220 226 0
58 136 140 146 156 157 161 172 178 180 190 208 226 245 277 0
58 136 141 146 151 164 168 179 181 203 207 218 235 238 268 0
58 136 146 147 148 152 156 157 163 180 202 208 254 255 267 0
58 136 146 147 156 157 161 171 180 188 202 243 244 267 277 0
58 138 139 144 151 158 160 162 174 178 214 220 290 295 299 0
58 138 144 151 155 158 161 174 178 180 278 287 288 289 295 0
58 139 144 147 151 155 158 162 174 178 261 283 289 295 299 0
58 144 150 151 158 160 161 162 168 174 175 278 287 295 299 0
58 144 151 153 155 158 161 162 168 174 175 240 283 295 299 0
58 144 151 153 155 158 161 162 174 175 238 240 283 295 299 0
58 144 151 155 157 158 159 161 174 180 192 278 288 289 295 0
58 144 151 155 158 161 162 163 168 174 175 217 220 283 299 0
58 144 151 158 159 160 161 163 174 217 238 277 278 287 288 0
58 144 151 158 160 161 163 174 214 217 261 280 283 285 288 0
60 136 138 153 155 165 168 169 170 188 191 239 246 258 297 0
60 136 138 153 155 165 168 169 187 194 214 220 247 255 279 0
60 136 138 155 161 162 165 169 187 191 200 214 239 240 255 0
60 136 151 153 155 165 168 169 182 204 234 248 255 261 263 0
60 136 153 155 165 169 188 191 194 200 214 239 255 268 297 0
60 136 155 158 161 165 168 169 188 214 234 240 246 255 284 0
60 136 155 161 165 168 169 173 188 214 234 240 255 263 293 0
60 136 155 161 165 169 184 188 194 197 200 220 230 240 255 0
60 138 143 145 146 149 153 157 168 202 233 236 270 277 292 0
60 140 142 143 145 166 168 193 198 202 218 232 249 276 277 0
60 140 143 145 146 168 198 200 202 218 220 224 225 238 268 0
60 140 143 145 168 198 202 215 217 218 232 262 268 270 277 0
62 69 136 138 139 141 142 144 159 172 177 178 189 217 300 0
62 80 144 146 152 154 166 172 174 175 177 189 195 249 269 0
62 136 138 139 144 150 152 160 172 173 174 214 224 225 263 0
62 137 141 142 144 148 150 151 153 154 166 169 195 206 271 0
62 138 139 141 142 143 155 160 173 178 181 238 241 255 276 0
62 138 139 141 144 150 152 160 178 181 197 204 225 238 255 0
62 138 139 143 160 172 177 178 181 188 241 243 264 267 288 0
62 138 139 144 150 152 160 174 178 190 197 204 214 225 255 0
62 138 139 150 160 162 163 172 173 178 188 204 214 215 299 0
62 138 143 144 152 160 162 173 174 204 224 225 241 255 263 0
62 138 144 150 152 160 162 174 178 188 197 204 243 255 299 0
62 138 150 152 160 174 181 188 197 214 216 224 225 243 293 0
63 136 155 156 157 165 168 193 197 206 240 244 258 266 274 0
64 136 140 145 146 150 151 152 157 172 218 219 245 255 288 0
64 136 140 145 146 150 151 152 190 218 219 245 255 272 299 0
64 136 141 145 146 149 151 152 157 162 172 178 218 219 255 0
64 139 140 142 144 146 155 158 159 163 170 192 212 217 226 0
64 139 140 142 144 146 155 158 159 163 174 192 212 217 226 0
64 139 140 142 144 146 155 158 159 170 192 212 217 226 295 0
64 139 140 142 144 146 155 158 159 170 192 217 226 286 295 0
64 139 140 142 144 146 155 158 159 174 192 212 217 226 295 0
64 139 140 142 144 146 155 158 163 170 172 192 212 217 226 0
64 139 140 142 144 146 155 158 163 172 174 192 217 226 286 0
64 139 140 142 144 146 155 159 174 192 199 212 217 226 295 0
64 139 140 142 144 146 155 163 172 174 192 199 212 217 226 0
64 139 140 142 144 146 155 172 174 192 199 212 217 226 295 0
64 139 142 144 146 155 158 159 163 164 170 192 217 226 286 0
64 139 142 144 146 155 158 159 163 164 174 192 217 226 286 0
64 139 142 144 146 155 158 159 164 170 192 217 226 286 295 0
64 139 142 144 146 155 163 164 170 172 192 199 215 217 226 0
64 139 142 144 146 155 163 164 170 172 192 199 217 226 291 0
64 139 142 144 146 155 163 164 172 174 192 199 217 226 273 0
64 139 142 144 146 155 163 164 172 174 192 199 217 226 286 0
64 139 142 144 146 155 164 170 172 192 199 215 217 226 295 0
64 139 142 144 146 155 164 172 174 192 199 215 217 226 295 0
64 139 142 144 146 155 164 172 174 192 199 217 226 284 295 0
64 139 144 149 150 151 155 158 168 240 265 288 291 293 295 0
65 85 138 140 142 147 150 155 157 172 200 202 205 208 258 0
65 139 140 142 157 176 188 192 197 207 208 224 239 276 292 0
65 139 140 147 163 172 181 205 207 217 224 269 281 287 294 0
66 136 138 140 150 160 162 167 174 177 229 250 251 255 296 0
66 136 139 140 144 146 159 168 174 183 184 188 196 255 291 0
66 136 139 144 151 165 170 171 173 174 177 188 250 255 301 0
66 136 139 144 154 170 171 174 177 184 188 197 245 250 255 0
66 136 139 144 166 170 174 177 188 197 245 250 258 268 291 0
66 136 139 144 170 171 173 174 177 183 184 188 230 255 284 0
66 138 140 141 150 153 160 162 167 170 177 202 208 229 303 0
66 138 140 150 160 162 167 174 177 202 208 228 229 251 296 0
66 138 140 150 160 167 170 177 208 211 229 255 288 296 298 0
66 139 140 144 145 146 153 159 174 181 183 188 205 213 258 0
67 136 142 146 149 153 156 157 162 171 174 190 226 233 276 0
67 138 140 143 145 146 152 197 208 233 262 264 270 292 303 0
67 140 143 145 146 150 156 166 172 197 212 218 233 262 274 0
67 140 143 145 146 166 197 208 215 217 233 243 262 270 274 0
68 136 138 140 143 151 155 166 171 181 184 197 203 271 275 0
68 136 140 143 144 145 151 155 166 171 184 197 203 207 224 0
68 136 143 144 151 171 184 197 202 203 207 242 267 286 293 0
68 136 155 161 165 168 169 192 214 235 239 240 248 258 269 0
68 136 155 161 165 169 188 192 200 205 239 240 246 255 269 0
68 138 140 143 145 146 166 168 175 198 200 202 277 292 303 0
68 138 140 143 145 146 168 172 198 202 232 254 270 277 303 0
68 143 145 166 168 174 198 202 218 224 225 270 277 292 293 0
69 84 140 141 150 159 163 166 172 177 182 204 242 283 303 0
69 84 140 141 150 159 163 177 204 207 233 245 268 284 303 0
69 136 140 149 153 155 156 157 159 161 177 208 240 257 290 0
69 136 140 149 153 157 158 159 161 177 179 190 208 277 290 0
69 139 140 144 145 148 163 174 205 217 224 226 264 269 287 0
69 140 144 145 148 155 162 188 205 217 226 264 269 287 295 0
69 140 146 147 149 152 153 155 157 159 164 177 208 228 248 0
69 140 149 153 155 156 157 159 161 172 177 208 240 270 283 0
70 136 137 140 146 155 159 162 171 175 179 199 228 239 287 0
71 136 138 143 145 146 152 157 181 185 188 205 224 255 281 0
71 136 138 149 152 153 155 165 169 191 194 200 202 258 289 0
71 136 142 147 153 155 160 165 169 200 247 256 258 270 276 0
71 136 144 155 163 166 169 177 180 199 215 239 247 255 268 0
71 136 145 146 152 166 181 185 188 202 204 272 281 292 294 0
71 136 152 153 155 161 165 169 173 188 194 200 202 205 258 0
71 136 153 155 162 165 169 170 200 214 220 244 247 255 268 0
71 136 155 161 163 165 188 197 200 205 240 248 255 270 276 0
71 136 155 165 169 191 194 197 200 204 214 240 258 261 277 0
71 144 145 150 151 153 155 159 184 185 199 219 256 274 295 0
72 84 136 144 150 161 174 204 208 239 240 244 255 266 268 0
72 84 138 140 144 146 150 151 155 171 172 202 203 208 242 0
72 84 139 140 146 150 151 155 202 203 207 208 242 258 271 0
72 136 138 144 155 156 165 168 170 189 194 235 241 266 268 0
72 136 139 144 145 155 156 165 167 171 189 191 215 244 268 0
72 136 139 145 155 156 157 165 167 171 189 244 258 278 291 0
72 136 139 155 156 157 165 167 171 189 239 244 255 266 291 0
72 136 139 155 156 165 167 168 171 189 235 258 266 268 291 0
72 136 144 145 155 156 157 165 170 189 205 226 235 241 279 0
72 136 144 150 161 165 168 170 189 199 204 208 244 266 268 0
72 136 144 156 165 167 171 174 189 204 239 244 258 266 268 0
72 136 144 157 161 165 168 170 189 204 208 235 255 266 277 0
72 136 150 155 156 165 199 202 215 239 243 244 248 266 268 0
72 137 139 144 156 158 159 163 164 165 171 173 185 188 240 0
73 136 137 145 153 162 163 172 175 180 189 224 245 282 296 0
73 136 137 145 162 163 172 173 179 189 190 194 224 235 293 0
74 136 139 140 144 161 164 167 170 199 218 270 272 288 296 0
74 136 140 141 144 161 164 190 192 199 201 218 276 285 293 0
74 136 144 149 150 153 159 160 166 168 198 204 216 268 276 0
74 137 141 142 147 155 160 162 163 175 178 193 196 197 205 0
74 159 161 170 184 191 196 197 209 212 235 283 291 298 299 0
75 136 137 138 139 144 162 175 179 204 208 270 283 286 302 0
75 136 138 139 140 143 146 161 188 191 208 212 257 288 302 0
75 136 138 139 140 146 188 200 208 223 230 270 283 288 302 0
75 136 138 139 140 161 162 168 171 181 188 204 270 286 302 0
75 136 140 160 162 169 188 204 212 218 229 251 257 269 280 0
75 137 138 140 141 145 146 160 162 195 221 262 265 278 301 0
75 137 141 152 153 157 158 159 161 168 173 174 181 216 255 0
75 139 145 146 153 158 176 200 217 220 233 239 258 268 275 0
75 141 145 146 150 153 157 159 168 202 226 228 263 264 287 0
76 147 153 155 173 182 188 224 226 233 269 271 293 301 302 0
77 137 149 152 153 155 156 159 169 177 188 214 232 236 240 0
77 139 145 149 150 153 157 161 196 200 216 217 235 239 265 0
77 141 146 149 151 157 162 165 193 194 202 226 235 238 255 0
77 145 149 150 157 170 192 194 200 205 209 226 229 239 240 0
78 138 141 157 169 188 189 201 210 211 212 234 248 269 277 0
78 141 143 144 146 156 157 168 172 174 175 180 212 247 255 0
78 141 143 146 156 157 166 172 175 180 197 200 236 270 303 0
78 141 149 162 172 200 207 210 220 234 235 248 253 262 268 0
78 154 169 189 198 200 201 207 210 220 227 234 248 268 303 0
79 136 143 146 149 150 166 173 186 193 194 214 243 246 275 0
79 139 140 142 149 150 160 172 174 178 182 240 264 271 300 0
79 153 154 156 159 189 197 205 209 213 239 244 269 271 283 0
79 154 166 180 188 201 205 209 235 242 247 266 268 271 283 0
80 136 138 139 140 143 146 164 184 188 198 200 241 247 255 0
80 136 142 144 147 148 160 163 177 190 199 202 208 237 241 0
80 137 139 140 142 151 153 155 163 171 179 181 182 283 284 0
80 138 139 140 142 143 146 155 164 184 188 197 198 200 241 0
80 138 139 140 143 146 155 164 166 184 188 197 198 200 241 0
80 138 139 140 143 146 155 164 166 184 188 198 200 241 247 0
80 138 139 140 143 164 177 184 188 197 198 200 241 255 275 0
80 138 139 140 145 146 150 164 169 181 184 198 212 247 255 0
80 138 139 140 145 146 150 164 169 181 184 198 212 247 258 0
80 138 139 140 145 146 150 164 169 184 198 212 236 247 255 0
80 138 139 140 146 150 164 168 169 181 184 197 198 212 255 0
80 138 139 140 150 157 161 164 177 184 191 197 200 258 275 0
80 138 139 143 161 164 177 184 191 197 200 241 258 275 286 0
80 138 139 143 161 164 177 184 197 199 200 241 258 275 286 0
80 138 139 146 150 157 161 164 171 175 184 199 200 247 286 0
80 138 139 146 150 157 161 164 171 184 199 200 247 275 286 0
80 138 139 146 150 164 168 169 175 184 198 212 247 258 286 0
80 138 139 146 150 164 168 169 184 198 212 247 255 275 286 0
80 138 139 150 157 161 164 177 184 197 199 200 258 275 286 0
80 139 140 144 151 153 162 163 172 181 182 267 271 276 283 0
80 139 142 151 153 155 163 167 170 176 193 231 271 280 284 0
80 139 144 151 153 162 163 176 182 227 232 267 271 276 284 0
80 139 151 153 155 163 172 176 182 219 224 232 233 267 271 0
80 140 142 144 147 151 153 163 171 172 176 182 232 280 283 0
80 140 144 151 153 162 163 172 176 179 182 232 267 271 283 0
80 140 144 151 153 162 163 176 179 182 219 232 267 271 283 0
80 142 144 151 153 163 164 176 182 188 202 232 233 271 283 0
80 142 147 148 150 153 155 160 162 163 173 177 193 206 267 0
82 132 141 143 157 174 180 197 200 212 218 236 270 295 303 0
82 132 141 146 157 162 178 180 197 200 218 262 270 295 303 0
82 132 146 150 157 174 180 197 200 218 255 262 270 295 303 0
82 136 137 139 141 142 143 145 155 173 208 224 241 246 274 0
82 136 137 140 141 142 150 155 173 175 177 202 205 258 263 0
82 136 137 141 142 143 145 155 173 175 217 224 241 246 258 0
82 136 137 141 142 143 145 160 173 180 224 241 246 258 274 0
82 136 137 141 142 145 150 160 173 202 205 224 246 258 302 0
82 136 137 141 142 145 160 173 202 205 214 224 241 258 263 0
82 137 139 141 142 143 145 150 155 172 173 208 224 246 262 0
82 137 139 141 142 145 150 155 172 173 202 205 208 224 263 0
82 137 141 142 143 145 150 160 171 172 173 175 208 224 246 0
82 138 142 143 145 148 149 156 165 168 173 214 216 233 240 0
82 138 142 143 145 148 149 156 165 168 173 216 218 233 240 0
82 142 143 145 148 149 150 156 168 180 197 207 216 240 289 0
82 142 143 145 148 149 150 156 168 212 216 233 239 240 289 0
82 142 143 145 148 149 153 156 165 168 173 214 216 233 235 0
82 142 143 145 148 149 156 165 168 173 180 212 216 240 289 0
82 142 143 145 148 149 156 165 168 173 212 216 233 240 289 0
84 123 136 141 146 154 168 194 202 205 218 268 269 281 301 0
84 136 138 149 156 174 178 181 195 197 205 229 235 238 269 0
84 138 139 140 142 143 146 150 151 155 203 208 251 258 271 0
84 138 139 140 143 146 150 151 162 203 208 255 258 271 295 0
84 138 139 140 146 149 150 162 170 171 180 199 240 255 266 0
84 138 139 140 146 155 170 174 175 199 202 205 241 266 273 0
84 138 139 141 142 146 150 156 188 199 202 205 208 221 275 0
84 138 139 141 145 146 150 155 199 207 221 255 259 275 284 0
84 138 139 142 143 144 146 150 151 181 203 208 216 275 297 0
84 138 139 142 143 144 146 150 151 192 200 203 208 270 293 0
84 138 139 143 146 150 151 192 203 204 208 242 258 271 293 0
84 138 139 143 146 150 151 192 203 208 255 258 267 271 293 0
84 138 139 146 162 164 166 170 175 199 240 241 258 266 286 0
84 138 140 142 143 146 150 151 171 174 192 202 203 208 271 0
84 138 140 143 144 146 150 151 171 174 202 203 208 242 267 0
84 138 142 145 149 151 156 162 174 205 238 248 258 287 294 0
84 139 140 142 143 144 146 150 151 181 202 203 207 208 216 0
84 139 140 143 146 151 165 200 202 203 207 208 258 267 271 0
84 139 140 143 146 151 165 203 207 208 242 258 267 271 275 0
84 139 140 149 156 172 181 182 207 229 244 255 269 270 287 0
84 139 141 142 145 149 151 156 162 174 226 248 287 293 294 0
84 139 141 142 145 149 151 156 205 238 248 258 287 293 294 0
84 139 141 142 149 151 156 170 171 178 181 244 265 269 276 0
84 139 141 142 149 151 156 170 171 207 226 238 244 265 269 0
84 139 141 143 146 149 163 178 181 188 198 212 239 292 303 0
84 139 141 143 146 158 163 178 181 192 198 239 269 286 303 0
84 139 142 149 151 156 177 178 182 187 196 207 235 238 269 0
84 139 142 149 151 156 178 187 190 197 207 235 238 269 289 0
84 139 143 144 146 151 165 171 200 203 207 208 255 276 293 0
84 139 143 144 146 151 165 181 203 207 208 242 255 267 297 0
84 139 143 146 150 151 155 171 183 192 203 207 208 271 297 0
84 139 143 146 150 151 200 203 207 208 242 258 267 271 293 0
84 140 142 143 144 146 151 165 171 174 203 207 208 275 276 0
84 141 143 146 149 154 158 161 163 168 181 198 212 274 303 0
84 141 143 146 151 154 163 165 168 181 192 198 205 212 303 0
84 141 145 150 152 157 166 181 193 197 204 214 216 239 245 0
84 142 143 146 151 165 171 174 203 207 208 216 255 271 293 0
84 143 144 146 151 165 171 174 181 192 200 203 207 208 293 0
84 143 144 146 151 165 171 174 181 200 203 207 208 216 293 0
84 143 144 146 151 165 171 174 192 200 203 207 208 216 293 0
84 143 146 150 151 155 171 174 192 203 207 208 242 271 293 0
84 143 146 150 151 171 174 203 207 208 242 267 271 275 293 0
85 136 137 145 149 162 163 170 172 177 178 180 189 206 250 0
85 136 139 144 158 171 172 173 183 188 205 230 255 283 295 0
85 137 142 143 144 149 154 160 162 193 204 215 244 275 276 0
85 137 142 143 149 154 159 160 162 193 204 205 267 284 293 0
85 137 142 143 149 154 162 169 175 193 195 206 270 275 284 0
85 139 144 155 172 173 178 183 188 199 205 276 278 280 295 0
89 136 138 139 145 147 151 153 157 164 165 166 171 204 224 0
89 137 142 145 146 149 152 180 183 196 198 217 224 225 257 0
89 139 146 153 164 166 168 196 204 205 220 240 269 283 288 0
95 137 138 140 143 146 150 155 157 164 166 170 184 267 284 0
98 136 141 142 145 149 155 160 167 198 201 240 244 268 295 0
98 141 142 145 149 155 156 167 168 193 197 201 204 220 301 0
98 141 142 145 149 155 156 167 197 201 204 211 227 301 302 0
98 142 147 154 155 160 164 167 172 193 201 220 266 274 295 0
98 142 147 155 160 167 201 205 211 219 238 240 241 244 295 0
99 136 141 144 151 158 159 160 163 166 174 199 240 288 295 0
99 136 144 151 155 157 158 161 163 166 174 217 240 272 288 0
99 138 142 150 161 167 186 194 208 220 221 229 238 274 283 0
100 136 138 140 142 147 159 163 171 174 211 223 228 258 264 0
100 136 138 140 147 154 159 163 171 174 215 223 258 264 269 0
100 138 140 144 145 149 152 157 158 166 171 173 177 229 268 0
100 138 140 144 149 152 157 158 163 176 177 179 197 216 296 0
100 138 140 144 149 152 157 158 171 173 177 179 225 267 296 0
100 139 142 143 148 149 150 166 168 173 180 197 240 265 288 0
101 137 138 141 150 159 169 173 177 192 206 214 215 224 288 0
101 138 139 150 153 163 168 169 173 177 204 206 216 224 288 0
101 139 141 149 150 151 155 169 170 192 205 206 208 224 280 0
102 129 139 145 150 154 162 170 177 188 189 215 265 292 295 0
102 136 145 149 150 155 156 164 167 176 204 258 284 295 301 0
102 136 149 155 164 167 181 193 198 205 211 215 227 241 268 0
102 137 143 163 164 171 180 208 215 221 232 266 273 274 275 0
102 138 139 142 150 155 160 166 173 178 188 204 214 242 276 0
102 138 139 143 147 150 155 160 173 177 178 181 190 215 225 0
102 138 139 143 147 152 155 160 178 197 214 241 245 255 276 0
102 138 139 143 160 162 163 173 178 181 190 204 241 242 299 0
102 138 139 145 150 152 160 169 197 202 204 224 236 275 276 0
102 138 139 147 150 152 155 160 172 215 224 250 255 264 288 0
102 138 142 147 150 155 160 162 168 173 177 224 255 265 276 0
102 138 143 145 160 170 178 189 241 255 264 265 267 288 293 0
102 138 143 147 155 160 172 174 178 241 242 255 264 288 293 0
102 138 143 152 160 162 174 178 188 197 204 241 250 255 299 0
102 138 143 152 160 162 190 197 204 214 216 224 241 265 288 0
102 138 143 160 162 170 173 177 178 188 202 241 265 267 288 0
102 138 147 150 152 155 160 162 188 197 224 255 263 265 299 0
102 138 150 160 168 173 174 177 181 216 224 255 267 276 293 0
102 139 140 141 142 143 149 151 152 155 158 162 165 167 205 0
102 143 145 149 157 160 166 167 193 205 239 262 270 275 288 0
104 106 138 143 148 150 152 168 172 178 184 233 240 276 294 0
104 106 143 148 149 152 165 168 172 174 180 184 240 288 294 0
104 136 138 140 144 148 150 160 161 162 167 170 202 219 232 0
104 136 138 144 148 150 160 161 162 167 170 202 219 232 295 0
104 136 138 149 150 160 162 167 174 180 202 211 219 240 298 0
104 137 140 143 149 150 155 159 167 168 172 175 226 233 249 0
104 137 140 143 149 150 155 159 167 168 172 180 229 246 249 0
104 138 140 150 157 160 162 167 170 194 202 205 211 263 298 0
104 140 143 149 150 155 159 166 168 172 181 188 231 233 258 0
104 140 158 159 162 199 209 232 244 264 265 266 287 294 295 0
106 126 136 138 146 147 154 173 177 179 195 197 214 220 302 0
106 136 137 144 152 155 163 170 218 219 227 244 255 268 270 0
106 136 138 140 144 147 159 163 173 174 205 208 217 255 271 0
106 136 138 140 144 147 159 163 174 185 214 217 255 264 274 0
106 136 138 140 146 147 159 160 172 173 174 214 250 295 301 0
106 136 138 140 147 159 160 171 172 173 174 214 250 295 301 0
106 136 143 148 150 152 167 168 174 178 184 207 233 240 294 0
106 136 143 148 152 153 162 165 168 178 184 207 233 235 294 0
106 137 138 140 142 147 148 159 173 174 208 217 258 271 301 0
106 138 139 143 148 152 165 167 168 170 172 178 184 233 240 0
106 139 143 148 149 150 152 167 168 172 174 180 184 192 240 0
106 140 143 146 154 167 175 177 188 192 216 242 243 253 263 0
106 140 145 146 150 154 175 177 201 204 205 243 263 275 284 0
106 143 148 149 152 165 167 168 172 174 180 184 190 240 294 0
120 139 142 146 160 161 163 168 183 202 206 220 283 285 288 0
121 141 144 145 151 155 156 169 172 186 199 256 258 260 295 0
121 141 144 145 155 156 157 158 186 224 256 270 276 280 295 0
123 136 137 145 146 151 159 165 168 171 183 192 272 287 302 0
123 136 137 145 146 159 165 168 171 183 184 192 219 287 302 0
124 136 138 139 143 160 172 174 178 181 204 216 241 264 276 0
124 138 139 142 144 150 155 160 173 178 188 204 216 225 265 0
124 138 139 147 150 155 160 163 173 174 177 202 215 224 225 0
124 138 143 145 147 150 155 160 173 177 181 224 225 265 293 0
124 138 143 160 172 174 177 178 181 190 204 225 241 264 293 0
124 140 143 145 148 157 160 205 219 233 239 262 270 275 288 0
124 143 145 146 156 157 160 166 175 197 233 262 270 274 288 0
124 143 145 149 154 157 160 166 197 204 212 225 274 275 288 0
126 138 140 146 149 150 160 164 166 167 180 204 245 275 301 0
126 138 140 150 164 167 171 173 192 194 214 215 218 246 275 0
126 138 140 150 164 167 171 194 204 208 214 218 223 275 295 0
127 138 139 143 150 160 162 163 167 173 215 217 233 270 273 0
127 138 149 150 152 160 163 170 188 202 211 219 268 288 298 0
127 139 142 143 149 150 155 160 162 166 167 172 231 258 270 0
127 139 142 143 149 155 160 162 166 197 202 217 225 239 288 0
127 139 142 145 151 155 162 168 184 220 248 258 265 275 276 0
127 143 145 166 167 169 172 197 202 232 233 239 265 267 275 0
127 143 145 166 167 169 172 202 232 233 239 265 267 275 288 0
128 136 140 170 171 190 217 260 264 265 282 283 287 294 298 0
128 138 140 150 153 160 167 174 219 229 255 281 285 288 293 0
128 138 142 150 160 167 174 208 229 233 251 255 285 288 293 0
128 138 150 153 157 160 162 167 174 202 211 228 229 281 298 0
128 138 150 153 160 162 167 174 202 211 224 225 228 229 303 0
128 138 150 157 160 167 174 196 202 208 228 229 285 288 296 0
130 136 143 144 151 155 166 190 204 208 219 228 239 241 245 0
130 136 151 173 174 190 204 208 215 219 228 239 241 245 250 0
131 138 139 140 145 146 166 173 178 239 247 258 268 275 295 0
131 138 142 143 145 148 149 150 156 168 180 216 239 240 289 0
131 138 142 143 145 148 149 150 156 168 216 233 239 240 289 0
131 138 142 143 145 148 149 156 165 168 180 216 239 240 289 0
131 142 143 145 148 149 150 156 168 207 216 233 240 264 289 0
132 136 138 140 143 145 148 149 156 165 168 180 184 240 288 0
132 136 138 143 145 148 150 156 168 184 233 240 253 272 288 0
132 136 139 143 148 149 162 165 168 174 180 184 216 240 293 0
132 138 139 140 142 143 148 149 150 153 168 174 178 180 235 0
132 139 143 145 148 150 156 168 172 184 207 233 240 253 288 0
133 136 138 140 141 143 146 147 164 171 175 199 236 241 268 0
133 136 138 141 146 147 150 157 164 180 199 202 203 226 290 0
133 136 138 141 146 147 157 164 166 171 179 197 207 255 277 0
133 136 140 141 146 147 164 180 202 203 218 240 244 255 268 0
133 136 141 144 145 146 147 164 171 179 203 207 218 268 290 0
133 136 141 146 147 160 164 171 189 199 202 218 236 241 268 0
133 136 141 146 147 164 171 188 189 199 202 218 236 241 268 0
133 136 142 143 144 164 165 168 170 178 193 194 277 282 295 0
133 136 143 144 147 150 151 164 168 170 181 187 194 220 258 0
133 136 143 144 164 165 168 170 188 194 228 242 257 263 303 0
133 136 143 150 153 162 164 167 168 170 182 184 187 257 277 0
133 136 143 150 164 165 167 168 170 188 199 202 204 239 242 0
133 139 143 146 149 151 163 165 177 181 198 212 239 273 292 0
133 139 143 146 149 157 158 161 163 168 178 181 212 274 301 0
133 143 146 149 157 161 163 181 239 270 273 286 292 293 296 0
133 143 146 151 155 157 161 163 165 168 169 181 195 205 286 0
133 143 146 151 157 158 161 163 165 177 181 188 205 212 239 0
134 136 141 150 153 155 161 165 168 185 208 215 235 255 268 0
134 136 142 145 155 161 165 191 195 208 240 244 268 270 276 0
134 136 143 144 145 157 161 165 168 197 204 205 208 235 240 0
134 136 143 155 156 157 165 168 189 219 226 240 244 255 266 0
134 136 144 156 157 161 165 168 204 205 243 244 248 266 269 0
134 136 145 155 156 161 165 185 195 198 219 240 241 244 256 0
134 136 155 156 161 165 168 177 189 235 240 266 268 276 280 0
134 137 138 140 141 142 150 161 179 193 216 239 245 287 303 0
134 137 138 140 141 145 150 161 163 179 226 239 240 245 287 0
134 137 138 140 141 150 161 163 169 179 204 226 239 245 287 0
134 137 138 140 142 145 150 161 177 178 179 226 245 287 303 0
134 137 138 140 143 145 147 149 150 161 177 179 226 240 303 0
134 137 138 140 143 145 150 161 177 179 226 240 245 256 302 0
134 137 138 140 143 149 150 161 173 179 204 216 219 287 302 0
135 136 138 140 143 144 147 150 155 172 200 205 253 258 276 0
135 136 138 140 145 147 150 155 172 175 182 200 258 267 277 0
135 137 140 143 145 146 152 154 162 175 201 208 214 269 295 0
135 138 150 160 162 173 174 177 178 182 188 202 204 214 276 0
135 138 150 160 162 178 179 181 182 201 202 264 265 267 299 0
135 138 150 160 178 179 182 190 204 243 255 264 265 276 293 0
135 140 145 146 152 161 162 164 176 204 208 214 233 242 274 0
1 3 12 183 220 224 254 256 264 268 269 285 287 292 293 294 0
1 136 140 143 159 178 191 212 224 240 244 250 257 269 280 293 0
1 136 162 169 188 205 212 223 224 251 257 261 278 280 292 293 0
1 138 140 159 162 166 170 172 178 191 205 212 240 250 269 285 0
1 138 140 162 166 178 191 205 212 235 250 257 260 269 280 298 0
1 138 154 178 183 191 205 212 235 257 260 264 279 285 288 293 0
1 138 169 205 206 212 218 225 257 259 261 265 283 285 293 299 0
1 140 145 159 162 188 205 212 224 235 250 257 261 265 280 283 0
1 140 162 172 178 191 205 208 212 224 240 248 250 260 269 285 0
1 143 172 178 191 212 224 235 248 250 260 262 279 285 293 299 0
1 159 166 170 172 178 191 205 212 224 240 250 269 285 292 293 0
1 162 173 178 183 191 205 212 224 235 257 260 262 279 285 293 0
2 37 156 189 201 206 208 221 225 234 251 254 256 266 271 279 0
2 137 140 161 162 166 170 191 197 204 211 239 245 253 265 280 0
2 139 166 197 200 204 207 210 213 234 270 277 283 286 287 288 0
2 140 159 166 191 197 204 211 250 251 263 269 272 277 293 300 0
2 140 161 162 166 168 191 197 204 211 234 237 250 253 265 280 0
2 146 147 152 154 155 166 168 188 189 201 212 213 235 248 288 0
2 146 147 154 155 166 170 172 184 210 212 220 239 240 253 268 0
2 146 147 155 166 168 181 187 188 210 212 231 235 248 253 262 0
2 146 157 166 190 204 210 212 220 234 235 248 253 262 268 288 0
2 146 166 187 188 189 201 204 210 212 220 234 235 248 262 268 0
2 147 155 160 166 191 197 210 212 213 268 277 283 287 294 299 0
2 147 155 166 169 184 197 210 212 234 236 240 248 253 257 262 0
2 147 155 166 170 197 210 212 220 234 240 257 268 283 299 300 0
2 147 155 166 191 197 213 250 260 263 265 277 279 291 297 300 0
2 154 155 166 170 172 197 200 204 207 213 239 240 253 282 286 0
2 161 166 191 197 204 211 220 234 242 250 251 253 280 286 297 0
2 166 170 172 184 187 188 189 197 201 204 212 213 234 240 262 0
2 166 170 197 200 204 207 210 234 240 244 253 262 270 286 288 0
2 166 170 197 204 210 212 234 240 244 253 262 277 278 288 300 0
2 166 184 197 198 199 204 206 211 225 239 241 251 253 297 298 0
3 100 138 142 143 145 148 149 152 165 180 200 236 239 240 289 0
3 137 145 146 149 151 152 165 171 172 180 183 190 224 225 293 0
3 137 145 146 149 152 172 182 183 190 217 229 242 245 255 270 0
3 145 150 170 172 174 191 205 206 225 240 261 278 285 298 299 0
3 145 158 160 163 170 172 174 188 191 205 235 278 280 298 299 0
3 154 156 170 172 188 191 197 209 213 221 224 237 239 240 253 0
3 157 170 172 188 208 209 212 220 221 235 266 271 283 299 300 0
3 158 159 170 172 185 188 197 209 213 235 239 253 262 292 293 0
3 160 170 172 188 191 235 250 262 265 274 279 280 283 288 298 0
3 167 169 170 172 188 191 250 251 261 274 279 280 283 298 299 0
3 170 172 188 191 212 224 225 240 250 261 265 278 280 285 288 0
4 160 170 178 204 205 223 225 227 240 257 259 262 278 293 299 0
5 140 145 155 164 169 170 172 183 184 198 199 205 212 241 264 0
5 142 144 164 168 169 170 175 179 195 197 204 231 234 257 284 0
6 136 140 146 147 153 156 157 162 163 164 205 208 233 262 277 0
6 137 144 147 161 163 170 175 177 219 224 225 226 228 240 285 0
7 137 139 140 142 158 163 171 177 183 186 207 216 246 284 286 0
7 138 139 140 143 154 156 157 158 160 174 208 246 258 271 279 0
7 140 141 143 144 146 150 156 157 163 172 175 176 204 216 245 0
8 141 147 150 152 159 160 170 171 172 173 177 181 188 208 244 0
8 147 162 172 173 174 204 218 220 226 232 236 237 238 268 303 0
9 143 145 148 152 156 157 162 188 204 233 243 253 262 270 274 0
9 143 148 157 160 162 163 164 175 212 220 233 262 271 278 284 0
10 58 138 140 146 147 169 170 175 177 187 204 216 240 270 283 0
10 58 140 142 144 146 147 150 160 173 202 221 226 247 283 286 0
10 137 143 144 145 151 152 168 173 179 190 198 199 202 207 228 0
10 142 143 144 145 149 158 165 170 171 180 221 230 267 271 283 0
10 142 143 144 149 158 165 168 170 171 204 208 211 276 280 283 0
11 139 193 206 212 213 216 218 251 257 259 261 262 280 283 299 0
11 140 143 145 146 149 158 175 177 188 216 242 245 248 275 281 0
11 144 154 160 162 170 210 212 240 244 250 260 265 278 279 280 0
11 144 154 160 176 185 209 213 235 239 247 260 277 283 299 300 0
11 146 160 191 204 221 224 225 241 247 251 274 280 283 285 299 0
11 149 154 160 162 176 209 213 235 239 247 260 277 278 287 294 0
11 154 162 163 165 173 181 183 191 212 235 257 260 272 278 279 0
11 185 189 201 209 213 219 220 245 247 268 278 289 297 299 300 0
12 136 137 140 151 156 172 173 177 183 206 208 242 255 279 283 0
12 136 137 140 151 156 172 177 183 193 206 208 255 264 279 283 0
12 136 141 142 143 144 149 150 158 165 167 168 171 173 213 276 0
12 136 143 144 149 158 165 168 170 171 173 180 208 237 242 267 0
12 136 144 149 158 165 167 168 169 171 204 208 211 276 280 293 0
12 137 140 142 144 151 156 172 173 177 183 206 213 238 279 283 0
12 137 140 151 156 172 177 183 188 206 213 242 258 264 269 283 0
12 137 140 156 172 177 183 184 195 208 210 242 258 264 279 290 0
12 139 143 154 162 172 188 206 224 248 261 262 265 280 283 293 0
12 140 160 162 178 191 205 206 224 225 248 251 257 259 269 278 0
12 140 162 164 170 178 205 224 227 240 257 259 261 262 265 280 0
12 140 162 164 191 204 205 223 224 244 259 261 262 265 270 280 0
12 141 143 144 149 150 158 165 168 170 171 176 204 213 242 267 0
12 141 144 149 150 158 160 165 167 168 169 171 176 204 221 276 0
12 141 144 149 150 158 165 167 168 169 171 204 221 267 271 283 0
12 143 154 162 166 172 188 206 224 225 244 251 261 269 278 293 0
12 143 154 164 166 191 208 224 244 251 259 261 269 280 288 293 0
12 162 170 188 205 206 208 224 225 240 257 261 265 269 278 293 0
13 139 140 156 159 166 177 188 189 213 250 256 268 269 277 297 0
13 141 150 159 184 188 198 199 250 263 265 274 277 279 298 300 0
13 146 147 157 159 160 163 171 172 174 176 177 209 221 239 293 0
13 153 159 191 220 233 239 250 263 268 274 279 286 298 300 303 0
13 154 162 165 172 191 204 212 214 240 244 250 260 272 279 283 0
13 154 170 172 200 207 210 220 234 236 240 253 268 270 286 298 0
13 156 159 166 188 189 201 204 213 222 233 250 268 277 279 300 0
13 164 170 188 191 209 212 227 247 249 261 262 265 279 280 299 0
14 136 137 140 146 147 151 152 157 162 163 174 178 205 208 254 0
14 136 141 142 152 153 156 159 164 171 184 224 245 255 270 271 0
14 136 143 145 146 149 150 151 152 157 160 190 208 219 246 302 0
14 136 145 146 150 151 152 157 173 190 201 204 208 214 219 245 0
14 138 140 141 143 145 147 152 154 156 165 208 226 255 269 301 0
14 138 140 141 143 145 147 152 156 169 205 208 221 224 238 255 0
14 138 140 141 145 147 152 156 164 178 202 205 207 208 267 286 0
14 138 140 141 145 147 152 156 188 192 193 202 205 208 221 270 0
14 138 141 145 147 152 156 175 178 192 202 208 221 267 274 298 0
14 140 141 145 147 152 156 162 186 202 205 208 221 224 270 292 0
14 140 141 145 147 152 156 164 169 193 202 208 224 226 274 279 0
14 140 141 145 147 152 156 169 202 208 221 224 226 274 279 293 0
14 141 145 147 152 156 162 164 169 175 178 202 208 224 238 269 0
14 159 162 166 197 204 213 220 250 263 268 279 285 297 299 300 0
15 138 143 145 147 151 154 161 164 169 178 197 255 257 270 293 0
15 152 160 170 191 211 239 250 259 260 263 269 277 292 297 300 0
15 154 160 169 198 204 212 213 218 234 240 248 253 257 288 293 0
16 19 136 143 145 155 157 158 170 175 197 199 221 255 274 286 0
16 58 137 142 143 149 154 160 162 173 177 193 255 267 273 275 0
16 58 138 140 143 164 170 177 184 188 197 221 241 258 275 294 0
16 136 137 142 144 149 150 154 160 162 173 177 193 205 267 273 0
16 137 138 140 145 159 162 191 204 205 212 235 250 257 280 285 0
16 137 140 143 153 162 191 212 224 225 248 250 257 260 269 299 0
16 137 140 191 205 207 224 240 248 250 257 260 269 270 280 293 0
16 137 142 143 145 149 160 162 166 193 214 244 267 268 275 284 0
16 137 142 143 149 154 160 162 173 177 183 193 215 244 270 275 0
16 137 142 143 149 154 160 162 173 177 190 193 205 244 270 273 0
16 137 142 143 149 154 162 173 177 183 193 204 244 267 273 275 0
16 137 142 145 149 150 160 162 173 177 193 204 244 270 273 275 0
16 137 142 149 150 154 160 162 166 193 204 205 214 268 270 273 0
16 137 142 149 150 154 162 169 177 181 182 195 270 273 275 295 0
16 137 143 159 191 204 212 224 225 235 250 257 262 279 288 293 0
16 137 143 212 224 235 241 250 257 259 260 262 271 279 280 293 0
16 137 159 179 191 205 212 224 225 235 250 257 262 279 293 299 0
16 137 159 188 205 212 224 225 240 244 250 257 269 279 293 299 0
16 137 188 205 212 224 235 250 257 260 261 269 280 288 292 293 0
16 138 141 143 149 151 158 165 180 195 215 224 240 255 275 295 0
16 139 144 149 150 163 164 165 168 180 192 193 229 273 293 302 0
16 140 141 143 149 151 155 158 162 165 167 180 193 240 255 295 0
16 140 141 149 150 151 153 155 158 162 165 167 190 193 283 284 0
16 140 141 149 150 151 153 155 158 162 165 167 193 197 251 284 0
16 140 149 150 151 157 158 170 195 219 224 240 263 275 282 284 0
16 140 150 151 157 158 170 171 195 219 224 240 263 275 282 284 0
16 140 150 151 158 170 174 188 195 202 205 217 224 240 244 269 0
16 142 143 145 149 152 154 160 162 169 182 205 214 215 267 295 0
16 142 143 145 149 152 154 160 162 173 177 193 205 214 215 267 0
16 142 143 145 149 152 154 162 169 173 177 193 205 215 267 295 0
16 142 143 145 149 154 162 166 169 182 195 215 244 267 268 275 0
16 142 145 149 150 152 154 160 162 169 173 177 182 205 276 284 0
16 142 145 149 150 152 154 160 162 173 177 193 205 215 232 267 0
16 142 145 149 150 152 154 160 162 173 177 193 244 275 276 284 0
16 144 150 153 163 164 165 166 193 206 221 229 233 266 268 271 0
16 144 150 163 164 166 168 190 193 197 229 233 239 268 271 302 0
18 136 137 138 140 142 144 146 193 198 205 211 224 255 292 293 0
18 138 139 149 153 156 157 163 164 170 195 207 208 217 225 288 0
18 138 140 143 144 172 198 207 226 244 250 255 260 262 270 286 0
18 139 144 151 153 157 161 163 172 176 182 224 232 233 267 271 0
18 140 142 143 145 149 150 155 156 157 166 219 247 262 270 295 0
18 140 143 145 148 149 150 154 156 157 160 172 205 239 243 270 0
18 140 144 151 153 163 175 176 182 202 232 233 271 280 283 296 0
18 141 142 148 150 155 173 177 190 204 226 232 233 283 292 293 0
18 141 143 145 148 149 150 154 156 157 165 179 197 205 212 295 0
18 142 144 148 154 163 173 177 190 199 202 217 224 225 233 241 0
18 142 148 155 159 162 173 175 177 181 190 217 224 225 233 295 0
18 144 146 151 153 163 164 171 175 176 182 188 231 255 267 283 0
18 149 166 184 186 197 204 210 212 239 240 246 248 253 257 262 0
19 36 183 184 197 199 212 224 225 241 261 264 265 280 285 288 0
20 136 138 139 140 143 145 147 156 163 178 182 200 206 217 239 0
20 136 139 140 156 163 166 180 181 192 193 207 215 217 240 258 0
20 138 139 140 143 144 161 174 206 208 214 223 255 285 301 303 0
20 138 139 140 143 161 162 188 193 204 208 214 215 223 301 303 0
20 139 143 144 147 149 150 170 173 187 215 216 228 240 249 301 0
20 139 145 147 156 163 172 178 193 197 200 205 207 219 239 269 0
20 139 150 157 163 172 178 180 181 192 195 196 207 215 242 292 0
20 142 146 166 204 205 210 212 235 239 248 253 262 269 288 293 0
20 142 147 154 155 166 170 184 189 197 201 210 212 239 240 244 0
20 142 147 154 155 166 184 186 189 197 201 212 213 235 239 248 0
20 142 147 155 157 166 188 191 197 211 250 260 279 287 294 297 0
20 142 147 155 166 184 197 198 211 241 250 260 277 279 297 300 0
20 142 157 166 180 191 197 204 211 212 239 250 251 253 280 297 0
20 142 166 170 172 191 197 204 210 212 234 240 250 253 262 266 0
20 142 166 170 172 191 197 204 210 212 234 240 250 253 262 268 0
21 62 142 143 144 148 150 151 153 154 195 206 232 265 271 283 0
21 80 136 138 139 141 144 149 150 171 181 199 207 218 255 284 0
21 80 142 144 148 154 159 166 169 195 208 232 233 267 271 283 0
21 84 136 138 139 143 146 151 192 203 242 255 258 267 271 293 0
21 84 136 141 142 149 151 171 181 195 196 197 224 235 269 276 0
21 84 140 143 151 155 165 171 174 203 207 208 216 242 271 300 0
21 102 170 172 173 188 189 191 209 213 235 237 239 247 262 300 0
21 136 138 139 140 141 148 171 199 207 218 221 255 270 290 300 0
21 136 138 139 141 145 148 153 155 188 199 207 214 218 221 255 0
21 136 138 139 141 146 148 175 199 207 221 255 257 258 276 301 0
21 136 138 139 141 148 158 161 171 191 207 216 218 221 255 301 0
21 136 140 143 144 151 171 184 197 202 203 207 216 242 267 277 0
21 136 142 143 144 145 151 171 184 197 203 207 216 224 286 293 0
21 136 143 144 153 170 172 188 209 212 221 240 277 278 288 294 0
21 136 144 153 162 170 172 188 199 209 212 221 248 277 278 294 0
21 136 153 170 172 188 191 212 221 234 240 247 253 262 271 300 0
21 138 139 141 143 146 148 168 188 199 202 221 242 255 275 284 0
21 138 139 141 144 145 146 150 155 161 171 191 207 221 255 273 0
21 138 139 141 144 145 146 150 158 161 163 191 202 207 221 229 0
21 138 139 141 144 146 150 155 161 163 171 191 202 207 215 221 0
21 138 139 141 144 148 155 161 191 207 208 218 221 255 284 301 0
21 138 139 141 144 150 155 161 163 171 191 202 207 215 218 221 0
21 138 139 141 144 150 155 161 163 191 202 207 208 215 218 221 0
21 138 139 141 144 150 199 202 207 208 218 221 224 276 300 301 0
21 138 139 141 145 150 155 161 188 191 202 207 218 221 270 284 0
21 138 139 141 145 150 171 188 199 202 207 218 221 276 300 301 0
21 138 139 141 145 150 188 199 202 207 216 218 221 270 284 301 0
21 138 139 141 150 155 161 173 175 188 191 202 207 218 221 273 0
21 138 139 141 150 155 161 175 188 191 202 205 207 218 221 273 0
21 138 139 141 150 158 161 171 191 202 207 218 221 224 259 284 0
21 138 139 141 150 158 161 171 191 202 207 218 221 259 267 300 0
21 138 139 141 150 171 173 199 207 208 216 218 221 255 259 274 0
21 139 154 162 170 172 188 209 213 237 239 240 247 253 277 278 0
21 139 170 172 181 185 188 212 213 234 237 240 242 247 253 262 0
21 144 154 170 172 176 188 208 209 221 234 235 247 253 266 300 0
21 149 170 172 173 188 191 212 213 234 235 247 253 262 263 300 0
21 153 170 172 173 188 189 197 199 201 212 213 235 239 262 300 0
21 154 170 172 185 188 209 213 239 240 247 253 277 278 299 300 0
21 154 170 172 188 208 212 221 235 239 241 247 253 266 271 300 0
21 154 170 172 188 209 213 227 235 239 247 253 277 278 288 300 0
21 159 170 172 188 191 209 212 213 222 224 235 277 283 299 300 0
21 159 170 172 188 204 209 212 213 223 240 277 283 289 299 300 0
21 160 170 172 176 188 209 213 239 240 247 262 277 278 299 300 0
21 162 164 170 172 176 188 209 212 213 227 235 241 277 289 300 0
21 162 164 170 172 188 189 201 209 213 235 239 247 262 277 300 0
21 162 164 170 172 188 209 213 220 234 235 247 253 262 268 300 0
21 162 170 172 179 188 209 213 239 240 247 253 262 277 278 300 0
21 162 170 172 188 209 213 223 239 240 247 253 262 277 278 300 0
21 162 170 172 188 209 213 239 240 241 247 253 262 277 278 300 0
21 164 170 172 176 188 209 212 213 224 227 240 277 299 300 303 0
21 164 170 172 188 189 197 201 209 213 235 239 262 277 294 299 0
21 164 170 172 188 191 209 212 213 224 227 240 250 277 299 300 0
21 166 170 172 188 189 200 201 209 213 235 239 247 262 268 300 0
21 170 172 188 189 197 199 201 212 213 235 239 241 250 262 300 0
21 170 172 188 209 213 234 235 241 247 253 262 277 283 288 300 0
22 100 136 140 144 147 159 163 174 200 205 208 215 271 286 295 0
22 136 138 139 144 151 155 158 163 174 178 226 240 272 288 295 0
22 136 139 144 151 155 158 159 163 174 178 226 245 287 288 295 0
22 138 139 144 151 157 158 160 163 174 178 217 219 226 245 288 0
22 139 144 151 155 157 158 162 163 174 178 217 226 240 272 299 0
22 139 144 151 157 158 159 160 163 174 178 226 238 240 288 295 0
22 146 147 149 153 159 166 168 173 179 181 217 219 240 268 287 0
23 136 145 146 152 157 177 179 181 185 188 192 197 204 207 227 0
23 138 143 146 151 165 171 174 183 203 242 255 267 271 279 293 0
23 139 140 143 146 151 153 155 165 171 183 202 203 207 216 242 0
23 139 142 143 146 151 153 165 171 181 183 203 207 216 270 297 0
23 139 142 143 146 151 153 165 171 183 203 207 216 251 270 297 0
23 140 142 143 146 151 165 171 174 181 183 200 203 207 271 279 0
23 143 146 151 165 171 174 183 202 203 207 215 242 267 271 293 0
23 143 146 151 165 171 174 183 202 203 207 242 267 271 279 293 0
23 145 149 150 153 163 168 174 184 192 193 216 217 235 248 279 0
23 145 149 151 153 155 165 170 184 192 200 216 217 235 239 248 0
36 132 138 140 142 143 145 147 148 149 150 153 156 168 180 235 0
36 136 144 154 156 197 209 221 235 239 253 266 277 278 299 300 0
36 136 159 162 209 221 239 240 247 253 262 266 271 277 283 300 0
36 138 140 145 159 183 191 205 212 218 235 261 262 264 265 280 0
36 140 154 186 191 205 235 250 251 260 261 269 278 280 288 298 0
36 140 160 161 183 191 196 212 221 230 251 264 280 283 288 298 0
36 143 162 163 164 172 188 191 201 209 212 213 253 264 277 300 0
36 144 154 156 208 209 221 239 240 247 253 266 277 278 299 300 0
36 144 157 159 164 172 189 199 201 205 209 212 213 220 299 300 0
36 145 158 167 182 191 205 240 242 251 261 278 280 284 288 298 0
36 145 159 191 205 212 218 235 250 251 261 262 280 281 292 293 0
36 145 160 191 196 204 205 206 211 225 230 240 251 278 298 299 0
36 153 154 159 166 173 185 212 213 219 239 242 247 248 253 300 0
36 153 154 166 167 176 190 201 205 212 213 234 242 244 247 253 0
36 153 159 179 209 213 223 234 247 248 253 262 277 283 299 300 0
36 153 160 164 176 209 213 223 234 244 247 260 262 277 299 300 0
36 153 204 209 213 219 234 244 247 253 260 262 277 278 299 300 0
36 154 156 166 167 189 201 204 205 212 213 234 235 241 247 266 0
36 159 160 184 198 199 205 206 225 241 251 269 283 285 298 299 0
36 159 167 191 212 221 224 225 250 251 261 273 280 283 285 288 0
36 159 183 191 205 212 218 235 261 262 264 265 269 280 288 292 0
36 159 184 198 199 206 212 224 225 241 251 261 273 283 285 288 0
36 159 185 189 197 201 205 208 209 221 239 240 242 262 266 271 0
37 136 140 157 178 206 212 219 225 235 250 257 259 260 262 279 0
37 136 154 159 160 170 212 218 240 250 259 265 279 280 283 302 0
37 137 154 166 172 183 212 240 244 245 259 260 261 264 279 299 0
37 139 142 160 177 189 191 197 201 204 206 213 225 239 265 276 0
37 140 145 159 172 173 183 188 200 207 235 248 262 270 280 288 0
37 148 163 188 191 197 199 206 212 225 239 251 261 278 282 299 0
37 149 160 162 164 172 178 206 212 223 225 227 237 244 251 259 0
37 153 159 170 172 173 183 200 207 259 262 269 270 280 286 292 0
37 153 159 170 200 206 207 225 250 257 259 262 270 279 286 288 0
37 159 164 172 185 188 212 240 248 250 251 261 262 279 280 299 0
37 159 176 197 204 208 221 250 254 264 266 271 277 279 296 300 0
37 160 172 177 191 207 213 224 225 239 251 253 256 270 280 294 0
37 160 178 191 199 200 207 223 227 251 259 270 280 283 286 299 0
38 139 160 174 177 188 198 204 210 212 213 222 251 277 278 288 0
38 140 145 168 180 191 211 237 239 250 260 272 274 277 293 300 0
38 140 162 170 173 183 191 211 228 239 260 263 265 277 279 300 0
38 144 149 169 170 172 186 187 189 212 213 231 234 240 253 262 0
38 144 154 155 157 168 189 200 201 207 213 235 248 286 288 293 0
38 154 157 170 172 200 207 213 234 240 253 270 277 282 286 288 0
38 160 174 183 191 200 206 211 225 239 253 264 265 284 297 298 0
38 160 184 189 192 198 199 201 211 239 241 250 265 280 292 293 0
38 163 170 200 207 210 220 240 257 268 270 273 278 286 299 300 0
38 184 189 198 199 201 206 211 225 234 237 241 261 265 297 298 0
39 120 139 159 161 163 180 183 220 257 258 264 270 283 286 302 0
39 137 145 146 149 151 152 180 183 189 198 206 222 224 225 268 0
39 137 145 146 149 151 152 181 183 198 206 224 225 243 268 272 0
39 145 146 149 151 152 161 166 180 183 190 217 219 243 268 302 0
41 137 138 140 146 162 172 174 177 178 192 214 215 217 292 301 0
43 136 140 144 145 162 177 188 192 205 217 225 226 275 283 288 0
43 139 146 161 163 169 180 181 192 195 201 211 220 242 264 283 0
44 136 141 158 160 168 191 192 204 214 215 223 251 272 280 287 0
44 136 143 148 149 155 166 167 169 173 174 186 188 190 201 246 0
44 139 142 145 150 160 165 172 174 178 184 225 264 287 292 301 0
44 139 142 146 160 161 163 164 168 183 187 202 220 278 285 288 0
44 139 142 152 161 163 173 182 183 195 206 217 220 242 276 283 0
44 139 142 160 161 163 164 183 187 197 200 202 220 278 285 288 0
44 139 142 161 163 164 172 173 183 195 197 220 224 276 278 285 0
44 139 142 161 163 183 187 190 197 206 214 220 224 257 276 283 0
44 139 144 145 147 149 150 151 153 154 164 182 197 239 274 302 0
44 143 148 150 152 159 178 191 195 205 220 254 266 268 293 294 0
44 143 152 155 158 159 166 188 195 224 231 256 266 268 277 294 0
44 166 168 188 201 206 212 224 225 227 251 256 261 268 269 285 0
44 166 185 201 204 205 212 221 234 240 242 244 247 262 268 283 0
45 138 144 149 156 160 161 168 169 191 197 202 248 262 283 288 0
45 139 156 163 167 189 197 201 205 209 239 277 282 287 289 299 0
45 141 142 143 144 158 160 161 162 175 202 207 209 263 276 283 0
45 142 154 159 166 193 197 209 218 239 253 268 277 287 294 299 0
45 142 156 157 158 188 201 204 205 209 212 215 220 288 289 300 0
45 159 166 197 209 218 223 239 245 253 262 268 277 283 299 300 0
45 188 189 201 205 209 212 220 223 227 268 288 289 292 293 300 0
46 136 137 144 145 149 151 152 183 184 196 198 243 255 257 286 0
46 136 138 143 144 150 155 157 163 167 171 174 199 206 219 220 0
46 136 140 143 144 150 158 161 164 166 167 170 218 229 268 276 0
46 136 145 151 153 155 156 163 165 200 207 239 244 254 285 288 0
46 137 145 146 149 151 152 161 180 183 189 190 211 257 272 285 0
46 137 145 146 149 151 152 180 183 189 193 196 198 222 229 249 0
46 137 145 149 150 151 152 166 183 189 190 198 224 225 268 286 0
46 137 145 149 151 152 154 172 180 183 190 198 243 245 268 286 0
46 137 145 149 151 152 154 180 183 189 190 198 245 270 272 286 0
46 137 145 149 151 152 157 172 180 183 189 190 198 268 270 286 0
46 138 144 150 153 157 158 163 167 180 199 202 206 230 270 296 0
46 138 144 150 157 158 163 165 182 188 199 204 215 229 270 296 0
46 139 145 151 153 155 162 165 166 200 239 260 266 279 285 295 0
46 143 160 182 187 189 201 204 206 207 239 251 254 257 282 300 0
46 145 146 149 151 152 172 180 183 189 190 198 217 245 268 270 0
46 145 149 151 152 154 161 165 170 183 196 240 245 258 270 286 0
46 145 149 151 152 161 165 170 172 180 183 190 202 240 258 286 0
46 145 150 151 153 155 156 162 166 181 200 218 239 279 285 295 0
46 154 160 164 170 173 178 188 197 199 239 249 250 257 265 299 0
46 160 178 188 199 200 204 207 218 223 257 265 270 283 286 299 0
47 136 137 138 140 142 143 144 145 146 151 171 175 176 184 203 0
47 136 137 140 142 143 144 145 146 151 171 175 176 184 203 207 0
47 138 140 147 164 167 187 189 191 204 205 216 224 225 239 301 0
47 138 143 147 157 158 163 167 187 189 191 216 221 239 256 298 0
47 138 143 147 157 163 164 167 187 191 216 234 253 256 268 298 0
47 138 147 157 163 164 167 168 191 195 205 216 242 253 256 298 0
47 141 154 166 191 192 194 197 198 204 250 260 264 268 277 279 0
47 145 159 183 204 212 224 242 249 254 262 264 277 279 281 289 0
47 145 159 204 205 207 222 224 246 250 254 270 277 279 281 296 0
47 146 153 156 159 172 175 188 189 191 209 212 223 277 278 299 0
47 147 154 155 156 166 172 176 222 250 260 268 269 277 287 292 0
47 149 153 160 162 165 176 209 227 244 247 260 262 277 278 303 0
47 156 197 204 207 222 224 229 239 246 250 254 260 277 279 296 0
47 159 172 205 206 225 250 254 256 270 277 279 281 285 296 300 0
48 136 139 149 153 154 156 158 164 173 182 192 208 217 228 240 0
48 137 139 144 146 152 155 158 159 172 177 194 208 221 248 295 0
48 139 144 146 152 154 159 166 172 176 177 208 217 221 239 244 0
48 139 144 146 152 155 157 158 159 172 177 184 204 208 221 295 0
48 139 144 149 157 158 164 173 192 208 217 237 240 262 288 302 0
48 139 149 153 158 160 162 164 182 188 208 217 235 237 262 302 0
48 139 149 155 157 164 173 188 205 208 217 225 237 240 262 302 0
48 154 162 163 178 188 191 193 204 218 223 227 251 261 280 283 0
49 159 166 172 183 204 208 253 262 264 268 272 277 289 296 300 0
49 183 191 206 215 217 222 225 254 260 264 273 277 281 296 300 0
50 136 137 139 141 142 143 145 160 173 214 224 241 246 258 262 0
50 136 137 141 142 143 144 145 160 172 173 205 224 241 246 260 0
50 136 160 170 179 198 210 220 222 237 240 283 288 294 296 300 0
50 140 159 162 170 186 197 205 208 211 238 250 265 269 277 300 0
50 160 166 170 183 188 204 210 222 239 240 257 268 283 299 300 0
51 136 140 154 169 173 183 186 188 240 248 257 260 263 269 272 0
51 136 142 143 144 147 151 156 159 160 166 170 171 197 240 277 0
51 136 143 144 145 149 152 156 160 165 166 180 240 258 259 303 0
51 136 144 154 166 191 235 250 255 257 260 263 269 280 288 292 0
51 142 143 144 148 151 152 159 160 170 171 172 208 240 261 268 0
51 149 186 187 188 189 200 201 210 211 235 239 246 248 269 280 0
51 150 153 159 166 172 173 179 183 188 204 248 262 269 270 292 0
51 153 159 160 166 172 173 178 183 188 208 248 262 269 280 292 0
52 136 138 139 140 143 144 147 150 151 155 164 208 219 298 303 0
52 136 138 139 140 144 147 150 151 155 164 202 208 219 298 303 0
52 136 138 139 144 147 151 164 165 172 202 204 208 219 224 303 0
52 137 146 147 148 150 154 155 166 167 170 185 197 207 218 265 0
52 138 139 140 143 144 147 150 151 157 164 204 208 224 279 303 0
52 138 139 140 143 147 151 157 164 165 204 208 258 271 298 303 0
52 138 139 143 147 150 151 157 164 172 204 208 224 258 271 296 0
52 138 139 144 145 147 150 151 157 164 172 204 208 224 255 303 0
52 138 140 145 146 152 175 189 193 195 197 201 215 239 245 301 0
52 138 140 154 165 176 205 240 244 260 269 278 281 288 297 298 0
52 140 145 148 149 161 167 173 183 205 212 235 260 262 281 293 0
52 140 159 161 198 199 200 213 220 239 241 268 269 293 300 303 0
52 140 164 198 200 210 211 239 264 269 272 277 287 289 293 294 0
52 141 145 149 154 163 167 205 212 231 235 236 260 279 283 296 0
53 138 143 152 154 160 163 166 172 213 240 248 253 255 273 299 0
53 152 156 166 191 197 200 204 213 250 260 277 279 285 297 300 0
54 137 145 148 150 162 163 173 174 178 180 194 215 224 296 299 0
54 138 154 159 204 205 217 224 225 240 244 250 269 279 282 285 0
54 154 159 167 172 205 212 224 234 241 247 253 264 266 269 287 0
54 154 166 170 177 186 216 236 250 260 263 268 274 279 285 298 0
55 140 162 184 206 211 220 225 234 237 240 248 253 261 268 298 0
55 166 205 206 224 225 230 240 244 261 268 269 273 283 285 288 0
55 183 184 198 199 205 209 211 247 269 273 277 280 283 298 299 0
56 69 140 144 145 177 188 190 200 205 223 226 280 293 295 301 0
56 85 142 143 145 149 154 155 160 162 177 193 232 244 273 275 0
56 136 139 144 145 153 156 161 165 184 195 198 204 205 215 235 0
56 136 139 144 145 155 161 165 170 184 208 235 243 249 268 280 0
56 136 139 155 156 157 165 167 168 171 243 244 255 266 280 291 0
56 136 144 145 156 157 165 204 219 224 243 244 248 255 276 280 0
56 136 144 145 156 161 165 198 204 205 225 243 244 248 255 285 0
56 136 144 153 154 161 165 197 204 208 235 239 241 255 268 280 0
56 136 145 150 155 156 157 165 195 199 205 243 244 248 279 280 0
56 136 153 155 156 165 166 191 194 197 235 239 255 268 274 278 0
56 137 142 143 147 148 150 151 153 154 160 163 166 176 267 268 0
56 137 142 143 147 148 150 151 153 159 160 163 176 181 234 288 0
56 138 142 147 148 150 151 153 160 163 169 176 177 264 280 288 0
56 139 140 144 153 155 158 165 169 171 173 182 183 188 283 295 0
56 139 140 144 153 159 163 165 169 171 173 178 182 188 199 283 0
56 139 144 145 153 158 159 163 165 169 171 173 178 182 188 283 0
56 142 143 147 148 150 151 153 154 160 163 173 176 177 180 288 0
56 142 143 147 148 150 151 153 154 160 163 173 176 177 181 288 0
56 142 143 147 148 150 151 153 158 160 161 163 176 232 288 295 0
56 142 143 148 150 151 153 158 160 161 163 173 176 283 285 288 0
56 142 143 148 150 151 153 158 160 161 163 176 195 208 232 288 0
56 142 143 148 150 151 153 158 160 163 164 176 195 276 296 302 0
56 142 145 147 148 150 151 153 160 161 163 169 176 233 274 288 0
56 142 145 147 148 150 151 153 160 163 169 176 230 233 274 288 0
56 142 147 148 150 151 153 154 160 161 163 169 173 176 177 288 0
56 142 147 148 150 151 153 154 160 163 169 173 176 177 267 294 0
56 142 147 148 150 151 153 160 163 168 169 176 230 233 247 288 0
56 142 148 150 151 153 158 160 163 168 169 173 176 195 288 296 0
56 142 148 150 151 153 160 163 164 169 173 176 199 288 296 302 0
58 136 138 141 146 149 151 163 164 168 180 181 202 203 235 268 0
58 136 138 141 146 149 151 164 168 171 179 182 207 232 235 268 0
58 136 138 141 146 158 164 168 175 202 203 233 235 238 268 276 0
58 136 138 141 146 168 175 179 202 203 218 235 238 268 290 296 0
58 136 138 142 144 146 156 157 160 163 171 180 255 276 277 284 0
58 136 140 142 146 153 156 157 162 163 171 190 233 245 277 288 0
58 136 140 146 147 149 156 157 162 163 171 175 180 220 224 225 0
58 136 141 146 148 151 157 164 166 168 179 202 203 218 238 244 0
58 136 141 146 149 151 157 164 168 171 181 202 218 226 233 235 0
58 136 141 146 149 151 164 166 168 171 179 207 218 231 235 268 0
58 136 141 146 149 151 164 168 180 194 202 203 218 232 235 268 0
58 136 141 146 151 157 164 166 168 180 181 202 203 218 235 238 0
58 136 146 147 149 154 156 157 161 175 180 190 208 220 236 303 0
58 136 146 147 153 156 157 160 161 171 173 178 226 233 245 277 0
58 136 146 147 156 157 163 171 182 188 190 202 215 233 238 267 0
58 139 144 145 151 155 156 158 163 174 178 217 239 240 283 288 0
58 139 144 151 155 158 161 162 165 233 240 265 278 291 295 299 0
58 144 149 151 158 159 160 161 163 173 174 194 217 278 284 288 0
58 144 151 155 158 161 174 182 197 239 240 242 287 288 290 295 0
60 136 138 143 150 153 155 163 165 168 169 197 199 204 217 288 0
60 136 138 144 155 161 165 168 169 172 184 197 240 263 279 289 0
60 136 138 153 155 161 165 168 169 173 204 234 246 258 261 268 0
60 136 140 146 152 154 156 157 164 190 208 214 224 264 281 287 0
60 136 140 147 152 154 157 164 177 183 188 206 208 214 264 302 0
60 136 141 145 146 152 153 156 157 177 179 181 185 188 202 262 0
60 136 141 145 146 152 153 156 157 179 181 188 194 202 262 281 0
60 136 141 145 146 152 153 156 177 179 181 185 188 207 262 272 0
60 136 144 155 158 161 162 165 168 169 172 184 188 234 240 284 0
60 136 145 146 148 156 166 175 189 193 209 219 226 230 241 286 0
60 136 150 153 155 161 162 165 168 169 194 199 202 204 234 246 0
60 136 153 155 161 162 165 169 187 188 194 200 220 239 246 255 0
60 136 153 155 165 169 170 191 200 205 214 239 246 255 276 282 0
60 136 155 161 165 168 169 184 194 214 220 234 240 258 268 297 0
60 136 155 165 169 173 191 194 200 214 240 246 247 248 255 292 0
60 138 139 140 142 143 154 157 170 171 180 205 211 215 240 301 0
60 138 139 140 143 154 157 170 171 180 195 205 215 219 240 301 0
60 138 140 142 143 144 154 157 158 171 180 195 246 279 295 301 0
60 138 140 142 143 145 146 157 160 166 168 174 220 238 255 303 0
60 138 140 142 143 154 157 163 180 208 211 215 258 271 279 295 0
60 138 143 145 146 149 166 168 185 188 198 202 220 270 292 293 0
60 138 143 145 155 157 160 168 184 185 218 242 255 270 277 292 0
60 140 143 145 149 168 180 185 188 193 198 202 218 220 249 254 0
60 140 143 145 157 161 168 185 202 217 218 224 225 236 239 277 0
60 140 147 152 154 157 159 164 177 182 183 206 208 214 228 264 0
60 142 143 145 160 168 185 198 202 212 217 218 238 268 277 292 0
60 143 145 166 168 172 174 188 198 202 218 220 238 262 270 292 0
62 136 138 143 144 150 160 173 174 178 188 190 204 214 276 293 0
62 138 139 141 145 150 160 162 172 178 181 188 190 238 264 276 0
62 138 139 143 144 160 173 178 181 190 202 214 216 225 241 267 0
62 138 139 143 155 160 166 172 178 181 188 216 225 241 264 267 0
62 138 141 142 143 155 160 162 173 174 177 224 238 241 255 276 0
62 138 143 144 152 160 162 172 174 178 190 197 241 255 270 299 0
62 138 144 150 160 172 174 178 181 188 190 204 255 264 276 293 0
62 138 144 150 160 174 178 181 188 190 202 204 225 264 285 293 0
62 141 142 143 144 148 150 151 153 195 199 206 208 232 271 283 0
63 136 137 141 144 145 146 150 155 170 177 202 203 207 221 267 0
63 136 138 141 146 147 155 157 170 175 203 207 221 255 267 271 0
63 136 144 145 147 153 156 157 165 193 204 206 219 235 241 301 0
63 136 144 145 148 154 155 171 182 190 199 204 206 245 255 274 0
64 136 140 145 146 149 150 151 152 155 162 172 219 258 272 286 0
64 136 141 145 146 149 151 152 172 178 191 218 219 255 272 288 0
64 136 144 145 146 149 150 151 152 155 157 162 172 178 219 286 0
64 136 144 145 146 151 152 155 157 172 178 218 219 241 245 288 0
64 136 145 146 149 150 151 152 157 172 178 199 202 218 219 288 0
64 136 145 146 149 150 151 152 172 178 199 218 219 255 272 288 0
64 137 139 142 144 145 149 151 155 174 181 184 198 199 217 295 0
64 137 139 142 144 145 149 155 174 181 182 184 199 217 273 295 0
64 137 139 142 144 145 151 155 158 163 165 170 181 217 238 291 0
64 137 139 142 144 145 155 174 181 182 184 198 199 217 238 295 0
64 137 139 143 144 145 150 155 158 165 174 182 205 217 238 295 0
64 137 139 143 144 145 151 155 158 163 174 181 205 217 238 258 0
64 137 139 143 144 145 151 155 174 181 184 199 205 217 238 295 0
64 139 140 142 144 146 155 158 159 163 174 192 217 226 261 286 0
64 139 140 142 144 146 155 158 159 163 174 192 217 226 284 286 0
64 139 140 142 144 146 155 159 163 170 192 199 212 217 226 284 0
64 139 140 142 144 146 155 159 163 174 192 199 212 217 226 284 0
64 139 140 142 144 146 155 159 170 192 199 212 217 226 273 295 0
64 139 140 142 144 146 155 159 170 192 199 215 217 226 286 295 0
64 139 140 142 144 146 155 159 170 192 199 217 226 284 286 295 0
64 139 140 142 144 146 155 163 170 172 192 199 212 217 226 284 0
64 139 140 142 144 146 155 170 172 192 199 217 226 284 286 295 0
64 139 140 142 144 146 155 172 174 192 199 217 226 284 286 295 0
64 139 142 144 145 149 155 158 174 181 182 184 217 240 276 295 0
64 139 142 144 145 155 158 169 174 181 182 184 198 217 238 295 0
64 139 142 144 146 155 159 163 164 170 192 199 215 217 226 286 0
64 139 142 144 146 155 159 163 164 174 192 199 215 217 226 261 0
64 139 143 144 145 155 158 163 170 181 182 184 205 217 238 291 0
65 137 138 140 141 147 150 159 172 173 175 202 205 275 280 291 0
65 138 140 147 155 159 166 170 176 233 238 240 258 264 291 302 0
66 136 137 143 149 150 153 155 167 168 175 182 207 239 246 288 0
66 136 138 140 141 150 160 162 165 167 174 177 190 202 229 296 0
66 136 138 140 149 150 160 167 174 177 180 229 255 285 288 303 0
66 136 139 144 167 168 173 174 177 180 188 196 250 258 284 301 0
66 138 140 150 152 160 162 167 174 177 205 208 226 229 255 303 0
66 138 140 150 152 160 162 174 177 188 190 205 226 229 255 303 0
67 136 146 149 156 157 160 180 190 208 215 224 225 243 244 303 0
67 139 144 145 151 155 156 158 163 174 178 226 239 277 288 295 0
67 139 144 151 155 158 162 163 174 178 226 245 268 272 295 299 0
67 140 143 145 146 148 149 156 197 200 212 236 239 262 274 292 0
67 140 143 145 146 148 149 156 212 214 217 218 225 247 262 288 0
67 143 145 146 148 150 167 172 174 205 208 212 233 239 262 292 0
68 136 137 139 143 144 145 151 181 184 197 203 207 242 267 286 0
68 136 138 155 161 165 169 192 194 200 220 239 240 248 258 263 0
68 136 144 153 155 161 165 168 169 172 184 192 194 246 247 297 0
68 136 153 155 161 165 168 169 170 188 191 192 194 246 247 255 0
68 136 155 161 162 165 168 188 192 194 204 235 239 240 255 270 0
68 136 155 161 165 169 170 184 192 194 197 200 214 240 246 255 0
70 136 137 140 146 155 157 159 163 164 171 175 181 270 287 302 0
70 136 137 140 146 155 159 162 169 171 199 204 228 236 239 287 0
70 136 137 140 146 155 159 164 169 171 172 175 188 228 239 287 0
71 136 139 142 153 155 165 169 188 200 205 247 248 258 270 276 0
71 136 144 155 159 171 197 199 200 212 219 239 255 261 284 295 0
71 136 144 155 159 185 197 199 200 212 219 239 255 261 284 295 0
71 136 144 155 171 185 197 199 200 212 219 239 255 261 284 295 0
71 136 147 155 158 165 169 170 195 197 200 214 240 244 255 284 0
71 136 155 158 165 169 194 200 205 220 240 247 248 255 263 284 0
71 138 139 140 146 150 161 162 170 174 184 191 202 266 273 295 0
71 141 142 144 145 150 151 153 158 180 184 185 238 274 276 295 0
71 142 145 150 151 166 170 200 202 217 222 226 239 240 258 268 0
71 143 144 145 150 151 153 155 169 177 184 198 199 205 269 295 0
71 144 145 150 151 153 159 166 171 180 184 199 268 273 274 295 0
72 136 139 144 145 150 156 157 165 167 171 189 199 204 215 244 0
72 136 139 145 155 157 161 165 170 195 208 215 219 235 243 255 0
72 136 144 145 161 165 189 191 204 205 208 215 244 248 268 281 0
72 136 144 157 161 165 167 168 171 174 191 204 208 235 243 266 0
73 144 149 150 163 164 165 168 192 193 208 221 229 266 271 302 0
74 136 137 144 150 153 160 166 168 183 195 204 214 216 245 268 0
74 137 139 144 147 158 159 166 173 178 183 188 223 268 283 295 0
74 139 145 160 164 177 178 198 204 206 215 224 225 229 236 285 0
74 140 144 150 158 161 164 167 170 213 218 257 270 272 288 293 0
74 140 159 161 163 174 184 191 209 221 230 273 274 283 288 298 0
75 137 138 140 141 146 151 158 160 174 181 195 221 223 278 301 0
75 138 139 140 144 146 163 179 194 228 257 258 259 270 286 288 0
75 138 140 146 148 170 174 190 194 204 221 223 232 243 265 283 0
75 144 145 149 158 160 161 162 163 170 172 174 202 207 221 295 0
76 138 139 149 161 166 170 205 208 221 229 255 256 262 287 303 0
76 138 139 149 162 175 178 197 208 218 221 229 255 256 268 287 0
76 141 144 145 156 158 172 186 189 204 219 220 240 260 270 295 0
76 146 147 152 170 172 198 200 207 208 219 221 229 240 277 287 0
76 146 149 154 198 204 205 210 212 213 230 246 269 277 283 299 0
76 146 172 198 204 208 218 221 228 230 244 271 273 277 286 287 0
76 147 157 172 197 208 219 221 225 229 239 268 271 285 286 287 0
76 156 183 197 213 221 239 246 254 256 257 260 264 279 281 287 0
77 136 157 160 161 173 183 198 211 213 220 241 260 292 297 300 0
78 138 143 148 150 151 152 168 172 180 197 216 233 264 270 297 0
78 138 143 169 187 207 210 211 212 220 239 248 253 255 268 269 0
78 141 146 149 165 166 171 188 191 192 198 200 207 258 260 269 0
78 160 169 188 189 201 206 207 210 211 212 220 234 248 268 269 0
79 136 143 149 150 166 173 177 193 194 201 214 216 238 243 275 0
79 139 145 151 153 156 189 205 212 213 241 243 244 247 262 283 0
79 142 145 148 152 163 166 168 189 201 204 213 271 292 293 296 0
79 144 145 148 176 177 179 188 201 209 240 244 247 262 266 274 0
80 102 139 153 159 161 163 213 220 248 258 276 283 286 298 302 0
80 136 141 142 144 145 148 150 169 177 195 226 237 255 267 274 0
80 136 141 142 144 148 150 169 173 195 204 233 255 267 280 283 0
80 138 139 140 142 143 146 150 155 164 168 169 184 198 212 247 0
80 138 139 140 142 143 146 155 164 171 184 197 198 200 241 255 0
80 138 139 140 142 143 150 155 164 177 184 197 198 199 200 275 0
80 138 139 140 142 146 150 155 161 164 166 171 184 191 200 247 0
80 138 139 140 143 146 161 164 168 169 171 184 197 199 212 241 0
80 138 139 140 143 157 161 164 171 177 184 197 199 200 241 275 0
80 138 139 140 145 146 150 161 164 169 171 181 184 191 197 212 0
80 138 139 140 150 164 168 169 177 181 184 197 198 212 255 275 0
80 139 140 142 144 151 153 162 163 170 182 232 255 271 280 283 0
80 139 140 151 153 155 163 167 172 176 193 227 232 258 267 271 0
80 139 140 151 153 155 163 170 172 182 188 232 267 271 280 283 0
80 140 142 144 147 148 150 153 159 160 162 163 193 200 206 276 0
80 142 144 148 154 162 169 172 195 224 225 232 237 255 267 280 0
80 142 144 148 154 169 172 173 177 180 195 199 202 208 241 267 0
82 136 137 139 141 142 143 145 150 155 173 175 208 224 246 274 0
82 136 137 139 141 142 143 145 160 173 208 224 241 246 274 302 0
82 136 137 139 141 142 145 155 173 175 202 205 208 224 241 246 0
82 136 137 140 141 142 160 173 175 177 202 205 241 258 263 302 0
82 136 137 141 142 143 144 145 150 155 172 173 175 224 255 263 0
82 136 137 141 142 143 144 145 160 172 173 175 224 241 246 255 0
82 136 137 141 142 143 144 145 160 173 224 241 255 260 263 274 0
82 136 137 141 142 144 145 150 155 172 173 202 204 205 224 263 0
82 136 137 141 142 145 151 155 173 199 202 205 224 246 258 260 0
82 136 137 141 142 145 155 171 173 202 205 224 241 246 288 302 0
82 136 138 142 143 145 148 149 150 156 168 216 233 239 240 289 0
82 136 138 143 145 148 149 150 156 168 173 180 184 216 240 289 0
82 136 142 143 145 148 149 150 156 168 173 180 212 216 218 240 0
82 136 143 145 148 149 150 156 168 173 180 184 207 216 240 272 0
82 137 139 141 142 143 145 150 155 172 173 175 197 208 224 263 0
82 137 139 141 142 143 145 150 160 172 173 175 208 224 263 302 0
82 137 139 141 142 143 145 155 172 173 175 208 224 241 263 300 0
82 137 139 141 142 143 145 160 172 173 175 205 208 224 241 246 0
82 137 139 141 142 145 150 155 172 173 202 205 208 224 246 302 0
82 137 141 142 144 145 160 173 202 205 208 224 241 258 260 263 0
82 137 141 142 145 150 160 171 172 173 175 202 205 208 224 263 0
82 139 142 143 145 148 149 156 165 168 180 197 207 216 218 240 0
82 142 143 145 148 149 150 153 156 168 173 212 216 219 233 235 0
82 142 143 145 148 149 150 156 168 173 207 216 218 233 240 296 0
82 142 143 145 148 149 153 156 165 168 173 212 216 218 233 235 0
82 142 143 145 148 149 153 156 165 168 173 216 233 235 272 298 0
82 142 143 145 148 149 153 156 165 168 207 216 233 235 247 289 0
82 142 143 145 148 149 156 165 168 173 212 214 216 233 240 288 0
82 143 145 148 149 150 156 168 172 173 184 207 216 233 240 272 0
82 143 145 148 149 156 165 168 172 173 184 212 216 233 240 272 0
84 102 138 139 146 161 164 170 174 175 198 205 241 255 266 286 0
84 136 137 138 139 141 146 148 199 207 221 255 258 266 275 301 0
84 136 137 138 139 141 146 150 155 175 199 207 221 255 258 266 0
84 137 138 139 142 143 144 145 146 151 165 203 208 251 275 293 0
84 137 143 145 146 150 151 171 174 203 207 208 250 271 275 293 0
84 138 139 140 143 146 150 151 171 183 192 200 203 208 212 271 0
84 138 139 140 143 146 151 165 202 203 208 258 271 276 279 300 0
84 138 139 140 146 155 161 162 170 171 191 202 240 241 266 273 0
84 138 139 141 142 146 150 199 202 205 208 221 259 266 270 275 0
84 138 139 141 144 145 146 150 199 207 216 221 255 259 275 284 0
84 138 139 141 146 148 153 175 188 199 207 221 255 266 300 301 0
84 138 139 141 146 150 156 158 161 191 207 208 221 255 259 275 0
84 139 141 142 143 146 149 163 168 181 198 205 212 276 292 296 0
84 139 141 142 149 151 155 156 170 207 226 229 244 265 269 276 0
84 139 141 143 146 149 157 161 163 168 178 181 205 212 273 301 0
84 139 142 143 146 150 151 155 171 181 203 207 208 216 271 297 0
84 139 143 144 146 151 165 181 200 203 207 208 242 251 267 297 0
84 140 143 146 151 165 171 174 203 207 208 216 242 267 271 275 0
84 141 142 149 151 156 172 195 196 224 228 238 248 269 281 289 0
84 141 143 146 149 154 158 163 170 181 198 224 239 240 269 286 0
84 141 143 146 150 154 157 158 161 163 181 212 224 238 239 279 0
84 141 143 146 154 155 163 168 169 181 198 238 273 275 286 292 0
85 136 137 145 149 162 163 164 172 173 176 178 180 189 190 303 0
85 136 137 145 149 162 163 170 172 173 175 178 180 189 295 299 0
85 136 137 145 149 162 163 172 173 178 180 189 204 229 282 288 0
85 136 139 143 144 150 155 163 166 171 173 188 199 268 278 302 0
85 136 139 144 147 158 160 171 172 173 183 188 223 255 283 295 0
85 136 141 143 144 149 151 158 165 166 171 195 204 268 285 295 0
85 137 139 140 144 149 154 163 164 171 173 178 183 188 199 205 0
85 137 142 143 149 154 155 162 166 173 193 205 244 268 284 293 0
85 137 142 149 150 154 159 162 169 173 182 205 206 244 267 284 0
85 139 140 144 147 160 163 164 171 172 173 178 188 199 223 302 0
85 139 144 155 159 173 178 183 188 199 261 276 278 280 295 302 0
85 140 143 146 151 158 163 167 175 176 190 224 269 275 284 295 0
85 143 144 151 158 172 175 176 190 216 217 224 244 255 275 284 0
85 150 151 158 167 176 190 192 205 216 224 233 235 262 282 284 0
89 136 144 145 146 153 164 196 200 205 220 239 255 269 283 288 0
89 137 145 146 149 150 152 166 172 180 181 183 196 198 268 270 0
89 137 145 149 151 152 167 181 183 193 196 198 215 219 268 286 0
92 139 159 170 176 177 204 205 207 240 242 244 249 253 270 277 0
98 136 142 145 155 156 157 160 167 201 226 240 241 244 245 295 0
98 136 145 147 150 153 155 156 167 198 201 236 245 268 274 295 0
98 142 155 160 167 193 201 205 211 219 240 241 244 245 295 301 0
99 136 144 145 151 158 160 161 162 163 166 174 240 272 295 299 0
99 136 144 151 157 158 159 160 163 174 199 238 240 277 288 295 0
100 136 138 140 147 154 159 163 174 214 215 223 246 258 264 269 0
100 136 138 140 147 159 161 163 164 172 174 183 208 215 217 264 0
100 138 140 144 145 149 157 158 166 171 177 188 197 243 268 301 0
100 139 142 143 148 149 150 152 162 166 168 173 233 240 276 289 0
101 138 140 147 150 163 169 170 171 178 206 214 233 238 271 288 0
101 138 141 144 146 147 148 149 151 153 160 174 175 193 263 272 0
101 141 149 150 158 163 169 170 205 206 224 263 270 285 292 293 0
102 136 138 150 160 162 172 177 181 188 202 204 224 264 265 299 0
102 138 139 141 147 150 155 160 162 163 173 178 202 238 243 299 0
102 138 139 143 147 150 155 160 172 173 177 178 181 215 216 225 0
102 138 139 143 147 152 155 160 178 188 189 197 241 242 265 276 0
102 138 139 143 147 152 155 160 178 188 197 214 241 242 255 276 0
102 138 139 150 160 173 174 178 181 188 190 204 242 253 255 288 0
102 138 142 145 150 160 162 173 174 177 181 202 216 224 253 276 0
102 138 143 160 177 181 190 204 224 241 242 243 264 265 276 293 0
102 138 147 150 152 155 160 174 178 181 197 242 243 255 288 293 0
102 139 140 141 142 143 144 149 151 152 154 155 158 162 165 190 0
102 139 140 141 142 143 144 149 151 152 155 158 162 184 190 205 0
102 139 140 141 142 144 147 149 151 152 154 155 158 162 165 190 0
102 140 141 142 143 144 149 151 152 154 155 158 162 172 184 295 0
102 141 142 144 149 151 152 154 155 158 162 165 172 190 233 291 0
102 143 145 148 149 150 157 160 162 167 193 239 262 270 274 275 0
102 143 145 148 149 154 155 157 160 167 193 247 270 274 275 288 0
102 143 145 148 150 154 157 160 167 193 205 233 239 270 275 288 0
102 143 145 149 150 157 160 162 166 167 193 239 262 270 274 275 0
102 143 145 149 154 155 157 160 166 167 193 247 270 274 275 288 0
102 143 145 154 157 160 162 166 167 172 193 205 233 239 270 275 0
102 143 145 156 157 160 166 167 193 205 233 239 262 270 275 288 0
104 106 136 143 148 150 152 168 178 184 207 219 233 240 253 294 0
104 136 138 139 144 146 152 164 176 177 181 184 197 203 217 296 0
104 136 138 139 145 146 149 156 161 163 168 173 216 219 244 255 0
104 136 139 144 146 159 166 174 182 184 188 241 242 250 255 268 0
104 136 143 145 146 148 149 156 157 166 168 173 226 240 295 300 0
104 137 140 142 143 149 150 155 159 166 167 168 172 175 233 249 0
104 138 148 150 153 160 162 167 170 190 202 211 232 295 296 298 0
104 140 143 149 150 155 159 162 163 167 168 172 180 248 249 295 0
104 140 158 159 162 194 199 209 226 246 264 265 266 283 287 294 0
106 126 149 153 155 169 173 177 199 202 208 214 239 248 260 277 0
106 136 137 138 140 144 147 148 159 173 174 215 217 232 255 301 0
106 136 138 140 141 144 147 154 159 160 174 217 255 264 269 301 0
106 136 138 140 142 144 147 159 174 208 246 255 264 271 295 301 0
106 136 138 140 144 147 150 159 160 163 166 171 174 204 217 264 0
106 136 138 140 144 147 159 160 174 205 208 255 264 271 295 301 0
106 136 138 140 147 154 155 159 171 173 174 223 228 258 274 301 0
106 136 138 140 147 155 159 163 174 205 208 215 258 264 271 295 0
106 137 138 140 142 147 148 159 160 172 174 215 223 232 264 301 0
106 137 138 140 147 148 159 161 172 173 174 223 229 274 283 302 0
106 137 142 143 145 148 150 152 156 162 168 177 233 240 272 288 0
106 138 139 143 148 152 165 167 168 172 174 178 184 219 233 240 0
106 143 148 149 150 152 162 168 172 178 180 184 207 240 272 294 0
106 143 148 149 150 152 167 168 174 178 180 184 190 207 240 288 0
120 139 142 152 160 161 163 164 183 200 202 206 220 278 285 288 0
121 136 141 144 145 151 155 156 157 166 169 186 199 256 268 295 0
122 136 138 146 157 166 168 179 194 197 219 238 244 255 277 296 0
123 136 137 145 146 151 159 165 168 171 177 183 192 226 228 272 0
124 136 138 143 147 152 155 160 172 173 190 224 225 241 265 293 0
124 138 143 144 152 160 170 178 188 197 204 241 255 265 276 293 0
124 138 143 145 152 160 181 188 190 204 224 241 264 265 276 293 0
124 138 143 147 150 155 160 172 178 188 225 228 264 265 285 293 0
124 138 143 147 155 160 172 173 174 177 188 224 225 227 241 293 0
124 138 143 147 155 160 177 188 190 224 225 228 241 264 265 293 0
124 143 145 155 156 157 160 166 205 212 233 243 247 262 275 288 0
126 138 140 149 150 164 167 171 188 194 204 208 214 218 223 286 0
127 136 138 145 150 155 160 166 167 170 198 205 219 241 258 288 0
127 138 141 150 155 160 162 166 167 170 219 228 233 240 241 258 0
127 139 142 151 155 163 165 166 171 200 202 220 248 265 276 288 0
128 136 138 142 150 152 160 162 167 174 208 228 229 243 251 255 0
131 136 138 143 145 148 149 156 165 168 180 184 216 240 264 289 0
131 136 142 143 145 148 149 156 165 168 207 216 233 239 240 289 0
131 136 143 145 148 149 156 165 168 184 207 216 233 239 240 289 0
131 142 143 145 148 149 156 165 181 200 207 216 233 239 240 289 0
131 143 145 148 149 156 165 168 172 184 207 216 219 233 240 250 0
132 136 138 139 143 145 148 153 156 165 184 200 233 235 236 239 0
132 136 139 143 145 148 162 165 181 184 200 233 239 240 265 293 0
132 136 140 142 143 148 149 150 156 166 168 180 207 218 240 268 0
132 136 142 143 145 148 150 156 163 200 218 233 236 239 240 293 0
132 140 146 150 154 164 175 176 177 201 204 216 243 270 293 302 0
133 136 138 140 141 143 145 146 147 157 164 203 236 255 275 277 0
133 136 141 145 146 147 150 157 164 166 203 207 218 236 255 290 0
133 136 141 145 146 147 164 177 179 193 199 202 203 218 241 268 0
133 136 141 145 146 147 164 179 189 199 202 203 218 226 241 268 0
133 136 141 146 147 155 157 164 166 171 180 193 207 218 258 290 0
133 136 143 144 150 162 164 168 170 184 199 202 204 214 242 261 0
133 136 143 144 153 162 164 165 170 181 187 200 214 220 239 257 0
133 136 143 149 150 162 164 167 168 170 181 182 184 187 192 194 0
133 136 143 150 153 163 164 167 168 170 184 188 194 217 242 282 0
133 139 143 146 149 158 163 178 181 193 198 239 240 286 292 296 0
133 139 143 146 150 157 161 163 168 178 181 199 270 286 292 301 0
133 139 143 146 158 163 168 181 188 193 198 205 224 286 292 301 0
133 143 146 147 163 181 198 212 224 239 273 288 291 292 293 301 0
133 143 146 149 157 158 161 163 168 181 188 240 270 286 292 301 0
133 143 146 153 156 158 161 163 181 186 198 205 212 239 284 296 0
133 143 146 153 156 163 181 186 188 198 239 244 270 274 286 303 0
134 136 141 145 155 156 161 165 195 198 219 238 240 241 244 256 0
134 136 142 155 156 165 168 170 189 226 235 266 268 270 276 285 0
134 136 143 144 153 154 156 157 165 168 170 177 204 243 244 247 0
134 136 143 144 153 154 156 165 168 204 226 240 244 247 255 268 0
134 136 143 145 155 161 165 168 191 195 197 208 240 244 268 274 0
134 136 143 154 155 156 165 167 168 171 174 189 197 235 266 268 0
134 136 144 156 165 168 177 204 215 235 243 248 266 268 276 280 0
134 137 138 140 141 149 150 161 164 169 179 197 204 226 239 287 0
134 137 138 140 141 150 161 169 177 178 179 216 240 245 261 303 0
135 136 137 140 145 146 162 166 175 193 201 208 214 239 266 274 0
135 136 139 140 145 146 152 164 166 204 205 208 214 233 293 295 0
135 137 141 143 145 166 169 175 178 189 206 224 225 244 285 294 0
135 138 143 160 162 173 177 178 182 188 190 204 241 255 265 299 0
135 138 143 160 173 174 177 178 181 182 188 241 255 267 288 293 0
135 138 144 150 160 172 173 174 177 182 204 224 243 255 288 293 0
135 140 145 146 152 154 170 201 204 208 214 233 240 274 293 295 0
1 3 170 172 188 191 235 250 261 265 269 274 278 280 288 292 298 0
1 80 81 159 176 177 191 205 208 250 254 266 271 277 279 293 300 0
1 136 138 140 159 172 178 191 205 212 240 244 250 269 285 288 293 0
1 136 138 140 162 166 178 183 191 205 212 235 257 260 264 269 285 0
1 136 138 140 162 172 178 188 191 205 212 235 248 250 260 269 285 0
1 136 138 140 172 178 191 205 212 240 244 250 260 269 280 293 298 0
1 136 138 159 173 178 183 191 205 212 235 257 269 280 292 293 298 0
1 136 139 140 143 145 147 149 151 155 159 162 166 171 184 194 198 0
1 136 140 143 154 162 169 188 204 212 224 257 261 265 269 278 280 0
1 136 140 159 178 183 188 191 205 212 224 235 257 264 269 285 293 0
1 138 140 143 172 173 178 183 191 212 235 248 260 269 285 293 299 0
1 138 143 159 178 191 206 212 225 235 250 257 269 292 293 298 299 0
1 140 143 154 159 160 162 188 212 224 235 250 251 257 279 280 283 0
1 140 143 159 160 162 172 188 212 224 240 248 250 265 269 280 283 0
1 140 143 160 162 172 206 208 212 224 225 244 251 259 269 283 299 0
1 140 153 160 162 169 170 172 178 205 212 224 235 259 265 280 283 0
1 140 159 160 162 170 205 212 224 240 250 251 257 259 269 278 280 0
1 140 162 170 172 173 178 183 191 205 208 212 224 240 260 269 280 0
1 140 162 172 178 183 188 205 206 212 224 225 240 248 260 264 269 0
1 143 145 178 191 206 212 224 225 235 250 257 260 274 288 292 293 0
1 143 154 164 166 169 191 204 206 212 224 225 251 259 261 288 293 0
1 143 162 169 172 188 212 223 224 227 248 261 262 265 280 283 293 0
1 143 162 178 188 206 212 224 225 235 248 250 257 260 269 292 293 0
1 162 205 212 224 235 250 251 257 259 260 261 262 279 280 283 293 0
1 205 212 224 235 250 251 257 259 260 261 269 280 283 292 293 299 0
1 205 212 224 235 250 257 259 260 261 265 269 278 280 292 293 299 0
2 83 166 173 183 189 191 201 204 211 260 265 277 279 280 297 300 0
2 140 159 166 188 191 197 204 213 250 263 269 272 277 289 297 300 0
2 140 166 191 197 200 204 211 239 250 260 269 277 281 289 293 300 0
2 146 147 152 155 166 174 198 210 212 213 268 277 283 287 294 299 0
2 146 149 154 160 166 198 204 210 212 231 234 235 246 248 253 299 0
2 146 152 154 166 188 189 201 204 210 212 235 238 239 248 288 293 0
2 146 154 166 170 180 189 198 201 204 210 212 231 234 240 244 288 0
2 147 152 154 155 166 186 187 197 200 207 210 235 239 248 253 286 0
2 157 166 172 183 191 197 204 211 220 244 260 264 279 287 294 297 0
2 159 166 168 170 191 197 204 211 250 265 277 279 286 292 293 300 0
3 45 142 163 182 201 205 209 212 219 253 277 282 284 288 291 300 0
3 45 143 163 188 201 204 209 212 253 277 282 283 287 294 299 303 0
3 137 145 149 151 152 172 183 189 196 217 224 225 229 255 268 286 0
3 142 150 167 170 172 183 191 232 240 262 264 266 274 279 298 300 0
3 145 150 160 170 172 174 191 235 250 262 274 279 280 283 288 298 0
3 145 150 170 172 191 205 206 224 225 230 240 261 265 283 285 288 0
3 149 153 154 170 172 188 189 197 200 201 209 213 239 241 248 283 0
3 149 170 172 188 191 206 211 212 225 231 235 251 261 283 298 299 0
3 150 154 160 170 172 174 183 191 240 264 274 279 280 283 288 298 0
3 158 163 167 170 172 188 191 212 240 261 265 280 283 296 298 299 0
3 159 167 170 172 188 197 212 213 237 239 240 242 253 262 292 293 0
3 170 172 188 191 196 204 212 235 261 265 266 273 278 280 288 298 0
4 137 141 144 149 150 151 153 154 158 180 182 195 217 224 232 296 0
5 136 139 142 144 150 151 155 163 166 167 171 202 217 268 284 291 0
5 136 139 142 144 155 157 163 169 171 188 191 217 276 284 291 299 0
5 136 140 147 149 154 162 169 174 186 200 212 221 227 246 261 270 0
5 136 142 143 144 150 151 155 157 163 165 174 177 217 241 276 299 0
5 136 143 147 160 167 170 204 206 212 225 228 250 260 265 285 298 0
5 138 140 141 150 157 163 174 192 193 195 202 205 216 224 245 299 0
5 139 140 144 145 163 164 167 171 173 177 183 188 205 217 263 293 0
5 139 149 153 157 162 164 170 188 208 217 225 268 270 286 295 302 0
5 142 144 147 157 160 172 174 176 195 213 220 231 254 255 258 284 0
7 137 140 143 147 174 177 182 183 212 216 218 224 227 246 282 302 0
7 138 159 160 162 165 168 174 177 178 187 192 202 222 228 264 272 0
7 145 149 150 162 163 168 172 174 184 192 194 233 240 248 260 279 0
7 159 170 172 183 185 188 198 199 209 213 235 241 247 277 299 300 0
9 136 140 145 156 189 191 196 205 231 251 256 261 262 271 280 300 0
9 143 152 157 160 162 163 167 172 181 212 215 219 220 233 262 273 0
9 145 156 176 190 191 204 205 213 251 253 259 261 269 273 280 292 0
10 58 170 172 183 188 197 261 264 265 273 274 278 280 288 291 298 0
10 141 144 145 149 150 158 165 166 167 169 171 173 208 240 266 267 0
10 141 144 149 150 158 163 165 167 168 169 171 208 217 237 267 282 0
10 142 143 149 158 165 166 168 171 173 221 241 267 271 283 292 293 0
10 143 144 145 149 153 158 165 167 169 171 176 213 230 242 267 274 0
10 145 159 166 170 172 177 188 205 251 261 268 273 280 283 298 299 0
10 170 172 177 188 204 230 251 261 274 280 282 283 288 291 298 300 0
11 138 172 189 197 199 200 201 209 213 231 235 236 239 262 297 298 0
11 147 150 154 155 163 191 200 209 213 230 235 239 247 253 282 296 0
11 149 154 156 162 189 201 204 209 213 235 239 247 263 277 278 300 0
11 149 156 197 209 213 239 240 244 253 262 263 277 278 287 288 294 0
11 154 162 166 170 172 204 210 212 240 244 250 260 270 272 279 280 0
11 156 163 164 185 204 209 213 235 239 247 253 262 277 278 299 300 0
12 136 140 144 149 150 161 162 164 190 195 199 204 240 263 270 273 0
12 136 140 162 170 205 224 227 240 249 257 259 261 265 269 280 283 0
12 136 143 154 160 172 178 188 206 224 225 244 262 265 278 293 299 0
12 136 143 154 193 206 224 225 248 257 259 261 262 265 278 288 293 0
12 138 143 144 149 155 158 165 167 168 171 176 197 199 213 242 276 0
12 140 143 154 160 162 178 188 206 223 224 225 248 257 265 269 278 0
12 141 143 144 149 150 158 164 165 167 168 171 173 208 242 267 302 0
12 142 143 144 149 153 158 165 168 170 171 178 180 208 230 241 267 0
12 142 205 208 224 227 244 257 259 261 265 269 276 280 283 293 299 0
12 143 153 154 170 172 188 224 227 235 251 261 269 278 280 293 299 0
12 143 154 160 170 178 208 224 240 257 259 262 265 278 280 288 293 0
12 143 154 162 206 208 224 225 227 248 257 259 261 265 269 278 293 0
12 143 154 178 188 206 208 224 225 248 251 257 261 269 283 293 299 0
12 154 172 204 205 224 244 249 259 261 265 269 270 278 280 288 293 0
13 136 145 159 188 191 205 211 213 215 220 239 250 268 292 297 300 0
13 137 152 161 165 191 211 234 245 250 260 272 277 279 297 300 303 0
13 148 149 188 200 211 212 213 234 235 236 248 253 261 269 274 280 0
13 153 160 165 191 196 205 211 233 234 242 250 251 253 269 280 297 0
13 159 183 188 191 194 205 239 263 264 269 277 279 281 289 298 300 0
14 136 137 139 141 142 150 152 153 156 159 164 167 255 258 270 271 0
14 136 137 140 141 142 145 154 173 175 177 197 199 202 205 258 263 0
14 136 137 144 145 146 148 154 156 164 170 173 176 177 180 204 255 0
14 136 138 140 141 145 147 152 156 164 178 202 205 213 270 279 293 0
14 136 140 141 145 147 152 156 169 186 188 193 202 213 221 224 274 0
14 136 141 145 146 150 151 152 160 174 190 197 215 219 245 268 272 0
14 136 145 146 149 150 151 152 157 173 182 190 204 214 219 236 238 0
14 138 140 141 143 145 147 152 156 162 165 169 206 208 255 274 301 0
14 138 141 143 145 147 152 156 162 164 169 175 178 188 208 255 269 0
14 138 141 145 147 152 156 162 175 178 192 202 205 208 221 270 283 0
14 140 141 145 147 148 152 156 164 169 192 193 202 205 208 224 232 0
14 140 141 145 147 152 156 162 164 202 207 208 210 224 269 270 286 0
14 140 141 145 147 152 156 163 165 178 184 188 202 205 208 224 226 0
14 140 141 145 147 152 156 164 192 202 205 207 208 224 267 279 286 0
14 140 145 166 186 197 204 205 213 246 250 260 272 277 285 297 300 0
14 140 159 166 183 197 204 211 263 264 265 269 277 287 294 297 298 0
14 141 145 147 152 156 164 165 169 175 178 184 202 206 208 224 274 0
14 159 166 197 204 211 220 250 263 265 268 269 292 297 298 300 303 0
14 166 183 192 197 204 205 213 260 263 264 269 277 279 285 297 300 0
15 138 149 154 191 217 231 235 250 254 260 269 274 278 279 282 298 0
15 140 183 191 197 208 211 220 259 260 264 265 277 279 297 300 303 0
15 149 152 154 163 169 179 210 212 231 234 235 246 248 253 273 288 0
15 152 163 169 184 198 204 212 213 234 236 240 248 253 257 262 273 0
15 159 161 165 191 196 197 204 205 250 251 261 269 280 283 288 298 0
16 58 137 143 154 191 212 224 225 240 248 250 257 260 279 293 299 0
16 58 139 142 144 145 155 174 181 184 198 199 217 238 249 260 295 0
16 136 138 140 143 146 150 163 164 170 177 184 217 221 258 279 300 0
16 136 140 143 145 147 155 159 166 171 172 232 238 258 262 271 279 0
16 136 140 145 147 153 155 159 166 170 171 172 188 233 238 258 279 0
16 137 138 143 153 170 172 191 212 250 260 269 280 285 292 293 299 0
16 137 139 142 143 145 149 160 162 169 193 195 205 217 255 270 273 0
16 137 140 143 153 159 191 204 212 224 244 250 257 269 285 293 299 0
16 137 140 143 162 188 207 224 225 235 250 257 260 269 270 279 299 0
16 137 140 145 162 166 191 205 207 224 225 235 250 257 260 270 279 0
16 137 140 159 162 191 205 206 212 224 235 250 257 269 271 285 300 0
16 137 142 143 149 154 155 160 162 169 182 183 195 205 217 273 280 0
16 137 142 143 149 154 160 162 169 173 177 182 183 204 270 273 275 0
16 137 142 143 149 154 162 169 171 173 182 214 232 244 267 273 275 0
16 137 142 145 149 150 153 160 162 173 177 183 193 243 270 275 284 0
16 137 143 144 154 160 162 166 178 188 212 224 225 251 257 278 293 0
16 137 143 159 173 183 191 204 212 224 235 257 262 279 280 288 293 0
16 137 144 153 154 170 172 205 212 224 225 250 259 260 279 293 299 0
16 137 170 191 205 212 224 240 250 257 260 269 271 279 280 293 299 0
16 138 140 143 144 146 164 170 173 184 201 208 221 229 241 258 266 0
16 138 141 143 149 151 155 158 162 164 165 167 180 193 197 215 240 0
16 139 140 141 149 150 151 153 155 158 162 165 167 190 193 215 295 0
16 139 140 141 149 150 151 155 158 162 165 167 193 217 237 240 284 0
16 139 140 144 149 150 163 164 168 171 180 193 195 229 239 293 302 0
16 140 141 143 149 151 153 155 158 162 165 167 182 190 255 283 284 0
16 140 141 149 150 151 155 158 162 165 167 176 182 237 240 283 284 0
16 140 143 145 151 153 158 167 170 172 188 190 205 215 224 255 295 0
16 141 149 150 151 153 158 165 170 172 188 195 197 205 224 282 284 0
16 142 143 145 149 152 154 160 162 166 173 177 193 267 268 275 284 0
16 142 143 145 149 152 154 162 169 173 177 182 205 215 267 294 295 0
16 142 143 145 149 152 154 162 169 173 177 193 214 232 267 275 284 0
16 142 143 145 149 152 154 162 173 177 193 204 205 214 232 267 284 0
16 142 145 149 150 152 154 162 169 171 173 183 193 267 273 275 293 0
16 147 150 151 153 164 166 190 193 208 221 233 239 245 266 268 271 0
17 134 136 137 138 140 150 161 166 179 199 216 245 264 268 287 302 0
18 138 139 149 153 157 163 164 170 188 190 207 208 217 225 229 286 0
18 138 139 149 157 163 164 170 175 192 205 208 212 217 218 225 268 0
18 138 142 143 146 148 155 159 173 183 195 205 214 224 232 233 283 0
18 139 140 148 153 154 157 160 162 172 204 205 216 218 265 269 303 0
18 139 141 142 148 150 155 159 173 177 190 204 208 224 225 232 237 0
18 140 142 143 144 147 151 153 163 171 175 176 182 219 232 283 284 0
18 140 143 145 148 154 156 157 197 200 212 215 218 233 236 239 274 0
18 143 145 148 154 157 167 172 174 197 219 220 233 242 270 295 302 0
18 147 155 160 166 187 197 210 212 234 235 236 240 248 253 262 266 0
19 43 160 170 172 176 188 209 213 220 239 240 247 262 268 299 300 0
19 123 136 137 145 146 165 168 171 172 183 184 192 244 272 287 302 0
20 138 139 140 143 144 161 164 174 180 198 208 214 223 255 270 296 0
20 138 139 140 144 161 163 176 193 208 214 223 225 249 255 288 302 0
20 140 142 147 155 159 166 191 197 211 250 263 265 268 269 297 300 0
20 141 144 150 154 158 163 166 168 171 182 190 208 225 237 245 294 0
20 142 145 152 166 168 170 172 184 197 204 212 213 240 253 262 299 0
20 142 146 147 155 166 187 189 198 201 210 212 234 235 248 262 268 0
20 142 146 166 168 189 201 204 210 212 235 248 262 277 283 299 300 0
20 142 147 155 159 166 170 191 197 211 250 265 277 279 289 297 300 0
20 142 149 166 197 204 205 210 212 235 239 246 248 253 262 269 277 0
20 142 154 166 189 197 201 204 210 212 234 235 248 277 278 288 300 0
20 142 166 188 189 191 197 201 204 205 211 229 239 265 277 280 297 0
20 142 166 191 197 204 211 224 225 239 250 260 269 277 292 297 300 0
21 80 154 172 188 204 212 213 234 240 241 247 248 253 292 293 300 0
21 84 136 141 142 149 151 172 177 178 181 188 197 248 255 269 288 0
21 84 138 139 140 143 150 151 162 192 203 208 258 270 271 295 300 0
21 133 136 138 139 145 149 151 154 178 180 182 216 248 274 289 301 0
21 133 136 141 144 145 150 157 167 170 189 202 203 204 218 277 301 0
21 133 139 143 146 157 161 163 168 170 178 181 182 240 270 286 292 0
21 133 141 145 154 197 201 207 208 215 239 242 249 257 270 274 281 0
21 136 138 139 140 142 143 144 151 181 183 184 192 197 203 255 279 0
21 136 138 139 141 146 150 177 199 202 207 208 221 226 258 275 301 0
21 136 149 153 154 170 172 188 209 221 235 239 241 247 253 271 300 0
21 138 139 141 142 144 146 150 168 175 199 202 205 221 234 270 300 0
21 138 139 141 144 150 158 161 175 191 202 205 207 218 221 270 300 0
21 138 139 141 145 146 150 153 155 188 199 202 207 221 273 276 290 0
21 138 139 141 150 155 171 199 207 208 216 218 221 255 259 273 274 0
21 138 153 170 172 188 204 212 213 221 239 242 247 248 253 262 300 0
21 139 154 170 172 188 191 201 205 209 213 221 224 234 240 247 253 0
21 139 154 170 172 188 191 209 213 224 235 239 247 253 277 278 299 0
21 144 159 170 172 176 188 189 197 201 208 209 221 235 239 262 266 0
21 153 154 170 172 188 209 213 220 234 240 247 253 268 278 288 300 0
21 153 154 170 172 188 209 213 239 241 244 247 253 277 283 299 300 0
21 153 170 172 188 209 213 220 234 247 248 253 262 268 283 299 300 0
21 154 160 165 170 172 176 179 188 209 213 235 247 277 283 299 300 0
21 154 170 172 188 192 209 213 234 240 241 247 253 277 278 299 300 0
21 159 170 172 188 191 209 212 213 216 224 240 277 278 295 299 300 0
21 160 170 172 176 188 197 209 213 235 239 262 277 283 288 300 303 0
21 166 170 172 188 189 197 199 200 201 212 213 235 239 262 264 300 0
21 170 172 173 188 204 209 213 219 224 239 240 242 247 253 262 294 0
21 170 172 185 188 189 197 201 208 212 221 235 239 262 266 271 300 0
21 170 172 188 191 204 212 213 224 234 240 242 247 253 262 264 294 0
22 136 139 142 144 151 155 158 159 163 174 178 182 226 240 288 295 0
22 136 139 144 151 155 158 163 170 178 180 226 265 272 288 291 295 0
22 139 140 147 151 155 157 164 165 172 207 208 224 258 271 275 303 0
22 139 144 145 151 157 158 160 163 174 178 217 219 226 229 287 288 0
22 139 144 145 151 158 160 163 170 172 178 226 265 272 288 291 295 0
22 139 144 145 151 158 160 163 172 174 178 226 240 272 287 288 295 0
22 139 144 149 151 157 158 160 162 163 174 178 219 226 229 295 299 0
22 139 144 151 158 160 163 170 172 178 226 240 265 272 288 291 295 0
22 139 144 151 158 160 163 172 174 178 226 229 240 272 287 288 295 0
23 80 139 141 143 145 165 168 173 175 193 202 207 211 267 275 298 0
23 80 139 142 143 144 146 151 165 170 171 183 202 203 207 279 293 0
23 138 139 140 143 146 151 153 165 171 181 183 203 235 248 255 276 0
23 138 139 146 158 161 162 164 170 175 184 191 241 255 266 286 295 0
23 139 140 143 146 151 153 155 165 171 183 203 207 216 242 251 300 0
23 139 140 143 146 151 153 165 171 181 183 200 203 207 235 248 276 0
23 140 146 148 149 157 160 162 168 172 174 183 197 224 225 226 266 0
23 145 149 150 153 168 170 184 192 193 194 205 222 226 240 255 297 0
23 145 149 151 165 166 168 170 184 192 196 204 216 217 240 261 295 0
23 145 149 153 160 165 168 174 184 192 193 194 216 240 248 262 295 0
36 38 159 160 189 200 201 207 218 234 270 274 277 278 286 299 300 0
36 136 144 154 166 176 185 189 197 201 212 221 235 237 239 266 268 0
36 136 144 159 160 164 176 197 209 221 235 239 262 266 277 299 300 0
36 136 144 159 191 212 221 250 251 255 261 280 283 288 292 293 298 0
36 136 144 174 183 191 204 255 260 261 264 273 274 278 280 298 299 0
36 136 154 159 209 220 221 235 239 247 253 266 268 271 283 299 300 0
36 136 156 157 209 221 234 240 247 253 262 266 271 277 283 299 300 0
36 136 189 190 201 205 212 221 234 235 245 247 262 266 271 292 293 0
36 136 209 221 234 235 241 247 253 260 262 266 271 277 278 288 300 0
36 136 209 221 234 235 247 253 260 262 266 271 277 278 288 300 303 0
36 138 143 162 163 164 172 173 189 199 201 209 212 213 277 298 300 0
36 140 167 174 191 196 205 206 211 224 225 250 260 261 269 278 288 0
36 141 150 167 184 196 198 199 204 230 261 265 274 278 280 288 298 0
36 141 150 184 196 198 199 204 250 260 261 265 274 278 280 288 298 0
36 143 156 157 172 173 189 199 201 209 212 213 220 235 278 299 300 0
36 143 162 164 172 173 199 201 208 209 212 221 253 266 271 277 300 0
36 144 149 153 163 199 208 209 221 234 235 247 253 262 266 282 283 0
36 145 146 154 183 191 224 225 235 236 247 260 264 274 279 283 285 0
36 145 154 159 191 205 206 211 212 218 225 235 250 251 261 279 298 0
36 145 159 184 198 199 205 236 240 241 246 250 262 265 278 279 298 0
36 145 167 168 182 183 191 205 232 242 261 264 265 278 280 298 299 0
36 146 154 165 183 191 224 225 235 236 247 260 264 274 279 283 285 0
36 149 154 159 166 204 212 213 234 235 241 247 253 263 268 283 300 0
36 154 158 159 160 163 191 211 218 224 225 240 250 265 274 279 280 0
36 154 183 191 204 235 251 260 261 264 274 278 279 280 288 291 298 0
36 156 157 208 209 220 221 239 240 247 253 262 266 271 278 299 300 0
36 157 159 164 172 189 199 201 205 209 212 213 220 223 227 299 300 0
36 159 167 177 184 198 199 216 241 250 251 261 274 278 280 298 299 0
36 168 184 197 198 199 221 232 241 251 261 264 274 280 283 288 298 0
36 184 196 198 199 204 211 224 225 230 241 251 261 274 278 280 288 0
36 191 196 212 221 224 225 230 251 261 270 280 283 285 288 292 293 0
37 140 145 153 159 172 173 178 183 188 200 207 248 262 270 280 288 0
37 140 145 159 172 178 185 188 204 206 212 225 240 244 250 262 299 0
37 140 153 154 159 160 162 170 172 188 204 212 250 265 269 280 283 0
37 140 162 172 173 178 183 185 206 212 225 240 244 259 260 262 279 0
37 145 154 159 166 178 183 189 201 204 213 220 264 268 292 296 300 0
37 147 150 155 156 189 213 246 250 253 254 259 260 277 279 296 300 0
37 149 153 154 165 166 170 181 185 191 212 250 257 260 278 279 288 0
37 153 154 159 173 178 183 200 207 214 248 257 259 270 279 280 286 0
37 154 159 162 166 172 212 235 248 250 251 259 261 263 278 279 280 0
37 154 159 170 172 178 188 200 206 207 225 240 250 270 279 286 299 0
37 154 178 193 197 204 207 213 239 249 250 254 260 269 277 279 300 0
38 136 137 140 141 145 149 169 174 177 188 196 205 225 226 261 293 0
38 136 137 140 141 145 149 169 174 177 188 196 205 226 261 280 293 0
38 136 137 140 141 145 162 169 177 188 196 205 225 226 238 261 265 0
38 138 143 154 155 169 200 207 213 234 235 248 253 255 277 286 288 0
38 139 154 155 168 181 189 200 201 207 210 231 235 248 286 288 297 0
38 139 157 159 172 191 200 211 220 239 244 250 261 265 279 287 297 0
38 140 159 162 168 183 186 188 191 194 213 234 246 264 277 279 300 0
38 157 159 174 183 184 198 199 211 220 239 241 264 272 279 297 300 0
38 179 188 189 198 200 201 204 207 210 231 234 235 248 262 270 286 0
39 137 145 146 149 151 152 161 163 166 172 180 183 189 190 211 217 0
42 60 82 155 161 165 172 194 200 240 247 248 258 263 270 277 297 0
42 135 137 139 141 143 145 166 170 175 178 189 204 206 224 240 244 0
43 98 136 140 145 148 177 188 190 205 225 226 228 238 264 288 293 0
43 136 140 144 145 148 155 169 174 192 205 217 226 251 264 287 293 0
43 136 140 144 145 148 162 174 177 182 188 192 205 217 226 251 264 0
43 136 140 144 145 159 177 188 192 205 207 217 226 228 293 294 301 0
43 139 140 143 147 148 171 174 178 188 214 216 230 233 241 243 270 0
44 136 141 143 145 147 148 149 157 166 167 175 188 212 262 274 275 0
44 136 141 143 145 149 150 154 155 157 163 166 167 175 205 270 275 0
44 138 154 156 160 168 172 174 176 184 204 205 254 255 270 273 280 0
44 139 142 146 161 163 164 171 183 195 206 220 224 264 270 276 278 0
44 139 142 148 150 153 155 156 159 172 174 175 177 178 184 261 264 0
44 139 142 160 161 163 180 183 195 197 200 202 220 283 285 288 302 0
44 139 143 145 152 155 158 159 166 188 195 214 224 231 254 256 277 0
45 138 144 145 149 153 160 161 162 178 191 197 202 205 235 266 283 0
45 141 159 160 162 188 199 204 207 209 212 218 223 227 253 277 300 0
45 142 143 144 151 162 165 175 197 199 200 205 207 218 224 250 258 0
45 142 159 160 166 193 197 209 212 218 223 239 268 277 283 299 300 0
45 143 156 199 201 204 209 212 219 223 227 253 277 292 293 299 300 0
45 143 159 172 176 189 197 201 209 220 239 266 268 269 274 288 300 0
46 136 138 139 145 146 156 158 162 163 165 168 184 207 220 255 292 0
46 136 144 145 149 151 152 165 180 183 189 196 198 220 222 255 257 0
46 137 142 145 146 149 151 152 165 172 174 183 196 198 240 248 258 0
46 137 145 146 149 150 151 152 166 172 180 183 190 198 243 245 268 0
46 137 145 146 149 151 152 161 175 183 196 200 216 217 243 245 286 0
46 137 145 149 151 152 154 180 183 190 198 243 245 257 270 272 286 0
46 138 139 140 144 145 147 150 155 163 164 169 171 173 188 199 215 0
46 138 139 140 144 147 150 158 163 169 171 173 188 199 270 278 288 0
46 138 144 150 157 158 163 184 188 198 199 206 215 229 241 270 296 0
46 138 145 154 168 176 188 189 196 197 201 216 251 254 256 261 271 0
46 138 174 188 189 192 196 201 239 242 246 254 256 257 261 271 273 0
46 140 143 144 150 158 161 162 164 167 170 189 201 208 218 270 288 0
46 140 144 145 150 154 156 158 160 161 164 167 170 213 218 276 302 0
46 147 154 160 165 166 168 191 204 206 251 253 268 270 277 300 301 0
46 154 159 160 165 174 189 201 205 234 237 250 254 256 277 280 300 0
46 154 162 164 166 178 188 191 199 205 208 224 244 251 261 262 280 0
46 159 160 166 168 196 197 204 205 207 216 251 253 262 268 280 292 0
46 166 208 221 225 231 234 251 253 256 261 262 266 268 270 271 273 0
47 136 140 143 146 151 171 184 192 200 203 207 242 255 267 271 293 0
47 138 143 147 157 163 164 167 177 187 189 191 193 204 216 234 298 0
47 138 147 157 163 164 167 189 191 195 204 216 224 225 234 242 270 0
47 138 147 157 167 187 189 191 204 216 220 221 229 239 270 296 298 0
47 140 145 147 155 158 159 188 205 207 215 222 246 250 254 277 301 0
47 140 145 156 159 166 197 204 220 222 229 239 246 250 262 268 296 0
47 145 147 154 155 156 166 197 198 220 222 239 250 260 262 268 292 0
47 156 204 207 215 219 224 246 250 254 260 269 273 277 289 292 296 0
47 157 176 209 213 219 220 227 235 247 260 274 278 289 298 299 300 0
48 139 140 144 146 159 162 172 173 176 197 205 221 224 225 269 287 0
48 139 140 146 149 158 162 164 173 182 188 204 205 208 217 248 302 0
48 139 144 146 152 155 157 158 159 172 177 204 208 221 228 239 295 0
48 139 145 149 157 158 163 164 173 188 202 208 217 237 240 262 274 0
48 144 159 160 167 169 201 223 233 235 250 251 257 279 280 283 288 0
48 147 148 162 163 164 169 223 230 232 249 251 257 259 261 279 280 0
49 136 191 204 205 212 223 224 244 251 259 261 269 280 283 288 293 0
49 138 139 140 159 166 172 177 220 222 226 228 246 250 256 268 269 0
49 138 140 160 162 191 205 208 212 223 244 251 259 262 278 280 298 0
49 139 143 159 177 182 183 197 204 206 242 254 264 277 281 289 296 0
49 139 155 159 166 182 197 204 206 212 220 242 250 264 268 296 300 0
49 143 178 188 189 191 201 207 222 250 254 260 262 269 277 281 300 0
49 144 147 155 172 178 208 220 250 253 254 255 260 262 268 294 300 0
50 136 137 140 141 142 147 151 173 175 177 199 202 205 255 258 263 0
50 136 139 140 146 156 163 165 169 174 177 187 198 211 212 248 253 0
50 136 139 140 146 156 163 165 169 174 189 198 201 211 212 226 248 0
50 136 139 140 156 165 169 174 197 198 211 212 216 231 248 253 301 0
50 140 145 160 172 211 212 244 250 260 272 274 277 289 293 300 303 0
50 140 145 165 170 173 205 213 250 260 265 272 277 286 287 294 297 0
50 140 152 159 161 164 170 173 183 208 211 265 269 272 297 300 302 0
50 145 159 165 172 211 224 225 226 244 250 263 274 289 292 297 300 0
51 136 142 143 144 147 151 152 156 159 160 166 170 171 240 268 295 0
51 136 142 143 144 149 151 153 157 159 160 166 170 171 197 208 256 0
51 136 142 143 144 151 156 157 159 160 166 170 175 197 204 240 271 0
51 136 148 150 153 159 181 214 244 250 257 259 262 272 279 288 292 0
51 140 153 154 160 163 166 178 188 208 244 250 257 260 269 280 303 0
51 144 168 170 186 189 198 200 210 211 240 244 253 261 268 269 280 0
51 144 170 172 186 189 191 200 204 206 210 211 234 240 253 268 269 0
52 136 138 139 142 143 147 150 151 164 204 208 219 258 271 296 298 0
52 136 139 145 159 161 213 220 222 234 268 274 281 287 292 293 303 0
52 136 140 145 161 191 197 205 213 220 222 239 260 268 272 297 300 0
52 136 145 159 165 188 191 205 213 235 236 272 277 292 297 300 303 0
52 137 141 145 146 148 150 153 167 174 194 200 207 215 218 219 262 0
52 137 145 146 148 150 153 167 200 207 218 224 225 232 240 262 285 0
52 138 139 140 143 147 150 151 157 164 173 204 208 224 258 271 303 0
52 138 145 154 165 179 206 225 240 244 260 274 283 285 292 298 299 0
52 140 141 150 161 173 192 199 200 210 213 239 277 279 297 300 303 0
52 140 145 154 159 165 196 207 230 240 244 278 280 281 288 293 298 0
52 141 145 149 154 159 165 196 221 223 230 235 280 283 292 298 299 0
52 142 145 154 159 163 165 189 196 206 225 235 278 285 292 298 299 0
52 145 167 194 204 205 207 212 236 240 244 246 260 262 278 279 281 0
52 161 188 191 195 196 197 210 213 264 272 277 279 286 297 300 303 0
52 164 170 188 198 205 210 211 220 239 264 268 269 272 292 297 300 0
53 160 166 188 191 197 204 211 212 250 260 265 277 279 297 298 300 0
54 137 145 162 163 164 173 180 189 204 206 218 224 245 288 295 303 0
54 138 145 177 183 204 216 217 221 260 262 264 265 274 279 282 298 0
54 140 141 149 159 186 204 205 212 218 231 236 250 251 262 269 297 0
54 140 159 160 162 183 197 205 212 218 219 236 251 262 264 269 280 0
54 149 154 159 185 188 199 201 205 212 221 224 234 237 247 253 263 0
56 136 144 145 156 161 165 170 177 184 204 205 235 243 268 276 285 0
56 136 144 145 161 165 167 171 174 195 198 204 208 235 243 249 255 0
56 136 144 157 161 165 168 191 197 204 208 240 244 262 266 277 302 0
56 136 153 154 155 156 157 165 170 191 215 239 243 244 247 249 255 0
56 137 139 144 145 149 159 165 169 171 173 188 195 199 240 283 295 0
56 137 142 143 147 148 150 151 153 154 160 163 176 195 208 271 288 0
56 137 142 147 148 150 151 153 160 163 166 169 176 232 233 268 288 0
56 139 142 144 158 159 163 165 169 171 173 178 182 188 240 276 283 0
56 141 142 143 145 147 148 150 151 153 160 163 173 176 177 205 288 0
56 141 142 143 148 150 151 153 158 160 161 163 173 176 195 232 267 0
56 142 143 147 148 150 151 153 160 161 163 173 176 177 195 288 295 0
56 142 147 148 150 151 153 159 160 163 169 173 176 177 280 288 295 0
56 142 148 150 151 153 158 160 163 164 168 169 173 176 276 296 302 0
56 144 145 148 149 166 172 175 181 188 205 217 219 227 244 283 284 0
58 134 136 138 141 146 149 161 168 203 204 207 218 226 233 235 268 0
58 134 136 141 144 146 164 168 171 180 197 202 218 238 244 268 293 0
58 136 138 141 146 148 163 166 168 179 202 203 218 238 244 268 290 0
58 136 138 141 146 149 151 164 168 171 179 190 197 207 232 235 268 0
58 136 138 141 146 151 157 163 164 168 179 202 203 231 235 238 277 0
58 136 138 141 146 168 177 179 181 202 203 218 238 244 255 268 290 0
58 136 139 144 151 155 158 161 170 215 240 265 278 287 288 289 295 0
58 136 140 146 147 153 156 157 160 161 162 171 172 190 202 233 267 0
58 136 141 142 143 146 148 151 157 164 168 171 202 218 233 238 244 0
58 136 141 143 146 148 151 157 164 168 171 202 217 218 233 238 244 0
58 136 141 144 146 149 164 168 171 184 202 218 232 233 244 268 293 0
58 139 144 145 151 155 158 162 168 169 174 178 182 283 289 295 299 0
58 144 149 151 155 158 161 174 197 211 239 240 280 287 288 290 295 0
60 136 137 140 147 152 157 163 164 166 177 183 205 208 214 227 264 0
60 136 138 144 155 161 165 169 172 184 188 197 200 205 214 240 246 0
60 136 138 155 162 165 168 169 188 194 197 239 240 246 255 268 289 0
60 136 141 144 145 146 150 152 153 156 177 179 181 194 202 262 272 0
60 136 141 145 146 152 153 154 156 179 181 188 194 202 272 274 281 0
60 136 141 145 146 152 153 156 157 177 179 181 188 194 202 262 279 0
60 136 144 150 153 155 161 165 168 169 172 184 199 202 204 234 261 0
60 136 150 151 155 161 165 169 182 199 200 202 204 214 239 240 246 0
60 137 140 146 152 157 159 163 164 166 177 183 188 208 214 264 279 0
60 138 142 143 144 145 146 157 160 168 184 255 270 275 277 292 303 0
60 138 142 143 145 146 157 160 168 174 185 232 238 255 270 277 292 0
60 138 143 145 146 168 172 185 198 202 217 236 268 277 286 292 303 0
60 140 143 144 145 150 155 166 168 185 198 202 215 218 231 238 277 0
60 140 143 145 149 153 166 168 180 181 188 194 198 202 218 220 238 0
60 140 149 154 155 156 157 159 161 163 164 177 204 205 208 214 264 0
60 142 143 145 155 160 168 185 198 202 218 238 258 268 270 277 292 0
60 142 144 146 150 156 159 167 182 199 202 205 219 220 226 229 295 0
60 143 145 146 153 157 159 168 187 202 212 218 233 238 275 277 292 0
62 136 138 139 141 144 150 160 172 174 178 181 225 227 238 264 297 0
62 136 138 139 143 160 173 177 181 188 216 224 228 241 243 270 288 0
62 136 138 150 152 155 160 172 174 178 181 197 202 204 225 258 293 0
62 136 142 148 150 151 153 161 169 176 195 204 206 232 236 255 265 0
62 142 144 148 150 151 153 163 169 173 195 199 206 230 265 271 283 0
62 142 144 148 150 151 153 169 195 206 208 230 247 265 271 283 295 0
62 142 148 150 151 153 158 164 168 169 176 195 197 206 265 282 302 0
63 136 137 141 142 145 146 150 155 170 173 202 203 207 221 258 271 0
63 136 138 139 141 146 147 150 155 157 166 170 203 207 221 258 267 0
63 136 138 141 142 146 147 155 157 170 171 177 203 207 221 255 271 0
64 136 140 143 145 146 149 150 151 152 155 182 219 258 272 286 299 0
64 136 140 144 145 146 149 151 152 160 172 219 241 255 272 286 299 0
64 136 140 145 146 149 150 151 152 157 172 196 199 202 218 219 299 0
64 136 141 143 145 146 151 152 157 162 172 178 199 202 219 245 286 0
64 136 143 145 146 149 151 152 172 178 219 241 246 255 272 286 299 0
64 136 144 145 146 149 151 152 155 157 162 172 178 182 219 229 241 0
64 136 145 146 149 150 151 152 178 196 197 219 230 255 272 288 302 0
64 136 145 146 151 152 157 163 178 190 219 241 245 255 282 286 288 0
64 137 139 142 144 145 149 155 158 163 165 174 181 188 205 217 249 0
64 137 139 142 144 145 149 155 158 165 170 181 182 205 217 291 295 0
64 137 139 143 144 145 149 155 158 163 165 174 181 198 205 217 249 0
64 137 139 143 144 145 149 155 158 163 174 181 182 184 188 205 217 0
64 137 139 143 144 145 149 155 158 163 174 181 184 198 205 217 249 0
64 137 139 143 144 145 149 155 163 174 181 184 188 199 205 217 249 0
64 137 139 143 144 145 151 155 163 165 174 181 188 199 205 217 238 0
64 137 139 143 144 145 155 158 163 174 181 184 205 217 238 249 279 0
64 137 139 143 144 145 155 158 174 181 182 184 188 205 217 238 295 0
64 139 142 144 145 147 149 155 158 163 170 181 182 184 205 217 291 0
64 139 142 144 145 149 155 158 165 174 181 182 205 217 219 269 295 0
64 139 143 144 145 147 155 158 165 174 181 182 205 217 238 260 295 0
65 71 145 149 150 151 153 172 174 184 196 200 202 224 225 239 248 0
65 137 138 140 141 143 147 155 159 175 197 214 223 239 258 264 275 0
65 138 139 140 147 163 172 177 181 192 193 206 217 272 276 285 294 0
65 138 140 147 153 155 159 166 169 171 188 192 214 225 258 264 285 0
65 138 140 147 153 155 159 166 170 171 233 238 240 258 264 291 302 0
65 138 140 147 155 159 169 171 188 192 214 223 225 232 258 264 285 0
66 136 138 140 150 160 162 167 170 177 190 202 219 229 250 268 303 0
66 136 139 144 167 173 174 177 188 205 225 236 250 258 267 269 293 0
66 138 140 150 152 153 160 174 177 188 202 211 219 229 288 296 298 0
66 138 140 150 160 167 174 177 202 205 211 228 229 288 294 296 298 0
66 139 140 144 154 158 159 161 168 173 174 177 188 230 250 255 258 0
66 143 150 151 153 155 165 167 168 172 182 192 215 233 239 245 246 0
67 140 143 145 146 148 149 156 197 224 225 243 262 270 274 285 303 0
67 140 143 145 146 149 150 154 166 167 197 208 212 217 218 243 274 0
67 140 143 145 146 149 150 166 197 208 212 214 215 220 225 262 288 0
67 143 145 146 150 155 156 166 215 220 233 239 258 262 270 274 292 0
68 136 138 153 155 161 165 169 191 192 197 200 204 214 246 248 255 0
68 136 138 155 161 162 165 168 169 173 191 192 194 234 240 246 258 0
68 136 153 154 155 161 165 168 188 191 192 204 205 234 255 269 270 0
68 136 153 154 155 165 169 191 192 194 200 205 214 239 258 263 269 0
68 136 153 155 161 162 165 169 173 191 192 197 200 220 246 248 258 0
68 136 153 155 161 165 191 192 194 200 214 247 248 255 270 295 297 0
68 136 155 161 165 169 188 191 192 194 197 200 222 229 240 248 258 0
68 136 155 162 165 168 169 188 192 205 234 240 244 248 255 269 276 0
68 138 142 143 145 146 160 166 168 198 215 217 255 277 286 292 293 0
68 140 143 144 145 149 155 160 166 168 174 180 193 198 202 218 220 0
68 143 145 146 148 152 168 172 198 202 217 218 220 255 275 286 292 0
69 136 140 149 153 155 157 159 161 173 177 208 210 230 238 270 290 0
69 139 140 144 145 148 150 163 182 202 205 217 226 264 269 287 292 0
69 140 146 149 152 153 155 156 157 159 161 172 177 208 239 270 290 0
69 140 149 153 155 156 157 159 161 172 177 192 204 208 239 270 290 0
69 140 149 153 156 157 159 162 163 164 177 208 214 217 235 237 292 0
70 136 137 140 146 155 157 159 164 171 175 181 204 270 287 293 302 0
70 136 137 140 146 155 159 162 164 171 175 179 199 202 228 267 287 0
71 136 138 139 149 152 153 155 165 169 200 202 205 248 258 289 295 0
71 136 138 143 147 150 152 153 155 160 161 165 199 200 270 278 289 0
71 136 138 147 149 152 153 155 165 169 200 202 205 248 258 289 295 0
71 136 140 144 150 151 161 163 169 171 185 198 202 205 219 239 269 0
71 136 144 153 155 158 165 169 170 172 184 187 200 205 214 247 284 0
71 137 141 144 145 150 151 153 158 163 165 188 194 205 230 231 238 0
71 138 139 140 146 162 166 170 184 199 200 241 258 265 266 270 282 0
71 139 142 145 149 150 151 153 163 171 200 202 205 239 240 248 265 0
71 141 142 144 145 150 151 153 158 180 184 188 196 238 274 276 295 0
71 142 145 150 151 159 163 170 172 190 200 205 239 240 258 268 275 0
71 143 144 145 150 151 153 155 159 169 177 184 199 205 269 284 295 0
72 136 141 144 150 156 157 165 167 171 174 189 204 239 244 266 283 0
72 136 144 145 155 156 157 165 170 184 189 219 224 235 276 278 280 0
73 136 137 145 153 162 163 172 173 178 179 188 189 214 245 293 299 0
73 139 141 149 150 151 164 165 166 180 193 206 240 268 271 293 301 0
74 137 141 142 145 153 155 173 174 175 178 182 205 220 233 249 295 0
74 139 150 168 176 178 189 191 195 201 205 225 231 256 261 262 271 0
74 140 145 161 163 182 184 191 205 209 221 230 265 273 283 288 298 0
74 142 143 148 151 153 158 165 174 182 191 200 204 207 232 236 284 0
74 144 147 158 161 164 166 167 168 173 178 183 188 223 268 291 295 0
74 146 151 153 155 158 160 168 169 185 188 205 230 247 256 258 295 0
74 159 170 183 184 187 197 199 209 212 215 220 271 280 283 288 298 0
75 136 138 140 144 148 164 190 208 218 219 223 238 245 255 282 294 0
75 136 140 155 162 165 171 172 174 182 184 190 198 226 232 239 303 0
75 136 143 144 158 160 161 163 170 202 207 221 263 267 288 291 295 0
75 136 169 172 204 212 216 248 249 251 259 261 269 280 286 288 292 0
75 138 140 141 145 153 157 159 188 226 233 239 245 258 264 292 293 0
75 140 144 160 162 188 191 195 197 199 206 208 239 265 270 279 280 0
75 141 145 146 152 153 157 159 160 168 177 183 226 232 256 263 264 0
75 162 169 174 188 191 204 208 212 217 230 251 261 269 280 286 292 0
76 136 146 147 170 177 191 198 200 207 213 218 221 229 240 256 277 0
76 139 145 153 155 164 166 175 195 208 224 229 256 266 275 285 287 0
76 146 147 154 155 157 170 184 210 212 222 230 240 257 277 283 288 0
76 146 160 204 210 213 224 225 229 277 278 285 286 288 291 292 293 0
77 136 141 146 147 149 150 160 162 163 188 194 198 214 226 238 255 0
78 138 141 151 154 160 185 188 200 206 210 211 234 242 248 253 277 0
79 136 139 142 150 160 162 170 172 173 178 233 238 240 265 271 300 0
79 137 139 143 144 149 154 158 163 165 171 173 182 188 205 240 283 0
79 139 151 162 163 166 176 185 189 205 212 235 241 245 247 262 266 0
79 144 156 162 163 189 197 205 212 224 239 240 244 262 266 269 278 0
79 156 164 166 185 189 195 197 199 205 209 213 235 239 262 269 271 0
80 82 137 141 143 145 148 158 160 172 173 199 208 224 258 263 274 0
80 136 138 139 142 143 155 164 177 184 188 197 198 200 241 275 286 0
80 137 144 147 148 150 151 153 154 155 164 170 176 195 206 271 295 0
80 138 139 140 142 143 146 150 155 164 168 169 181 184 197 198 212 0
80 138 139 140 142 143 155 164 177 184 188 197 198 199 200 241 275 0
80 138 139 140 145 146 150 157 161 164 169 171 184 199 212 236 247 0
80 138 139 143 145 146 164 169 175 184 198 212 236 241 247 258 286 0
80 138 139 146 150 164 168 169 170 184 198 212 247 253 258 275 286 0
80 138 141 142 143 148 150 155 159 163 180 190 264 283 292 293 301 0
80 139 140 142 151 153 155 162 163 167 171 176 188 193 232 280 283 0
80 139 140 144 151 153 162 163 176 181 182 188 267 271 275 280 284 0
80 139 140 151 153 155 162 163 167 171 176 190 193 232 233 267 283 0
80 139 151 153 155 162 163 164 167 171 193 216 225 232 233 267 284 0
80 139 151 153 155 162 163 164 167 171 193 225 232 233 267 280 284 0
80 140 142 151 153 155 163 167 171 172 176 181 193 219 233 280 283 0
80 141 142 144 145 148 150 166 180 190 199 202 232 268 274 292 293 0
80 142 147 148 150 153 154 155 160 162 163 193 206 225 226 276 285 0
81 136 141 143 144 145 146 151 156 157 159 160 161 177 207 215 238 0
81 136 144 145 146 151 156 157 159 160 161 207 215 226 263 270 272 0
81 136 144 145 146 151 156 159 160 161 207 215 246 270 272 281 292 0
81 143 144 145 146 151 156 157 159 160 161 172 207 208 215 246 281 0
82 136 137 138 139 141 142 145 150 160 162 171 173 175 199 263 275 0
82 136 137 138 139 141 142 145 150 160 162 173 175 199 258 263 275 0
82 136 137 138 141 142 145 150 160 166 171 173 202 205 224 260 263 0
82 136 137 139 140 141 142 151 160 162 168 171 173 175 177 246 275 0
82 136 137 139 141 142 143 145 150 160 173 175 208 224 260 263 302 0
82 136 137 139 141 142 145 160 162 173 199 207 241 246 258 275 300 0
82 136 137 140 141 142 145 155 166 171 173 175 177 202 205 241 263 0
82 136 137 141 142 143 145 155 173 175 180 197 224 241 258 260 263 0
82 136 137 141 142 144 145 160 173 175 202 205 224 241 255 260 263 0
82 136 137 141 142 145 150 155 171 173 180 199 202 205 224 246 300 0
82 136 142 143 145 148 149 150 153 156 168 173 180 212 216 235 289 0
82 136 142 143 145 148 149 150 153 156 168 180 197 212 216 235 289 0
82 136 142 143 145 148 149 150 156 168 207 216 218 233 239 240 301 0
82 136 142 143 145 148 149 150 156 168 212 216 218 229 233 240 247 0
82 136 142 143 145 148 149 156 165 168 207 216 218 233 239 240 301 0
82 136 143 145 148 149 150 153 156 168 173 184 207 214 216 233 235 0
82 136 143 145 148 149 150 156 168 184 212 216 218 233 239 240 288 0
82 136 143 145 148 149 150 156 168 184 212 216 233 239 240 288 289 0
82 137 139 141 142 143 144 145 150 160 173 175 208 224 246 249 260 0
82 137 139 141 142 143 145 155 172 173 175 205 208 224 241 246 302 0
82 137 139 141 142 145 151 160 162 172 173 175 181 197 208 263 275 0
82 137 141 142 143 145 147 150 166 171 172 173 208 214 224 263 274 0
82 137 141 142 145 160 171 172 173 175 202 205 208 224 241 246 302 0
82 138 139 142 143 145 148 149 150 156 168 173 178 180 216 240 265 0
82 138 139 142 143 145 148 149 156 165 168 216 218 233 239 240 288 0
82 138 142 143 145 148 149 150 153 156 168 173 175 216 219 233 240 0
82 138 142 143 145 148 149 150 156 168 173 192 204 216 218 233 240 0
82 138 142 143 145 148 149 150 156 173 181 200 216 219 233 239 240 0
82 138 143 145 148 149 156 165 168 172 180 184 216 240 247 289 301 0
82 139 143 145 148 149 150 156 168 172 173 174 180 184 212 216 240 0
82 139 143 145 148 149 156 165 168 172 173 174 184 212 216 233 240 0
82 142 143 145 148 149 150 153 156 168 173 207 214 216 233 235 288 0
82 142 143 145 148 149 150 156 157 166 168 207 216 218 233 240 247 0
82 142 143 145 148 149 153 156 165 168 180 207 216 218 235 247 301 0
84 136 137 138 139 141 145 146 150 199 200 202 207 221 258 270 275 0
84 136 137 138 139 141 146 148 168 171 199 207 221 234 255 266 270 0
84 136 137 138 139 141 146 148 175 199 207 221 255 258 266 276 301 0
84 136 138 139 149 156 174 178 195 197 205 235 238 269 287 289 301 0
84 136 138 149 156 174 178 181 197 205 215 217 228 229 235 238 269 0
84 136 139 145 149 156 170 178 180 181 193 207 238 240 265 289 301 0
84 138 139 140 146 149 150 155 162 170 171 180 192 199 245 258 266 0
84 138 139 141 142 143 145 146 150 168 171 188 199 207 221 255 288 0
84 138 139 141 142 143 146 148 175 188 199 202 221 238 255 266 276 0
84 138 139 141 143 146 150 153 199 200 202 221 242 259 266 270 275 0
84 138 139 141 145 146 150 158 161 175 177 188 191 202 207 221 226 0
84 138 139 141 149 156 170 172 173 178 181 197 229 235 265 269 288 0
84 138 139 142 143 144 146 151 165 184 192 198 199 203 208 275 297 0
84 138 139 143 144 146 151 163 165 166 202 203 208 235 248 270 293 0
84 139 141 143 146 149 157 158 161 163 168 178 181 188 212 240 292 0
84 139 145 149 151 156 170 171 172 181 195 196 205 207 257 265 288 0
84 141 143 146 151 157 158 161 163 165 181 205 212 224 229 238 239 0
84 141 143 146 157 158 161 163 177 181 205 212 238 239 273 292 296 0
85 136 137 139 145 149 162 163 172 173 178 180 189 240 282 290 296 0
85 136 137 139 145 149 162 163 172 175 177 178 180 189 290 299 303 0
85 136 137 145 149 162 163 172 173 175 180 189 190 224 229 282 288 0
85 137 139 140 144 149 154 158 166 171 173 180 188 268 278 295 302 0
85 137 139 140 144 149 154 163 164 171 173 178 181 188 199 258 302 0
85 137 140 142 149 150 154 160 162 171 173 177 183 193 205 270 284 0
85 137 142 143 149 154 162 169 173 175 177 182 206 255 273 275 276 0
85 137 142 144 149 150 154 160 162 183 190 193 205 244 270 273 293 0
85 137 142 149 150 154 155 162 169 175 193 205 206 215 226 232 295 0
85 137 142 149 150 154 160 162 173 177 193 221 266 267 273 275 295 0
85 137 142 149 150 154 160 162 173 183 190 193 205 244 270 273 293 0
85 139 140 144 147 155 158 160 163 171 173 178 183 188 223 261 278 0
85 139 144 155 163 169 172 173 174 178 181 182 188 196 199 205 278 0
85 142 145 149 150 152 154 162 169 173 182 183 205 206 215 270 295 0
85 143 151 158 167 186 190 197 205 215 224 233 235 239 255 262 295 0
89 139 142 143 148 149 151 159 164 172 188 217 271 276 280 284 301 0
89 143 144 145 146 149 150 154 155 159 166 188 212 214 247 266 274 0
94 136 137 139 140 144 146 153 173 177 216 225 232 233 238 285 288 0
96 160 176 194 206 218 225 234 246 250 251 254 256 260 262 279 285 0
97 161 170 178 185 188 204 235 262 269 274 280 283 292 293 298 299 0
98 136 142 145 155 156 157 167 170 201 226 236 240 241 244 245 295 0
99 136 138 141 146 148 150 157 166 168 180 202 203 218 235 238 277 0
99 136 138 141 146 149 152 157 168 180 181 203 207 217 218 220 244 0
99 136 138 141 146 157 168 180 202 203 218 219 220 227 235 238 293 0
99 136 141 144 145 151 157 158 160 161 162 163 166 174 272 295 299 0
100 136 138 140 144 147 150 159 163 166 171 174 204 205 215 264 295 0
100 136 138 140 144 147 152 159 160 171 174 205 214 223 255 264 301 0
100 136 140 149 153 156 157 158 164 177 179 188 208 214 239 248 264 0
100 138 142 143 145 147 148 149 152 156 165 180 200 236 239 240 289 0
102 136 138 150 160 162 171 173 174 177 178 184 198 202 204 214 276 0
102 138 139 143 144 160 168 173 177 178 189 190 241 242 255 267 288 0
102 138 140 141 142 143 144 146 149 151 152 155 158 162 172 184 205 0
102 138 140 141 142 143 144 149 151 152 154 155 158 162 172 184 255 0
102 139 140 141 142 143 145 149 151 152 154 155 158 162 167 184 190 0
102 140 141 142 149 151 152 154 155 157 158 162 165 167 190 284 291 0
102 140 143 145 149 154 157 160 163 166 167 193 205 212 239 275 288 0
102 143 145 146 149 154 157 160 166 167 172 175 193 197 270 274 288 0
102 143 145 146 156 157 160 162 166 167 175 193 197 205 212 233 262 0
102 143 145 148 149 154 156 157 160 163 167 193 197 270 274 275 288 0
102 143 145 148 150 154 156 157 160 167 193 197 233 270 274 275 288 0
102 143 145 149 150 157 160 166 167 172 193 197 262 270 274 275 288 0
102 143 145 149 154 156 157 160 163 166 167 193 197 270 274 275 288 0
102 146 149 150 155 163 167 172 173 188 205 208 211 215 271 275 296 0
104 106 136 137 144 152 155 172 218 219 227 233 239 244 245 255 270 0
104 106 138 139 143 148 150 152 153 168 172 178 184 233 235 272 288 0
104 106 139 143 148 165 166 168 173 184 219 233 239 240 250 265 289 0
104 136 140 143 149 150 153 154 155 159 168 172 183 188 207 246 292 0
104 136 141 143 145 146 150 163 166 173 177 181 194 197 255 268 300 0
104 136 141 145 146 148 150 152 155 168 171 176 177 199 202 295 300 0
104 136 144 145 146 149 151 161 163 173 176 178 214 219 232 283 294 0
104 138 148 150 160 167 170 194 208 211 224 225 228 232 255 263 288 0
104 140 143 149 150 155 159 167 168 172 173 174 192 208 233 250 258 0
106 136 137 138 140 142 144 147 148 155 159 174 232 255 264 295 301 0
106 136 138 139 142 143 145 148 150 156 178 200 233 236 239 240 288 0
106 136 138 140 147 155 159 160 170 172 173 174 215 217 228 250 301 0
106 136 138 140 147 159 160 171 174 200 205 216 258 264 286 295 301 0
106 136 138 140 147 159 161 164 172 174 197 205 223 229 232 239 264 0
106 136 138 140 147 159 173 174 205 208 214 217 246 250 258 271 301 0
106 136 143 145 148 150 152 156 162 168 178 184 207 233 240 292 294 0
106 136 143 148 150 152 162 168 173 178 184 207 219 233 239 240 294 0
106 137 138 140 147 148 154 155 159 163 173 174 215 223 228 258 269 0
106 137 138 140 147 148 159 161 164 170 172 174 215 223 264 269 301 0
106 138 139 142 143 145 148 165 166 173 200 233 236 239 240 272 288 0
106 138 139 143 148 150 152 153 167 168 172 174 178 184 233 235 272 0
106 143 145 148 149 153 156 165 172 180 181 184 200 207 235 239 288 0
106 143 148 149 151 152 162 165 168 172 178 184 207 233 240 242 294 0
123 136 137 143 145 146 155 159 165 168 171 177 183 184 192 272 302 0
123 136 137 144 145 146 155 159 165 168 169 171 177 183 192 219 302 0
123 136 137 145 146 147 159 164 165 168 171 175 183 184 192 272 287 0
123 136 137 145 146 151 155 159 165 168 169 171 183 192 228 272 287 0
123 136 137 145 146 155 159 165 168 169 171 177 183 184 192 219 228 0
124 136 138 139 143 150 160 171 173 177 178 184 190 198 204 225 265 0
124 140 143 145 148 154 155 156 157 160 197 225 233 270 274 275 288 0
127 138 139 142 143 151 152 155 162 170 172 200 220 255 258 265 276 0
128 136 138 140 145 150 153 157 160 162 167 174 219 228 229 251 255 0
128 136 144 146 152 154 176 177 180 184 192 197 203 217 232 235 274 0
130 136 143 151 173 182 185 192 196 205 214 219 236 241 245 276 292 0
131 136 138 143 145 148 149 150 153 156 168 184 214 216 233 235 250 0
131 136 138 143 145 148 149 153 156 165 168 184 214 216 233 235 250 0
131 136 143 145 148 149 153 156 165 168 173 180 184 207 214 216 235 0
131 136 143 145 148 149 156 165 168 180 184 207 216 239 240 288 289 0
131 138 140 143 149 170 173 178 194 255 275 276 284 291 292 293 295 0
131 139 143 144 146 171 173 180 183 188 199 219 255 263 278 292 295 0
131 142 143 145 148 149 150 156 173 200 207 216 233 236 239 240 272 0
131 142 143 145 148 149 150 156 200 207 216 233 236 239 240 289 292 0
131 143 145 148 149 156 165 168 172 180 184 207 216 239 240 289 292 0
132 136 138 143 145 148 150 156 159 181 184 197 200 233 239 240 257 0
132 136 141 145 146 149 153 156 159 177 179 181 183 188 202 262 292 0
132 136 141 145 146 149 153 156 175 177 179 181 183 188 202 262 272 0
132 138 139 143 145 148 150 162 174 184 200 233 236 239 240 287 293 0
132 143 145 148 150 153 156 163 172 181 184 200 207 233 235 239 303 0
132 143 148 151 153 159 165 167 168 174 182 184 190 233 235 238 272 0
133 136 138 140 141 143 146 147 164 171 180 199 202 203 241 268 290 0
133 136 138 141 144 146 147 150 157 164 166 171 207 236 277 290 295 0
133 136 138 141 144 146 147 150 157 164 171 193 207 226 236 277 290 0
133 136 138 141 145 146 147 150 157 164 177 180 203 207 226 255 293 0
133 136 140 141 144 146 147 150 157 164 166 180 189 203 207 218 277 0
133 136 140 141 144 146 147 150 157 164 180 203 207 214 218 232 277 0
133 136 140 141 144 146 147 157 164 166 177 179 202 203 218 232 290 0
133 136 140 141 145 146 150 157 167 170 202 203 218 236 255 277 301 0
133 136 141 146 147 154 160 164 180 202 203 218 226 245 255 268 290 0
133 136 142 143 144 162 163 164 165 168 170 181 193 194 204 217 261 0
133 136 142 143 150 153 162 164 167 168 170 182 184 187 193 257 265 0
133 136 143 144 153 162 164 165 170 172 184 187 194 200 214 239 257 0
134 136 137 138 140 149 150 161 169 179 199 204 216 240 264 287 302 0
134 136 137 138 140 150 161 169 177 179 192 199 216 245 261 264 303 0
134 136 138 143 144 153 156 165 168 194 204 226 240 244 255 268 278 0
134 136 144 145 150 153 155 156 157 165 170 195 202 215 219 235 241 0
134 136 145 147 150 155 156 157 165 195 240 244 255 276 280 298 301 0
134 137 138 140 141 147 149 150 161 169 172 179 199 216 264 287 303 0
134 137 138 140 141 150 161 169 172 173 177 179 199 216 245 261 303 0
134 137 138 140 141 150 161 172 179 197 199 216 239 245 250 287 303 0
134 137 138 140 142 143 145 147 149 150 161 163 177 178 179 216 240 0
134 137 138 140 142 149 150 161 169 177 178 179 193 216 256 287 302 0
134 137 138 140 143 150 161 164 172 179 192 199 216 245 256 264 287 0
134 137 138 140 150 161 164 172 179 193 199 216 240 245 249 264 287 0
134 137 138 140 150 161 164 177 178 179 193 204 216 240 245 249 287 0
134 142 144 146 151 152 154 155 158 166 178 189 190 201 205 224 262 0
134 142 146 151 152 154 155 158 166 167 178 189 190 201 205 224 262 0
135 136 138 140 145 147 150 153 155 172 175 180 200 235 243 255 277 0
135 137 139 141 143 145 166 170 175 176 178 189 204 206 240 244 284 0
135 138 139 143 160 162 178 182 190 204 225 241 242 243 264 285 288 0
135 138 143 150 160 162 173 174 177 179 181 182 188 204 216 224 299 0
135 138 150 160 174 177 181 182 190 216 224 242 255 264 267 288 293 0
135 143 145 154 155 157 160 166 167 193 201 205 233 239 270 275 288 0
1 2 205 212 224 240 248 250 257 259 260 262 265 279 280 283 293 299 0
1 14 139 140 156 157 161 165 170 174 197 208 222 240 253 258 260 301 0
1 82 136 138 140 145 147 151 158 171 172 224 232 255 260 270 271 282 0
1 136 138 166 172 205 212 218 248 251 259 261 278 280 285 292 293 299 0
1 136 140 143 145 172 178 212 224 235 248 250 256 259 260 274 280 293 0
1 136 143 154 166 169 178 212 218 224 257 259 261 265 280 283 293 299 0
1 138 140 162 188 205 206 212 225 235 250 257 260 261 265 269 278 298 0
1 138 140 166 178 181 191 205 212 218 235 250 257 260 269 285 288 293 0
1 138 151 169 172 182 205 212 218 244 259 261 265 278 280 288 293 298 0
1 138 170 172 178 183 188 205 212 240 260 264 269 280 288 292 293 298 0
1 140 143 145 154 159 163 165 191 212 224 235 250 257 274 278 293 299 0
1 140 145 159 160 162 183 188 205 206 212 224 225 235 257 264 265 278 0
1 140 145 160 162 164 169 188 204 205 208 212 218 224 257 265 280 299 0
1 140 160 162 176 204 205 213 218 224 239 250 253 254 260 265 269 280 0
1 140 162 166 183 188 205 212 224 235 251 257 260 261 264 269 278 280 0
1 140 162 178 191 200 205 207 208 224 235 250 257 260 262 270 279 280 0
1 143 149 154 169 208 212 224 237 257 259 261 265 278 280 292 293 299 0
1 143 154 212 224 235 250 251 257 259 260 261 263 278 279 280 293 299 0
1 143 162 166 178 183 191 208 212 224 235 257 260 264 269 280 292 293 0
1 162 163 164 205 212 224 235 250 257 259 260 261 265 269 279 280 293 0
1 166 170 172 178 183 191 205 212 224 240 260 262 264 279 285 288 293 0
1 169 172 178 188 204 205 212 218 223 224 244 261 265 278 280 288 293 0
2 139 146 147 152 155 160 163 166 177 198 210 212 213 273 277 283 299 0
2 139 159 166 183 184 197 198 199 204 211 241 264 265 277 279 287 297 0
2 140 162 166 188 191 197 204 205 213 220 224 250 260 268 269 287 300 0
2 140 162 166 188 191 197 204 211 220 239 242 250 251 253 268 280 282 0
2 140 166 188 191 197 204 206 211 220 224 225 239 242 250 251 253 293 0
2 141 147 150 155 166 184 197 198 199 213 250 251 260 277 279 297 300 0
2 146 147 152 154 155 166 172 187 189 201 210 212 220 234 240 248 268 0
2 146 147 155 163 166 184 200 207 210 234 248 257 277 278 286 288 300 0
2 146 147 155 166 169 188 189 190 198 201 210 212 234 240 248 257 262 0
2 146 166 169 186 200 204 207 210 220 234 235 248 253 262 268 270 286 0
2 147 149 154 155 166 170 172 187 189 197 201 210 212 239 240 246 288 0
2 147 152 154 155 166 170 186 189 197 201 210 212 239 240 244 266 277 0
2 147 152 155 166 170 172 197 205 212 213 234 236 240 253 262 266 269 0
2 147 155 166 170 191 197 211 220 239 250 260 263 265 268 279 297 300 0
2 149 152 154 166 184 187 197 204 212 213 231 235 239 248 253 277 299 0
2 152 154 166 184 187 191 197 204 210 212 234 235 240 248 253 266 268 0
2 157 159 166 170 188 191 197 204 213 219 220 239 250 265 279 297 300 0
2 157 166 170 172 186 190 197 204 210 212 220 234 240 253 262 268 288 0
2 157 166 183 184 197 198 199 204 211 220 241 260 264 279 287 294 297 0
2 159 161 166 173 188 191 197 204 213 239 250 277 279 292 293 300 303 0
2 166 184 197 198 199 204 206 211 225 234 241 250 253 265 285 292 293 0
3 18 166 197 200 204 207 239 240 248 253 257 262 270 277 283 286 300 0
3 23 154 205 208 220 221 224 250 254 256 266 268 271 279 285 293 300 0
3 100 145 149 152 163 167 172 180 183 196 208 215 222 228 245 249 286 0
3 137 142 145 146 149 151 152 160 163 183 190 215 242 243 245 249 257 0
3 141 150 170 172 184 198 199 205 230 235 251 261 269 278 280 298 299 0
3 145 147 160 163 170 172 174 188 191 205 213 240 273 278 280 298 299 0
3 145 160 167 170 172 188 191 212 221 230 240 251 280 283 285 298 299 0
3 149 153 154 156 158 170 172 188 189 201 204 209 213 234 235 247 283 0
3 149 153 159 170 172 185 188 189 201 204 209 213 234 242 247 248 262 0
3 149 154 159 170 172 188 208 209 221 224 234 235 237 247 253 266 271 0
3 150 154 160 170 172 183 191 240 264 265 274 278 279 280 288 291 298 0
3 150 154 160 170 172 191 206 211 225 235 250 265 274 279 283 288 298 0
3 150 160 167 169 170 172 183 191 251 264 269 274 278 280 292 298 299 0
3 150 167 170 172 191 196 212 221 224 225 240 251 261 280 283 285 299 0
3 150 170 172 183 191 197 240 261 262 264 265 274 278 279 280 288 298 0
3 150 170 172 183 191 216 244 251 261 264 266 274 280 281 283 298 299 0
3 150 170 172 191 196 204 211 221 224 225 235 251 261 274 280 283 299 0
3 153 156 159 166 170 172 188 189 201 204 209 213 234 242 247 248 262 0
3 153 170 172 188 191 197 200 204 209 213 237 239 244 245 253 262 283 0
3 156 158 159 166 170 172 188 189 201 204 209 213 234 240 247 262 278 0
3 160 167 170 172 177 188 191 212 221 226 235 251 280 283 285 298 299 0
3 163 170 172 183 188 191 204 212 240 251 261 264 280 283 288 296 298 0
4 136 138 141 144 150 151 155 157 163 180 182 188 206 219 225 238 255 0
4 137 141 144 148 150 151 153 154 158 177 180 182 195 214 217 232 280 0
4 138 139 140 144 148 161 174 197 204 208 214 222 223 239 270 296 303 0
4 140 144 150 158 160 161 162 164 167 170 190 193 205 213 218 257 276 0
4 143 160 162 188 204 206 217 218 249 257 262 265 269 270 283 292 293 0
4 161 164 165 170 191 199 211 222 226 239 240 242 251 253 261 297 302 0
5 136 147 159 166 170 204 212 215 225 228 261 265 268 270 280 283 298 0
5 139 140 146 149 153 157 158 162 164 192 208 217 235 237 270 295 302 0
5 139 149 157 160 163 164 170 190 192 208 217 225 230 254 256 270 286 0
5 140 142 144 154 155 157 163 169 171 174 188 189 199 217 219 240 273 0
5 140 146 150 153 159 163 164 166 167 170 173 202 220 228 242 270 288 0
6 136 146 156 164 180 190 198 208 215 224 225 227 232 236 277 288 303 0
6 136 156 172 176 189 209 212 213 216 223 224 225 228 283 287 288 289 0
6 147 157 160 170 172 184 197 204 211 244 250 260 263 265 269 292 297 0
6 172 173 176 188 191 208 209 212 213 228 240 244 277 278 298 299 300 0
6 172 173 176 199 208 209 212 220 221 227 240 244 268 278 287 288 298 0
6 172 191 208 209 212 219 221 223 227 240 244 264 277 283 287 288 289 0
7 138 139 142 143 147 149 155 160 172 178 183 188 217 230 264 268 270 0
7 154 165 176 183 185 191 198 204 205 240 244 247 263 274 283 288 298 0
7 154 165 183 191 197 198 199 204 209 220 235 236 237 239 274 278 298 0
8 159 160 170 176 200 207 218 237 250 251 257 259 262 266 272 279 280 0
8 166 173 181 183 200 207 256 257 259 260 263 269 273 280 288 291 292 0
10 137 139 143 144 145 151 154 173 190 200 202 207 228 236 241 258 269 0
10 143 144 145 149 158 160 163 165 167 171 208 217 242 256 267 274 282 0
10 144 145 149 158 160 164 165 167 171 173 180 204 213 274 276 283 302 0
10 145 163 165 166 170 172 188 251 261 268 274 278 280 288 293 296 298 0
10 166 170 172 177 188 204 205 226 230 251 261 268 269 278 280 298 299 0
11 136 144 199 209 220 221 235 239 247 253 260 262 266 268 283 299 300 0
11 140 145 146 149 155 173 175 177 188 192 194 204 214 224 248 270 292 0
11 140 145 146 149 158 164 173 175 177 188 194 201 214 224 248 292 302 0
11 140 145 154 188 197 212 235 239 250 251 257 260 261 274 278 280 299 0
11 140 163 164 185 212 235 250 257 259 260 261 262 265 269 280 282 288 0
11 141 145 179 185 192 201 209 211 213 234 235 237 247 253 262 274 298 0
11 145 160 166 177 191 204 205 216 221 230 235 251 268 280 283 288 298 0
11 146 153 156 164 175 189 201 208 209 210 212 220 221 268 271 288 294 0
11 148 160 166 174 181 184 204 205 207 213 224 234 248 253 268 270 280 0
11 149 153 154 164 176 189 197 201 209 210 213 235 239 260 277 299 300 0
11 153 157 209 213 220 230 239 244 247 248 253 260 262 278 296 299 300 0
11 154 160 165 166 181 188 212 227 235 239 250 257 260 265 278 279 299 0
11 154 164 166 172 188 206 212 214 218 225 227 244 251 261 272 285 299 0
11 156 162 163 197 209 213 220 221 224 225 235 239 253 262 268 283 300 0
11 163 164 179 197 209 213 227 235 239 241 253 260 262 277 283 288 300 0
11 167 172 179 182 188 199 212 213 226 231 234 240 241 244 247 253 262 0
11 167 172 185 197 199 200 201 204 205 212 213 235 239 241 242 253 262 0
11 172 182 199 209 213 219 220 242 247 264 268 283 286 288 292 293 300 0
11 172 191 201 204 205 209 213 219 227 247 250 274 277 278 299 300 303 0
12 136 140 143 144 150 154 158 161 164 181 188 190 195 204 270 282 301 0
12 136 143 144 149 158 163 165 168 170 171 178 213 230 237 241 242 267 0
12 137 140 142 149 151 156 171 172 177 183 184 198 206 213 264 269 283 0
12 137 140 151 156 172 177 183 188 190 193 206 210 213 258 264 279 290 0
12 139 140 162 170 205 208 218 224 240 257 258 259 261 262 265 278 280 0
12 140 143 148 154 160 162 164 188 206 208 224 248 251 257 262 271 280 0
12 141 142 143 144 149 150 158 159 165 168 170 171 173 180 181 208 267 0
12 141 142 143 144 149 150 158 165 167 168 171 173 213 230 240 266 276 0
12 142 204 205 218 224 227 244 257 259 261 265 269 276 280 283 293 299 0
12 143 154 160 178 188 191 204 206 224 225 244 262 265 270 283 288 293 0
12 144 148 155 158 163 177 190 208 218 250 254 257 260 279 293 294 302 0
13 136 139 144 154 170 187 189 201 210 212 234 240 261 277 283 288 300 0
13 136 152 161 174 183 191 211 213 239 260 264 277 279 284 292 293 300 0
13 140 153 170 180 183 191 234 260 264 265 269 272 274 277 293 298 300 0
13 145 159 160 191 211 220 234 250 251 253 268 272 274 280 292 293 300 0
13 152 169 187 188 189 200 201 211 212 213 218 234 235 248 269 274 288 0
13 153 162 169 170 179 212 227 233 247 250 257 259 260 262 279 295 302 0
13 156 159 170 177 183 188 189 213 240 244 254 256 264 271 277 279 300 0
13 166 170 191 205 210 212 240 250 257 263 269 277 278 291 296 299 300 0
14 136 137 140 141 142 145 150 154 170 173 177 197 221 224 246 258 274 0
14 136 137 140 142 146 147 151 152 154 157 162 163 174 208 254 269 294 0
14 136 137 140 146 147 149 151 152 157 160 162 163 174 178 192 208 226 0
14 136 137 145 146 148 153 154 156 164 173 176 177 180 184 204 233 258 0
14 136 140 141 143 145 146 149 151 152 157 172 180 190 204 219 239 241 0
14 136 140 141 145 147 152 156 164 169 188 192 202 205 213 224 292 293 0
14 136 140 145 146 149 151 152 157 173 174 190 214 215 219 238 241 293 0
14 136 141 143 145 146 149 151 152 157 172 196 197 201 205 208 219 292 0
14 136 141 143 145 146 150 151 152 157 172 173 183 190 201 214 219 245 0
14 136 141 143 145 146 151 152 157 190 201 205 208 219 224 225 245 285 0
14 136 145 146 149 150 151 152 157 172 173 183 192 196 205 219 292 293 0
14 136 145 146 151 152 160 173 174 190 192 215 219 241 245 250 255 272 0
14 138 140 141 143 145 147 152 154 156 165 169 206 208 238 255 269 301 0
14 138 140 141 145 147 152 156 162 164 178 193 202 206 208 267 274 298 0
14 138 141 145 147 152 156 162 164 175 178 188 192 202 208 225 270 274 0
14 139 152 159 166 183 197 204 211 220 224 225 264 268 269 287 292 293 0
14 140 141 143 145 147 152 156 165 169 188 205 206 207 208 255 269 301 0
14 140 141 145 147 148 152 156 162 164 200 202 206 208 224 232 269 270 0
14 140 141 145 147 152 156 162 165 188 198 202 205 207 208 238 279 301 0
14 140 145 152 159 160 162 166 197 204 208 211 224 225 250 274 277 300 0
14 141 145 147 152 156 162 175 178 192 202 206 208 221 224 270 274 283 0
14 166 197 204 208 211 220 224 225 250 260 268 269 286 292 297 300 303 0
15 21 136 144 153 156 166 220 221 235 239 253 256 262 268 278 294 299 0
15 136 153 154 156 189 201 209 213 233 239 244 247 277 278 295 299 300 0
15 138 145 147 151 155 161 162 168 169 178 202 205 228 238 255 257 276 0
15 139 141 164 199 204 213 223 224 230 235 254 260 277 287 289 299 301 0
15 139 159 162 163 172 191 204 213 219 223 224 254 262 277 283 287 299 0
15 139 160 162 204 209 213 220 235 237 239 247 253 260 262 268 278 287 0
15 152 161 183 188 191 198 200 210 213 239 250 257 265 277 279 297 300 0
15 153 173 183 198 199 210 213 233 239 241 257 263 277 279 283 297 300 0
15 154 157 166 167 185 189 197 201 204 213 220 235 239 260 278 299 300 0
15 154 165 183 184 197 198 199 204 235 241 260 264 269 274 278 292 298 0
15 154 169 184 189 198 201 204 210 212 227 234 235 240 248 266 272 302 0
15 154 169 187 188 189 198 201 204 210 212 234 235 248 265 286 288 293 0
15 159 163 188 199 204 212 213 218 234 241 247 253 277 278 282 288 300 0
15 163 165 166 191 196 204 223 230 261 265 268 273 274 278 280 288 298 0
15 164 167 179 189 201 213 220 235 237 239 254 256 260 262 268 288 300 0
16 58 142 145 147 149 150 154 162 166 169 182 195 215 244 267 268 275 0
16 82 84 151 155 161 164 166 169 191 195 213 226 232 242 246 248 295 0
16 82 151 155 161 164 166 169 172 198 199 213 226 232 242 246 248 295 0
16 136 137 140 144 154 162 179 191 205 212 224 235 250 257 260 279 280 0
16 136 138 140 144 145 147 155 161 166 168 170 171 172 184 188 202 226 0
16 136 138 140 145 146 147 161 166 170 171 172 184 188 202 210 238 255 0
16 137 138 140 143 170 178 191 204 212 225 240 250 257 260 269 285 293 0
16 137 138 143 153 154 159 170 188 191 212 250 257 279 280 285 288 293 0
16 137 138 143 160 172 188 212 225 235 244 250 260 269 279 293 298 299 0
16 137 139 154 159 191 205 213 220 224 225 229 250 254 268 270 279 300 0
16 137 140 142 145 149 150 160 162 171 173 177 193 205 214 267 284 295 0
16 137 140 143 160 162 170 188 191 212 224 231 249 262 265 271 278 280 0
16 137 140 153 159 162 170 172 191 200 204 205 207 224 225 250 269 270 0
16 137 140 153 160 162 170 205 212 224 250 257 259 260 269 279 280 299 0
16 137 140 162 172 178 205 212 224 225 244 259 261 265 269 273 278 291 0
16 137 142 143 149 154 160 162 173 177 183 190 193 204 205 244 267 284 0
16 137 142 145 149 150 160 162 167 169 171 177 182 190 215 240 270 275 0
16 137 142 145 149 150 160 162 169 182 195 197 239 244 267 273 275 295 0
16 137 142 149 150 154 160 162 169 173 177 183 193 232 270 273 275 295 0
16 137 142 149 150 154 160 162 169 173 177 193 195 214 270 273 275 295 0
16 137 143 154 188 208 212 224 225 240 248 250 257 260 279 292 293 299 0
16 137 153 170 172 179 183 191 205 212 224 225 260 262 264 279 288 293 0
16 138 140 141 143 149 151 153 155 158 162 165 167 193 197 269 283 284 0
16 138 140 141 143 149 151 155 158 162 164 165 167 193 218 237 240 284 0
16 138 140 141 146 149 150 151 153 155 158 162 165 167 193 217 283 284 0
16 139 140 141 149 150 151 153 155 158 162 164 165 167 176 180 193 197 0
16 140 141 149 150 151 155 158 162 165 167 170 180 182 215 231 240 251 0
16 140 141 149 150 151 155 158 162 165 167 172 193 218 233 240 283 284 0
16 142 143 145 146 149 152 154 160 162 169 173 193 224 270 273 275 287 0
16 142 143 145 149 152 154 159 160 162 173 177 193 205 214 232 276 284 0
16 142 143 145 149 152 154 160 162 169 173 177 182 195 205 217 270 284 0
16 142 143 145 149 152 154 160 162 169 173 177 193 244 270 273 275 295 0
16 142 143 145 149 152 154 162 169 173 177 182 185 190 205 215 270 295 0
16 142 145 149 150 152 154 160 162 173 177 183 193 202 204 205 267 273 0
16 142 145 149 150 152 154 162 173 177 183 193 197 204 205 239 276 284 0
17 139 149 151 153 162 165 168 181 188 205 217 229 233 235 242 255 261 0
18 136 139 141 146 150 152 155 170 177 194 202 203 207 221 224 258 267 0
18 136 140 144 145 151 153 163 165 171 175 176 182 197 202 232 280 283 0
18 138 139 140 146 149 157 164 173 188 192 205 208 212 217 225 240 302 0
18 138 139 143 146 164 168 175 176 184 197 198 201 212 241 258 286 300 0
18 138 139 145 146 150 164 170 176 184 190 197 198 200 201 224 255 286 0
18 138 139 149 153 157 164 188 194 208 212 217 225 248 286 288 298 302 0
18 138 139 149 157 164 173 175 188 192 200 207 208 217 218 225 248 302 0
18 138 142 143 148 154 155 177 195 204 208 226 237 264 267 280 292 293 0
18 139 144 151 153 157 159 161 163 170 176 182 232 233 257 267 271 284 0
18 139 151 153 155 157 161 163 167 171 172 176 182 201 224 232 239 267 0
18 140 143 145 148 149 157 160 197 202 204 205 212 218 220 239 262 270 0
18 140 143 151 153 155 162 163 170 175 176 179 181 182 202 271 280 283 0
18 140 144 151 153 163 164 167 175 176 181 182 190 201 233 267 271 284 0
18 140 151 153 155 163 168 169 175 176 181 182 188 202 271 275 280 283 0
18 141 143 145 148 156 157 165 172 174 179 212 215 219 233 247 262 274 0
18 144 146 154 160 166 169 175 184 189 204 210 212 218 234 235 248 253 0
19 41 137 138 160 170 174 177 197 200 205 214 217 239 240 246 286 301 0
19 126 136 138 152 163 164 174 175 192 214 218 229 245 258 265 286 292 0
20 136 137 144 145 151 158 173 176 177 222 225 232 245 255 274 288 291 0
20 136 145 153 156 157 163 168 178 181 188 192 197 207 239 255 257 294 0
20 136 147 149 151 156 162 163 174 178 193 207 215 216 238 292 294 301 0
20 137 139 145 147 161 173 175 187 197 202 204 215 216 249 258 301 302 0
20 139 142 153 160 166 180 191 194 197 204 211 250 260 277 279 287 297 0
20 140 142 147 155 162 166 191 197 211 239 250 260 263 265 277 279 300 0
20 142 144 166 184 186 189 197 198 204 212 213 235 239 248 253 262 268 0
20 142 146 147 154 155 166 168 170 172 184 200 207 210 240 253 277 286 0
20 142 146 147 155 166 170 172 189 198 201 210 212 239 240 262 268 288 0
20 142 147 155 166 183 191 197 211 234 260 264 265 277 279 292 293 300 0
20 142 166 170 172 174 191 197 204 210 212 215 234 240 253 262 268 288 0
20 142 166 170 188 191 197 204 211 228 250 260 265 277 279 297 300 303 0
20 142 166 172 174 187 197 204 210 212 215 218 236 239 240 248 253 262 0
20 142 166 191 197 200 204 211 224 225 239 250 260 263 268 279 297 300 0
21 62 136 139 152 155 162 163 164 167 175 178 216 223 245 288 292 295 0
21 80 136 138 139 141 144 145 146 148 153 155 171 199 207 255 274 284 0
21 80 138 139 141 145 148 153 155 175 188 199 207 216 218 255 273 300 0
21 80 138 139 141 145 150 171 188 199 202 207 216 218 270 284 300 301 0
21 80 139 154 164 172 188 209 213 220 224 234 235 244 247 253 268 299 0
21 120 136 140 143 162 171 184 197 202 203 207 215 216 242 267 277 295 0
21 133 154 159 170 172 188 199 209 213 239 241 247 253 277 278 299 300 0
21 136 137 138 139 141 146 150 158 161 175 191 207 208 221 255 258 270 0
21 136 138 139 141 142 143 146 150 153 199 202 216 221 258 275 284 300 0
21 136 138 139 141 143 144 148 155 168 199 202 218 221 232 255 275 284 0
21 136 138 139 141 143 145 148 155 161 168 171 191 202 218 221 255 273 0
21 136 138 139 141 144 146 150 155 161 191 207 208 221 255 270 273 288 0
21 136 140 147 152 161 164 177 197 199 204 214 226 232 238 244 263 264 0
21 137 149 153 154 170 172 188 189 191 201 209 213 234 240 247 264 294 0
21 138 139 141 145 146 148 155 161 188 191 207 221 255 270 273 300 301 0
21 138 139 141 150 158 161 171 191 202 207 208 218 221 259 267 284 293 0
21 138 139 147 163 167 187 191 204 213 216 221 224 225 239 253 270 292 0
21 138 139 147 167 168 175 176 187 191 205 213 216 253 256 292 298 301 0
21 139 157 170 172 188 191 209 213 219 220 235 239 247 253 262 283 288 0
21 139 163 170 172 188 191 209 212 213 223 235 250 277 278 288 289 303 0
21 144 170 172 188 208 209 221 234 235 247 253 262 266 277 278 288 300 0
21 149 153 167 170 172 188 189 191 201 212 213 234 244 247 250 262 300 0
21 149 154 160 170 172 176 188 197 209 213 235 239 263 277 278 288 294 0
21 149 160 165 170 172 176 188 209 213 220 235 247 262 268 278 294 299 0
21 153 162 164 170 172 188 197 208 209 221 239 244 253 262 271 277 294 0
21 157 170 172 188 191 192 209 213 220 234 235 247 253 262 278 299 300 0
21 159 163 170 172 188 189 191 201 209 212 213 235 277 282 283 299 300 0
21 159 166 167 170 172 176 188 212 213 234 240 241 245 247 253 262 268 0
21 167 170 172 188 189 197 201 204 208 212 221 235 239 262 266 271 300 0
21 170 172 188 189 199 201 204 209 213 234 235 247 262 277 278 288 300 0
22 136 138 139 144 145 151 158 160 162 163 174 178 226 272 287 295 299 0
22 136 138 139 144 151 155 158 162 163 170 178 226 265 272 291 295 299 0
22 136 138 139 144 151 157 158 160 163 174 178 214 217 226 229 240 288 0
22 138 139 144 151 157 158 160 163 174 178 226 240 272 277 287 288 295 0
22 139 140 147 150 151 157 164 204 207 208 217 224 245 258 271 275 303 0
22 139 144 145 151 155 156 157 158 162 163 168 174 178 226 240 295 299 0
23 46 161 178 191 205 213 224 250 253 254 260 262 277 279 285 293 300 0
23 80 141 147 150 151 164 165 182 187 197 208 233 239 240 257 258 293 0
23 136 145 146 150 152 177 180 181 186 188 194 207 219 227 229 272 284 0
23 139 142 146 161 163 164 169 181 183 187 201 206 215 220 249 264 278 0
23 139 155 159 205 207 213 224 225 250 253 254 256 269 277 279 285 300 0
23 139 161 163 164 169 173 181 183 195 211 217 220 242 264 270 278 286 0
23 143 146 151 165 171 174 181 183 200 203 207 242 251 267 271 279 293 0
23 145 149 160 163 165 168 174 184 188 192 196 216 217 224 240 242 248 0
23 147 154 155 159 183 201 205 213 224 254 264 269 277 285 292 293 300 0
23 149 150 152 180 183 195 198 220 222 242 245 249 255 257 270 272 275 0
23 166 201 205 207 211 213 224 231 239 256 261 265 268 269 279 280 293 0
36 81 143 145 160 161 191 197 206 211 230 240 241 265 274 278 298 299 0
36 136 144 145 167 168 182 191 205 232 242 255 261 265 278 280 298 299 0
36 136 144 153 156 176 189 201 204 209 221 231 234 236 247 248 262 266 0
36 136 144 156 163 173 209 212 219 221 235 266 277 278 295 299 300 303 0
36 136 144 156 167 172 176 185 191 209 221 234 235 242 247 253 262 266 0
36 136 149 153 154 156 209 221 234 235 247 253 266 271 277 283 288 300 0
36 138 140 149 154 191 205 231 235 250 251 260 261 269 278 280 288 298 0
36 141 150 159 160 166 184 198 199 212 224 225 251 268 278 280 285 299 0
36 144 158 176 188 189 201 204 208 212 221 237 239 240 241 247 262 266 0
36 145 154 183 191 204 207 224 225 235 236 240 260 264 274 279 283 285 0
36 145 160 184 198 199 224 225 230 240 241 265 274 280 283 285 288 293 0
36 149 153 154 201 205 208 212 221 234 242 244 247 253 266 271 283 302 0
36 149 159 165 168 191 207 231 240 246 250 262 266 269 274 278 279 298 0
36 154 157 159 160 162 165 176 208 209 220 221 235 247 266 271 283 300 0
36 154 159 160 191 196 204 211 218 224 225 240 250 265 274 279 280 281 0
36 154 184 198 199 235 236 241 250 260 261 265 274 279 280 283 298 299 0
36 159 160 174 191 211 223 224 225 230 240 250 266 273 274 280 283 299 0
36 159 160 184 198 199 205 235 241 250 251 262 269 278 280 288 292 298 0
36 166 174 191 212 221 224 225 240 261 266 268 273 280 283 285 288 301 0
36 172 189 191 197 201 208 209 221 239 264 266 271 274 277 278 288 300 0
36 183 191 206 211 212 221 225 251 260 261 264 283 288 289 292 293 298 0
37 139 140 141 145 177 188 189 201 204 213 238 250 254 260 262 271 277 0
37 139 140 178 188 189 201 213 220 250 254 256 260 262 268 269 287 296 0
37 140 145 162 166 170 183 188 206 212 218 225 240 257 260 262 264 272 0
37 140 153 154 159 165 170 172 188 200 207 250 251 261 269 270 278 299 0
37 140 154 160 162 164 166 206 212 225 235 250 251 257 259 260 263 269 0
37 147 155 156 190 205 213 246 250 253 254 260 272 277 279 289 296 300 0
37 154 160 165 187 191 196 197 213 234 250 251 253 256 277 280 296 300 0
37 160 172 200 207 235 244 250 251 259 260 262 270 279 280 283 286 299 0
37 166 178 179 183 192 204 208 221 246 260 264 266 268 271 277 279 300 0
37 185 188 200 207 235 250 257 260 261 262 265 270 278 279 280 286 299 0
38 136 137 139 140 141 145 160 163 169 188 192 196 205 225 226 251 287 0
38 136 137 140 141 145 149 160 162 169 177 196 205 226 251 259 271 280 0
38 136 137 140 141 145 149 160 174 181 188 196 200 205 225 226 287 293 0
38 136 137 140 141 145 149 162 169 177 188 190 205 225 226 249 261 265 0
38 136 137 140 141 145 149 162 169 188 190 205 226 249 251 261 280 287 0
38 136 137 140 141 145 160 169 177 182 188 190 205 226 238 265 280 293 0
38 136 137 140 141 145 160 177 181 188 192 196 200 205 225 226 251 293 0
38 136 137 140 141 145 177 181 188 192 196 200 205 226 251 261 280 293 0
38 136 140 141 145 154 162 169 175 177 188 192 196 205 225 226 251 261 0
38 139 140 145 157 159 160 170 191 205 211 220 228 234 250 265 287 293 0
38 140 180 191 195 196 208 213 237 239 250 260 263 269 277 293 300 303 0
38 142 157 159 170 187 188 191 196 200 213 220 239 250 265 279 297 300 0
38 144 155 174 184 187 189 200 201 207 210 215 234 235 248 262 277 286 0
38 144 160 170 172 173 183 191 200 206 211 213 239 244 253 265 280 282 0
38 161 183 184 188 194 198 199 200 211 239 241 260 264 277 279 297 300 0
39 145 146 149 151 152 154 161 163 180 183 218 219 243 245 269 270 292 0
39 145 146 149 151 152 159 163 172 174 180 183 184 190 198 240 248 270 0
43 138 139 142 143 147 152 155 160 173 178 181 188 214 230 233 254 270 0
44 136 138 139 142 144 145 148 153 155 159 165 172 174 178 184 261 292 0
44 136 138 143 149 150 155 166 167 168 169 174 197 201 216 264 274 297 0
44 136 139 142 144 161 163 164 180 183 184 195 211 220 255 276 278 286 0
44 136 139 142 144 161 163 172 173 183 184 195 206 220 255 276 283 286 0
44 136 141 143 145 146 149 150 154 155 157 166 167 169 175 205 212 284 0
44 136 141 143 145 148 149 154 155 156 157 166 167 175 188 270 274 275 0
44 136 141 143 145 149 150 155 157 166 167 168 175 190 262 270 274 275 0
44 138 139 142 145 148 153 154 159 160 172 174 177 178 233 255 274 300 0
44 139 140 142 145 148 150 153 155 159 172 173 174 177 178 261 300 301 0
44 139 143 145 149 150 158 159 166 194 195 220 222 224 231 256 259 268 0
44 139 143 148 152 155 159 178 188 191 195 205 208 221 254 266 277 293 0
44 140 143 145 148 150 152 159 162 166 178 191 195 205 220 239 268 300 0
44 142 143 144 145 149 150 151 157 160 178 199 209 212 220 224 239 287 0
44 143 145 148 152 155 159 166 188 191 195 205 220 224 239 268 293 300 0
44 143 147 148 150 152 158 159 195 205 222 224 254 259 266 277 293 294 0
44 143 148 149 150 158 159 185 188 195 214 216 224 254 256 266 277 294 0
44 155 168 179 191 197 205 207 213 217 224 225 233 251 256 261 280 287 0
45 138 142 143 144 146 151 163 165 191 197 198 200 224 276 283 288 289 0
45 140 143 156 162 172 173 197 201 209 212 219 220 239 253 268 291 300 0
46 136 138 139 145 146 150 156 158 162 168 184 209 212 255 285 295 301 0
46 136 138 144 150 158 163 166 188 198 199 202 205 206 220 268 269 270 0
46 136 138 144 150 158 163 167 168 169 174 184 199 204 206 241 268 270 0
46 136 138 145 146 156 158 162 163 165 168 184 207 220 255 279 285 292 0
46 136 144 145 146 149 151 152 161 165 170 183 190 217 240 245 255 257 0
46 137 142 145 146 149 150 151 152 157 161 166 183 189 190 224 225 245 0
46 137 145 146 149 151 152 154 161 170 183 184 196 224 225 240 245 270 0
46 137 145 146 149 151 152 161 165 174 180 183 190 224 225 240 248 258 0
46 137 145 149 151 152 161 180 183 190 211 219 243 245 268 270 285 286 0
46 138 139 144 147 150 155 163 169 171 173 175 178 188 199 230 276 283 0
46 138 139 145 146 151 156 157 158 162 165 168 207 208 209 255 292 295 0
46 138 139 145 153 155 165 168 172 174 178 184 217 266 270 286 288 295 0
46 139 154 165 172 174 187 189 191 201 207 224 231 234 256 261 273 300 0
46 140 142 143 144 150 158 161 164 170 185 190 207 208 218 257 269 276 0
46 142 154 168 174 188 194 206 224 231 253 254 256 261 269 270 271 276 0
46 142 160 166 174 176 179 188 204 205 225 233 234 253 262 268 271 276 0
46 142 176 193 204 205 224 225 231 234 249 251 253 254 261 262 276 292 0
46 143 144 148 155 158 161 172 190 204 208 218 250 254 260 269 285 293 0
46 154 155 174 187 196 197 207 212 224 231 239 253 254 256 261 273 280 0
46 163 164 166 204 205 207 224 248 257 259 261 262 265 270 282 293 299 0
47 136 140 144 145 156 194 198 207 220 224 250 254 255 256 260 262 268 0
47 138 147 157 160 164 167 187 191 197 204 205 216 229 239 253 292 298 0
47 138 147 157 163 164 167 177 187 189 191 204 205 216 234 266 271 298 0
47 138 147 157 163 164 167 189 191 193 195 204 216 220 224 225 234 270 0
47 138 147 157 164 167 187 189 191 204 205 216 224 225 234 245 268 301 0
47 144 145 154 159 166 191 197 207 250 253 264 268 277 279 287 294 296 0
47 154 159 178 183 188 197 204 219 239 253 254 264 269 277 289 292 296 0
47 154 159 201 204 206 213 222 225 250 254 259 277 279 285 287 294 296 0
47 159 172 176 177 178 204 205 208 212 222 225 226 250 254 277 279 296 0
48 139 140 149 153 156 157 158 162 164 204 205 217 235 237 262 279 302 0
48 139 145 149 155 157 158 164 170 173 192 202 208 217 228 237 262 274 0
48 139 148 149 153 155 157 158 163 164 182 188 192 208 217 232 235 237 0
48 139 149 155 156 157 158 160 164 170 182 205 217 237 262 280 296 302 0
49 136 143 154 188 206 212 223 224 225 248 251 257 261 269 278 288 293 0
49 139 159 172 183 191 198 204 207 217 222 224 254 264 268 277 296 300 0
49 143 154 160 206 208 212 224 225 248 257 259 265 269 278 288 292 293 0
49 159 166 176 189 191 201 208 220 221 222 250 266 268 271 281 287 294 0
49 159 170 197 198 222 239 240 244 250 253 254 256 262 268 277 296 300 0
50 136 137 138 139 141 142 145 151 160 162 171 173 207 241 255 263 275 0
50 136 137 139 141 142 145 160 162 173 199 202 241 246 258 262 275 291 0
50 136 137 140 141 145 149 155 169 174 188 196 205 225 226 261 287 293 0
50 136 137 140 141 145 155 162 169 174 177 188 196 205 225 226 238 261 0
50 136 137 140 141 145 162 169 188 192 196 204 205 225 226 251 261 287 0
50 136 139 140 156 163 165 169 174 178 188 197 198 211 212 222 248 253 0
50 136 139 140 157 162 168 170 173 174 183 184 197 211 213 260 279 287 0
50 136 147 163 170 200 207 210 222 240 261 270 273 278 286 287 294 299 0
50 139 140 146 156 163 165 169 174 189 198 201 205 208 211 212 216 248 0
50 139 140 156 163 165 169 174 177 187 197 198 205 208 211 212 248 253 0
50 139 140 156 163 165 169 174 188 197 198 200 208 211 226 231 248 253 0
50 159 161 166 170 184 197 204 208 211 224 250 279 287 292 297 298 300 0
51 136 142 143 144 147 148 151 152 153 159 160 170 175 213 268 271 295 0
51 136 142 143 144 148 149 151 152 156 159 160 170 171 204 240 268 295 0
51 136 153 157 159 160 166 170 172 179 188 219 250 262 263 279 280 292 0
51 142 143 144 147 149 151 152 160 166 170 171 172 177 192 208 240 277 0
51 142 143 144 148 151 152 159 160 170 171 172 213 240 245 253 261 268 0
51 150 159 172 188 192 197 235 239 244 246 250 256 262 273 279 280 291 0
52 136 138 139 140 143 147 150 151 164 204 208 219 258 271 279 298 303 0
52 137 141 146 149 151 157 160 167 170 204 211 213 219 265 280 283 285 0
52 137 141 146 151 160 162 167 200 211 213 219 245 247 251 268 280 292 0
52 137 141 146 151 160 167 194 204 208 211 213 219 265 268 280 283 285 0
52 137 141 146 151 160 167 200 206 211 213 219 225 245 247 251 268 298 0
52 140 154 165 205 206 207 224 225 230 235 246 260 269 278 282 285 288 0
52 145 149 154 165 189 201 204 205 207 235 246 260 278 279 280 298 299 0
52 145 174 200 213 220 224 225 228 239 260 268 274 285 292 293 300 303 0
52 161 170 199 210 211 240 241 250 263 269 277 283 287 289 292 294 297 0
53 139 166 191 197 204 211 212 220 222 250 260 272 277 279 297 298 300 0
53 147 152 157 166 169 170 172 204 210 227 236 237 240 253 262 266 302 0
53 166 183 191 197 204 212 213 260 264 265 272 277 279 285 292 293 300 0
54 137 138 145 146 148 159 162 163 164 171 178 180 194 224 264 282 296 0
54 138 140 148 153 154 159 162 205 212 218 224 225 236 250 251 269 285 0
54 138 141 146 150 153 158 163 171 177 192 197 203 239 264 266 274 290 0
54 138 143 153 154 188 192 205 212 233 236 239 247 253 255 266 273 279 0
54 154 159 166 167 185 189 195 197 199 200 201 204 205 209 239 241 300 0
55 140 152 153 162 170 184 188 201 205 206 211 224 225 234 242 253 261 0
56 65 141 143 145 149 155 156 168 188 194 212 215 234 249 263 265 275 0
56 65 141 143 145 155 160 168 181 182 195 197 200 215 258 265 270 288 0
56 136 144 154 161 165 168 170 195 204 208 243 244 247 249 255 266 268 0
56 137 142 143 147 148 150 151 153 154 160 161 163 173 176 177 195 267 0
56 138 140 146 149 150 154 157 162 163 169 170 208 220 246 255 268 295 0
56 138 142 143 149 150 163 166 169 181 208 218 246 255 268 271 276 292 0
56 139 140 142 144 145 163 165 169 171 173 181 183 188 199 240 276 278 0
56 139 140 144 153 158 164 165 169 171 173 182 188 276 280 295 298 302 0
56 139 142 144 158 165 169 171 173 181 182 183 188 230 240 276 278 295 0
56 139 142 145 150 161 163 170 181 183 184 197 202 206 220 240 276 283 0
56 139 142 145 161 163 165 170 181 183 184 206 220 240 275 276 283 286 0
56 141 142 148 150 151 153 158 160 163 166 168 169 173 176 268 276 296 0
58 136 138 141 146 151 163 164 166 168 171 177 181 202 233 238 244 268 0
58 136 138 142 146 153 156 157 160 161 202 205 208 224 225 233 262 277 0
58 136 138 143 146 147 156 157 163 171 180 235 243 255 267 275 277 303 0
58 136 138 146 147 156 157 160 163 166 180 208 219 220 224 225 268 303 0
58 136 139 140 146 148 153 156 157 160 161 162 171 172 182 240 275 277 0
58 136 139 146 147 156 157 159 160 161 205 208 233 238 262 265 277 288 0
58 136 140 146 147 154 156 157 171 173 178 180 194 215 226 232 238 277 0
58 136 140 146 153 156 157 160 161 162 171 172 178 182 202 226 233 267 0
58 136 141 142 144 146 149 164 166 168 184 203 207 218 231 233 244 268 0
58 136 141 144 146 148 149 157 164 168 171 179 184 197 202 218 226 244 0
58 136 141 144 146 164 168 171 180 184 197 202 218 231 238 244 268 293 0
58 136 141 146 151 157 164 168 171 177 180 202 204 218 231 235 238 255 0
58 136 141 146 158 164 166 168 175 179 197 203 207 218 235 238 267 268 0
58 136 142 146 148 153 156 157 160 161 162 178 208 226 245 275 276 277 0
58 136 146 154 156 157 163 180 182 194 207 208 215 235 236 243 270 277 0
58 137 139 142 144 145 151 155 163 174 181 188 198 199 217 238 258 276 0
58 138 144 145 151 157 158 160 174 178 199 219 229 239 277 278 288 295 0
58 139 142 144 145 149 155 158 174 180 181 182 184 198 217 260 276 295 0
58 139 142 144 145 151 155 158 161 165 174 180 181 217 238 240 276 295 0
58 139 142 144 145 155 161 163 165 169 174 181 188 199 205 217 238 249 0
58 139 144 145 151 155 158 159 163 173 174 178 192 217 240 283 287 288 0
58 144 151 153 155 158 161 162 168 174 175 180 240 277 278 287 288 295 0
60 132 141 147 150 162 166 168 173 178 180 218 226 255 268 270 295 303 0
60 136 138 140 142 143 144 146 154 157 163 180 193 208 255 271 279 284 0
60 136 140 141 145 146 152 153 154 156 179 181 185 188 205 207 272 281 0
60 136 141 144 145 146 150 152 153 154 156 179 181 194 202 272 274 281 0
60 136 141 144 145 146 150 152 153 156 175 177 179 181 185 202 262 272 0
60 136 141 145 146 152 153 154 156 157 179 181 185 188 205 207 279 281 0
60 136 141 145 146 152 153 156 157 179 181 188 194 207 262 279 281 294 0
60 136 143 150 155 162 165 168 169 199 202 204 212 214 220 239 240 267 0
60 136 144 150 153 155 165 168 169 172 184 194 199 202 204 205 220 234 0
60 136 144 153 155 161 165 169 172 173 184 194 197 200 204 214 261 293 0
60 136 147 150 155 160 165 168 169 191 194 199 202 214 239 240 256 292 0
60 136 147 155 158 160 161 165 169 188 194 200 214 239 240 258 261 284 0
60 136 147 155 160 161 163 165 168 169 184 217 220 234 240 246 255 261 0
60 136 150 152 153 155 165 168 169 173 188 194 199 202 204 248 263 293 0
60 138 140 142 143 144 154 157 163 180 205 208 211 217 246 258 271 273 0
60 138 140 143 145 146 148 152 155 159 160 168 184 185 198 220 242 255 0
60 138 140 143 145 146 161 168 187 188 198 200 202 220 224 225 238 254 0
60 138 140 143 145 146 161 168 188 198 200 202 216 220 224 225 238 254 0
60 138 143 145 146 148 152 155 160 168 198 212 242 255 258 277 292 303 0
60 140 143 145 149 168 185 188 198 202 215 217 218 236 243 244 268 277 0
62 69 136 140 141 159 161 163 164 173 174 177 185 188 214 222 226 245 0
62 136 137 138 139 142 144 145 148 159 168 170 172 178 183 192 212 219 0
62 136 137 138 140 144 145 148 159 161 168 183 192 207 255 265 272 288 0
62 138 139 144 150 152 155 160 166 173 174 214 216 224 225 239 263 267 0
62 138 139 144 150 152 160 178 181 188 190 197 204 214 216 225 255 285 0
62 138 141 145 150 152 160 174 181 188 197 204 214 224 225 238 243 293 0
62 138 143 144 152 160 174 181 188 190 197 204 214 224 241 263 276 293 0
62 138 143 144 160 173 174 177 186 188 190 214 216 224 238 241 276 293 0
63 136 141 144 145 149 150 153 156 161 165 172 193 195 204 235 255 268 0
63 136 141 144 146 155 170 173 183 188 202 203 207 221 224 233 241 267 0
63 136 155 156 161 165 166 168 185 193 195 205 235 240 255 266 268 269 0
64 136 138 139 144 149 151 158 160 170 178 215 265 280 285 287 288 295 0
64 136 140 144 145 146 149 150 151 152 157 172 182 204 218 219 255 288 0
64 136 140 145 146 149 150 151 152 157 172 173 182 199 219 255 286 299 0
64 136 140 145 146 149 150 151 152 157 172 190 204 218 219 255 283 299 0
64 136 140 145 146 149 150 151 152 162 182 219 246 255 272 283 286 302 0
64 136 140 145 146 149 151 152 162 163 172 173 199 202 219 229 241 272 0
64 136 140 145 146 150 151 152 157 163 190 192 219 245 255 282 286 288 0
64 136 140 145 146 151 152 155 157 172 182 191 219 241 245 258 286 299 0
64 136 140 145 146 151 152 157 162 163 190 197 219 241 245 246 255 286 0
64 136 141 143 145 146 151 152 155 157 178 190 218 219 241 245 258 299 0
64 136 141 144 145 146 151 152 157 160 172 178 218 219 220 245 255 299 0
64 136 145 146 149 151 152 157 172 178 190 199 219 241 255 283 288 301 0
64 137 139 142 143 144 145 150 155 158 163 165 174 188 217 238 249 276 0
64 137 139 142 144 145 147 149 155 174 181 182 184 188 198 199 217 295 0
64 137 139 142 144 145 147 155 158 163 165 170 181 182 217 238 240 291 0
64 137 139 142 144 145 147 155 158 163 165 174 181 182 188 205 217 238 0
64 137 139 142 144 145 149 155 170 181 182 184 188 199 205 217 291 295 0
64 137 139 142 144 145 149 155 174 181 182 184 198 199 217 240 292 295 0
64 137 139 142 144 145 151 155 158 163 165 174 181 188 205 217 238 261 0
64 137 139 142 144 145 151 155 163 169 174 181 187 188 199 217 238 258 0
64 137 139 142 144 145 155 163 165 170 181 182 188 199 205 217 238 291 0
64 137 139 143 144 145 149 151 155 158 163 172 174 178 181 184 205 217 0
64 137 139 143 144 145 149 155 163 164 165 170 181 182 199 205 217 284 0
64 137 139 143 144 145 151 155 163 170 181 184 188 199 205 217 238 291 0
64 138 139 144 151 158 160 170 178 180 211 215 220 265 280 287 288 295 0
64 139 141 142 144 145 155 158 165 170 181 217 238 249 263 276 291 295 0
64 139 142 144 145 147 149 151 155 174 180 181 199 205 217 258 260 295 0
64 139 142 144 145 147 151 155 163 170 181 184 199 217 238 260 291 292 0
64 139 142 144 145 147 155 158 165 174 181 182 188 205 217 238 260 295 0
64 139 142 144 145 155 168 169 174 178 181 182 184 198 199 217 238 295 0
64 139 143 144 145 149 155 158 163 168 169 174 181 184 198 205 217 249 0
65 137 138 140 141 143 146 147 155 159 172 173 175 197 239 250 288 291 0
65 139 140 144 149 154 157 159 172 177 189 207 222 225 254 270 275 292 0
66 138 140 146 150 152 160 162 167 170 173 202 211 224 225 228 229 296 0
67 136 140 143 145 146 149 166 171 213 217 225 239 242 262 270 288 292 0
67 139 144 145 151 156 157 158 160 162 163 168 174 178 217 226 292 299 0
67 140 143 145 146 149 150 156 166 215 224 225 247 262 270 274 285 288 0
68 136 137 139 142 143 145 151 162 184 197 203 207 258 267 271 286 295 0
68 136 138 139 140 143 144 145 146 151 166 177 181 184 203 224 267 300 0
68 136 139 140 142 143 144 151 155 160 181 184 197 203 204 207 254 275 0
68 136 140 143 146 151 162 171 184 203 207 242 267 271 275 277 279 295 0
68 136 147 153 155 160 161 165 169 188 192 195 197 200 222 233 248 258 0
68 136 150 152 155 161 165 169 173 191 192 199 200 202 204 240 246 297 0
68 138 140 142 143 145 146 160 161 168 188 198 202 217 220 236 239 254 0
68 138 140 143 145 146 155 160 161 168 172 174 198 220 242 255 258 268 0
68 138 140 143 145 146 166 168 188 198 202 215 220 224 225 270 279 303 0
68 140 143 145 148 149 152 168 172 180 188 192 198 202 218 220 255 292 0
68 143 145 155 168 172 188 193 198 202 217 218 220 238 254 258 270 292 0
69 140 146 147 149 152 153 157 158 159 164 166 173 177 208 240 268 302 0
69 140 147 149 153 154 155 157 159 164 169 177 188 195 208 239 240 301 0
70 82 84 157 160 177 184 197 198 200 210 211 220 222 230 265 277 295 0
70 136 137 140 146 147 157 159 164 165 171 175 177 180 238 244 255 283 0
70 136 137 140 146 147 159 162 164 171 172 175 177 179 188 205 226 269 0
70 136 137 146 149 155 156 159 168 169 170 171 179 239 240 255 287 302 0
71 136 138 143 144 150 155 162 165 169 172 184 188 197 199 200 204 240 0
71 138 139 146 150 153 156 161 162 164 170 174 175 184 191 213 255 286 0
71 138 139 146 153 156 162 164 170 174 175 184 199 213 241 255 282 286 0
71 138 139 146 162 164 170 174 175 184 199 200 241 255 266 270 282 286 0
71 138 139 146 164 170 174 175 184 199 202 205 219 240 241 266 286 302 0
71 140 141 144 150 155 158 166 171 184 188 198 200 239 261 268 274 295 0
71 141 144 150 155 169 171 177 184 197 198 199 219 239 256 276 280 295 0
71 141 144 155 158 169 180 188 189 198 219 238 239 240 258 261 274 295 0
71 141 144 155 169 177 180 184 185 188 199 205 238 239 247 261 269 295 0
71 144 145 150 151 153 166 169 180 184 185 188 198 199 215 219 268 295 0
71 144 145 150 151 153 166 169 180 184 185 196 198 199 215 219 268 295 0
71 144 155 169 171 177 180 184 185 188 198 199 205 239 247 261 269 295 0
72 100 136 138 140 147 159 161 173 174 214 223 229 246 250 258 269 283 0
72 136 144 145 150 151 156 157 165 170 189 204 205 215 219 235 239 269 0
72 136 145 147 150 151 155 161 165 170 189 198 202 208 219 235 301 303 0
73 136 137 145 149 153 163 170 172 173 178 179 188 189 206 214 285 293 0
74 136 138 139 140 144 161 164 190 199 201 212 218 240 269 272 285 288 0
75 136 142 143 144 149 158 160 161 163 164 170 202 207 276 288 291 295 0
75 136 142 144 157 164 168 169 175 188 193 195 212 239 275 276 286 295 0
75 139 145 146 153 158 163 166 167 174 176 180 200 204 205 220 239 269 0
76 136 147 152 154 155 160 176 197 198 210 220 240 248 253 278 294 299 0
76 139 143 146 147 154 155 164 175 178 197 200 208 212 218 229 287 288 0
76 141 149 164 172 174 215 220 224 226 237 240 244 260 266 275 280 289 0
76 144 146 172 177 198 200 204 207 208 213 218 221 222 228 230 244 277 0
77 136 138 143 149 151 180 182 184 192 196 198 199 204 219 239 241 255 0
77 140 165 183 198 205 208 211 234 241 260 264 269 277 279 293 300 303 0
77 141 150 162 164 188 198 200 210 211 217 239 264 277 278 297 300 302 0
78 136 137 138 141 145 156 159 172 178 186 194 218 220 255 268 269 287 0
78 136 138 142 145 146 150 154 197 202 205 207 209 214 258 260 277 283 0
78 137 138 140 142 147 159 163 171 172 173 174 193 205 215 246 250 295 0
78 138 141 144 169 170 172 185 189 200 210 220 239 240 244 253 262 268 0
78 138 143 160 172 181 200 206 207 210 211 234 244 248 253 255 269 293 0
78 139 142 143 145 146 152 162 163 166 167 170 196 197 217 239 240 268 0
78 140 141 142 146 149 166 170 171 192 193 198 200 207 229 257 258 288 0
78 162 169 170 184 187 206 207 210 211 212 222 226 239 240 244 253 262 0
79 136 138 142 143 144 149 150 155 160 173 193 204 214 216 243 270 276 0
79 136 139 142 150 160 162 165 166 172 173 178 183 192 235 265 271 300 0
79 138 140 142 145 155 166 170 172 177 180 182 189 198 201 202 205 258 0
79 139 151 154 159 166 189 204 205 212 223 235 241 247 266 269 283 295 0
79 145 156 158 176 189 197 200 205 212 213 225 239 240 244 262 271 283 0
80 83 138 139 140 143 145 159 164 169 171 177 184 197 198 212 236 275 0
80 136 139 148 150 151 153 154 155 157 161 163 171 176 195 206 255 284 0
80 137 139 147 148 150 151 153 154 155 163 164 171 188 195 206 226 258 0
80 137 148 150 151 153 154 155 157 159 163 164 171 176 195 206 232 258 0
80 138 139 140 143 145 146 161 164 169 181 184 191 197 212 241 251 258 0
80 138 139 140 143 145 161 164 169 177 184 197 199 212 236 241 258 275 0
80 138 139 140 145 150 157 161 164 169 171 177 184 197 199 212 236 275 0
81 143 144 145 146 151 156 159 160 172 191 198 207 208 215 220 263 281 0
81 143 144 146 151 156 159 160 161 172 177 207 208 215 263 268 269 275 0
82 136 137 138 141 142 143 144 145 147 173 175 224 241 258 260 263 274 0
82 136 137 138 141 142 143 145 150 155 173 214 224 258 260 263 274 300 0
82 136 137 139 140 141 142 145 155 173 175 177 202 205 208 214 241 246 0
82 136 137 139 140 141 142 160 162 173 174 175 177 199 208 241 263 275 0
82 136 137 139 141 142 145 150 151 160 162 173 175 214 246 258 275 302 0
82 136 137 139 141 142 145 160 162 170 171 173 199 214 241 263 275 276 0
82 136 137 140 141 142 143 145 150 160 166 171 173 175 177 214 263 274 0
82 136 137 141 142 143 144 145 150 160 172 173 175 224 255 263 274 300 0
82 136 137 141 142 143 145 155 158 173 175 224 241 258 260 263 284 302 0
82 136 137 141 142 144 145 155 172 173 175 202 205 224 241 246 255 280 0
82 136 138 139 142 143 145 148 149 156 163 165 168 173 216 233 240 289 0
82 136 138 143 145 148 149 150 156 173 184 200 216 233 236 239 240 272 0
82 136 138 143 145 148 149 150 156 181 184 200 216 233 239 240 288 289 0
82 136 143 145 148 149 156 165 166 184 200 212 216 233 236 239 240 289 0
82 136 143 145 148 149 156 165 173 180 181 184 200 212 216 239 240 272 0
82 137 139 141 142 143 144 145 160 166 173 208 224 241 246 257 262 292 0
82 137 141 142 143 144 145 155 173 208 214 224 241 246 257 258 274 276 0
82 137 141 142 143 144 145 160 171 173 180 208 214 224 241 246 257 274 0
82 138 139 142 143 145 148 149 150 153 156 168 173 178 216 233 235 265 0
82 138 139 143 145 148 149 150 153 156 168 172 173 184 216 233 235 289 0
82 138 142 143 145 148 149 156 163 165 173 200 214 216 233 236 239 240 0
82 138 142 143 145 148 149 156 165 173 200 216 219 233 236 239 240 288 0
82 139 143 145 148 149 150 153 156 168 172 173 174 180 184 207 216 235 0
82 139 143 145 148 149 150 156 162 168 173 180 184 216 240 265 287 293 0
82 142 143 145 148 149 153 156 165 168 173 180 207 214 216 218 235 301 0
82 142 143 145 148 149 156 165 166 180 200 212 216 218 236 239 240 277 0
82 143 145 148 149 150 156 168 172 173 184 212 214 216 233 239 240 288 0
82 143 145 148 149 153 156 165 168 172 180 184 212 216 235 239 272 289 0
84 136 137 138 139 141 144 145 146 150 188 199 202 207 221 267 275 301 0
84 136 137 138 139 141 145 146 150 158 161 175 188 191 202 207 216 221 0
84 136 138 149 155 156 174 178 181 197 214 215 217 228 229 235 238 269 0
84 138 139 140 146 149 150 155 162 170 171 192 199 245 248 257 258 266 0
84 138 139 140 146 150 162 163 170 171 197 199 217 240 250 255 266 298 0
84 138 139 141 142 143 146 150 153 156 175 188 199 202 208 221 300 301 0
84 138 139 141 143 144 145 146 150 152 168 175 188 199 202 216 221 246 0
84 138 139 141 143 146 148 168 188 199 202 221 242 253 255 266 275 284 0
84 138 139 141 144 145 146 150 188 199 202 207 221 231 238 267 275 301 0
84 138 139 141 145 146 148 149 155 181 188 192 199 207 221 255 275 284 0
84 138 139 141 145 146 150 155 161 162 191 207 221 255 259 273 275 295 0
84 138 139 141 146 150 155 161 191 202 205 207 221 240 259 266 275 284 0
84 139 140 143 144 146 150 151 162 192 200 202 203 207 208 250 279 295 0
84 139 141 143 146 149 154 163 168 170 178 181 188 198 205 212 240 273 0
84 139 141 143 146 149 154 163 168 178 181 188 198 205 212 263 292 301 0
84 139 141 143 146 154 163 181 195 198 238 239 240 263 270 273 279 286 0
84 140 142 143 144 146 151 165 171 174 184 198 199 203 204 207 208 251 0
84 141 143 145 146 154 163 177 181 198 207 212 238 239 240 262 263 296 0
84 141 143 145 146 154 163 181 186 198 207 212 238 239 240 262 263 296 0
84 141 143 145 146 163 177 181 186 198 207 212 238 239 240 262 273 296 0
84 141 143 146 149 150 151 154 157 161 163 165 168 181 199 212 263 292 0
84 141 143 146 150 151 157 158 161 163 165 181 205 212 229 238 239 292 0
84 141 143 146 154 157 158 161 163 168 170 181 188 212 238 240 274 303 0
84 141 143 146 158 163 181 188 195 198 238 239 240 270 284 286 292 301 0
85 136 137 145 149 153 162 163 164 172 177 178 180 189 204 218 295 303 0
85 137 140 142 149 150 153 154 159 160 162 166 171 193 205 268 273 276 0
85 137 142 143 145 149 154 160 162 173 175 177 193 204 205 244 276 284 0
85 137 142 143 146 149 154 155 162 173 175 193 205 215 287 292 293 295 0
85 137 142 149 150 154 159 162 169 185 193 195 205 206 232 244 270 284 0
85 137 142 149 150 154 160 162 169 170 175 193 206 217 240 270 273 275 0
85 139 140 144 159 164 166 168 169 171 173 188 199 230 263 268 292 295 0
85 139 143 151 158 167 176 190 192 205 216 224 233 235 255 269 282 284 0
85 143 151 157 158 176 186 195 205 216 217 220 224 233 244 245 255 262 0
85 144 150 151 158 170 172 176 192 195 197 217 233 235 239 240 262 285 0
91 136 138 140 143 158 161 165 168 171 173 174 177 209 220 226 239 240 0
98 136 141 142 145 149 155 156 160 167 168 198 201 204 226 240 244 268 0
98 136 145 147 155 164 166 167 201 202 208 211 219 224 240 244 268 295 0
98 139 149 153 161 163 165 184 187 197 198 200 211 220 239 276 281 283 0
99 136 138 144 151 155 158 163 166 174 178 197 199 239 240 272 288 295 0
99 136 144 151 155 157 158 161 162 163 166 174 194 240 272 287 295 299 0
99 139 141 144 151 155 158 161 163 166 170 172 178 215 265 272 288 295 0
100 136 138 140 142 144 147 152 159 171 174 180 205 215 223 255 264 301 0
100 136 138 140 144 147 154 155 159 161 164 173 174 183 223 229 255 274 0
100 136 138 140 147 159 161 171 173 174 214 223 229 246 250 258 269 283 0
101 136 138 144 150 162 163 169 171 178 184 204 206 214 216 246 271 291 0
101 138 144 147 148 149 151 153 155 157 160 174 175 182 208 220 232 253 0
102 136 138 143 160 177 181 190 204 224 225 241 242 264 265 276 285 293 0
102 138 139 142 143 145 152 160 178 181 197 200 204 216 241 255 263 276 0
102 139 140 141 142 143 149 151 152 154 155 158 162 165 167 190 269 301 0
102 140 143 145 146 149 157 160 163 166 167 175 193 197 262 270 274 288 0
102 143 145 146 149 150 154 156 157 160 166 167 175 193 197 270 274 288 0
102 143 145 148 149 154 156 157 160 167 172 193 197 205 212 220 275 288 0
102 143 145 148 149 157 160 167 193 197 205 212 220 243 262 275 284 288 0
102 143 145 150 154 155 157 160 162 166 167 193 205 220 233 239 270 275 0
102 143 145 157 160 163 166 167 172 193 212 233 243 247 262 274 275 288 0
102 143 145 157 160 166 167 172 193 204 212 233 243 247 262 274 275 288 0
104 137 140 142 143 149 150 151 155 159 165 167 168 172 208 233 246 249 0
104 138 140 148 149 150 160 167 170 180 202 211 219 232 243 288 293 298 0
104 139 144 154 155 159 161 173 174 188 224 245 250 255 258 284 287 291 0
104 140 143 144 149 150 153 155 159 164 166 167 168 172 181 231 233 302 0
104 140 143 149 150 155 159 167 168 172 174 175 181 229 231 233 249 251 0
106 136 138 140 141 144 147 155 159 174 195 197 232 239 255 264 295 301 0
106 136 139 143 148 165 166 167 168 173 184 219 233 239 240 250 265 289 0
106 136 143 148 162 165 166 168 173 178 184 197 207 233 240 272 288 294 0
106 137 138 140 142 147 148 155 159 160 172 173 174 200 217 269 286 301 0
106 139 143 148 149 152 159 165 167 168 170 180 184 229 240 272 288 293 0
106 139 143 148 165 166 167 168 170 172 173 184 219 233 239 240 250 289 0
106 140 145 146 150 154 173 175 177 204 205 214 243 253 263 270 275 295 0
106 143 148 150 166 167 168 172 173 174 178 184 207 219 233 239 240 294 0
122 136 138 145 146 157 166 168 179 194 197 204 219 238 244 277 290 296 0
123 136 137 140 144 145 146 147 159 164 165 168 171 175 177 183 192 272 0
123 136 137 145 146 151 155 159 165 168 169 171 183 192 219 226 287 302 0
124 140 143 145 148 149 155 157 160 197 202 205 227 262 270 275 288 303 0
124 143 145 148 150 157 160 197 202 219 220 233 239 262 270 274 275 288 0
125 136 138 139 149 164 170 188 192 195 208 212 217 225 266 267 277 302 0
125 138 139 149 153 156 157 163 164 197 207 208 223 225 235 237 267 298 0
125 138 139 149 153 157 163 164 173 194 195 207 208 217 225 235 266 276 0
126 137 138 140 159 164 171 173 204 208 214 215 218 221 245 258 266 275 0
127 143 145 150 166 167 202 214 217 225 233 236 239 265 267 270 275 288 0
128 136 138 142 148 150 160 167 170 198 202 205 219 229 232 285 288 296 0
128 136 142 145 146 152 155 163 166 172 177 199 202 203 232 241 244 268 0
130 136 138 143 151 160 182 184 190 198 199 208 219 241 245 255 292 293 0
131 132 139 144 146 158 159 163 164 171 172 173 180 183 188 196 219 263 0
131 136 138 140 142 143 145 148 149 156 165 168 216 233 239 240 272 289 0
131 136 138 142 143 145 148 149 150 156 180 181 197 200 216 239 240 289 0
131 136 139 144 146 147 154 158 160 171 173 188 189 223 240 255 283 295 0
131 138 143 145 148 149 156 165 172 184 200 214 216 233 236 239 240 250 0
131 143 145 148 149 156 165 168 172 184 192 207 216 233 240 247 288 289 0
132 136 138 139 140 142 143 148 149 150 153 156 168 178 180 235 265 287 0
132 136 138 139 140 145 148 149 150 156 167 168 172 174 180 184 240 293 0
132 136 138 140 142 145 148 149 150 156 159 161 168 180 216 240 287 288 0
132 136 138 140 142 145 148 150 156 159 161 168 177 216 233 240 288 301 0
132 136 141 145 146 149 153 154 156 175 177 179 181 183 188 202 272 274 0
133 136 138 141 143 146 147 164 180 193 199 202 203 204 241 268 290 293 0
133 136 140 141 144 145 146 147 157 164 166 180 202 203 204 218 232 290 0
133 136 140 141 144 145 146 150 157 167 202 203 218 219 236 255 277 301 0
133 136 141 146 147 164 171 177 180 202 203 218 226 240 244 255 268 271 0
133 136 141 146 150 157 162 167 170 174 177 179 203 207 208 218 229 271 0
133 136 141 146 150 157 162 167 174 179 203 207 208 218 219 226 229 271 0
133 136 144 150 153 155 161 172 184 188 199 200 202 204 205 247 270 283 0
133 139 143 146 151 157 158 161 163 165 168 181 188 195 274 275 286 296 0
134 136 141 144 145 161 165 172 177 195 204 208 235 238 240 241 256 268 0
134 137 138 140 141 149 150 161 172 179 197 199 216 239 264 273 287 303 0
134 137 138 140 142 143 150 161 164 177 178 179 193 204 216 240 245 287 0
134 137 138 140 143 150 161 172 179 197 199 216 239 245 250 256 287 303 0
134 140 142 144 146 148 151 154 155 158 178 189 190 197 201 205 224 262 0
135 136 138 140 146 147 150 155 172 175 194 200 204 205 258 260 261 288 0
135 138 140 143 144 145 147 150 153 155 157 172 180 200 208 219 258 276 0
135 138 140 145 147 150 155 157 170 172 175 188 200 208 210 250 258 280 0
135 138 143 160 162 172 177 178 182 188 204 228 241 242 243 264 265 299 0
135 138 145 147 150 155 160 162 170 177 181 182 216 224 255 264 265 299 0
135 138 150 155 160 162 166 172 173 174 177 182 201 224 225 267 276 285 0
135 143 145 146 149 157 160 162 166 167 172 175 193 220 247 262 270 274 0
1 136 138 166 172 178 183 191 205 212 235 248 260 264 269 285 292 293 299 0
1 136 140 145 147 159 166 170 172 184 188 232 255 270 271 275 283 284 303 0
1 138 140 143 145 159 178 191 200 207 235 250 257 270 274 280 285 293 299 0
1 138 140 143 145 160 162 163 164 212 235 250 251 257 259 260 274 280 298 0
1 138 140 143 154 162 179 188 212 235 250 257 260 261 265 279 280 283 285 0
1 138 140 143 162 170 172 173 183 188 212 240 260 261 265 269 280 283 285 0
1 138 140 145 159 160 162 172 188 205 206 212 225 240 244 250 251 278 298 0
1 138 140 153 159 162 178 183 188 205 208 212 248 256 257 264 269 280 298 0
1 138 140 153 162 170 178 191 200 205 207 250 257 260 262 270 279 280 298 0
1 138 140 162 163 164 172 205 212 235 248 250 259 260 261 265 269 280 285 0
1 138 140 162 166 172 178 183 191 205 212 218 240 248 260 264 269 280 298 0
1 138 154 159 165 183 191 205 212 240 248 257 264 269 283 292 293 298 299 0
1 138 205 212 240 248 250 257 259 260 261 265 269 280 283 292 293 298 299 0
1 140 142 160 162 169 178 191 204 205 212 224 259 265 271 276 278 280 299 0
1 140 143 153 154 170 212 224 250 257 259 260 261 265 278 279 280 293 299 0
1 140 143 153 160 162 170 183 212 224 257 259 260 264 265 269 279 280 283 0
1 140 149 153 154 159 162 172 205 212 224 244 250 259 261 265 278 279 280 0
1 140 159 162 179 199 205 212 224 235 250 257 259 261 262 265 278 279 280 0
1 140 160 162 205 206 212 224 225 227 235 250 257 259 260 265 269 278 299 0
1 140 162 169 178 193 204 205 206 212 224 225 249 251 257 259 261 269 283 0
1 140 166 172 178 188 191 205 208 212 224 235 244 250 260 269 285 288 293 0
1 143 153 160 166 170 212 224 250 257 259 260 265 269 278 280 288 292 293 0
1 143 154 165 212 224 240 248 250 257 259 260 261 265 269 283 292 293 299 0
1 159 161 178 189 201 205 213 224 234 250 254 256 265 269 277 279 293 300 0
1 160 164 188 199 205 206 212 224 225 235 250 257 260 262 265 279 293 299 0
2 136 144 149 154 160 166 168 197 198 204 210 212 235 246 248 253 255 299 0
2 139 146 152 160 166 177 198 200 204 207 210 213 268 270 277 278 286 299 0
2 139 146 152 166 174 191 200 204 207 210 213 220 268 270 283 286 287 288 0
2 139 147 155 166 187 190 191 197 211 228 239 250 260 263 277 279 287 297 0
2 140 145 147 152 155 166 191 197 205 213 250 251 260 263 272 277 293 300 0
2 140 159 166 168 170 172 191 197 204 213 220 244 250 265 268 279 293 300 0
2 140 166 173 183 189 191 197 201 204 206 211 220 224 225 239 251 268 297 0
2 146 147 148 149 155 166 168 169 172 181 210 212 220 235 248 253 262 268 0
2 146 147 152 155 166 172 187 188 189 201 205 212 213 234 240 248 262 269 0
2 147 149 152 154 155 166 189 197 200 201 207 213 231 234 235 246 248 286 0
2 147 152 154 155 166 170 184 190 193 197 212 213 220 239 240 253 257 268 0
2 159 166 174 191 197 204 213 230 250 263 265 272 277 279 287 294 297 301 0
2 166 186 197 198 204 210 212 220 235 236 237 239 248 253 262 268 288 293 0
3 136 137 144 145 149 152 154 180 183 184 196 198 217 245 255 257 272 286 0
3 136 144 156 159 170 172 185 188 205 209 221 235 239 247 253 262 266 283 0
3 140 150 160 167 169 170 172 174 191 205 250 269 280 281 283 288 291 298 0
3 142 154 159 166 170 172 182 185 188 197 199 204 209 213 239 240 253 283 0
3 145 150 167 170 172 183 191 205 224 225 235 251 261 264 280 283 285 299 0
3 149 170 172 188 199 208 209 221 234 237 240 241 242 247 253 262 266 271 0
3 150 160 170 172 183 191 235 236 246 251 262 264 274 278 279 280 288 298 0
3 150 170 172 191 206 224 225 240 250 251 261 262 274 279 281 283 285 288 0
3 154 156 170 172 188 199 208 209 221 234 235 247 253 266 271 283 292 293 0
3 154 159 160 170 172 188 191 218 220 235 250 251 268 274 279 280 281 298 0
3 154 160 170 172 179 188 191 235 237 250 265 274 278 279 280 288 293 298 0
3 156 163 166 170 172 188 199 204 209 213 234 235 247 253 262 268 282 283 0
3 160 163 167 169 170 172 188 191 245 250 265 274 278 279 280 288 296 298 0
3 170 172 183 188 191 211 212 221 235 251 261 264 266 280 283 287 298 299 0
4 140 143 144 145 148 156 157 160 193 205 220 233 247 262 270 275 284 288 0
4 145 148 170 179 188 204 205 218 225 232 233 240 257 271 278 292 293 299 0
5 136 138 141 143 146 147 164 165 168 179 203 205 224 226 238 244 255 268 0
5 136 147 159 166 167 170 204 206 212 224 225 250 251 261 268 285 292 293 0
5 137 138 140 141 155 159 160 166 174 175 176 188 258 264 268 291 299 302 0
5 137 138 140 141 159 160 171 172 204 205 224 244 255 256 264 285 288 291 0
5 139 140 149 155 157 162 163 164 188 192 194 208 217 225 240 286 295 297 0
5 140 145 155 159 163 164 166 167 168 170 184 197 201 213 228 258 259 288 0
5 140 145 159 163 164 167 168 174 175 184 188 213 248 255 263 270 288 302 0
6 136 139 160 176 179 209 221 223 224 235 239 245 247 262 265 283 299 300 0
6 136 146 148 149 152 156 160 172 178 180 188 198 215 220 226 227 255 268 0
7 138 139 142 143 147 152 155 160 173 178 188 214 216 217 230 233 254 270 0
7 140 141 143 148 149 150 156 157 175 182 197 204 216 219 239 284 295 302 0
7 140 144 147 149 157 158 161 172 180 183 184 212 216 218 254 255 277 283 0
8 137 141 157 158 159 160 162 163 166 168 172 183 188 226 228 256 264 268 0
8 139 160 200 205 213 224 225 234 250 253 254 256 260 262 265 277 279 300 0
8 143 144 145 149 152 163 165 166 167 170 172 200 207 240 255 259 293 294 0
8 147 150 159 169 183 200 207 218 251 257 259 261 264 272 278 279 280 301 0
8 148 153 156 159 170 171 172 173 175 177 181 188 208 226 232 240 268 296 0
8 166 170 183 188 200 206 207 235 240 256 257 260 264 268 270 271 279 280 0
9 136 155 188 189 190 191 194 205 225 231 256 261 265 266 271 273 280 287 0
9 159 160 176 183 188 201 204 213 251 254 262 264 266 269 272 277 280 292 0
10 139 142 143 145 149 158 160 165 175 183 192 199 208 230 255 256 274 276 0
10 141 143 144 145 149 150 153 158 165 166 169 170 171 204 208 242 267 283 0
10 141 150 170 172 188 191 197 204 206 224 225 239 261 265 274 283 285 288 0
10 147 159 160 163 170 172 188 204 206 211 212 225 250 251 283 287 288 298 0
10 159 160 167 170 172 188 195 196 204 250 265 266 273 274 278 280 288 298 0
11 136 154 166 179 188 204 212 240 241 244 250 256 257 260 270 279 292 301 0
11 137 138 142 143 146 148 150 151 152 156 163 170 175 188 237 238 239 283 0
11 137 138 142 146 148 150 151 152 154 156 166 170 175 188 202 239 268 301 0
11 140 153 170 179 183 185 210 212 244 260 261 262 264 265 269 278 280 288 0
11 141 159 189 192 201 204 205 209 212 213 218 232 234 277 283 299 300 303 0
11 142 154 157 162 166 172 188 199 212 214 218 227 248 261 265 276 280 283 0
11 149 159 173 189 197 201 209 213 235 239 262 263 277 278 292 293 299 300 0
11 149 159 185 197 204 209 213 220 239 240 244 253 262 263 268 283 299 300 0
11 153 154 172 176 185 189 199 201 204 212 213 233 235 239 241 245 247 297 0
11 156 162 163 173 204 209 211 213 239 240 244 247 253 262 277 278 297 300 0
11 159 167 172 191 209 213 221 224 234 235 247 253 262 277 280 283 299 300 0
11 189 199 201 204 208 211 212 221 234 240 244 247 262 266 271 283 287 294 0
12 19 136 138 141 142 146 147 152 162 168 175 199 203 207 238 258 268 286 0
12 136 143 144 149 158 160 165 167 168 169 171 173 178 213 230 242 256 276 0
12 136 143 144 149 158 160 165 168 170 171 173 178 180 204 208 230 242 267 0
12 136 144 160 199 204 205 218 224 244 251 257 259 269 278 280 293 294 299 0
12 136 144 160 199 204 205 223 224 244 251 257 259 269 278 280 293 294 299 0
12 137 140 146 149 156 172 173 183 184 187 213 224 242 258 269 281 283 287 0
12 137 140 146 156 171 172 183 184 193 198 206 213 224 264 279 281 283 287 0
12 137 140 146 156 172 173 183 184 187 190 213 224 242 258 269 281 283 287 0
12 137 140 149 151 156 172 177 183 188 193 204 206 208 258 261 264 279 283 0
12 141 144 149 150 158 159 160 161 165 168 169 170 171 178 204 213 230 267 0
12 143 153 154 170 172 178 206 208 224 225 235 259 261 262 265 278 293 299 0
12 143 154 166 172 178 188 204 224 230 248 251 261 269 270 280 283 288 293 0
12 144 149 158 159 165 166 168 170 171 181 204 211 221 230 241 267 271 280 0
12 154 161 178 205 208 224 240 248 250 257 259 261 265 269 280 283 293 299 0
12 172 192 193 197 204 205 224 239 246 248 251 259 261 269 278 280 293 299 0
13 139 140 142 143 162 163 164 167 172 174 175 178 184 194 206 225 228 258 0
13 139 142 144 150 163 164 169 172 174 202 204 210 228 258 269 284 290 298 0
13 140 145 157 159 186 188 191 205 208 211 219 238 250 263 277 297 300 303 0
13 140 152 161 170 184 188 189 191 201 211 231 236 239 240 251 261 280 293 0
13 141 149 169 170 172 179 188 189 201 210 212 224 225 231 234 240 262 285 0
13 143 145 159 161 169 172 178 189 191 201 239 244 250 277 288 292 293 300 0
13 149 154 168 184 187 200 207 210 236 240 246 247 248 253 257 270 274 286 0
13 149 166 170 177 183 191 210 212 222 230 240 244 246 277 278 288 294 303 0
13 157 166 170 172 209 212 214 215 227 240 249 259 261 265 278 280 282 299 0
14 136 137 138 140 141 142 145 150 154 166 171 177 197 221 224 246 255 289 0
14 136 137 140 146 147 151 152 157 160 162 174 188 208 225 226 293 294 301 0
14 136 137 140 146 147 152 157 162 174 178 180 204 208 237 249 294 295 301 0
14 136 137 144 145 146 148 151 153 154 156 173 176 177 180 204 221 233 255 0
14 136 137 145 146 148 153 154 156 157 164 173 176 177 180 184 204 258 283 0
14 136 141 145 146 151 152 157 160 173 184 194 198 199 208 214 219 245 302 0
14 136 142 143 145 148 149 150 153 156 160 168 180 212 216 235 288 289 295 0
14 136 145 146 149 150 151 152 180 182 196 201 208 219 224 225 268 272 285 0
14 136 145 146 149 151 152 160 172 180 190 201 205 219 241 268 272 301 302 0
14 138 140 141 143 145 147 152 156 162 164 169 178 188 192 200 208 255 269 0
14 138 140 141 145 147 151 152 156 162 168 178 182 202 208 232 233 241 269 0
14 138 140 141 145 147 151 152 156 178 182 187 190 202 204 208 233 241 269 0
14 139 159 165 166 186 197 204 205 213 220 250 263 268 269 279 285 287 297 0
14 140 162 166 197 200 204 205 211 220 250 260 268 269 272 295 298 300 303 0
14 141 143 145 147 148 152 156 164 175 186 207 208 232 255 269 270 286 298 0
14 159 166 194 197 204 213 220 224 239 250 263 268 279 285 286 287 297 300 0
15 136 139 140 142 143 144 146 151 155 162 181 184 203 207 208 211 279 295 0
15 136 139 142 143 144 146 151 155 162 181 184 203 207 208 211 279 295 297 0
15 138 149 153 159 189 201 209 213 239 244 247 257 262 277 278 288 298 300 0
15 139 144 156 208 220 221 234 235 237 253 254 256 262 266 268 278 287 288 0
15 140 159 160 183 191 197 208 211 220 259 263 264 265 277 279 293 300 303 0
15 141 149 154 160 170 172 184 187 188 210 212 231 234 236 240 253 256 299 0
15 149 153 156 159 167 185 197 212 213 224 235 239 242 253 262 263 287 294 0
15 149 154 169 188 189 201 210 212 220 224 225 231 235 239 248 268 285 299 0
15 154 156 159 162 204 209 213 221 224 234 235 241 247 253 277 278 280 300 0
15 154 159 197 199 200 209 213 221 224 235 239 253 257 277 278 280 299 300 0
15 169 170 186 198 210 212 222 224 225 226 238 239 240 253 257 262 268 285 0
16 58 137 138 143 149 179 188 212 235 250 257 260 269 280 288 292 293 298 0
16 70 82 151 164 166 169 172 195 198 213 226 232 242 248 272 284 295 303 0
16 136 137 145 183 188 205 212 224 235 248 257 260 264 272 280 292 293 299 0
16 136 138 140 144 145 147 158 159 161 162 166 171 172 174 255 270 271 283 0
16 136 138 140 145 146 147 161 166 170 171 172 184 188 200 210 238 255 283 0
16 136 138 140 145 147 161 166 170 171 172 184 188 210 226 232 238 255 275 0
16 136 139 140 145 147 149 150 158 159 166 170 172 175 181 188 211 255 270 0
16 137 138 140 143 154 162 170 183 191 204 212 240 257 260 264 279 285 299 0
16 137 138 140 145 149 159 162 166 173 183 185 191 205 212 225 235 257 298 0
16 137 138 142 145 149 150 160 162 177 193 197 202 205 215 258 264 270 294 0
16 137 138 143 145 153 159 172 191 204 212 248 250 274 279 280 288 293 298 0
16 137 138 143 149 188 204 212 235 237 250 257 260 269 280 288 292 293 298 0
16 137 138 143 166 172 191 204 212 225 240 244 250 260 269 279 293 298 299 0
16 137 138 144 172 183 205 212 240 248 259 260 262 264 279 280 293 298 299 0
16 137 138 145 169 188 191 205 207 235 250 257 260 270 285 286 292 293 299 0
16 137 140 142 143 146 149 154 162 169 173 183 193 205 232 270 273 287 293 0
16 137 140 142 143 149 154 159 162 190 193 204 205 214 232 244 267 284 293 0
16 137 140 142 143 149 154 160 162 171 177 184 190 193 198 205 244 270 284 0
16 137 140 143 159 162 170 172 191 204 207 224 240 250 269 270 279 280 299 0
16 137 140 149 162 166 183 191 205 212 224 240 248 257 260 264 269 280 299 0
16 137 140 159 160 162 170 183 188 205 212 224 225 240 257 262 264 279 299 0
16 137 142 143 145 146 149 162 168 177 193 204 205 232 247 255 270 273 274 0
16 137 142 143 149 154 162 166 169 173 177 182 205 214 268 270 284 294 295 0
16 137 142 145 149 150 153 155 160 162 169 173 177 182 243 258 275 284 295 0
16 137 142 145 149 150 155 162 166 170 173 177 193 205 214 240 244 268 284 0
16 137 143 163 172 178 212 224 231 248 259 261 265 269 278 280 282 293 299 0
16 137 144 154 159 170 172 191 204 205 212 224 240 250 270 279 280 293 299 0
16 137 153 205 212 224 248 250 257 259 260 261 265 269 280 283 292 293 299 0
16 137 159 173 183 191 204 205 212 224 235 257 269 273 280 291 292 293 299 0
16 138 139 140 141 143 146 149 151 153 155 158 162 165 167 172 193 215 283 0
16 138 140 141 143 146 149 151 155 158 162 164 165 167 182 215 237 240 295 0
16 138 140 141 146 149 150 151 153 155 158 162 164 165 167 182 255 284 295 0
16 138 142 145 149 150 152 154 160 162 164 177 193 197 204 205 264 267 273 0
16 138 142 145 149 150 152 154 160 162 169 177 182 197 205 217 264 267 273 0
16 139 140 141 145 147 149 150 151 155 158 162 165 167 182 237 240 251 284 0
16 139 140 141 147 149 150 151 153 155 158 162 165 167 182 186 217 269 284 0
16 140 141 143 149 151 153 155 158 162 164 165 167 176 190 193 215 217 218 0
16 140 143 146 149 151 155 158 162 164 165 168 176 182 201 212 240 247 269 0
16 140 143 146 151 153 158 167 168 170 176 190 212 217 224 247 262 275 284 0
16 142 143 145 146 149 152 154 160 162 169 173 182 195 205 215 232 270 287 0
16 142 143 145 149 152 153 154 159 160 162 173 177 185 189 193 270 273 275 0
16 142 143 145 149 152 153 154 160 162 166 185 189 193 232 267 268 273 275 0
16 142 145 149 150 152 154 159 160 162 169 182 185 217 232 244 273 275 276 0
16 142 150 153 154 155 158 162 163 176 190 201 205 221 233 243 245 258 267 0
16 143 146 149 151 153 155 158 162 165 168 174 176 182 201 212 221 247 269 0
16 143 146 149 151 155 158 162 164 165 168 176 182 195 197 201 212 240 269 0
17 134 136 137 138 139 140 150 154 161 177 179 199 216 245 264 274 298 303 0
17 134 139 144 145 149 156 158 161 165 181 185 219 240 241 244 256 292 293 0
17 139 149 150 160 162 168 188 194 217 218 228 229 233 240 242 249 289 295 0
18 136 138 139 140 149 153 162 164 188 192 208 212 217 225 228 240 268 297 0
18 137 146 148 150 151 152 153 154 155 163 176 195 197 206 224 271 287 302 0
18 138 139 140 146 149 153 156 157 164 188 194 205 212 217 225 235 298 302 0
18 138 139 149 153 157 164 188 195 202 207 208 217 225 230 235 267 286 302 0
18 139 140 162 165 168 169 182 188 197 202 218 220 232 243 265 267 275 284 0
18 140 143 145 148 150 155 156 157 167 174 215 219 233 239 242 262 270 295 0
18 140 144 151 153 162 163 164 167 172 176 193 201 231 267 271 280 283 284 0
18 143 145 148 150 154 157 163 164 176 215 220 233 247 270 274 276 278 285 0
18 144 146 166 169 172 189 201 204 210 212 218 234 240 248 262 277 286 293 0
18 149 154 166 187 197 198 204 205 210 212 220 234 235 246 248 253 268 269 0
19 126 136 138 146 152 164 173 190 192 208 214 223 245 250 258 265 286 292 0
19 126 138 146 150 160 163 164 166 167 194 208 221 229 265 266 275 292 293 0
20 139 142 146 154 166 168 170 172 184 186 204 212 213 218 240 253 266 288 0
20 140 142 145 162 166 191 197 204 205 211 212 224 225 239 250 260 277 300 0
20 140 142 147 155 159 166 191 197 211 212 224 225 239 250 269 277 297 300 0
20 140 142 152 159 160 166 174 191 197 204 208 211 250 272 277 279 293 300 0
20 140 142 166 170 188 191 197 204 211 239 250 260 265 268 269 293 300 303 0
20 140 142 166 180 189 191 197 201 204 206 211 213 224 225 239 250 265 277 0
20 140 142 166 181 189 191 197 200 201 204 211 217 239 250 265 277 280 297 0
20 141 142 146 149 166 188 191 204 210 212 218 234 235 248 250 253 257 262 0
20 142 146 166 172 177 204 210 212 218 234 240 248 253 262 277 283 288 294 0
20 142 146 166 184 194 198 204 210 212 235 239 248 250 253 257 262 263 268 0
20 142 147 149 154 155 166 172 174 197 198 210 212 231 239 240 248 253 288 0
20 142 147 155 159 166 173 183 191 197 211 239 253 265 277 279 280 297 300 0
20 142 147 155 166 168 170 191 197 211 212 250 260 265 268 279 287 294 297 0
20 142 147 155 166 168 191 197 211 212 250 260 265 268 279 285 287 294 297 0
20 142 152 166 186 190 197 198 204 210 212 231 235 236 239 248 253 262 268 0
20 142 166 169 186 188 189 197 204 212 213 222 226 235 239 248 253 262 288 0
20 142 166 191 197 204 211 224 225 239 250 251 260 263 268 279 297 300 303 0
21 62 136 139 140 142 144 152 155 164 200 207 216 223 245 265 286 288 302 0
21 62 136 139 140 152 153 155 157 164 167 175 214 216 223 229 263 265 302 0
21 80 137 139 149 172 188 197 209 213 235 237 239 244 253 262 277 283 299 0
21 84 139 141 143 146 157 158 161 163 178 181 238 239 240 270 274 286 296 0
21 133 141 142 145 149 170 201 207 208 221 222 232 240 257 266 269 276 289 0
21 136 138 139 141 144 148 155 199 200 205 207 221 255 257 270 273 275 301 0
21 136 139 162 170 172 188 209 221 234 235 237 247 253 262 266 271 277 278 0
21 136 140 142 143 144 151 171 181 184 192 197 203 207 216 250 255 277 279 0
21 136 140 142 143 144 151 171 181 184 192 197 203 207 250 255 277 278 279 0
21 136 140 142 143 144 151 171 184 192 197 203 207 211 216 250 255 277 279 0
21 136 140 143 144 151 164 171 184 197 202 203 207 216 242 250 267 278 302 0
21 136 144 154 170 172 188 197 209 220 221 239 240 253 266 268 278 288 300 0
21 136 153 170 172 188 191 209 221 234 240 247 253 262 271 277 278 294 299 0
21 136 159 162 170 172 188 189 191 201 209 212 221 235 266 271 277 278 300 0
21 136 167 170 172 188 200 212 221 235 237 239 241 247 253 262 266 271 300 0
21 136 167 170 172 188 212 221 230 235 239 241 247 253 262 266 271 296 300 0
21 136 170 172 188 191 209 221 239 240 247 253 262 266 271 277 278 288 300 0
21 138 139 140 147 164 167 189 191 195 204 205 213 216 229 239 242 297 298 0
21 138 139 141 150 158 161 191 202 207 208 218 221 224 259 267 284 300 301 0
21 138 139 143 147 164 170 187 189 191 210 213 215 216 229 234 256 292 298 0
21 138 139 147 163 170 175 176 187 189 191 204 205 213 215 216 239 292 298 0
21 138 139 147 164 167 181 187 189 191 193 204 213 216 239 270 292 298 301 0
21 138 139 147 167 168 191 195 205 216 221 229 242 253 256 266 271 292 298 0
21 138 139 147 167 187 189 191 197 204 216 221 239 266 270 271 292 298 301 0
21 139 143 167 170 172 188 189 191 201 212 213 221 224 235 239 247 262 274 0
21 142 149 167 170 172 188 191 212 213 234 235 237 247 253 262 263 276 300 0
21 144 164 170 172 185 188 189 201 208 209 221 235 239 241 247 262 266 294 0
21 144 170 172 188 199 208 209 212 221 224 227 235 250 266 277 283 299 300 0
21 149 153 170 172 188 191 209 213 239 244 247 253 262 264 277 283 288 300 0
21 153 164 170 172 185 188 189 201 212 213 224 233 234 235 241 247 262 300 0
21 154 159 170 172 188 189 191 195 197 201 205 212 213 231 235 236 239 242 0
21 154 166 170 172 173 188 189 195 197 199 201 205 209 213 239 240 283 300 0
21 154 170 172 179 185 188 209 213 224 231 234 235 247 253 277 278 294 299 0
21 154 170 172 179 188 199 209 213 227 234 240 241 247 253 277 278 299 300 0
21 154 170 172 188 191 201 205 208 212 221 234 235 242 247 253 266 271 294 0
21 157 163 164 170 172 177 188 191 209 212 213 220 222 232 236 240 299 300 0
21 163 170 172 188 189 199 201 209 212 213 240 241 250 277 278 282 299 300 0
21 170 172 176 188 191 197 209 213 223 224 233 235 239 250 277 283 299 300 0
21 170 172 185 188 189 201 204 209 213 234 235 241 247 262 277 278 288 300 0
21 170 172 185 188 189 201 209 213 223 235 239 247 262 277 283 284 299 300 0
21 170 172 188 189 201 204 209 213 227 234 235 241 247 262 277 278 299 300 0
21 170 172 188 199 208 209 212 220 221 223 235 250 266 268 271 278 288 300 0
22 64 65 140 141 147 156 159 161 163 195 226 238 244 258 263 275 283 291 0
22 136 138 139 142 144 145 147 151 157 164 165 204 208 217 224 251 279 303 0
22 136 138 139 144 151 155 157 158 162 163 174 178 214 226 229 240 295 299 0
22 136 138 139 144 151 158 159 160 163 170 178 215 226 229 240 265 288 295 0
22 136 139 144 145 151 157 158 159 160 163 166 174 178 226 229 238 288 295 0
22 136 139 144 151 158 159 160 162 163 166 174 178 226 238 240 287 295 299 0
22 139 141 145 147 151 157 164 172 204 207 208 217 224 245 258 271 279 303 0
23 56 136 140 142 143 144 145 147 155 157 159 162 166 174 175 238 258 303 0
23 80 137 147 148 150 151 153 154 155 157 163 164 171 176 195 206 232 258 0
23 139 143 146 151 153 154 164 165 171 183 192 203 207 210 242 270 278 292 0
23 139 154 159 178 197 205 213 224 250 253 254 256 264 277 279 285 296 300 0
23 142 145 149 150 153 168 174 184 192 193 202 216 217 235 248 254 257 279 0
23 145 149 151 160 165 168 174 184 188 192 199 211 216 217 228 240 241 248 0
23 156 201 205 213 224 239 250 254 256 260 261 265 277 279 280 285 293 300 0
36 132 136 138 140 142 143 145 148 150 153 156 200 204 219 233 235 236 239 0
36 136 156 157 162 209 220 221 235 237 239 247 253 262 266 271 283 287 294 0
36 136 163 164 209 220 221 239 240 247 253 260 262 266 268 271 287 294 299 0
36 144 149 176 208 212 221 237 239 240 241 247 253 262 263 266 283 292 293 0
36 144 185 208 209 221 223 234 240 241 247 253 260 262 266 277 278 299 300 0
36 145 154 160 165 176 186 189 191 224 225 235 246 250 260 283 285 288 292 0
36 145 154 160 184 196 198 199 205 240 241 250 251 260 279 280 283 288 298 0
36 145 159 160 183 191 196 207 218 235 236 262 264 265 274 280 281 292 298 0
36 149 167 179 185 204 208 209 221 235 237 239 247 253 262 266 271 287 294 0
36 183 191 224 225 235 246 251 260 261 262 264 269 274 278 280 285 288 292 0
37 136 140 162 170 172 188 200 204 207 227 248 249 261 265 270 279 280 283 0
37 139 140 178 188 189 190 201 213 220 250 254 256 260 262 268 269 271 287 0
37 140 153 154 160 161 162 170 172 178 188 200 207 250 251 270 278 280 302 0
37 140 154 159 164 172 200 207 235 244 249 250 251 259 261 270 279 280 299 0
37 140 154 166 178 183 191 197 213 220 239 260 264 268 269 272 289 296 300 0
37 147 149 154 155 165 168 177 185 191 213 226 251 253 261 277 280 294 301 0
37 149 154 155 160 165 168 183 187 191 204 213 225 253 264 265 277 280 300 0
37 149 160 163 164 170 188 191 197 199 200 207 237 239 265 270 280 286 299 0
37 153 159 160 162 166 172 179 185 188 204 212 244 250 262 265 279 280 283 0
37 200 206 207 225 240 248 250 251 257 259 260 261 262 270 278 279 286 288 0
38 136 137 139 140 141 144 145 160 169 177 178 196 205 225 226 238 251 259 0
38 136 137 140 141 145 149 160 162 168 177 181 188 196 200 205 225 226 251 0
38 136 137 140 141 145 149 160 162 177 181 188 190 200 205 226 249 251 280 0
38 136 137 140 141 145 160 169 171 188 196 205 226 238 251 264 280 287 293 0
38 136 137 140 141 145 160 169 177 190 205 225 226 238 249 251 259 271 293 0
38 136 137 140 141 145 162 168 169 181 188 196 205 226 238 251 261 280 287 0
38 136 137 140 141 145 168 177 181 188 196 200 205 225 226 238 251 261 293 0
38 136 137 140 141 145 181 188 190 200 205 226 238 249 261 265 280 287 293 0
38 136 140 141 144 145 149 154 162 169 175 177 196 205 225 226 259 261 265 0
38 136 145 159 160 183 191 205 213 220 228 239 251 263 264 268 292 297 300 0
38 136 160 188 191 213 224 228 239 250 260 263 265 269 277 287 292 293 294 0
38 137 140 160 162 170 184 188 189 191 201 211 234 235 237 245 265 280 282 0
38 137 157 159 170 172 184 191 194 211 220 240 244 250 265 279 297 300 303 0
38 139 155 188 189 200 201 207 210 239 240 248 257 261 262 277 286 288 297 0
38 140 145 160 161 162 189 191 197 201 211 217 232 234 236 250 251 280 291 0
38 157 159 160 161 165 183 191 208 211 220 234 264 265 272 279 292 293 300 0
38 164 170 188 191 213 224 228 239 250 260 263 265 269 277 287 292 293 294 0
39 145 149 151 152 161 165 172 174 183 224 225 240 245 248 258 270 275 286 0
43 139 142 143 144 147 148 155 167 172 174 178 188 214 216 217 230 233 241 0
43 139 143 146 147 148 156 175 178 186 188 214 216 230 233 241 257 263 270 0
43 139 143 147 148 150 156 159 167 171 173 177 178 214 226 228 230 233 275 0
43 139 143 147 148 156 167 172 174 178 188 214 216 217 230 233 241 263 275 0
44 136 139 141 142 144 148 153 159 160 165 172 173 174 177 178 184 300 301 0
44 136 141 143 145 146 149 150 154 155 156 157 166 167 175 181 201 205 270 0
44 138 139 141 142 145 148 150 153 159 160 172 174 178 182 184 214 225 300 0
44 139 143 148 150 152 158 159 195 205 220 222 224 254 256 259 266 268 293 0
44 140 147 155 160 191 196 206 207 224 225 231 234 251 269 272 273 285 289 0
44 143 145 148 150 152 159 191 195 204 205 220 224 229 233 254 268 293 300 0
44 143 145 148 150 152 159 191 195 205 208 221 224 239 254 277 293 294 296 0
44 143 145 148 152 155 159 188 191 195 204 205 222 224 225 254 277 293 300 0
44 145 159 160 176 189 204 205 234 250 251 254 259 262 270 271 277 280 292 0
44 147 148 155 160 184 187 188 191 197 201 207 226 232 239 251 269 273 280 0
45 138 142 143 144 145 151 165 191 198 200 218 224 226 250 275 276 283 288 0
45 138 142 143 144 151 162 163 165 175 183 191 198 200 205 224 226 230 301 0
45 138 159 162 172 201 204 205 209 212 216 218 220 223 253 268 283 300 303 0
46 136 138 139 143 144 147 150 155 163 169 171 173 175 181 188 199 283 284 0
46 137 145 146 149 151 152 154 161 166 172 180 183 190 211 243 268 272 285 0
46 137 145 146 149 151 152 165 170 172 180 183 196 198 240 245 258 270 272 0
46 137 145 149 151 152 174 180 183 184 190 198 217 218 240 245 248 270 286 0
46 137 145 149 151 152 180 183 190 198 217 218 242 243 245 249 257 272 286 0
46 138 139 144 145 147 150 155 163 169 171 172 173 175 181 188 199 215 283 0
46 138 139 144 147 150 153 155 163 169 171 172 173 175 188 199 215 244 283 0
46 138 144 150 157 158 163 165 180 181 188 199 200 229 237 270 292 293 296 0
46 140 144 145 148 155 158 159 161 190 192 193 208 218 229 250 254 257 281 0
46 142 160 168 172 176 178 191 194 196 208 214 231 251 253 256 262 272 276 0
46 142 162 163 164 166 178 192 218 223 227 246 249 251 257 259 261 276 303 0
46 145 146 149 151 152 175 181 183 190 198 200 217 220 222 224 225 243 257 0
47 136 138 147 157 163 164 168 170 174 187 189 191 204 205 215 216 268 298 0
47 136 138 147 157 164 167 177 184 187 189 191 204 216 234 268 270 298 301 0
47 138 140 143 147 157 164 167 187 191 204 216 231 234 245 253 268 298 301 0
47 138 140 143 147 163 164 167 188 189 191 193 195 204 216 220 234 238 298 0
47 138 140 144 147 157 163 164 167 177 187 189 191 204 205 216 234 255 298 0
47 138 140 147 148 157 163 167 181 187 191 197 205 216 221 239 253 256 298 0
47 138 140 147 157 160 163 164 167 168 187 191 197 216 231 253 256 270 298 0
47 138 143 147 157 163 167 168 189 191 195 197 204 215 216 221 242 282 298 0
47 138 144 147 157 164 167 168 187 189 191 193 204 216 229 231 255 270 298 0
47 138 147 157 160 167 187 191 192 204 216 220 221 224 225 234 253 270 301 0
47 138 147 157 163 167 187 189 191 193 204 205 216 221 231 234 240 244 298 0
47 140 176 180 204 206 208 225 250 254 257 260 269 270 277 281 285 287 296 0
47 146 156 157 159 163 166 199 204 209 220 223 224 247 283 284 294 299 303 0
47 153 154 156 157 160 164 166 176 192 197 204 209 219 220 239 241 244 299 0
47 159 164 172 173 176 189 199 209 213 219 223 224 225 247 274 277 287 299 0
47 160 162 163 164 165 172 176 179 199 209 240 244 247 260 262 264 273 277 0
48 139 140 146 152 154 159 162 166 172 177 181 205 217 225 239 248 262 284 0
48 139 144 149 153 154 158 162 163 164 171 172 184 194 198 205 208 217 248 0
48 139 147 149 153 154 155 157 158 160 162 164 188 205 208 217 228 235 237 0
48 153 160 163 164 167 169 170 172 233 250 259 260 265 269 278 280 282 292 0
49 136 140 143 154 160 162 163 166 212 224 227 244 251 257 259 262 278 280 0
49 136 163 170 172 193 205 212 224 240 259 261 262 265 278 280 293 299 303 0
50 136 137 139 141 142 145 155 157 158 173 202 205 208 224 241 246 255 284 0
50 136 137 140 141 145 162 169 177 192 196 204 205 225 226 259 261 265 271 0
50 136 140 141 145 149 154 162 169 175 177 188 196 204 205 225 226 261 265 0
50 136 140 141 145 154 155 160 162 169 175 177 188 196 205 225 226 238 265 0
50 136 140 141 145 154 160 162 169 175 177 188 196 205 225 226 238 251 256 0
50 139 140 145 152 157 159 166 172 204 205 208 213 219 244 250 285 287 297 0
50 139 140 146 156 163 165 169 174 177 188 189 198 200 201 208 211 233 248 0
50 139 140 146 156 163 165 169 174 198 204 208 211 226 248 253 260 270 286 0
50 139 146 149 157 162 168 172 198 202 205 210 218 265 266 267 286 295 297 0
50 140 145 161 168 170 172 173 183 184 197 205 212 213 244 260 263 297 300 0
50 140 159 162 166 170 183 184 188 197 204 205 208 211 263 264 269 285 300 0
50 152 159 161 166 170 173 183 184 204 208 211 268 279 292 297 298 300 303 0
51 136 142 143 144 145 148 151 152 153 159 160 170 171 197 213 239 256 277 0
51 136 142 143 144 147 148 149 151 152 160 170 171 186 208 238 240 258 295 0
51 136 142 143 144 148 149 151 152 153 156 157 159 160 170 171 177 256 276 0
51 136 142 143 144 148 149 151 152 153 159 160 170 171 198 208 253 261 272 0
51 136 153 154 159 166 170 176 178 188 193 218 250 261 265 279 280 282 287 0
51 142 143 144 147 149 151 159 160 162 166 170 171 172 197 208 239 240 277 0
51 142 143 144 149 151 159 160 166 170 171 172 197 213 220 239 240 261 295 0
51 142 143 144 151 159 160 163 166 170 171 172 177 197 208 215 240 261 277 0
51 142 143 144 151 159 160 166 170 171 172 193 197 208 239 240 249 256 268 0
51 145 160 166 173 183 185 204 208 235 246 257 259 260 262 270 272 280 292 0
52 136 138 139 140 147 150 151 155 164 173 202 208 219 224 258 271 279 303 0
52 137 141 146 149 151 157 167 170 173 200 211 213 219 247 261 265 280 284 0
52 137 141 146 149 151 167 170 200 211 213 219 247 261 265 268 269 280 301 0
52 137 141 146 151 153 160 167 170 204 211 213 219 245 265 268 280 298 301 0
52 137 141 146 151 160 167 190 204 206 211 213 219 224 225 245 251 268 282 0
52 138 139 140 143 144 145 147 151 157 164 165 172 203 204 208 236 296 298 0
52 138 139 143 144 145 147 151 157 164 165 166 172 208 224 242 255 267 303 0
52 140 183 194 198 205 210 213 224 225 239 269 277 283 285 287 294 297 303 0
52 145 149 154 165 205 207 221 230 235 260 272 279 280 283 289 291 298 299 0
52 145 154 159 163 165 183 191 196 230 235 236 247 279 280 283 298 299 301 0
52 174 180 181 184 198 210 213 220 224 237 250 263 268 279 283 287 297 300 0
53 136 140 159 166 173 183 191 197 204 211 212 213 263 269 277 293 298 300 0
53 139 140 162 166 191 197 200 204 211 220 250 260 263 268 269 285 287 303 0
53 140 159 162 166 183 186 191 197 200 204 208 211 238 264 277 279 285 300 0
53 140 159 162 166 188 191 194 197 200 204 211 217 224 225 250 277 279 300 0
53 140 160 166 183 191 197 200 204 211 260 264 265 277 279 287 293 294 298 0
53 144 170 186 189 201 204 213 220 224 225 229 238 240 257 262 284 285 291 0
53 160 166 191 197 204 211 212 220 224 225 250 251 260 269 277 292 297 300 0
54 137 141 145 150 162 163 165 167 173 180 189 195 224 240 244 245 288 296 0
54 137 145 148 150 159 162 163 164 171 177 178 180 194 206 264 282 285 303 0
54 159 197 205 214 218 220 236 250 251 261 262 264 268 269 279 280 288 298 0
55 140 162 170 172 188 189 192 200 201 206 211 217 224 225 237 239 244 261 0
56 136 139 142 147 153 155 156 165 167 168 171 235 258 268 270 276 291 301 0
56 136 139 144 158 163 164 165 169 171 173 178 181 182 183 188 205 240 255 0
56 136 144 153 161 165 166 170 191 204 208 226 239 240 244 247 268 274 280 0
56 137 141 142 143 144 147 148 150 151 153 154 159 160 163 208 267 271 295 0
56 137 141 142 143 147 148 150 151 153 154 159 160 163 168 173 176 177 267 0
56 138 141 142 143 148 150 151 153 158 160 161 163 173 176 275 283 288 295 0
56 139 142 145 146 150 161 163 164 170 181 183 184 202 211 220 225 240 278 0
56 141 142 143 145 148 150 151 153 158 160 161 163 173 176 195 232 274 276 0
56 141 142 143 148 150 151 153 160 163 173 176 180 195 199 208 267 285 296 0
58 136 138 139 140 145 147 156 164 169 172 174 194 208 218 229 270 278 295 0
58 136 138 140 141 146 149 150 158 164 166 168 175 180 202 203 235 268 276 0
58 136 138 141 143 146 149 157 168 179 203 205 218 224 231 235 255 278 296 0
58 136 138 141 146 149 150 165 168 180 181 203 207 218 228 244 268 284 293 0
58 136 139 140 146 147 156 157 162 163 170 180 182 202 208 265 267 277 303 0
58 136 140 146 147 149 154 156 157 162 163 171 173 178 188 220 226 233 236 0
58 136 141 142 144 146 149 164 168 180 184 203 207 218 226 232 244 268 290 0
58 136 141 144 146 157 164 168 171 179 184 202 204 217 218 231 235 238 290 0
58 136 141 146 149 158 164 166 168 175 177 180 202 203 218 244 267 268 296 0
58 136 141 146 150 151 157 164 168 179 203 204 207 218 231 238 244 290 293 0
58 136 146 147 153 154 156 157 161 163 171 173 178 181 188 194 220 226 233 0
58 138 139 144 151 158 159 160 162 174 178 192 197 239 240 283 287 295 299 0
58 139 142 144 145 149 155 158 174 180 181 182 184 188 198 217 276 284 295 0
58 139 142 144 145 151 155 158 169 174 181 184 188 198 217 238 260 261 295 0
58 139 142 144 145 155 161 174 178 181 184 199 205 217 224 238 249 284 295 0
58 139 142 144 145 155 169 170 178 181 184 198 199 217 219 238 249 291 295 0
58 144 145 151 157 158 159 160 161 174 194 214 238 239 284 287 288 290 295 0
60 136 141 145 146 150 152 153 156 175 179 181 188 194 207 233 262 272 281 0
60 136 141 145 146 152 153 154 156 177 179 181 188 194 204 205 207 272 292 0
60 136 147 155 160 161 163 165 168 169 170 188 194 214 234 240 258 283 288 0
60 136 150 151 152 153 155 162 165 169 173 182 191 194 199 200 202 204 246 0
60 137 138 140 152 157 208 214 223 232 233 258 265 271 274 275 279 294 295 0
60 137 140 147 152 157 159 163 164 166 177 183 188 208 214 228 229 264 274 0
60 143 145 149 150 152 168 172 185 198 202 212 218 220 232 255 262 292 293 0
62 69 136 140 141 144 145 151 159 161 173 174 177 182 185 214 222 229 296 0
62 136 137 138 139 142 144 145 148 159 168 170 172 177 178 183 192 207 219 0
62 136 137 138 139 142 145 148 159 168 172 174 177 178 183 188 192 207 272 0
62 136 137 138 140 141 144 145 148 152 159 161 168 183 192 207 255 265 272 0
62 137 138 140 141 144 145 148 150 152 159 161 168 172 183 192 207 219 265 0
62 137 138 140 141 144 145 148 152 159 161 168 172 183 192 207 219 255 265 0
62 137 138 140 141 145 148 150 152 159 161 168 172 183 188 192 207 219 265 0
62 142 143 144 146 148 150 151 153 158 161 195 206 226 230 232 271 280 295 0
62 142 148 150 151 153 169 176 195 204 206 208 226 247 265 283 285 292 293 0
63 136 141 144 150 153 156 161 165 168 193 204 205 235 268 269 276 281 303 0
63 136 144 153 156 161 165 166 168 193 204 206 215 235 241 247 262 268 283 0
63 139 145 147 155 156 164 166 175 188 189 194 199 206 214 225 255 268 298 0
64 136 140 141 143 145 146 151 152 157 160 162 172 191 218 219 236 245 255 0
64 136 140 141 145 146 149 150 151 152 155 162 163 190 204 219 258 272 286 0
64 136 140 143 145 146 151 152 157 190 205 219 241 245 246 255 283 299 301 0
64 136 140 144 145 146 150 151 152 155 157 160 166 172 219 220 245 286 299 0
64 136 140 145 146 149 151 152 157 172 190 199 202 219 241 246 283 288 301 0
64 136 141 143 144 145 146 150 151 152 172 178 199 202 218 219 245 272 299 0
64 136 141 145 146 149 151 152 160 162 172 173 178 190 199 202 219 272 286 0
64 137 139 141 142 144 145 151 155 165 170 181 188 199 205 217 238 291 295 0
64 137 139 142 144 145 149 155 158 163 164 165 169 174 177 178 181 217 249 0
64 137 139 142 144 145 149 155 158 164 165 170 181 182 188 198 205 217 295 0
64 137 139 142 144 145 149 155 159 163 165 170 178 181 182 199 205 217 291 0
64 137 139 142 144 145 151 155 158 163 169 174 181 184 217 238 240 260 292 0
64 137 139 142 144 145 155 158 163 172 174 180 181 182 184 188 205 217 238 0
64 137 139 142 144 145 155 158 170 178 180 181 182 184 217 238 240 291 295 0
64 137 139 142 144 145 155 163 174 181 182 184 188 199 205 217 238 284 292 0
64 137 139 142 144 145 155 165 170 181 182 188 199 205 217 238 284 291 295 0
64 137 139 143 144 145 149 151 155 158 164 170 181 188 205 217 258 283 295 0
64 137 139 143 144 145 149 151 155 170 181 188 199 205 217 219 258 291 295 0
64 137 139 143 144 145 149 155 163 165 170 181 188 199 205 217 249 284 291 0
64 138 139 144 151 155 158 163 168 169 170 178 182 215 217 220 240 265 288 0
64 139 142 144 145 149 151 155 158 165 168 169 170 181 205 217 240 291 295 0
64 139 142 144 145 149 151 155 163 169 170 181 184 188 198 199 217 240 291 0
64 139 143 144 145 155 158 163 174 178 181 184 198 205 217 219 238 249 260 0
64 139 144 149 151 158 160 170 197 214 215 239 265 280 285 287 288 295 301 0
65 82 138 142 148 160 162 167 173 174 197 202 228 232 244 255 263 289 303 0
65 85 140 142 143 145 149 152 154 162 169 171 177 182 205 206 267 273 295 0
65 136 137 138 140 141 144 147 159 160 175 197 239 255 256 264 275 288 291 0
65 137 138 140 141 143 147 155 159 160 172 175 188 197 223 239 256 264 288 0
65 138 140 147 153 155 159 166 168 169 176 188 192 223 225 258 264 285 302 0
65 139 140 154 157 169 172 177 188 189 195 207 222 225 232 249 258 275 301 0
66 136 138 140 150 160 167 174 177 224 225 228 229 250 251 255 288 293 296 0
66 137 138 140 142 144 160 162 169 170 177 196 200 202 226 229 247 273 296 0
66 138 140 145 150 152 153 160 174 177 188 192 208 228 229 251 255 288 303 0
67 136 146 147 154 156 157 171 172 180 182 190 205 224 225 236 238 245 303 0
67 139 144 151 153 157 158 159 160 163 165 178 226 233 238 265 288 291 295 0
67 140 143 145 146 166 172 208 212 214 217 218 233 239 243 262 274 292 303 0
67 143 145 146 150 154 156 166 215 224 225 233 247 270 274 285 288 292 303 0
68 136 144 155 161 162 165 169 172 184 188 192 194 200 214 239 240 268 277 0
68 136 150 155 161 162 165 168 169 170 184 192 194 199 202 204 234 240 263 0
68 140 142 143 145 159 160 161 168 198 202 218 220 232 238 239 254 270 292 0
68 140 143 145 148 152 160 168 170 186 191 202 204 218 220 243 244 255 270 0
68 140 143 145 155 166 168 174 188 189 198 202 215 217 218 220 235 258 303 0
69 82 139 142 145 146 147 156 157 160 171 173 228 264 275 277 281 286 303 0
69 84 138 139 145 151 159 162 174 177 182 185 215 242 243 288 293 300 301 0
69 140 147 149 152 153 155 156 157 159 161 162 164 169 177 208 240 283 302 0
70 136 137 140 142 146 147 149 159 162 164 168 169 171 175 177 192 219 276 0
70 136 137 140 146 155 159 161 162 164 166 169 171 214 236 268 287 301 302 0
71 138 139 140 146 150 153 161 162 170 174 184 191 204 250 253 255 266 290 0
71 138 139 140 146 150 161 162 170 174 184 191 250 253 255 266 273 290 295 0
71 138 139 141 146 150 164 165 170 174 175 184 199 204 205 219 255 266 286 0
71 142 144 145 149 158 163 166 180 181 197 200 205 212 224 239 243 258 268 0
74 142 143 145 149 150 165 167 168 175 176 195 198 199 221 249 258 265 296 0
74 145 150 160 189 191 197 204 205 206 208 221 231 239 253 262 270 271 293 0
74 159 161 163 174 183 184 191 197 205 209 220 221 269 273 283 288 296 298 0
74 168 188 189 191 195 196 201 204 205 261 262 265 271 272 273 280 289 293 0
75 140 142 143 144 151 182 200 201 204 205 207 208 239 240 261 283 295 303 0
76 139 147 153 155 156 164 175 178 183 202 208 218 229 264 269 285 287 303 0
76 140 166 172 177 188 192 197 198 208 221 239 250 256 260 268 269 271 280 0
76 147 154 155 157 166 172 177 197 205 208 214 220 221 224 225 253 271 293 0
77 136 140 143 145 147 150 155 158 159 166 172 175 238 258 271 276 283 303 0
77 137 140 145 155 176 177 183 197 212 239 242 249 256 260 264 277 296 300 0
77 137 140 145 177 197 198 204 205 220 222 224 239 250 260 268 269 292 300 0
77 139 161 164 165 173 191 210 211 220 224 225 239 241 277 286 287 292 293 0
77 146 159 161 173 183 185 198 207 211 212 220 234 241 277 292 293 296 300 0
77 164 165 184 198 200 210 211 219 224 239 241 248 264 277 287 297 300 303 0
78 136 138 146 147 148 150 164 168 175 182 189 203 207 240 244 255 268 290 0
78 137 138 140 142 147 149 159 171 172 174 214 215 217 228 246 264 274 301 0
78 138 141 169 182 184 187 188 189 198 200 210 211 220 239 248 253 268 269 0
78 138 143 145 169 184 187 188 200 207 213 220 234 240 248 253 255 262 268 0
78 139 144 149 161 168 171 172 178 180 181 188 198 205 212 217 229 275 291 0
78 140 141 145 146 166 170 171 182 197 198 200 207 238 255 260 262 282 290 0
78 147 154 160 162 170 172 182 189 200 201 207 213 229 239 240 242 244 277 0
78 157 181 187 194 200 207 210 211 219 220 227 239 248 253 262 268 280 303 0
78 160 179 181 184 187 198 200 204 207 210 235 237 239 248 251 253 262 268 0
78 169 205 207 213 224 225 234 246 253 254 256 261 262 265 270 279 293 300 0
79 136 139 142 144 150 155 162 165 166 172 173 178 183 235 238 261 265 300 0
79 136 139 142 148 150 152 160 162 165 172 173 178 235 238 250 265 271 300 0
79 139 142 145 150 155 162 165 173 178 182 184 199 219 238 261 265 271 300 0
79 141 142 150 159 163 166 168 184 189 198 204 205 221 223 266 267 269 271 0
79 142 144 149 153 156 179 188 205 209 213 230 244 247 253 262 269 278 296 0
79 142 144 173 180 188 197 205 209 214 230 235 239 253 262 266 269 278 296 0
80 83 136 138 139 150 155 164 166 168 169 173 177 184 198 202 212 275 286 0
80 136 138 139 140 142 143 145 146 155 164 169 181 184 188 198 212 241 247 0
80 137 139 140 147 148 150 151 153 154 155 162 164 195 206 224 258 271 282 0
80 137 140 147 148 150 151 153 154 155 164 171 176 195 206 232 258 280 282 0
80 137 144 147 148 149 150 151 153 154 155 164 172 176 195 206 271 280 295 0
80 138 139 140 142 143 145 146 155 164 169 181 184 188 198 212 241 247 251 0
80 139 140 151 153 155 157 161 162 163 176 181 182 220 225 267 271 275 280 0
80 139 148 150 151 153 154 155 157 158 163 164 171 188 195 206 226 232 258 0
80 139 148 150 151 153 154 155 157 158 163 164 171 195 206 226 232 258 265 0
80 140 151 153 155 163 167 171 172 176 188 190 193 224 232 233 267 283 284 0
80 141 142 144 145 148 150 163 166 171 180 190 208 232 239 274 276 292 293 0
80 142 147 148 150 153 155 160 163 173 180 193 206 225 230 236 276 283 288 0
81 136 138 140 143 144 146 151 156 159 160 191 202 212 215 246 272 274 281 0
81 136 139 143 144 145 146 151 156 159 160 161 194 207 215 226 246 272 290 0
81 136 143 145 146 151 156 159 160 161 180 187 207 215 246 258 268 271 281 0
81 136 144 145 146 151 156 159 160 180 187 191 212 215 224 226 263 270 272 0
82 136 137 138 139 140 141 142 143 155 170 171 173 175 177 241 246 260 291 0
82 136 137 139 140 141 142 146 150 160 162 173 174 175 177 199 200 258 263 0
82 136 137 139 141 142 145 150 160 173 175 180 202 205 208 214 224 263 302 0
82 136 137 140 141 142 143 155 166 173 175 177 197 214 241 258 263 300 302 0
82 136 137 141 142 143 144 145 147 173 175 223 224 241 246 255 260 301 302 0
82 136 137 141 142 143 145 150 160 166 171 173 180 224 246 260 262 300 302 0
82 136 137 141 142 144 145 147 166 173 175 202 205 214 224 241 246 258 260 0
82 136 137 141 142 144 145 155 157 172 173 180 202 204 205 224 241 263 277 0
82 136 138 139 145 148 149 150 156 173 174 178 180 184 200 216 236 239 240 0
82 136 139 143 145 147 148 149 150 153 156 168 173 174 184 216 224 233 235 0
82 136 139 145 148 149 150 156 162 168 173 174 184 207 216 233 239 240 293 0
82 136 139 145 148 149 150 156 162 168 173 184 212 216 233 240 265 293 301 0
82 136 139 145 148 149 150 156 173 178 184 200 212 216 233 236 239 240 265 0
82 136 142 143 145 148 149 150 156 180 181 200 212 216 218 239 240 288 301 0
82 136 142 143 145 148 149 151 156 165 168 173 180 207 216 240 242 272 288 0
82 136 143 145 147 148 149 150 156 168 173 184 192 212 216 233 240 272 301 0
82 137 138 141 142 143 145 150 155 172 173 175 197 208 214 224 258 263 302 0
82 137 139 140 141 142 145 160 172 173 175 177 202 205 208 214 241 246 260 0
82 137 139 141 142 145 146 151 158 160 162 172 173 175 200 208 224 246 284 0
82 137 141 142 143 145 150 155 171 172 173 175 180 197 208 224 260 263 300 0
82 137 141 142 145 150 160 166 171 172 173 202 205 208 224 246 274 292 300 0
82 137 141 142 145 155 171 172 173 180 197 199 202 205 208 224 241 246 302 0
82 137 141 142 145 155 171 172 173 197 202 205 208 224 241 246 260 300 302 0
82 139 143 145 148 149 150 156 172 173 174 181 184 200 207 216 233 239 240 0
82 139 143 145 148 149 156 162 165 168 172 173 184 216 233 240 265 287 293 0
84 136 137 138 139 141 143 146 150 168 199 207 221 242 255 258 266 275 301 0
84 136 137 138 139 141 144 146 150 175 188 199 207 221 238 255 266 284 301 0
84 136 138 139 145 149 154 155 156 174 178 181 195 197 205 222 229 287 289 0
84 137 138 140 142 143 145 146 150 151 170 171 174 175 203 208 235 267 271 0
84 138 139 140 146 150 162 163 170 174 175 199 202 204 228 240 245 250 266 0
84 138 139 140 146 151 153 156 162 170 174 175 178 182 199 213 241 255 303 0
84 138 139 140 146 162 170 171 178 198 199 202 224 226 233 240 241 266 303 0
84 138 139 141 142 144 145 146 150 155 168 199 202 221 253 259 262 275 293 0
84 138 139 141 142 144 146 150 153 175 199 202 205 216 221 238 259 266 284 0
84 138 139 141 142 146 150 153 188 199 200 202 205 221 266 270 275 288 300 0
84 138 139 141 144 146 150 162 175 188 199 207 221 238 255 266 284 295 301 0
84 138 139 141 146 148 162 188 199 200 207 208 221 255 266 270 275 295 300 0
84 138 139 146 162 164 170 175 195 199 241 245 250 253 258 266 282 285 286 0
84 138 140 143 144 146 150 151 162 171 172 181 202 203 208 216 242 267 295 0
84 139 141 143 146 148 154 163 170 181 198 238 239 240 263 270 279 286 301 0
84 139 141 143 146 154 157 158 161 163 178 181 188 212 238 239 240 292 296 0
84 139 143 146 150 151 181 200 203 207 208 250 258 267 271 275 292 293 300 0
84 141 142 143 146 149 151 154 157 161 163 165 168 181 212 263 273 276 292 0
84 141 143 146 150 154 163 177 181 188 192 198 199 212 239 245 246 292 301 0
84 141 143 146 150 157 158 161 163 168 181 186 212 218 238 240 273 275 279 0
84 143 146 150 151 170 171 174 180 192 200 203 207 208 235 255 267 271 293 0
85 137 139 143 144 147 149 154 160 173 184 188 198 199 223 241 255 278 295 0
85 137 139 143 144 149 150 154 164 165 166 173 178 181 188 199 268 295 302 0
85 137 139 144 147 149 154 158 159 160 163 166 173 178 183 188 223 268 278 0
85 137 141 142 143 145 150 154 155 158 162 164 175 176 177 190 201 205 237 0
85 137 141 142 146 150 154 155 158 162 171 176 190 201 202 204 205 221 237 0
85 137 142 143 144 145 149 154 160 162 173 175 177 193 205 244 267 273 285 0
85 137 142 143 144 149 154 160 162 173 175 177 193 204 205 244 276 284 295 0
85 137 142 143 146 149 154 162 169 173 175 182 195 205 206 215 217 270 287 0
85 137 142 143 149 153 154 160 162 166 175 193 225 268 270 273 275 285 295 0
85 137 142 143 149 154 160 162 184 193 198 204 214 221 244 266 270 275 284 0
85 142 143 145 149 152 154 162 169 173 177 182 206 221 244 266 267 273 275 0
85 142 145 149 150 152 153 154 155 162 163 167 173 174 183 193 205 228 284 0
85 142 145 149 150 152 154 162 169 173 182 195 206 215 244 267 275 280 295 0
85 142 145 149 150 154 159 160 162 169 177 193 206 221 266 267 273 275 295 0
98 136 138 142 145 149 155 156 166 167 168 181 193 198 201 204 241 268 274 0
98 142 147 149 154 155 164 167 193 201 202 205 220 224 236 241 255 274 295 0
99 136 138 141 146 149 150 157 168 172 175 203 204 207 218 220 233 235 240 0
100 136 138 139 143 148 149 150 166 167 168 170 178 180 184 239 240 272 289 0
100 136 138 140 143 147 152 154 159 160 163 172 174 183 208 215 217 228 264 0
100 136 138 140 147 150 159 161 166 174 195 200 204 229 258 264 283 286 295 0
100 136 138 143 148 149 150 152 167 168 173 174 178 180 184 219 240 288 294 0
100 136 139 143 148 149 165 166 167 168 170 178 180 184 207 239 240 272 289 0
100 136 142 143 145 148 149 150 152 153 156 159 168 173 174 233 235 250 257 0
100 136 143 148 149 150 153 166 167 168 170 178 184 207 233 235 247 289 294 0
100 136 143 148 149 152 165 167 168 174 178 184 207 233 239 240 272 289 294 0
100 138 142 143 145 148 149 150 152 156 173 200 233 236 239 240 253 272 293 0
100 139 143 148 149 150 152 159 167 168 172 173 174 178 180 184 240 250 257 0
100 140 146 147 149 152 153 154 156 157 159 164 177 190 208 214 235 264 277 0
100 140 147 149 153 154 156 157 158 159 164 177 190 208 214 235 239 264 284 0
100 142 143 145 148 149 150 152 155 162 173 174 233 236 239 240 292 295 299 0
101 139 144 146 147 148 149 151 153 156 157 160 193 201 208 267 272 275 277 0
102 136 137 144 145 146 150 159 165 167 168 171 177 183 184 192 233 272 302 0
102 136 138 139 143 145 152 160 171 178 181 184 197 198 200 204 241 263 276 0
102 140 141 142 143 144 147 149 151 154 155 158 162 165 172 176 190 283 286 0
102 143 145 146 148 149 150 154 156 157 160 163 167 175 193 197 270 274 288 0
102 143 145 146 148 149 150 154 157 160 167 175 193 220 239 243 270 274 288 0
102 143 145 148 149 157 160 162 167 193 197 220 224 225 262 270 274 275 285 0
102 143 145 149 154 157 160 166 167 193 197 220 224 225 270 274 275 285 288 0
106 136 137 152 155 172 184 202 204 218 219 226 228 230 244 267 283 284 296 0
106 136 138 140 141 147 148 149 152 159 161 163 164 172 173 174 214 215 217 0
106 136 138 140 147 149 154 159 170 171 172 173 174 180 240 250 269 295 301 0
106 136 138 145 150 156 157 165 167 173 189 216 231 233 234 236 250 286 292 0
106 136 141 145 146 149 150 152 153 156 159 177 179 181 188 202 214 262 292 0
106 136 141 145 146 149 152 153 154 156 159 175 177 179 181 188 207 233 274 0
106 137 138 140 147 148 149 159 172 174 197 200 215 216 217 239 264 286 301 0
106 137 139 142 143 145 147 148 149 150 152 156 157 162 168 177 180 240 288 0
106 137 143 145 148 149 150 152 156 159 162 168 174 177 180 184 240 272 288 0
106 139 140 141 142 143 160 172 173 175 177 180 205 207 208 214 241 288 302 0
106 139 140 146 150 154 158 160 163 175 177 205 221 232 243 253 258 283 296 0
106 139 143 148 149 150 152 153 159 167 168 174 180 184 229 235 272 276 293 0
121 141 142 144 145 156 172 177 186 188 196 199 204 212 226 238 260 276 295 0
123 136 137 140 145 146 147 157 159 164 165 168 171 175 177 183 184 192 219 0
123 136 137 140 145 146 151 159 165 168 171 177 183 192 219 226 228 255 283 0
123 136 137 145 146 147 151 159 163 164 165 168 171 175 183 192 272 281 287 0
125 136 138 139 149 153 164 188 190 192 208 209 212 217 225 228 235 266 267 0
125 138 139 140 142 146 149 153 156 163 164 208 212 217 225 235 245 268 270 0
131 136 143 145 148 149 150 156 167 168 170 180 183 184 207 216 219 240 288 0
131 139 143 144 146 147 154 158 160 171 173 183 188 219 223 255 283 295 302 0
132 136 137 141 145 146 149 153 156 159 177 179 181 183 188 207 219 262 296 0
132 136 138 140 142 145 148 149 150 153 156 159 161 168 180 226 235 287 288 0
132 136 141 145 146 149 153 156 159 179 181 183 188 207 242 262 281 287 292 0
132 142 143 148 149 150 151 153 157 159 168 174 180 182 192 219 235 292 301 0
133 136 138 140 141 146 147 150 154 157 164 181 193 199 202 203 226 245 290 0
133 136 141 144 146 147 150 154 157 160 164 166 189 203 207 218 232 245 277 0
133 136 142 143 144 150 153 162 164 168 170 172 181 184 188 193 214 239 257 0
133 136 143 144 152 164 165 168 170 172 173 184 188 194 202 242 257 263 277 0
133 139 143 146 149 155 157 158 161 163 169 170 177 181 188 205 239 240 286 0
133 143 146 148 157 161 163 168 170 181 188 193 229 240 270 274 286 292 293 0
134 136 137 138 140 141 149 150 161 173 177 179 193 199 216 239 240 249 302 0
134 136 137 138 140 145 150 161 173 177 178 179 193 199 216 239 245 249 302 0
134 136 139 144 150 153 156 157 161 165 168 185 189 199 204 219 240 244 303 0
134 136 143 144 156 157 165 168 177 189 194 195 197 204 219 235 240 262 266 0
134 137 138 139 140 143 150 161 172 179 192 199 216 225 245 250 256 287 303 0
134 137 138 140 141 143 150 154 161 164 172 179 199 204 226 245 250 274 287 0
134 137 138 140 141 147 150 161 172 179 193 199 216 240 245 249 264 287 303 0
134 139 140 144 145 147 150 158 159 160 165 171 173 188 223 240 278 295 302 0
134 139 144 147 150 158 160 163 164 165 171 173 188 205 214 223 240 265 291 0
134 142 146 148 151 152 154 155 158 167 178 189 190 201 205 224 240 257 262 0
134 142 146 148 151 152 154 155 158 167 189 190 201 205 224 240 257 262 287 0
135 136 138 140 144 145 147 150 155 162 172 175 180 200 204 255 260 261 267 0
135 138 143 147 155 160 162 177 181 182 188 224 225 241 242 264 265 285 299 0
135 138 150 155 160 162 166 172 177 179 182 190 224 242 243 264 265 267 299 0
135 138 150 160 173 177 182 190 202 214 216 224 242 243 265 267 288 293 295 0
135 140 143 145 156 157 160 162 166 167 172 193 197 204 205 233 262 270 275 0
1 20 205 206 213 224 225 239 250 253 254 256 260 265 268 269 279 287 293 294 0
1 42 139 161 178 191 205 208 221 224 234 250 253 254 260 266 269 271 277 300 0
1 136 138 140 159 170 172 188 205 212 240 250 261 265 269 278 280 288 293 298 0
1 136 140 143 154 159 162 172 212 224 235 244 250 259 261 265 272 278 279 280 0
1 136 140 145 159 162 164 185 205 212 224 240 244 250 257 259 261 263 265 280 0
1 136 153 160 162 166 170 178 188 205 212 224 250 257 260 262 279 285 292 293 0
1 137 140 143 149 188 206 212 224 225 235 250 257 260 261 265 269 283 293 299 0
1 138 140 143 159 188 206 212 225 235 250 257 261 263 265 269 283 293 298 299 0
1 138 140 145 159 160 162 179 200 205 207 235 250 251 257 259 270 278 280 298 0
1 138 140 153 160 162 163 164 170 173 183 205 212 251 257 259 260 269 280 298 0
1 138 140 162 173 183 205 212 240 248 257 259 260 261 265 269 278 280 285 299 0
1 138 140 162 178 188 200 205 207 208 218 227 251 257 261 270 278 279 280 298 0
1 138 143 153 159 160 162 172 179 188 212 248 250 251 262 278 279 280 293 298 0
1 138 154 162 179 188 204 205 212 235 250 251 257 260 261 279 280 283 285 293 0
1 138 160 166 169 193 204 205 206 208 212 225 251 257 259 278 285 288 292 293 0
1 140 143 159 160 162 170 172 188 206 212 224 225 227 240 250 265 269 278 299 0
1 140 145 160 162 164 166 188 205 206 212 224 225 227 235 249 250 251 257 260 0
1 140 145 160 162 170 188 200 205 207 208 224 240 250 251 257 260 270 278 280 0
1 140 159 166 172 178 191 200 205 207 208 224 235 244 250 269 270 280 293 296 0
1 143 149 154 169 193 212 218 224 237 249 257 259 261 265 269 278 280 293 299 0
1 143 154 159 163 172 178 185 212 224 235 238 244 250 256 259 279 285 293 303 0
1 143 170 172 183 185 212 224 240 259 260 261 264 265 269 280 283 288 292 293 0
1 154 172 188 204 205 206 212 224 225 235 244 250 260 261 265 278 279 293 299 0
1 154 188 205 208 212 223 224 235 248 250 251 257 260 261 278 279 280 288 293 0
1 160 162 172 188 204 205 212 224 240 248 249 250 260 265 269 278 279 280 293 0
1 160 169 170 172 178 181 188 197 205 212 224 231 239 240 265 278 280 288 293 0
1 170 204 205 212 224 227 240 250 251 257 259 260 261 269 278 279 280 293 299 0
2 14 136 148 152 167 169 197 204 210 239 240 248 253 255 257 262 277 283 300 0
2 82 148 157 168 188 191 197 204 208 211 220 250 254 260 269 272 292 293 300 0
2 137 140 159 162 166 173 183 191 194 197 204 206 211 225 234 251 253 277 285 0
2 145 161 166 184 197 198 199 204 205 206 211 224 225 239 241 250 253 265 297 0
2 146 149 152 166 172 184 186 190 198 204 210 212 231 234 240 246 248 253 262 0
2 146 149 154 166 184 190 198 204 210 212 222 226 231 234 235 240 248 253 266 0
2 146 154 166 184 186 187 188 198 204 210 212 220 234 235 236 248 253 268 288 0
2 147 148 149 155 166 197 198 200 207 210 235 236 239 248 253 257 262 286 288 0
2 147 155 159 166 183 191 197 211 224 251 263 264 277 279 282 287 292 293 294 0
2 151 153 161 166 182 187 188 191 197 204 211 233 234 250 251 253 280 286 297 0
2 152 159 161 166 170 184 191 197 204 211 224 250 263 265 277 279 287 297 300 0
2 162 166 186 189 191 197 201 204 206 211 220 225 234 251 286 292 293 295 298 0
3 136 159 166 170 172 185 188 204 209 221 235 239 245 247 253 262 266 268 271 0
3 137 145 146 149 151 152 170 175 183 190 202 206 216 243 245 257 268 270 285 0
3 138 143 150 154 170 172 191 205 240 250 255 261 265 269 280 283 288 292 298 0
3 138 149 159 170 172 185 188 209 213 221 234 236 237 240 241 247 253 262 298 0
3 140 160 167 169 170 172 188 191 205 219 246 250 265 269 280 283 288 289 298 0
3 140 167 169 170 172 184 188 198 199 241 250 261 265 274 279 280 283 288 298 0
3 142 149 153 156 170 172 182 185 188 197 200 209 213 235 239 253 262 292 293 0
3 145 149 150 154 160 165 167 170 172 176 191 196 201 240 250 278 279 288 298 0
3 145 150 170 172 183 191 194 235 261 262 263 264 265 274 280 283 292 298 299 0
3 145 150 170 172 191 205 235 250 261 262 265 273 280 281 283 287 288 292 298 0
3 145 154 160 165 166 168 170 172 176 188 191 232 240 250 268 279 283 288 298 0
3 145 154 165 170 172 176 182 186 188 191 240 242 250 261 267 279 283 298 299 0
3 145 158 163 170 172 177 188 191 206 211 212 225 235 250 261 265 278 288 298 0
3 146 153 163 170 172 183 188 191 212 213 235 251 261 264 273 280 283 298 299 0
3 150 152 167 169 170 172 183 191 205 251 261 264 269 280 283 291 292 298 299 0
4 137 141 144 150 151 153 154 158 178 180 195 204 217 224 232 245 280 284 294 0
5 136 145 147 160 166 167 170 183 205 206 225 260 264 265 268 285 292 293 298 0
5 136 147 159 167 170 184 195 198 199 206 212 224 225 228 241 251 261 283 285 0
5 136 147 167 170 177 183 204 206 211 212 221 225 226 228 251 260 261 264 298 0
5 137 138 140 141 143 155 159 160 169 170 172 174 175 206 217 240 264 275 299 0
5 137 138 140 141 155 159 160 166 171 172 176 188 197 239 258 264 291 299 302 0
5 138 140 141 143 157 170 174 182 195 205 216 224 238 239 240 245 255 288 302 0
5 139 140 146 149 153 154 156 157 162 163 164 170 188 194 208 217 225 270 295 0
5 139 141 142 144 154 155 157 170 188 189 199 217 219 238 240 261 273 276 295 0
5 139 145 146 163 164 172 173 174 178 183 214 217 224 236 263 276 284 287 290 0
5 139 149 157 162 164 173 188 192 200 202 205 207 208 217 225 240 270 286 302 0
5 140 155 162 166 169 177 184 188 210 212 218 220 222 227 248 257 268 294 302 0
5 143 159 170 172 182 204 212 224 225 242 250 261 265 280 283 285 288 292 293 0
5 145 159 168 172 183 205 210 218 222 235 248 253 261 264 270 277 286 297 300 0
5 155 159 166 169 170 179 184 188 210 212 218 237 240 250 257 277 292 293 300 0
6 136 138 140 141 144 146 152 161 165 168 176 179 181 192 202 203 218 235 268 0
6 136 140 141 144 146 157 164 165 166 168 177 197 203 207 218 233 235 238 271 0
7 136 138 140 143 146 151 168 171 184 203 216 242 253 255 267 271 292 293 302 0
7 137 140 141 142 146 148 150 154 157 167 170 180 185 193 200 207 216 243 265 0
7 138 139 140 142 143 144 146 151 177 183 184 192 203 216 253 264 275 292 301 0
8 136 142 154 159 160 166 176 188 200 212 218 250 251 257 268 272 276 279 280 0
8 136 159 194 200 206 207 215 241 250 256 257 259 269 270 271 273 280 288 292 0
8 137 138 139 140 143 145 148 152 159 162 166 167 178 180 181 200 245 268 288 0
8 137 138 165 184 191 193 204 205 212 250 257 260 269 278 285 292 293 299 301 0
8 137 140 159 162 165 172 191 204 205 207 212 224 237 244 250 279 283 295 299 0
8 137 140 162 163 165 183 188 191 205 212 224 230 257 260 264 269 283 301 303 0
8 157 159 163 166 172 200 207 222 244 250 256 259 272 273 279 280 288 291 303 0
9 159 160 166 176 188 201 204 206 225 250 262 265 266 268 271 272 277 279 285 0
10 58 138 140 146 147 155 169 171 174 175 177 187 188 202 204 212 244 247 283 0
10 141 143 144 145 149 150 153 158 165 170 171 176 180 197 205 221 242 267 283 0
10 143 166 167 170 172 183 188 206 212 224 225 251 261 264 268 273 278 285 288 0
11 137 138 142 143 144 146 150 151 152 156 166 175 188 205 206 224 231 248 293 0
11 138 154 185 197 209 213 221 222 235 239 253 260 277 278 280 287 294 298 299 0
11 140 159 160 199 200 209 212 213 218 223 236 239 242 253 269 277 283 288 300 0
11 141 142 149 154 165 167 174 186 191 193 211 231 240 244 250 260 279 283 297 0
11 141 146 150 160 183 191 204 221 230 235 239 247 264 265 274 280 283 298 299 0
11 143 144 146 148 154 157 160 163 167 169 174 186 204 215 224 225 249 269 275 0
11 143 148 152 155 158 159 170 178 188 195 205 244 254 256 266 276 277 293 294 0
11 144 157 159 160 176 197 208 209 220 221 239 240 244 262 266 278 287 288 294 0
11 147 154 155 178 205 207 213 224 246 250 253 254 260 269 277 281 289 292 300 0
11 149 153 154 156 172 179 188 191 195 201 209 211 213 235 239 247 253 266 274 0
11 149 153 163 187 189 196 200 201 211 212 213 223 235 239 247 262 282 283 297 0
11 149 154 166 204 209 213 220 234 237 240 244 247 253 260 263 268 278 299 300 0
11 167 172 176 197 199 204 209 213 219 220 239 250 277 283 286 288 295 297 300 0
11 170 184 197 205 210 213 239 240 253 254 256 257 261 265 270 273 280 287 294 0
11 172 176 197 199 209 213 220 230 239 250 268 283 287 288 291 294 295 296 297 0
12 70 140 149 162 170 172 174 183 184 188 202 205 207 217 224 240 269 270 275 0
12 136 137 140 149 156 159 177 183 184 188 204 206 213 242 255 261 264 279 283 0
12 136 143 149 154 162 166 170 206 224 225 237 240 257 259 261 265 269 278 293 0
12 140 143 144 150 161 164 172 179 188 190 197 199 204 233 239 262 270 273 282 0
12 140 162 163 170 172 188 191 204 205 206 224 225 240 251 261 269 270 283 303 0
12 143 149 154 166 188 191 208 224 227 237 244 251 261 262 280 283 293 299 302 0
12 143 154 160 178 179 188 191 204 206 208 224 225 233 244 262 265 283 288 293 0
12 143 154 166 170 191 206 224 225 232 240 257 259 261 265 269 283 288 292 293 0
12 144 149 158 159 160 165 168 169 170 171 178 206 211 213 230 255 256 267 293 0
13 138 144 147 148 151 152 155 157 160 163 172 174 177 178 217 247 256 275 282 0
13 139 142 143 144 157 158 161 164 170 172 174 184 193 195 225 240 258 284 293 0
13 139 142 143 152 164 166 167 172 174 184 194 195 202 204 244 258 269 284 298 0
13 140 161 162 165 170 191 205 211 216 239 250 260 263 265 269 272 277 295 300 0
13 154 160 170 178 200 204 206 207 225 227 249 257 259 265 270 283 285 286 299 0
13 154 183 188 200 204 207 240 241 244 257 260 261 264 270 273 279 286 288 291 0
13 166 170 172 177 184 188 198 210 212 224 225 240 268 277 283 285 291 294 299 0
14 132 136 137 140 142 144 145 147 148 151 163 175 183 198 202 208 225 228 230 0
14 136 137 138 140 141 142 145 150 154 171 177 197 199 202 205 214 221 246 260 0
14 136 137 145 146 148 153 154 156 160 164 170 173 176 177 180 188 204 257 258 0
14 136 140 152 161 166 197 200 204 213 217 250 260 269 277 282 285 287 293 294 0
14 138 139 140 141 145 147 152 156 160 165 168 178 181 188 198 202 205 208 279 0
14 140 141 142 143 145 147 152 156 164 188 205 206 207 208 225 238 255 276 279 0
14 140 141 145 147 148 152 156 162 164 169 170 186 202 208 224 232 240 244 274 0
14 140 141 145 147 151 152 156 162 164 165 169 202 206 208 210 217 224 274 284 0
14 140 141 145 147 152 156 160 188 192 202 204 207 208 221 267 274 286 292 293 0
14 140 145 152 159 162 166 173 183 188 197 204 211 265 274 277 287 294 298 303 0
14 157 162 166 172 183 188 197 204 211 217 220 244 260 263 264 279 297 298 300 0
14 159 160 162 166 170 188 197 200 204 211 224 225 250 263 265 277 279 297 300 0
15 136 139 142 143 144 146 148 151 183 184 203 207 208 216 232 253 255 276 293 0
15 140 145 159 160 170 172 173 183 188 191 205 208 211 244 265 272 277 297 300 0
15 143 149 153 154 156 159 167 197 200 201 204 212 213 235 239 242 253 263 274 0
15 154 168 169 184 187 188 189 198 201 204 205 210 212 218 235 248 268 269 288 0
15 169 170 184 187 188 210 212 218 220 234 236 240 244 253 262 266 268 288 293 0
16 58 138 139 140 141 147 149 150 151 153 155 158 162 165 166 167 170 193 258 0
16 58 139 140 141 143 145 147 149 151 153 155 158 162 165 167 170 188 190 193 0
16 70 82 140 146 147 149 155 156 157 159 164 168 171 226 240 246 262 293 302 0
16 136 138 139 140 144 145 147 158 159 161 162 166 174 202 207 218 255 258 283 0
16 136 139 140 142 145 147 155 159 166 171 172 193 226 232 238 257 258 283 303 0
16 136 139 140 144 145 147 158 159 162 166 167 174 188 207 211 255 258 270 286 0
16 136 142 144 145 149 150 152 154 160 162 173 177 193 197 205 214 215 239 267 0
16 137 138 140 143 145 160 162 163 170 178 188 212 257 265 274 280 283 285 291 0
16 137 138 140 143 159 162 166 172 191 212 224 225 240 248 250 255 269 271 272 0
16 137 138 140 160 162 163 178 188 193 204 205 212 223 251 257 278 280 285 303 0
16 137 138 145 159 162 166 173 179 183 191 204 205 212 235 257 280 285 292 293 0
16 137 138 205 212 240 248 250 257 259 260 261 265 269 280 283 292 293 298 299 0
16 137 139 154 166 185 191 205 213 219 224 225 246 250 260 268 277 279 287 289 0
16 137 140 143 144 145 149 153 162 166 170 191 212 224 250 257 260 274 280 299 0
16 137 140 143 144 147 149 154 162 185 191 212 224 235 250 257 260 279 280 294 0
16 137 140 145 159 160 162 163 170 188 204 205 212 224 225 240 250 257 265 278 0
16 137 140 154 162 166 191 205 207 213 222 224 225 250 260 268 277 279 281 300 0
16 137 142 143 145 149 153 160 162 166 169 171 182 189 205 258 267 268 273 295 0
16 137 142 143 149 154 159 162 166 169 173 177 183 193 205 214 217 267 268 273 0
16 137 142 143 149 154 162 164 166 169 173 177 182 232 255 268 273 275 276 295 0
16 137 142 145 149 150 160 162 169 170 173 177 182 183 240 258 270 273 275 295 0
16 137 144 149 154 159 166 173 183 191 205 212 224 235 257 279 280 288 293 300 0
16 138 140 142 143 144 150 155 164 170 177 184 197 208 221 229 253 266 275 279 0
16 138 142 143 145 149 152 153 154 160 162 164 177 189 193 197 264 267 273 275 0
16 142 143 145 146 149 152 154 160 162 169 173 182 195 232 273 275 276 287 295 0
16 142 143 145 149 152 153 154 162 169 173 177 190 193 232 243 267 273 275 285 0
16 142 143 145 149 152 154 159 160 162 173 177 183 193 204 205 214 267 284 288 0
16 142 143 145 149 152 154 159 162 168 169 173 177 181 182 205 232 244 276 284 0
16 142 143 145 149 152 154 160 162 169 173 177 182 197 215 217 239 258 267 275 0
16 143 146 149 151 155 158 162 165 168 176 182 197 201 205 212 221 224 240 269 0
18 136 138 139 149 162 164 188 192 194 208 212 217 218 225 228 230 240 275 277 0
18 137 138 139 149 153 156 159 163 164 195 197 207 208 217 225 237 245 248 268 0
18 137 144 146 149 166 172 184 189 194 201 204 210 212 231 234 235 238 248 262 0
18 138 139 145 150 161 164 170 171 173 176 177 184 190 197 199 200 201 224 286 0
18 139 144 151 153 157 159 161 163 170 176 182 220 224 231 255 257 267 271 283 0
18 140 141 143 145 148 149 150 154 155 156 157 165 179 215 219 242 247 270 302 0
18 140 143 145 148 150 154 156 157 160 167 172 174 202 233 247 270 274 295 302 0
18 143 145 148 149 155 156 157 163 164 172 174 176 197 220 262 270 274 278 285 0
18 147 154 155 160 166 169 170 188 191 197 210 212 218 234 240 250 253 257 268 0
18 154 166 169 184 188 189 197 201 204 205 212 213 222 226 234 235 236 248 269 0
18 166 170 184 186 197 198 204 210 212 220 222 234 240 244 253 262 268 278 300 0
20 137 139 143 147 149 150 154 155 170 173 174 175 215 226 228 240 249 266 272 0
20 139 142 154 166 168 170 172 197 204 210 212 236 240 253 266 277 288 291 293 0
20 139 142 159 166 170 188 191 197 204 211 212 239 250 265 277 279 287 297 298 0
20 140 142 159 162 166 184 197 198 200 204 211 234 241 250 265 268 279 285 300 0
20 140 142 160 166 173 183 188 191 197 200 204 211 239 260 265 269 277 293 300 0
20 140 142 166 173 183 191 197 200 204 211 239 260 265 268 279 287 293 294 298 0
20 142 144 149 166 172 184 189 197 201 204 210 212 231 235 239 246 248 262 299 0
20 142 145 147 155 166 186 188 197 210 212 213 218 234 235 240 248 253 262 299 0
20 142 146 147 155 160 166 183 184 188 210 212 222 248 257 272 277 283 288 300 0
20 142 146 148 149 166 172 186 191 204 210 212 234 240 246 248 250 253 262 277 0
20 142 147 155 166 189 191 197 201 210 212 236 237 239 240 244 248 262 268 288 0
20 142 148 149 154 166 168 169 186 188 191 197 204 210 212 235 236 248 253 268 0
20 142 149 166 170 189 197 200 201 204 207 210 239 240 244 246 262 270 277 286 0
20 142 157 166 172 174 187 191 197 204 210 212 215 239 240 248 250 253 262 299 0
20 142 165 166 183 188 191 197 204 205 211 236 260 264 268 269 279 287 294 297 0
20 142 166 170 183 191 197 204 211 212 239 260 264 265 269 277 292 297 298 300 0
21 80 149 153 154 172 188 209 213 220 227 239 247 248 253 268 283 288 300 303 0
21 136 137 138 139 141 143 144 148 163 168 171 199 202 218 221 228 255 275 284 0
21 136 137 149 170 172 188 209 221 224 235 237 239 241 247 253 262 266 271 300 0
21 136 139 162 170 172 185 188 191 209 221 234 235 247 253 262 266 271 277 278 0
21 136 140 142 143 144 151 163 164 171 181 184 192 197 203 207 228 250 255 278 0
21 136 144 153 170 172 188 191 197 209 221 223 239 244 253 262 277 283 299 300 0
21 136 144 154 162 164 170 172 188 209 220 221 235 239 241 247 253 266 268 300 0
21 136 153 156 160 164 165 170 172 176 188 209 221 244 247 262 271 277 299 300 0
21 136 153 160 164 165 170 172 176 188 209 221 236 244 247 262 271 277 299 300 0
21 136 167 170 172 188 199 212 221 224 235 237 239 247 250 253 262 266 271 300 0
21 136 170 172 185 188 189 201 209 221 234 240 247 262 266 271 277 283 288 294 0
21 138 139 140 143 147 163 164 167 189 191 195 216 234 242 256 266 271 297 298 0
21 138 139 140 147 164 167 187 191 204 205 216 231 234 253 266 271 297 298 301 0
21 138 139 141 142 145 146 150 153 155 188 199 202 216 221 224 274 275 284 293 0
21 138 139 141 145 149 150 171 181 199 207 216 218 221 240 250 255 259 274 290 0
21 138 139 147 164 167 187 189 191 197 204 213 216 224 225 229 231 239 270 292 0
21 138 139 147 164 167 189 191 193 195 197 204 205 213 216 229 239 245 292 298 0
21 138 139 147 167 175 176 189 191 193 195 204 213 216 229 234 270 292 296 298 0
21 139 154 160 162 166 170 172 176 179 188 197 209 213 220 239 240 265 268 278 0
21 144 153 170 172 188 189 201 208 209 220 221 234 235 247 262 268 278 299 300 0
21 144 160 170 172 176 188 208 209 221 234 235 236 247 262 266 277 278 288 300 0
21 157 170 172 188 208 209 220 221 234 235 244 247 253 262 266 271 278 288 294 0
21 163 170 172 188 189 199 201 204 209 212 213 223 240 250 277 278 282 299 300 0
22 136 138 139 144 151 155 157 158 163 174 178 211 217 219 226 240 277 280 288 0
22 136 139 144 145 151 156 157 158 160 163 166 174 178 226 229 239 257 288 295 0
22 139 140 144 147 150 151 155 157 164 170 172 207 208 217 219 224 245 275 303 0
22 139 140 147 150 151 157 164 172 177 204 207 208 219 224 258 271 275 279 303 0
23 80 138 139 141 143 165 168 171 173 183 186 202 203 217 240 253 267 280 298 0
23 80 139 144 149 150 151 154 164 165 166 182 192 213 239 240 258 268 274 302 0
23 136 140 144 145 147 155 159 162 166 170 171 174 184 188 211 226 238 279 303 0
23 136 145 146 152 157 160 166 175 177 179 181 185 188 190 192 197 204 207 268 0
23 139 156 168 177 196 201 205 207 211 213 224 226 254 256 260 261 265 269 280 0
23 140 145 166 172 178 205 206 211 213 224 225 234 251 253 256 261 268 293 294 0
23 145 149 153 160 165 168 170 184 188 192 194 205 216 217 235 248 249 275 279 0
23 145 160 168 176 183 201 204 205 213 224 251 254 260 264 277 279 280 285 293 0
23 147 154 155 197 205 211 213 224 246 250 253 254 260 264 277 279 280 293 300 0
36 124 136 137 138 139 142 145 148 159 160 168 172 174 178 183 188 192 207 219 0
36 136 153 197 209 220 221 233 239 244 253 260 262 266 271 277 278 286 288 300 0
36 136 156 157 162 166 209 220 221 224 235 239 247 253 262 266 271 283 287 294 0
36 140 145 165 184 198 199 204 205 206 224 225 230 241 251 261 283 285 288 293 0
36 141 150 154 159 160 174 183 184 198 199 235 264 273 274 278 279 280 288 298 0
36 141 150 154 159 160 183 184 198 199 235 251 264 273 274 278 279 280 288 298 0
36 141 150 160 184 197 198 199 205 240 250 251 260 266 269 273 280 283 298 299 0
36 141 154 184 185 198 199 235 238 241 250 260 261 265 274 279 280 283 298 299 0
36 145 149 154 165 177 189 191 196 230 235 246 250 256 260 279 280 283 298 299 0
36 149 154 184 196 198 199 231 235 241 250 251 260 261 274 279 280 283 298 299 0
36 159 191 196 204 205 206 211 212 218 225 235 250 261 262 265 269 273 279 298 0
37 136 144 149 153 154 160 164 170 172 212 250 251 255 259 260 263 279 280 288 0
37 139 147 154 155 165 172 174 187 189 191 197 201 213 239 250 261 277 280 287 0
37 139 160 172 191 196 207 208 213 224 231 234 251 253 256 269 272 280 289 300 0
37 140 153 154 159 160 163 165 166 170 172 179 212 250 259 265 269 283 299 303 0
37 140 154 159 162 163 164 165 170 173 179 183 188 191 204 212 240 257 269 272 0
37 145 152 156 166 208 221 239 250 251 256 260 261 262 268 271 277 280 292 300 0
37 149 154 165 183 191 196 206 213 225 234 241 246 251 253 256 261 264 277 300 0
37 154 159 172 206 212 225 227 235 244 249 250 251 259 261 263 272 278 279 288 0
37 178 183 189 197 201 204 213 239 246 254 260 264 272 277 279 287 289 294 296 0
38 136 137 140 141 144 145 168 181 192 196 200 205 225 226 251 259 261 287 293 0
38 136 137 140 141 145 149 160 169 176 177 196 205 221 226 237 259 265 280 293 0
38 140 152 157 159 168 180 181 191 194 197 213 220 237 250 272 279 289 297 300 0
38 140 162 172 191 194 200 211 222 237 239 242 244 250 251 253 261 263 280 281 0
38 140 170 183 184 197 198 199 200 211 239 241 251 260 261 264 277 279 297 300 0
38 172 173 183 184 198 199 205 211 241 244 260 261 265 269 272 277 279 297 300 0
39 136 139 144 145 149 150 151 152 154 159 161 166 172 180 183 184 189 220 255 0
43 136 140 143 144 145 148 150 155 162 165 169 177 182 190 205 217 226 228 238 0
43 138 139 143 147 148 155 160 178 186 188 197 214 216 217 230 233 241 255 270 0
44 136 140 141 143 145 146 148 149 155 156 157 166 167 175 188 190 262 270 274 0
44 138 139 143 144 145 151 152 155 159 161 166 176 178 190 200 220 222 243 268 0
44 143 152 155 158 159 166 188 195 204 208 221 224 229 231 241 266 268 277 294 0
44 143 154 156 160 166 168 180 188 204 207 224 225 231 255 265 268 270 271 280 0
45 138 141 142 143 144 145 151 165 185 191 198 200 218 224 250 275 276 283 288 0
45 138 142 143 144 145 146 151 153 165 173 175 178 198 199 200 205 233 283 288 0
45 139 159 162 167 189 192 199 201 205 209 212 218 227 231 246 277 287 289 303 0
45 139 159 162 188 189 199 201 205 209 212 218 221 224 225 227 241 277 287 289 0
45 149 153 159 162 163 194 201 205 207 209 212 218 234 242 253 277 289 292 300 0
46 137 145 149 151 152 170 172 182 183 184 196 198 218 240 242 245 268 270 286 0
46 138 139 140 144 145 147 150 155 163 164 169 171 173 177 188 199 206 288 297 0
46 138 139 140 144 147 150 155 163 164 166 169 171 173 181 183 188 199 206 268 0
46 140 143 144 158 160 161 164 172 190 193 197 201 207 218 239 269 270 288 302 0
46 141 154 172 174 184 189 191 192 201 204 208 214 217 225 234 261 270 272 273 0
46 143 166 174 187 188 189 197 204 225 231 233 239 249 253 257 261 268 273 300 0
46 144 148 155 158 161 172 180 183 190 207 208 218 254 260 264 265 269 285 293 0
46 147 154 155 159 160 165 166 177 184 220 225 231 239 251 253 268 270 282 294 0
46 154 165 168 183 184 204 205 207 222 224 253 254 260 261 264 265 277 280 300 0
47 138 140 147 167 168 177 187 189 191 193 204 205 216 220 221 240 244 298 301 0
47 138 147 154 157 163 164 167 177 181 187 189 191 193 204 205 216 220 234 298 0
47 140 145 159 183 188 190 201 204 205 207 213 222 224 254 262 264 270 277 281 0
47 154 157 159 160 163 164 176 185 197 209 220 221 224 225 229 235 239 278 299 0
49 136 139 143 154 188 212 224 227 244 251 257 258 261 269 278 280 293 299 302 0
49 136 140 143 154 162 163 206 212 223 224 225 248 251 257 259 261 269 283 299 0
49 138 143 151 154 162 163 164 172 182 208 212 244 251 259 261 262 280 293 298 0
49 138 160 178 188 199 205 206 208 212 225 248 257 265 269 271 278 293 298 299 0
49 140 143 154 160 162 164 188 200 207 208 223 224 227 248 257 262 265 270 280 0
50 136 137 138 141 142 143 144 145 150 160 168 214 217 224 249 258 260 263 274 0
50 136 137 138 141 142 143 144 145 151 160 168 172 214 224 241 246 274 288 292 0
50 136 137 138 141 142 144 145 160 181 202 205 211 214 224 241 246 249 260 262 0
50 136 137 139 141 142 144 145 150 151 155 160 162 166 172 173 207 246 275 291 0
50 136 137 140 141 144 145 155 160 169 177 190 192 205 225 226 249 259 265 293 0
50 136 137 140 141 145 160 169 177 188 196 205 225 226 238 251 256 270 271 293 0
50 136 137 141 142 143 144 145 150 155 168 173 205 214 224 246 249 260 300 302 0
50 136 139 140 146 156 157 161 163 165 169 174 177 187 211 212 231 248 253 258 0
50 136 139 140 146 156 163 165 169 173 174 188 198 211 240 248 253 260 270 286 0
50 136 139 140 148 156 165 169 174 177 188 197 198 200 211 232 248 253 293 301 0
50 136 139 140 156 163 165 169 174 188 197 198 205 211 212 240 248 253 260 281 0
50 136 140 141 144 145 149 154 155 169 175 177 196 205 225 226 251 259 261 293 0
50 136 140 141 145 149 154 160 169 171 177 188 190 205 225 226 249 251 256 293 0
50 136 140 141 145 149 154 169 175 177 188 196 205 225 226 237 251 256 261 293 0
50 136 140 141 145 154 155 162 169 175 177 188 192 196 205 225 226 231 261 265 0
50 136 140 141 145 154 160 162 169 175 188 192 196 205 225 226 237 256 265 287 0
50 137 140 145 147 152 155 159 161 162 166 186 205 211 245 250 268 285 300 303 0
50 141 149 160 169 170 174 176 210 221 226 230 240 244 251 253 262 283 299 300 0
50 147 155 159 161 166 170 184 197 208 211 250 263 268 279 292 297 298 300 303 0
50 159 161 162 166 170 183 184 197 204 211 224 225 264 272 279 289 295 297 300 0
51 136 139 142 143 144 147 149 151 152 159 160 166 170 171 213 240 268 276 290 0
51 136 139 154 167 169 170 174 186 187 210 220 227 231 239 240 253 268 283 287 0
51 136 142 143 144 149 151 153 157 159 160 166 170 171 177 197 208 253 261 264 0
51 136 142 143 144 149 151 153 159 160 166 170 171 193 197 213 220 239 249 261 0
51 140 144 145 153 159 166 170 188 206 214 218 225 250 257 261 262 285 288 293 0
51 142 143 144 147 149 151 153 157 159 160 166 170 172 175 177 197 208 239 271 0
51 142 143 144 147 151 153 159 160 166 170 171 172 173 202 213 220 247 276 295 0
51 142 143 144 148 149 151 152 153 159 160 163 170 172 175 213 215 261 271 277 0
51 142 143 144 148 149 151 152 159 160 170 171 172 177 208 211 220 240 256 280 0
51 142 143 144 149 151 152 153 159 160 166 170 172 175 211 213 256 268 271 280 0
51 142 143 144 149 151 152 159 160 166 170 171 172 208 211 220 240 261 280 295 0
51 142 143 144 149 151 157 159 160 166 170 171 172 193 197 204 208 239 240 249 0
51 142 143 144 151 153 159 160 166 170 171 172 202 208 220 245 247 253 261 295 0
51 142 154 159 164 166 172 199 218 235 244 250 251 259 261 272 276 279 280 302 0
52 136 138 139 142 143 147 150 151 155 156 164 166 203 213 219 224 258 271 296 0
52 137 146 151 157 160 167 170 201 204 206 211 213 219 225 241 245 265 298 299 0
52 138 140 145 154 158 159 161 163 165 190 206 225 235 236 283 285 288 296 298 0
52 140 145 154 163 165 177 205 206 211 225 226 240 244 260 278 293 296 298 299 0
52 140 160 161 169 173 178 189 191 200 201 210 211 239 272 277 279 282 300 303 0
52 145 154 158 159 165 167 176 186 197 201 235 241 247 283 284 288 291 292 298 0
52 153 161 180 194 199 205 210 213 239 241 250 269 272 277 278 287 292 293 294 0
52 164 173 191 192 194 195 196 198 210 211 224 228 239 248 277 279 287 297 300 0
52 184 194 195 196 198 210 213 224 228 239 240 250 263 277 278 279 287 297 300 0
53 137 159 166 188 191 197 200 204 211 220 245 250 268 269 287 292 294 297 298 0
53 148 149 154 163 166 169 170 174 186 204 210 236 240 246 250 253 257 273 288 0
53 159 166 168 174 183 188 191 197 204 212 213 220 263 264 268 279 285 297 300 0
54 137 141 145 148 149 159 162 163 164 165 171 178 180 188 217 224 250 288 303 0
54 140 149 154 159 160 165 183 186 205 218 231 246 264 265 269 280 281 288 298 0
54 140 162 170 177 183 186 204 216 235 236 260 262 264 265 266 269 274 285 298 0
54 143 149 154 156 159 188 192 201 212 221 224 234 237 247 253 263 274 283 287 0
54 146 147 150 153 158 159 166 167 168 171 173 197 199 223 241 265 268 287 295 0
54 154 159 165 174 177 185 216 224 225 232 244 250 263 266 269 274 285 292 293 0
56 136 138 149 150 151 155 156 161 165 198 226 235 239 240 256 266 277 278 303 0
56 136 139 141 145 155 156 161 165 166 172 195 238 243 244 248 258 260 268 283 0
56 136 144 145 161 165 167 171 174 177 191 195 198 204 205 208 219 235 243 249 0
56 136 150 151 155 156 165 168 172 181 189 191 235 248 249 256 260 266 268 280 0
56 139 142 145 150 151 161 163 181 183 202 206 220 240 248 258 276 283 286 291 0
56 139 142 145 150 152 153 161 163 164 174 181 183 184 211 220 248 275 276 278 0
56 139 142 145 150 161 163 172 174 181 183 184 206 220 225 240 248 275 283 286 0
56 139 142 145 153 161 163 164 165 170 181 183 184 202 211 220 248 276 278 286 0
56 139 142 145 160 161 163 165 181 183 184 211 215 220 240 248 275 276 283 286 0
56 139 142 145 161 163 165 170 181 183 184 197 206 220 240 257 275 276 281 283 0
56 139 144 147 155 158 160 163 164 165 169 171 173 178 181 183 188 223 230 240 0
58 136 138 139 140 145 146 147 156 164 169 172 174 181 194 208 215 217 270 283 0
58 136 138 139 145 146 147 156 164 169 172 174 194 208 229 244 270 283 292 295 0
58 136 138 141 144 146 164 168 179 184 203 204 207 226 231 235 238 268 290 293 0
58 136 138 141 146 147 155 168 171 179 199 202 218 227 238 241 244 268 290 293 0
58 136 138 142 144 150 154 159 161 175 194 198 214 221 229 233 268 272 274 278 0
58 136 139 140 146 148 153 156 157 160 161 162 172 178 208 226 240 245 275 277 0
58 136 141 143 144 146 149 163 164 168 180 184 203 207 217 218 232 244 268 290 0
58 136 141 144 146 149 150 163 164 168 184 190 202 203 218 232 233 244 268 293 0
58 137 139 143 144 145 150 155 163 165 174 177 178 198 199 205 217 238 249 284 0
58 138 139 141 144 151 157 158 160 165 166 199 215 233 240 265 283 288 289 295 0
58 138 140 142 150 161 162 163 164 167 185 192 199 204 209 214 216 232 246 274 0
58 138 144 145 150 151 158 160 161 174 178 239 240 278 280 287 288 293 295 298 0
58 139 142 144 145 147 155 161 174 178 181 184 188 199 205 217 238 249 284 295 0
58 139 142 144 145 149 155 158 161 164 168 169 174 178 181 182 184 217 290 295 0
58 139 142 144 145 149 155 158 161 168 169 174 178 181 182 184 217 260 276 295 0
58 139 142 144 145 155 174 181 184 198 199 205 217 238 240 249 260 269 276 295 0
60 136 137 140 146 152 154 156 157 162 164 166 177 188 208 214 264 268 279 297 0
60 136 137 140 147 152 156 157 162 163 164 166 177 183 206 213 214 264 279 302 0
60 136 140 143 162 164 165 167 170 172 182 184 187 194 200 231 240 247 263 295 0
60 136 141 144 145 146 150 152 153 156 179 181 194 202 204 205 262 272 279 281 0
60 136 142 143 147 153 155 160 165 169 188 200 212 214 233 247 248 255 256 276 0
60 136 144 155 158 163 165 169 172 173 184 188 194 200 214 217 239 240 263 284 0
60 137 140 147 152 157 159 162 163 164 166 177 182 183 208 214 264 277 279 302 0
60 140 147 152 154 157 159 162 164 177 183 188 206 208 214 220 264 277 279 302 0
60 143 145 155 168 184 188 198 202 212 215 218 232 255 262 268 270 277 292 293 0
62 136 137 138 139 142 144 145 148 159 162 168 172 174 177 183 192 212 272 293 0
62 136 137 138 139 142 145 148 159 168 172 174 177 178 183 188 192 207 219 288 0
62 136 138 143 144 152 160 162 163 174 178 188 197 214 215 241 255 263 267 299 0
62 136 142 143 144 146 148 150 151 153 158 161 195 206 214 232 236 255 271 280 0
62 143 145 148 154 155 156 157 160 162 167 168 169 172 197 204 212 233 274 275 0
63 136 137 138 139 141 145 146 150 155 162 170 175 177 193 203 207 221 255 267 0
63 139 144 147 155 160 163 165 169 171 173 182 183 188 199 223 230 240 273 283 0
64 136 140 141 144 145 146 149 150 151 152 155 160 172 190 219 272 283 286 288 0
64 136 140 141 145 146 149 150 151 152 155 157 172 182 196 219 230 258 283 299 0
64 136 140 141 145 146 149 151 152 157 182 204 208 218 219 223 236 255 283 288 0
64 136 143 145 146 149 150 151 152 157 162 163 178 190 197 208 219 230 238 255 0
64 136 145 146 150 151 152 162 163 172 178 199 202 208 218 219 223 238 245 272 0
64 137 139 142 144 145 149 155 158 163 169 174 181 182 184 188 198 217 219 239 0
64 137 139 143 144 145 155 170 180 181 182 184 188 198 199 205 217 238 291 295 0
64 139 142 144 145 151 155 163 168 169 170 181 184 199 217 238 240 273 291 292 0
64 139 142 144 145 155 158 164 174 181 182 184 198 205 217 219 238 240 290 295 0
65 136 137 138 140 141 142 143 144 147 155 159 171 197 233 239 255 264 276 291 0
65 137 138 139 140 141 147 155 159 170 171 172 200 216 223 240 255 264 276 286 0
65 137 138 140 141 143 145 147 159 169 171 172 177 205 206 224 225 233 264 276 0
66 137 138 140 142 143 144 151 153 160 174 177 182 200 202 229 247 273 288 296 0
66 137 138 140 142 143 144 151 160 174 177 182 197 200 229 239 255 273 288 303 0
67 136 140 143 145 146 148 154 167 171 213 220 233 239 242 243 253 270 291 303 0
67 137 140 141 146 149 150 154 157 159 163 175 206 207 225 254 255 285 288 297 0
68 136 139 140 142 143 145 151 160 184 197 203 204 207 211 224 253 254 258 271 0
68 136 144 153 155 161 165 168 169 170 172 184 188 192 239 244 246 276 283 295 0
68 138 143 145 146 155 166 168 174 175 198 202 235 238 243 258 270 277 292 303 0
69 82 139 142 145 146 147 156 157 160 171 172 173 200 224 225 260 277 286 302 0
69 140 149 153 157 159 162 164 166 173 177 202 208 233 235 238 245 268 276 292 0
70 136 137 138 143 146 155 159 161 163 171 181 188 214 228 229 239 255 283 287 0
71 136 138 139 140 146 150 153 155 156 162 166 170 174 175 184 188 199 213 233 0
73 136 139 150 151 156 164 187 193 197 206 221 233 239 240 266 271 273 293 302 0
73 139 149 150 151 154 162 164 175 178 180 192 193 206 239 240 271 273 274 302 0
74 139 150 151 158 161 170 206 211 220 225 230 234 237 253 258 261 268 297 298 0
74 139 150 154 160 170 178 189 191 201 204 205 206 214 225 234 237 240 244 272 0
75 159 164 170 172 197 204 209 219 224 227 239 253 277 282 287 289 293 295 300 0
76 136 141 144 145 156 157 158 163 172 180 186 189 199 204 238 240 260 270 277 0
76 136 144 146 157 170 197 204 208 212 213 218 219 221 222 230 235 240 268 287 0
76 141 142 144 145 156 168 169 171 177 180 186 199 204 212 219 220 276 283 295 0
76 146 154 160 188 197 200 204 207 210 213 224 225 230 270 277 283 285 291 299 0
76 146 157 160 172 176 177 188 204 210 220 224 225 240 248 253 262 278 285 299 0
76 147 154 155 160 166 170 172 197 210 222 229 239 240 268 278 286 291 294 299 0
76 154 160 163 174 177 188 197 204 210 213 230 268 283 284 286 288 289 293 296 0
77 161 170 173 183 198 200 211 220 239 241 260 268 281 286 287 289 294 297 303 0
77 173 183 188 198 200 211 220 224 225 232 239 241 260 277 286 287 292 293 294 0
78 136 138 140 145 146 147 160 164 165 166 203 207 236 240 241 244 255 268 293 0
78 136 138 141 145 149 152 154 156 159 163 178 194 199 218 255 262 277 300 303 0
78 137 138 149 154 160 174 187 188 198 200 210 220 234 235 241 246 248 253 268 0
78 138 149 150 154 160 187 191 200 210 222 226 229 234 235 245 248 253 277 295 0
78 140 141 145 146 150 166 170 171 198 199 200 202 204 206 207 216 238 257 262 0
78 151 154 160 169 170 172 188 206 207 210 211 212 220 235 239 240 242 253 268 0
78 154 169 170 172 182 184 200 207 210 211 218 224 225 236 239 240 253 266 277 0
79 136 138 142 143 144 149 150 155 160 172 193 201 204 225 243 244 264 276 285 0
79 136 138 142 143 144 149 150 155 172 173 193 214 215 216 243 244 267 270 297 0
79 136 139 142 149 150 160 166 172 173 174 178 214 224 240 268 271 287 300 301 0
79 139 141 146 158 161 163 166 168 170 178 185 198 212 218 224 238 240 258 292 0
79 141 143 145 148 149 150 157 160 162 167 184 193 205 212 220 240 249 262 275 0
79 141 143 146 158 163 166 168 170 177 185 198 207 238 240 258 270 286 292 293 0
79 144 153 172 179 188 197 199 200 205 209 221 224 225 239 244 253 262 266 283 0
79 154 159 163 166 173 179 185 189 201 205 209 219 235 247 266 269 271 278 282 0
80 136 139 140 144 151 153 162 163 167 170 171 172 176 188 193 231 267 276 296 0
80 136 139 140 144 151 153 163 167 171 176 181 184 188 190 193 198 233 267 284 0
80 137 139 147 148 149 150 151 153 154 155 164 170 188 195 206 258 271 280 282 0
80 137 140 147 148 150 151 153 154 155 159 164 172 176 180 195 206 258 271 295 0
80 137 142 146 147 148 150 153 154 155 160 163 193 200 202 205 206 224 267 288 0
80 137 147 148 150 151 153 154 155 157 163 164 171 176 195 206 232 258 265 285 0
80 139 140 142 144 151 153 162 163 167 172 176 190 193 219 227 232 255 271 280 0
80 139 142 144 146 151 153 157 163 164 167 171 175 181 188 193 195 224 283 284 0
80 140 141 144 148 150 152 155 159 160 161 163 169 171 202 206 207 208 214 221 0
80 140 141 144 152 155 159 160 161 164 169 171 206 207 208 214 221 255 268 282 0
80 140 148 150 151 153 154 155 162 163 164 171 176 184 188 195 198 206 215 224 0
80 141 142 144 147 148 150 153 160 163 193 204 206 230 276 282 283 288 292 293 0
80 141 142 147 148 150 153 154 155 160 163 173 177 193 206 226 267 288 292 293 0
80 142 147 148 149 150 153 155 159 160 162 163 188 192 193 204 206 258 276 295 0
81 136 144 145 146 151 156 157 159 160 199 204 212 215 224 263 270 281 292 295 0
81 136 145 146 151 156 157 159 160 180 187 191 207 215 246 258 270 271 277 281 0
81 144 145 146 151 156 159 160 161 172 180 187 208 212 215 224 263 270 277 281 0
82 136 137 138 139 141 142 145 157 160 170 173 180 202 205 208 224 241 263 277 0
82 136 137 138 141 142 143 144 145 150 155 164 170 173 224 246 255 260 262 276 0
82 136 137 138 141 142 143 145 150 155 163 173 205 224 229 258 263 288 300 302 0
82 136 137 139 140 141 142 145 146 151 160 162 170 173 175 177 180 200 208 246 0
82 136 137 140 141 142 144 145 155 166 172 173 175 177 199 202 205 241 263 302 0
82 136 137 141 142 143 145 147 150 166 173 198 199 207 224 258 260 263 274 302 0
82 136 137 141 142 143 145 150 155 166 173 180 197 224 258 263 274 288 292 300 0
82 136 139 143 145 148 149 150 153 156 173 174 184 200 212 216 233 235 236 239 0
82 136 139 143 145 148 149 150 153 156 173 180 181 184 200 207 216 235 239 265 0
82 136 143 145 148 149 150 153 156 180 184 200 212 216 235 236 239 272 288 289 0
82 136 145 148 149 150 153 156 159 168 178 184 212 216 218 233 235 239 277 287 0
82 136 145 148 149 150 156 157 159 168 178 180 184 212 216 218 220 240 247 300 0
82 136 145 148 149 150 156 159 162 168 173 178 184 212 216 218 233 240 277 287 0
82 136 145 148 149 150 156 159 162 168 173 184 212 216 218 233 240 277 287 293 0
82 136 145 148 149 150 156 159 168 173 178 180 184 207 216 218 220 240 254 287 0
82 136 145 148 149 150 156 159 168 173 178 184 207 216 218 224 233 240 277 287 0
82 136 145 148 149 150 156 159 168 178 180 184 212 216 218 220 239 240 254 287 0
82 137 139 140 141 142 143 157 160 172 173 175 177 180 208 214 241 246 260 277 0
82 137 139 141 142 143 145 158 160 166 172 173 175 197 208 224 241 263 284 300 0
82 137 139 141 142 144 145 150 155 173 197 202 205 208 214 224 246 257 262 300 0
82 137 139 141 142 145 147 160 162 166 172 173 198 199 207 208 241 246 275 301 0
82 137 141 142 143 145 147 150 157 163 171 172 173 205 208 223 224 229 263 277 0
82 137 141 142 144 145 150 155 173 175 197 202 205 208 224 246 258 260 280 300 0
82 138 142 143 145 148 149 150 156 160 163 168 173 214 216 218 233 240 288 301 0
82 139 143 145 148 149 153 156 165 172 178 180 184 200 207 216 235 236 239 289 0
82 142 143 145 148 149 150 153 156 167 168 173 174 175 212 214 216 233 240 288 0
84 136 137 138 139 141 144 145 146 148 175 199 207 221 224 238 255 258 270 284 0
84 136 137 138 139 141 146 150 175 188 199 200 202 207 208 221 266 270 284 301 0
84 136 138 139 149 156 169 174 178 195 197 206 217 235 238 268 269 287 289 301 0
84 137 139 141 143 146 149 154 155 157 158 161 163 168 169 181 188 207 286 292 0
84 138 139 140 145 146 158 161 162 170 175 178 191 202 235 241 266 280 298 303 0
84 138 139 140 146 158 161 162 170 175 178 191 197 202 204 235 241 266 298 303 0
84 138 139 141 142 144 145 146 150 155 168 171 188 199 202 221 262 293 300 301 0
84 138 139 149 155 156 169 172 174 178 181 187 197 217 238 244 269 280 289 301 0
84 139 141 142 143 146 150 163 168 181 190 195 198 199 238 270 276 279 286 296 0
84 139 141 143 144 146 149 157 158 161 163 165 168 170 181 205 212 240 273 292 0
84 139 141 143 146 147 157 158 161 163 178 181 238 239 240 274 286 288 291 296 0
84 139 141 143 146 149 151 154 157 158 161 163 165 168 170 178 181 212 240 274 0
84 139 141 143 146 163 168 169 178 181 198 205 224 238 240 270 273 275 286 292 0
84 140 143 144 146 151 165 166 171 174 181 200 203 207 208 212 235 248 250 279 0
84 141 143 146 147 150 154 160 163 181 188 192 198 199 212 239 246 288 292 301 0
85 136 137 139 140 143 144 147 149 154 158 160 171 173 178 188 223 255 278 295 0
85 136 137 145 149 154 159 162 163 170 171 172 180 183 189 206 224 274 285 288 0
85 136 138 139 140 142 147 150 155 164 172 175 182 200 205 208 255 262 270 284 0
85 136 138 140 143 145 147 150 153 155 170 172 188 194 200 210 253 258 267 280 0
85 137 139 143 144 147 149 154 160 173 178 180 183 188 199 223 255 278 295 302 0
85 137 140 142 149 150 154 159 162 169 171 173 177 182 205 206 215 217 244 267 0
85 137 141 142 150 154 155 158 162 171 173 176 190 201 202 205 221 232 233 269 0
85 137 142 143 149 154 160 162 166 169 173 175 177 193 205 206 267 268 273 295 0
85 138 140 143 144 147 150 155 157 172 176 182 194 200 205 208 221 250 258 280 0
85 142 143 145 146 149 152 154 162 164 173 175 193 205 232 261 267 273 287 295 0
85 142 143 145 149 152 154 159 160 162 173 183 193 204 214 215 244 255 267 275 0
87 136 138 140 141 145 146 149 153 155 166 174 180 194 200 202 207 226 229 286 0
99 136 138 141 143 146 155 157 168 175 180 197 199 203 218 219 220 235 238 241 0
99 136 138 141 146 155 166 168 181 199 202 203 204 218 233 235 238 241 268 294 0
99 136 139 144 145 151 157 158 159 160 163 170 199 215 229 240 265 277 288 295 0
99 144 145 151 153 155 156 157 158 161 163 174 180 217 238 239 240 277 288 292 0
100 136 138 140 143 147 152 154 159 160 161 163 164 172 174 183 215 217 228 264 0
100 136 138 143 145 148 149 152 156 165 167 168 170 173 178 184 233 240 272 294 0
100 136 139 142 143 145 148 149 150 152 156 168 173 207 233 240 250 253 272 293 0
100 138 140 142 143 144 145 149 152 157 158 163 173 176 177 204 216 221 229 283 0
100 140 149 153 154 155 156 157 159 164 169 177 188 205 208 219 239 240 264 295 0
100 142 143 145 148 149 151 152 156 163 165 166 167 168 170 173 180 193 240 292 0
102 136 138 142 143 145 160 162 163 171 173 174 177 184 198 224 241 242 255 276 0
102 136 147 149 150 155 156 164 166 167 175 176 193 199 202 211 215 268 295 301 0
102 137 140 141 142 143 144 149 151 152 155 158 162 164 176 177 184 205 214 218 0
102 138 139 141 147 150 152 155 160 163 172 190 197 214 215 224 238 245 255 276 0
102 138 139 141 147 150 152 155 160 172 190 197 214 215 224 238 243 245 255 276 0
102 138 141 142 143 144 149 151 154 155 158 162 165 172 176 190 208 221 255 269 0
102 138 147 150 152 155 160 162 170 178 186 188 190 202 238 242 250 264 265 276 0
102 140 143 145 148 150 154 156 157 160 162 167 193 197 205 212 218 220 233 275 0
104 136 139 144 155 159 164 174 183 184 188 197 205 255 263 269 284 287 292 293 0
104 136 141 143 145 146 148 150 152 164 168 171 176 177 189 202 217 255 283 300 0
104 136 144 145 146 149 152 154 168 177 184 197 203 204 232 244 274 295 296 300 0
106 136 137 138 139 141 145 159 160 168 174 178 180 188 192 207 219 224 228 287 0
106 136 137 138 139 141 145 159 168 170 178 180 188 192 207 211 224 228 265 287 0
106 136 138 139 143 148 150 166 167 168 173 184 219 233 239 240 250 265 289 293 0
106 136 138 140 147 155 159 160 170 171 172 173 174 197 215 217 239 240 250 301 0
106 136 138 140 147 159 174 180 185 205 208 215 228 246 255 258 264 271 295 301 0
106 137 138 140 142 143 144 147 154 159 170 171 174 240 258 264 269 273 295 301 0
106 137 138 140 142 143 147 154 155 159 163 171 172 174 193 216 217 264 269 273 0
106 138 139 143 148 153 162 165 166 168 172 173 178 184 219 233 235 239 250 288 0
106 140 146 150 154 158 162 164 174 175 176 177 201 204 216 243 263 281 295 296 0
121 140 141 144 145 146 156 171 186 199 200 204 212 221 225 226 238 284 295 302 0
121 141 144 145 156 157 166 168 177 180 186 188 189 199 204 212 238 240 268 295 0
123 136 137 140 142 143 144 145 146 155 159 165 168 171 177 183 192 202 219 228 0
123 136 137 143 144 145 146 155 159 163 164 165 168 171 183 192 226 228 272 287 0
123 136 137 143 145 146 151 155 159 163 165 168 171 177 183 188 192 219 228 257 0
123 136 137 145 146 151 155 159 165 168 169 171 175 177 183 192 195 239 272 302 0
123 136 137 145 146 155 157 159 165 168 169 171 177 183 184 188 192 272 284 302 0
125 138 139 148 149 153 157 164 173 208 209 212 217 225 232 237 248 266 267 302 0
125 138 139 149 153 156 164 173 182 188 208 212 218 223 225 235 245 268 276 302 0
126 137 138 140 150 159 162 163 164 171 173 178 188 203 210 215 218 245 286 301 0
127 136 137 138 142 144 153 156 160 162 169 170 196 200 215 225 233 247 255 274 0
127 139 142 143 144 148 155 162 173 186 197 202 216 217 224 225 233 270 285 288 0
127 139 142 143 145 149 155 160 162 166 186 197 202 214 217 225 228 270 275 288 0
128 136 138 140 144 163 166 171 172 190 197 199 204 209 237 255 260 264 268 287 0
128 138 149 150 155 160 162 166 167 174 180 190 211 219 229 241 243 258 296 298 0
132 136 139 145 148 149 150 156 167 170 178 180 184 200 204 207 236 239 240 300 0
132 136 141 144 145 146 149 150 153 156 159 177 179 181 183 185 204 207 262 292 0
132 136 141 145 146 149 150 153 156 159 166 177 179 181 183 188 204 207 255 262 0
132 136 141 145 146 149 153 156 164 175 177 179 181 183 188 207 219 233 262 301 0
132 139 142 143 144 145 148 149 150 151 155 168 180 202 217 224 262 285 288 301 0
132 139 143 145 148 149 150 151 154 155 160 163 168 180 216 242 255 280 282 303 0
132 139 143 148 159 165 167 168 172 178 184 233 238 240 253 265 272 287 288 294 0
132 140 145 146 154 158 164 167 175 176 177 188 201 204 224 227 243 283 293 302 0
134 136 141 144 145 161 165 172 185 189 195 204 205 208 235 238 240 241 256 268 0
134 136 141 149 153 155 161 165 166 168 172 181 196 208 215 235 238 255 268 303 0
134 137 138 140 141 143 150 161 164 172 179 197 199 204 226 239 240 245 250 287 0
134 137 138 140 141 145 150 161 164 169 172 179 199 204 226 240 245 264 280 287 0
134 137 138 140 142 143 145 150 161 179 192 193 216 219 245 249 256 287 289 303 0
134 139 140 144 145 147 150 158 159 160 164 165 171 173 178 188 223 240 295 302 0
134 139 143 144 147 155 158 160 163 165 171 173 188 205 223 240 255 261 278 302 0
135 136 138 140 143 144 147 150 170 172 175 188 200 204 205 210 253 258 267 295 0
135 136 138 140 143 145 147 150 155 162 172 182 200 221 250 258 260 267 271 295 0
135 136 138 140 143 145 147 150 162 172 180 200 204 221 250 258 260 267 271 280 0
135 136 138 140 144 145 146 147 150 155 172 180 194 200 202 207 258 267 286 295 0
135 137 140 143 145 146 154 157 166 208 214 219 221 233 239 266 271 274 293 296 0
135 138 144 150 160 162 172 173 174 177 178 179 181 182 186 188 204 238 255 299 0
135 138 145 147 150 155 160 162 163 170 178 179 182 200 201 236 255 264 265 299 0
135 138 147 150 152 155 160 163 174 181 182 190 224 225 243 255 264 285 288 293 0
135 138 150 160 162 163 172 173 174 177 182 188 204 214 215 224 227 243 255 299 0
135 143 145 146 154 156 157 160 162 166 167 175 193 224 225 233 239 270 274 285 0
1 2 159 183 200 205 207 224 235 257 259 264 265 269 270 278 279 280 286 288 293 0
1 84 200 205 207 224 235 257 259 260 261 264 265 269 270 280 283 286 292 293 299 0
1 136 138 140 145 146 147 150 155 159 162 166 170 172 174 200 202 226 232 258 273 0
1 136 139 140 144 145 147 159 163 166 170 174 184 188 215 255 258 266 270 275 279 0
1 136 139 140 145 147 158 159 161 164 166 170 171 172 188 207 224 226 255 270 286 0
1 136 140 143 154 160 162 165 179 185 188 204 212 224 235 250 257 260 278 279 299 0
1 136 140 143 162 163 164 185 188 212 224 235 250 251 257 260 261 269 280 283 299 0
1 136 140 162 166 172 178 185 191 204 205 206 212 224 225 235 248 250 260 269 299 0
1 136 143 166 170 178 191 200 207 224 240 250 257 260 269 270 285 286 288 292 293 0
1 136 143 172 178 188 200 206 207 224 225 235 248 250 260 261 262 270 279 286 293 0
1 138 140 143 154 162 166 178 188 191 208 212 226 235 250 257 260 272 279 280 298 0
1 138 140 143 160 166 183 212 235 257 259 260 264 265 269 272 278 280 288 293 298 0
1 138 140 143 160 206 208 212 225 235 250 251 257 259 260 269 272 283 285 293 299 0
1 138 143 159 160 162 170 188 204 212 235 250 257 265 269 272 280 283 292 293 298 0
1 138 153 154 159 164 170 172 183 205 212 259 261 263 264 265 279 280 285 293 299 0
1 138 166 169 197 205 208 212 218 239 251 257 259 261 269 280 283 292 293 298 299 0
1 139 154 160 166 168 177 204 205 213 224 246 250 253 260 265 268 270 277 279 280 0
1 139 166 176 204 205 213 220 222 224 229 246 250 260 268 269 270 280 292 296 300 0
1 140 143 149 154 162 164 169 204 206 208 212 224 225 237 249 251 257 259 261 269 0
1 140 143 154 159 162 163 188 200 207 224 235 250 251 257 261 269 270 280 283 299 0
1 140 153 159 160 162 173 183 188 200 205 207 224 248 251 257 262 270 278 279 280 0
1 140 162 166 169 178 193 200 204 205 207 218 224 227 251 257 259 261 270 280 283 0
1 140 162 169 170 178 188 205 208 212 218 224 227 240 257 261 265 269 278 280 299 0
1 143 159 160 163 212 224 227 235 250 257 259 262 263 265 279 280 282 283 288 293 0
1 159 179 187 204 205 213 224 231 234 250 253 254 261 262 265 277 279 280 293 300 0
2 22 139 143 145 147 151 153 157 164 165 171 180 200 203 204 224 236 242 279 303 0
2 82 146 148 154 160 169 170 184 188 189 201 204 205 210 212 239 240 257 269 288 0
2 137 146 147 149 152 154 155 166 169 188 194 210 212 220 231 234 235 248 253 268 0
2 137 147 152 154 155 157 166 184 186 197 198 210 212 214 234 235 245 248 253 288 0
2 139 147 152 155 159 166 172 187 188 190 191 197 211 244 250 263 277 279 287 297 0
2 140 154 162 166 170 191 197 204 206 211 220 224 225 234 236 237 250 253 265 268 0
2 146 147 152 155 163 166 210 212 213 220 234 248 257 268 278 284 287 288 293 294 0
2 146 154 166 170 184 188 189 198 204 205 210 212 227 234 240 244 253 268 269 303 0
2 149 152 154 155 166 170 190 197 200 204 207 213 220 231 234 240 253 257 268 286 0
2 159 166 187 190 191 197 200 204 211 220 224 239 250 251 263 268 279 287 294 297 0
3 137 145 149 151 152 154 172 180 183 196 202 206 216 217 243 245 255 267 285 286 0
3 140 145 149 154 165 170 172 176 177 188 191 237 240 246 250 256 282 283 288 298 0
3 140 145 150 167 169 170 172 185 191 204 207 250 261 262 265 274 278 280 288 298 0
3 140 145 160 163 167 170 172 174 186 188 191 235 250 262 273 274 278 280 288 298 0
3 141 145 150 154 165 170 172 176 177 180 186 191 197 204 240 250 283 288 292 298 0
3 145 150 163 168 170 172 191 204 212 230 232 235 261 265 273 280 283 296 298 299 0
3 149 163 167 170 172 177 188 197 204 212 213 235 237 239 242 253 262 263 282 300 0
3 150 153 167 170 172 177 191 204 212 213 224 225 226 235 251 261 280 283 285 299 0
3 154 156 158 166 170 172 177 187 188 189 190 201 204 209 213 216 234 235 247 283 0
3 154 170 172 185 188 197 199 200 204 209 213 223 235 237 239 241 245 253 283 295 0
4 140 143 145 148 149 150 155 156 157 160 193 197 212 218 220 262 274 275 284 288 0
5 136 138 139 145 147 156 159 164 178 183 195 197 212 218 227 246 254 255 264 279 0
5 136 138 141 146 147 149 150 157 164 165 168 171 203 204 207 226 233 244 284 293 0
5 137 140 143 158 159 165 189 201 205 210 212 218 239 245 248 267 269 277 297 300 0
5 139 140 154 155 159 188 189 201 210 212 218 220 239 240 244 248 261 268 287 297 0
5 140 159 189 198 201 210 212 218 220 221 231 234 235 248 268 270 283 288 289 300 0
5 149 160 164 166 170 172 196 212 224 225 231 250 260 265 268 270 280 285 288 293 0
6 136 138 141 144 146 152 157 161 165 168 176 177 179 192 202 203 218 232 244 255 0
6 157 172 176 191 197 208 209 212 213 219 220 223 224 225 227 239 264 278 288 300 0
7 136 138 140 142 143 144 151 168 171 184 197 203 216 240 253 255 279 293 301 302 0
7 137 141 146 147 151 155 160 167 190 194 198 201 208 211 213 219 265 268 280 298 0
7 138 139 142 143 147 155 160 161 167 172 174 178 181 183 188 230 233 254 264 270 0
7 149 154 161 165 170 183 191 197 198 204 212 221 231 235 239 260 274 277 283 285 0
8 138 151 153 156 157 170 182 184 195 196 197 204 219 224 233 241 250 270 282 289 0
9 159 160 163 168 176 189 201 250 254 256 259 262 265 266 271 273 277 279 280 288 0
10 141 142 143 144 145 149 150 158 163 165 167 169 171 204 213 217 237 267 274 282 0
10 143 144 146 149 158 165 168 169 170 171 200 202 205 208 224 230 241 242 247 276 0
10 163 170 172 184 188 196 198 199 204 212 214 241 251 261 273 280 283 288 296 298 0
11 138 143 154 188 193 197 212 214 216 227 239 249 251 255 257 261 272 280 283 299 0
11 140 143 144 145 148 151 156 160 163 169 172 174 175 186 204 217 224 240 274 286 0
11 140 144 185 189 197 201 208 209 220 221 239 245 266 268 274 283 287 293 294 299 0
11 140 145 154 179 188 197 208 212 235 239 241 250 256 257 260 271 274 288 293 294 0
11 140 154 163 164 200 207 227 235 250 257 259 260 261 265 270 279 280 282 288 296 0
11 141 146 150 160 168 184 198 199 230 232 235 247 251 264 273 274 278 280 288 298 0
11 141 155 158 160 166 170 192 196 205 213 215 231 234 240 244 251 253 256 268 280 0
11 142 159 160 173 189 201 205 209 212 213 218 223 239 242 250 277 283 289 299 300 0
11 142 159 167 168 186 191 211 221 232 235 240 250 262 266 276 279 281 283 292 293 0
11 143 156 166 172 185 189 191 195 197 201 204 209 213 235 239 242 262 266 274 283 0
11 144 154 159 189 201 205 208 209 218 221 239 242 247 266 277 278 287 288 289 294 0
11 146 149 166 204 209 213 220 223 224 226 241 247 263 268 278 287 288 289 297 300 0
11 149 159 166 185 197 208 211 212 236 237 239 240 244 253 262 263 266 268 271 294 0
11 154 159 166 172 173 185 191 201 205 209 213 230 235 239 247 253 283 292 293 301 0
11 154 166 172 188 197 200 206 207 218 225 239 244 249 261 265 270 278 285 286 288 0
11 172 176 197 199 209 213 219 223 230 239 250 277 278 287 288 292 293 294 295 303 0
12 136 141 143 144 149 150 158 165 166 167 168 171 176 180 221 230 242 268 276 283 0
12 136 142 143 144 149 158 160 165 168 169 170 171 180 221 240 241 256 266 267 271 0
12 137 138 142 150 157 160 166 176 184 188 197 199 205 221 225 249 265 277 287 293 0
12 137 139 142 150 160 176 182 184 188 199 205 221 224 225 238 249 265 277 288 300 0
12 137 140 144 148 156 172 173 177 183 184 188 193 202 204 206 213 232 261 269 283 0
12 137 140 146 149 156 171 172 173 183 184 188 193 198 206 208 224 269 281 283 287 0
12 140 143 144 148 155 158 161 172 190 192 193 218 219 232 246 250 254 260 269 302 0
12 143 154 166 169 181 193 199 204 223 224 244 251 257 259 261 262 278 280 293 299 0
12 144 148 150 158 159 161 162 172 190 192 195 218 219 221 250 254 270 279 285 293 0
12 154 163 170 188 192 204 205 224 240 246 257 261 262 265 270 280 282 283 288 293 0
13 137 139 145 153 180 188 191 220 245 250 260 272 274 277 286 287 292 293 298 303 0
13 137 144 154 163 172 182 184 186 189 210 212 224 225 234 235 248 253 273 277 285 0
13 139 140 142 143 144 157 161 162 164 172 174 175 178 184 190 193 194 244 258 298 0
13 139 140 145 152 157 159 161 172 183 186 191 205 208 220 238 239 244 264 287 298 0
13 140 152 160 162 188 191 194 200 208 211 239 250 251 260 263 277 279 287 294 303 0
13 140 160 162 172 173 183 189 191 200 201 206 211 222 224 225 226 239 242 244 251 0
13 141 149 154 157 162 170 189 191 200 201 204 206 210 211 212 239 240 257 274 298 0
13 152 153 159 160 170 172 184 191 233 244 250 251 263 272 274 277 279 298 300 303 0
13 154 157 159 165 191 199 212 214 227 239 240 248 250 257 263 269 273 278 288 292 0
13 154 160 163 166 193 200 204 207 227 251 257 259 269 270 278 280 286 292 299 303 0
13 157 166 169 170 172 187 191 200 204 210 211 212 234 240 250 253 262 274 292 293 0
13 160 161 165 170 183 191 197 206 211 212 220 222 225 239 253 264 265 281 297 298 0
14 136 140 145 147 149 152 153 160 162 174 180 185 192 198 208 212 215 230 293 301 0
14 136 145 146 151 152 173 182 190 204 214 219 224 225 228 241 245 246 255 272 285 0
14 138 139 140 144 145 146 148 153 157 168 171 172 178 180 182 190 215 222 244 296 0
14 138 140 141 143 145 147 152 156 162 164 169 186 188 193 206 208 216 224 255 274 0
14 139 140 157 161 166 168 170 197 204 208 213 220 250 260 265 272 279 285 287 297 0
14 140 166 170 184 197 204 205 208 213 220 224 225 250 260 265 268 269 285 297 300 0
14 159 160 166 168 173 188 197 204 205 211 250 251 263 269 277 279 286 297 298 300 0
15 136 138 139 140 142 143 144 146 151 164 177 181 184 192 198 199 202 203 208 302 0
15 136 138 139 140 143 144 146 151 177 184 198 199 203 208 216 242 255 267 279 300 0
15 136 138 139 144 151 155 157 158 159 163 166 173 174 178 184 188 217 226 240 288 0
15 137 139 141 147 153 156 161 166 167 175 177 178 182 204 208 244 245 258 274 294 0
15 138 145 149 154 165 176 191 204 240 244 246 250 260 274 278 279 288 291 298 301 0
15 140 158 184 196 197 198 199 230 240 244 251 254 261 274 280 283 284 288 293 298 0
15 149 153 163 166 174 191 204 205 206 211 224 225 230 231 261 268 269 283 288 296 0
15 161 164 165 183 187 190 191 198 211 213 217 239 253 257 259 260 261 264 265 280 0
16 82 150 154 158 159 164 169 175 184 198 213 226 232 237 242 258 260 286 292 295 0
16 136 137 138 142 144 149 150 154 160 162 169 177 182 195 197 264 270 273 275 295 0
16 136 138 140 143 144 145 147 155 159 162 166 170 174 188 210 226 258 267 275 283 0
16 136 142 144 145 146 149 150 152 154 162 169 173 182 195 232 244 270 273 275 287 0
16 136 142 144 145 149 150 152 153 154 162 169 173 177 182 189 195 205 232 270 273 0
16 137 138 140 166 173 183 191 204 205 207 235 257 260 269 270 279 280 288 293 298 0
16 137 138 143 149 160 163 170 205 212 224 225 237 255 257 259 265 282 283 293 299 0
16 137 138 143 170 179 183 191 197 212 225 239 240 257 260 264 269 288 292 293 298 0
16 137 138 160 170 204 205 212 225 240 250 251 257 259 260 269 283 285 288 292 293 0
16 137 139 145 147 154 155 159 177 205 208 221 224 225 226 250 254 271 277 279 300 0
16 137 139 160 172 176 188 189 197 201 205 213 224 239 251 254 256 269 280 287 292 0
16 137 140 142 143 153 154 162 170 172 199 204 212 224 235 259 261 265 276 278 280 0
16 137 140 142 162 178 199 204 205 212 223 224 249 257 259 261 265 273 276 280 283 0
16 137 140 143 148 154 162 179 197 212 223 224 225 233 239 257 259 261 265 278 299 0
16 137 140 143 153 160 162 170 183 207 224 225 251 257 259 260 262 264 270 278 279 0
16 137 140 143 154 159 162 165 172 183 191 207 224 227 235 248 264 269 270 278 299 0
16 137 140 144 160 162 172 205 212 224 225 227 240 244 250 259 260 265 269 283 294 0
16 137 140 145 149 160 162 163 188 204 205 212 223 224 225 227 237 257 265 283 303 0
16 137 140 145 162 166 177 204 205 212 213 224 242 249 250 253 260 268 277 280 294 0
16 137 140 162 163 179 191 205 212 224 225 235 245 250 257 260 269 271 279 299 303 0
16 137 145 147 155 156 159 205 207 213 222 224 229 250 254 277 279 280 281 293 300 0
16 137 149 170 172 178 188 204 205 212 224 225 227 237 240 261 265 269 278 293 299 0
16 137 153 159 170 172 199 205 212 224 227 250 259 261 265 269 280 283 292 293 299 0
16 137 166 173 183 188 205 212 224 225 235 236 257 260 261 262 265 278 279 288 293 0
16 137 170 179 185 205 212 224 225 240 250 257 259 260 261 262 265 278 279 293 299 0
16 138 139 140 141 143 150 164 170 173 181 184 190 197 208 221 226 238 255 266 275 0
16 138 139 140 143 151 158 167 170 193 195 197 205 217 219 224 239 240 255 269 284 0
16 139 140 141 143 147 149 151 155 158 162 165 167 170 172 182 233 240 269 284 301 0
16 140 143 146 151 158 167 168 170 172 176 188 190 212 217 224 240 247 269 275 284 0
16 142 143 145 149 152 153 154 159 160 162 173 177 183 185 193 204 205 243 267 284 0
16 142 145 149 150 152 154 155 159 160 162 173 177 193 214 215 232 244 275 292 293 0
17 139 140 142 144 146 155 159 164 168 169 170 192 196 199 217 226 227 261 284 295 0
17 139 140 142 144 146 155 159 164 174 177 178 192 199 217 226 227 273 276 286 295 0
18 136 138 139 141 144 146 150 155 162 170 193 203 207 217 221 228 233 255 267 277 0
18 136 138 141 146 150 155 170 175 203 207 208 217 221 233 253 255 266 267 271 277 0
18 136 139 146 160 166 176 188 190 204 210 212 237 240 248 253 262 266 277 283 287 0
18 137 138 140 142 143 144 154 155 172 193 198 207 226 236 238 255 260 274 286 300 0
18 137 140 144 151 153 162 163 167 171 172 175 176 180 190 193 201 231 267 280 283 0
18 137 147 148 149 150 151 152 153 154 155 164 171 175 176 195 206 258 273 280 282 0
18 137 152 157 166 170 186 191 194 197 204 210 212 214 234 236 240 253 257 262 265 0
18 138 139 140 142 146 149 153 157 164 170 173 188 190 208 212 217 225 228 230 270 0
18 138 139 140 149 153 157 162 163 164 173 192 202 207 208 217 225 230 248 286 292 0
18 138 140 142 144 172 193 198 205 207 215 226 235 238 244 255 260 262 270 277 286 0
18 138 140 143 144 145 171 172 184 198 211 226 229 238 241 250 255 262 267 277 280 0
18 138 141 142 143 147 148 150 155 160 163 171 175 181 195 197 233 276 280 283 295 0
18 139 146 154 166 169 172 183 189 191 201 204 205 210 212 234 235 248 269 286 297 0
18 154 157 160 166 168 169 170 172 181 183 186 189 191 197 201 204 210 212 234 240 0
20 136 139 142 160 166 197 204 210 212 218 222 234 240 248 253 262 268 283 299 300 0
20 139 142 154 163 166 168 170 172 188 197 204 210 212 236 240 253 266 273 288 293 0
20 139 142 162 166 191 197 204 206 211 212 217 224 225 231 239 250 253 265 268 297 0
20 140 142 147 155 166 191 197 200 208 211 224 225 239 250 260 268 269 287 294 297 0
20 140 142 152 159 161 162 166 168 188 191 197 204 211 212 213 250 277 279 298 300 0
20 140 142 160 166 180 183 187 191 196 197 204 211 237 239 260 264 268 279 293 300 0
20 140 142 166 173 183 189 191 197 200 201 204 206 211 224 225 237 239 265 277 297 0
20 142 144 146 154 166 174 184 187 189 201 204 210 212 215 235 239 248 286 288 293 0
20 142 146 152 154 166 174 186 187 188 189 191 204 210 212 234 235 248 253 268 299 0
20 142 149 154 158 163 166 186 188 189 197 201 204 210 212 239 240 246 248 257 299 0
20 142 159 166 172 191 197 204 211 212 239 244 250 272 277 279 285 289 292 293 300 0
20 142 159 166 173 183 191 197 200 204 211 239 265 272 277 279 287 289 294 297 298 0
20 142 160 166 183 189 191 197 201 204 206 211 225 234 237 264 265 268 286 297 298 0
21 80 138 139 141 150 158 161 162 171 191 202 207 208 218 259 267 290 293 295 300 0
21 80 149 154 164 172 185 188 191 209 213 234 240 242 244 247 253 263 277 288 294 0
21 80 159 172 188 189 199 204 209 213 223 224 227 244 247 262 277 283 299 300 303 0
21 136 137 138 139 141 143 144 146 150 153 156 199 200 202 213 221 242 270 275 301 0
21 136 138 139 141 142 144 145 146 149 150 155 163 181 199 202 205 215 221 247 258 0
21 136 138 139 143 147 167 187 189 191 213 216 221 223 224 225 229 234 256 292 303 0
21 136 138 139 147 170 187 189 191 193 204 213 215 216 221 231 239 270 292 298 301 0
21 136 139 144 149 153 166 167 170 172 176 188 209 221 234 247 248 253 262 263 268 0
21 136 140 144 147 148 152 161 163 164 177 184 197 199 204 214 232 238 244 263 264 0
21 136 140 147 152 158 161 163 164 177 202 214 217 226 232 244 246 255 263 264 283 0
21 136 149 153 160 164 165 170 172 176 188 209 221 241 244 247 262 271 277 299 300 0
21 136 170 172 188 191 209 221 223 224 235 239 247 253 262 266 271 277 278 299 300 0
21 138 139 140 147 153 167 189 191 195 204 216 221 231 239 242 270 271 297 298 301 0
21 138 139 140 147 164 167 168 181 187 191 193 205 216 229 253 256 266 271 297 298 0
21 138 139 140 147 167 187 189 191 197 204 205 213 216 221 224 225 231 239 297 301 0
21 138 139 141 143 145 146 150 153 155 188 199 202 208 221 224 242 274 275 284 293 0
21 138 139 141 144 145 149 150 155 163 173 181 199 202 207 218 221 228 250 270 284 0
21 138 139 143 147 148 153 167 168 181 187 189 191 197 204 216 221 229 271 292 298 0
21 138 139 147 148 164 167 181 187 189 191 213 216 239 240 244 256 270 292 298 301 0
21 138 139 147 158 163 164 167 187 191 197 205 213 216 220 231 239 253 256 292 298 0
21 138 139 147 167 187 189 191 193 216 221 239 256 266 268 270 271 292 298 301 302 0
21 138 139 147 167 191 193 195 204 205 213 216 221 224 225 234 240 244 253 292 301 0
21 138 154 170 172 173 188 191 208 212 221 234 235 242 247 253 266 271 292 293 294 0
21 140 153 159 164 170 172 188 199 201 205 209 212 213 220 223 248 277 288 289 300 0
21 144 154 162 170 172 185 188 191 208 209 221 224 235 239 247 253 266 277 283 300 0
21 153 154 170 172 177 186 188 197 209 213 216 239 241 245 248 253 277 278 299 300 0
21 154 170 172 188 191 208 209 221 224 227 234 235 247 253 266 271 277 283 288 294 0
21 159 166 170 172 176 179 188 192 212 213 232 234 240 241 245 247 253 262 268 281 0
21 164 170 172 188 189 191 201 208 209 220 221 235 239 247 262 266 268 271 299 300 0
22 136 138 139 140 143 144 146 147 151 157 164 165 173 204 208 219 255 279 298 303 0
22 136 138 139 140 144 147 150 151 157 164 170 204 208 217 219 245 275 279 296 298 0
22 138 139 140 142 143 144 147 151 155 157 164 165 166 207 208 217 224 241 279 303 0
22 138 139 144 145 147 151 155 157 164 165 172 208 211 219 224 240 279 287 298 303 0
22 139 140 142 144 147 151 157 164 165 172 174 202 204 207 208 217 219 224 279 303 0
22 139 144 145 147 150 151 155 157 164 170 203 207 208 211 224 235 245 279 298 303 0
22 139 144 151 157 158 160 162 163 172 174 178 180 219 226 253 261 280 295 298 299 0
22 145 146 147 149 153 158 159 161 164 173 180 195 217 239 240 255 272 276 287 301 0
23 80 137 139 147 148 150 151 153 154 155 157 158 163 164 171 195 206 226 232 258 0
23 136 140 142 143 144 145 147 155 157 159 161 162 163 166 174 175 215 238 258 303 0
23 136 145 146 152 160 166 175 177 179 181 185 188 190 197 204 207 238 242 268 272 0
23 145 149 151 153 160 165 170 184 188 192 199 200 222 226 228 235 239 241 248 274 0
23 147 150 154 155 205 211 213 224 225 246 250 253 254 259 260 277 279 280 293 300 0
23 147 155 156 158 159 160 174 196 205 206 211 213 215 224 225 239 253 254 262 293 0
23 188 191 205 206 207 211 213 214 224 225 231 234 251 253 256 261 270 272 273 293 0
36 124 136 137 138 139 142 145 148 155 159 168 172 174 178 183 188 192 207 219 261 0
36 136 139 144 159 162 189 199 200 201 209 221 235 239 241 247 262 266 277 283 287 0
36 136 140 144 145 159 166 183 191 205 212 218 235 255 261 262 264 265 268 280 281 0
36 141 146 150 154 159 174 184 198 199 215 218 235 247 250 261 274 279 280 298 299 0
36 141 150 154 159 160 165 183 184 197 198 199 235 264 265 274 279 280 283 288 298 0
36 141 150 154 159 160 174 183 184 197 198 199 235 264 274 278 279 280 281 288 298 0
36 143 145 149 154 165 189 191 196 225 230 235 246 250 256 260 279 280 283 298 299 0
36 143 163 177 184 196 198 199 204 212 225 226 241 251 261 280 283 289 296 298 299 0
36 144 159 162 163 166 189 197 201 205 208 209 218 221 239 262 266 277 283 289 300 0
36 149 159 163 165 168 191 207 230 231 240 244 246 250 262 266 269 274 279 296 298 0
36 159 161 163 183 184 195 197 198 199 212 241 251 261 264 273 278 280 296 298 299 0
37 139 147 155 159 166 172 207 208 221 224 225 239 253 261 265 266 268 271 280 300 0
37 140 153 154 170 172 173 183 200 206 207 225 233 259 260 261 265 269 270 283 299 0
37 142 153 154 159 162 163 164 166 170 172 188 204 212 250 261 263 265 276 279 280 0
37 144 154 159 160 167 169 208 212 227 233 235 250 253 257 265 278 279 280 288 292 0
37 149 154 165 168 174 185 187 189 191 196 201 204 205 206 213 225 261 270 277 300 0
38 136 137 140 141 145 149 160 162 168 177 181 188 190 200 205 225 226 249 251 264 0
38 136 137 140 141 145 149 162 176 177 181 182 190 200 205 221 226 251 259 261 280 0
38 136 137 140 141 145 149 176 177 181 188 190 200 205 221 225 226 249 251 261 293 0
38 136 137 140 141 145 169 170 176 190 205 221 225 226 238 249 251 259 261 287 293 0
38 136 140 141 145 149 154 160 174 175 176 181 196 200 205 221 225 226 259 287 293 0
38 136 140 141 145 149 154 169 171 177 188 196 205 225 226 261 263 264 265 293 302 0
38 136 140 153 162 180 191 200 213 224 225 239 250 251 260 261 269 277 285 287 300 0
38 137 168 169 184 187 188 189 194 200 201 207 213 240 244 248 262 266 270 286 288 0
38 139 140 154 160 162 165 172 188 189 191 201 205 211 234 244 265 269 277 280 287 0
38 140 141 142 150 159 161 183 184 198 199 208 211 216 264 269 276 277 281 297 300 0
38 144 149 155 168 169 172 189 200 201 205 207 213 231 240 248 262 269 286 288 293 0
38 147 154 155 160 163 169 174 198 200 207 210 213 222 263 273 277 283 286 288 300 0
38 154 160 165 172 191 211 224 231 234 244 253 265 277 279 280 281 282 287 297 300 0
38 173 183 188 191 213 217 228 239 260 261 263 265 269 272 277 282 292 297 300 303 0
39 137 145 149 150 151 152 154 161 166 170 172 180 183 184 189 202 206 220 245 248 0
44 136 138 139 140 142 145 150 153 156 159 160 162 172 178 181 184 233 249 265 300 0
44 136 138 139 141 142 148 153 155 159 165 172 174 177 178 184 238 258 261 292 300 0
44 136 138 144 155 160 176 188 205 218 239 250 251 253 254 255 260 262 272 279 280 0
44 136 139 140 142 148 153 154 159 160 171 174 177 178 182 188 203 258 264 274 300 0
44 136 139 141 142 148 153 159 160 162 165 172 173 178 182 184 224 258 265 295 300 0
44 138 139 142 148 153 159 160 171 174 177 178 182 188 203 208 221 255 271 292 295 0
44 140 142 143 144 145 150 157 160 166 172 173 178 209 212 220 233 276 287 289 303 0
44 155 160 163 168 176 189 201 207 218 237 250 254 260 262 265 269 273 279 280 296 0
45 138 139 142 143 144 145 151 162 163 165 198 199 200 202 224 230 233 275 276 301 0
45 149 150 159 162 172 177 182 199 202 209 226 242 247 253 263 277 287 291 294 299 0
46 137 138 142 150 160 172 174 176 178 182 184 188 220 221 223 249 264 268 287 298 0
46 138 139 144 147 149 150 155 163 164 169 171 173 175 178 188 199 206 284 288 298 0
46 139 143 154 165 166 168 172 174 188 189 191 206 231 253 256 261 268 285 295 300 0
46 140 143 144 145 161 164 167 181 190 193 194 199 201 207 208 218 229 262 276 285 0
46 140 143 144 147 148 150 161 164 167 170 199 201 208 218 232 240 269 276 284 302 0
46 143 160 168 172 174 208 224 242 249 253 254 256 257 272 280 282 287 289 292 294 0
46 154 160 166 174 187 188 189 196 201 205 207 224 234 255 256 268 269 270 271 273 0
47 136 138 147 148 157 163 164 167 181 189 191 193 194 195 204 205 216 224 225 239 0
47 136 138 147 157 158 166 167 168 187 191 192 204 216 221 229 231 253 268 270 298 0
47 149 154 156 157 160 163 165 172 176 179 199 209 220 235 247 250 263 278 284 299 0
47 153 154 157 159 160 163 165 167 176 209 220 222 223 233 235 241 247 278 299 303 0
47 153 173 176 188 191 197 209 212 219 221 223 227 239 244 260 277 278 298 299 300 0
48 137 139 144 146 155 157 159 172 173 176 197 205 221 224 245 248 269 280 287 293 0
48 139 140 144 149 152 154 155 158 159 165 169 170 172 191 208 221 239 240 295 303 0
49 136 138 143 144 154 172 212 244 255 259 261 265 269 273 278 280 288 291 293 298 0
49 136 138 143 154 160 163 172 212 223 224 248 251 255 259 269 278 280 282 293 299 0
49 136 138 144 163 178 188 191 205 206 212 244 261 262 265 280 282 283 293 298 299 0
49 136 140 147 162 172 178 188 193 205 206 212 223 224 225 227 244 251 261 262 283 0
49 138 140 162 163 172 188 205 206 208 212 223 225 244 261 262 265 283 285 299 302 0
49 138 163 164 170 191 205 208 212 231 240 244 251 259 261 262 280 282 288 293 298 0
49 140 162 166 188 204 205 208 212 223 224 227 248 257 261 265 269 270 278 280 282 0
49 160 162 163 164 166 172 204 205 208 212 223 224 227 248 251 259 269 270 280 293 0
49 160 162 163 172 178 191 205 208 212 223 224 227 248 249 259 262 265 280 283 293 0
49 163 170 172 178 188 205 208 212 215 224 227 248 261 262 265 280 282 283 293 299 0
50 136 137 138 139 141 142 144 145 150 160 162 211 246 249 255 258 275 289 291 302 0
50 136 137 138 139 141 142 144 145 160 162 166 172 175 199 202 214 241 246 249 275 0
50 136 137 138 139 141 142 145 150 151 160 162 166 170 208 211 255 263 275 289 300 0
50 136 137 138 141 142 143 144 145 150 155 172 173 199 202 209 224 249 263 274 300 0
50 136 137 138 141 142 143 145 151 158 160 171 181 214 224 241 255 263 274 284 300 0
50 136 137 140 141 145 149 155 176 177 181 196 200 205 221 225 226 251 259 261 293 0
50 136 137 140 141 145 160 169 196 204 205 225 226 237 238 251 259 271 273 287 293 0
50 136 137 140 141 145 162 169 188 192 196 205 225 226 237 251 256 261 273 287 302 0
50 136 137 140 141 145 169 182 190 192 204 205 225 226 251 259 261 271 273 287 293 0
50 136 137 141 142 145 151 155 171 173 180 199 202 205 217 224 241 262 263 276 300 0
50 136 139 140 141 145 154 155 160 169 171 177 178 188 190 205 225 226 238 249 265 0
50 136 139 140 146 156 165 169 174 187 188 189 198 211 212 222 231 248 253 260 301 0
50 136 139 140 156 165 169 173 174 188 189 193 197 198 200 201 211 248 249 260 301 0
50 136 140 141 144 145 149 154 160 162 169 175 177 196 205 225 226 251 256 259 270 0
50 136 140 141 145 149 154 155 169 171 176 177 196 205 213 225 226 259 261 265 293 0
50 136 140 141 145 149 154 160 169 175 177 188 190 205 225 226 249 254 256 265 293 0
50 136 140 141 145 154 155 160 162 169 175 188 190 192 205 225 226 237 249 251 287 0
50 136 140 141 145 154 155 160 169 175 177 188 192 196 205 225 226 237 251 279 293 0
50 136 140 141 145 154 155 162 169 175 177 182 188 190 192 205 225 226 251 261 271 0
50 136 140 141 145 154 169 170 171 188 196 205 225 226 238 251 254 256 261 287 293 0
50 139 140 149 156 163 165 169 174 197 198 200 205 208 211 226 231 248 253 287 294 0
51 136 139 142 143 144 147 151 157 159 160 166 170 171 197 208 240 276 280 285 290 0
51 136 139 167 169 170 177 207 210 211 222 230 234 240 242 253 269 270 277 278 286 0
51 136 141 149 167 169 170 177 184 187 188 210 227 234 240 253 262 277 283 291 294 0
51 136 142 143 144 145 147 151 153 156 157 159 160 166 170 175 197 236 239 245 271 0
51 136 142 143 144 145 151 153 156 157 159 160 166 170 171 197 204 236 239 253 276 0
51 136 142 143 144 149 151 152 156 159 160 166 170 171 240 253 258 261 272 276 295 0
51 136 144 169 170 172 179 186 191 197 214 218 239 240 246 250 255 260 262 279 280 0
51 139 142 143 144 151 159 160 166 170 171 172 173 197 208 220 239 240 261 276 290 0
52 136 138 139 143 144 147 151 164 165 172 174 204 208 217 219 224 242 267 279 303 0
52 137 141 146 147 149 155 157 160 165 167 170 173 211 213 219 249 255 265 280 298 0
52 137 141 146 149 151 157 167 170 197 200 206 211 213 219 224 225 239 261 265 284 0
52 139 140 145 160 161 169 178 187 197 198 201 206 210 211 237 239 253 264 277 287 0
52 145 154 163 165 183 211 224 225 230 235 236 260 264 274 280 283 288 292 293 296 0
53 136 137 140 141 145 160 168 177 181 188 192 196 200 205 225 226 265 270 271 293 0
53 136 140 141 145 150 151 154 160 162 175 177 181 188 196 200 205 225 226 238 251 0
53 139 140 166 183 191 197 200 204 211 220 260 264 265 268 279 281 287 289 297 298 0
53 140 145 166 188 191 197 204 205 211 212 220 224 250 260 263 268 285 287 294 297 0
54 146 158 167 171 173 197 203 204 205 223 239 241 244 248 265 266 269 287 290 295 0
56 65 141 145 148 149 155 156 168 172 182 197 215 231 236 238 265 270 275 280 288 0
56 136 138 144 145 161 165 167 171 174 177 191 194 198 204 205 208 219 235 243 249 0
56 136 139 140 144 145 149 150 158 159 163 164 165 169 171 173 177 178 182 188 240 0
56 136 139 140 144 145 164 165 169 171 173 178 182 188 199 230 239 240 255 295 302 0
56 136 139 144 145 157 161 165 167 171 172 191 195 204 205 208 243 244 249 280 291 0
56 136 139 144 161 165 166 168 170 195 204 208 224 243 244 249 255 266 268 276 280 0
56 139 140 144 145 155 158 163 164 165 169 171 173 174 177 178 181 183 188 240 276 0
56 139 142 145 146 150 151 153 161 163 172 174 181 183 206 220 225 248 258 275 283 0
56 139 142 145 150 153 161 163 170 181 183 184 197 206 220 248 257 264 275 276 283 0
56 139 142 145 161 163 165 170 175 181 183 184 200 211 220 225 240 270 283 286 302 0
56 139 144 147 153 155 158 160 164 165 169 171 173 178 182 183 188 223 230 261 295 0
56 141 142 143 144 147 148 150 151 153 159 160 163 177 193 195 226 271 288 292 293 0
58 136 138 139 145 147 150 156 164 168 172 174 194 213 217 218 229 240 270 283 292 0
58 136 138 141 142 146 149 151 157 164 168 171 180 181 197 202 204 235 255 277 293 0
58 136 138 141 143 146 149 150 151 163 164 166 168 171 180 194 202 231 235 268 293 0
58 136 138 141 143 146 149 150 157 166 168 179 194 203 205 218 224 231 235 255 278 0
58 136 138 141 143 146 150 152 168 180 181 192 203 218 226 235 255 268 275 290 293 0
58 136 138 141 144 146 157 163 164 166 168 177 180 184 197 202 203 231 235 238 293 0
58 136 139 144 145 151 155 158 159 162 165 178 233 238 240 265 278 287 291 295 299 0
58 136 139 145 147 161 164 169 172 174 186 193 194 213 215 217 218 229 266 270 292 0
58 136 141 142 143 146 148 149 151 157 163 164 168 180 190 202 203 204 218 235 293 0
58 137 139 142 144 145 149 151 155 161 163 165 174 177 178 181 199 217 219 260 284 0
58 139 141 144 151 157 158 159 160 165 166 199 215 233 238 240 265 283 288 289 295 0
58 139 142 144 145 155 161 163 174 178 180 181 184 199 205 217 219 238 240 249 260 0
60 136 137 140 147 152 157 162 163 164 166 177 179 182 183 188 208 214 264 279 302 0
60 136 138 143 150 153 155 165 168 169 188 191 194 199 202 204 212 247 263 267 279 0
60 136 140 149 153 154 155 156 157 164 166 177 190 205 208 214 216 233 239 264 277 0
60 136 142 143 153 164 165 167 170 172 184 188 189 193 200 204 237 239 255 261 282 0
60 136 143 154 162 163 164 165 167 170 184 200 217 237 239 240 242 253 257 268 269 0
62 80 137 141 142 147 148 150 153 154 155 160 162 163 169 173 177 234 256 276 283 0
62 80 144 146 154 166 170 174 175 178 189 195 197 208 215 217 239 240 249 269 287 0
62 136 137 140 145 148 159 161 168 173 183 188 192 212 218 219 224 255 265 289 303 0
62 136 137 140 145 148 159 161 168 174 177 183 188 192 207 218 219 222 255 264 303 0
63 136 137 138 139 141 145 146 148 152 155 170 175 188 194 203 207 221 241 255 267 0
63 136 137 138 140 141 142 145 146 150 155 170 171 194 202 203 207 221 233 250 271 0
63 136 138 144 153 161 165 166 168 184 193 195 204 208 230 235 247 262 268 278 301 0
63 136 144 153 154 156 157 165 168 172 184 185 193 197 204 206 219 235 249 260 283 0
64 136 140 141 144 145 146 151 152 155 162 182 196 208 219 241 245 272 283 286 302 0
64 136 140 141 145 146 149 151 152 157 160 196 204 208 219 239 241 255 286 299 302 0
64 136 140 144 145 146 151 152 157 160 162 163 190 208 219 229 236 238 241 245 255 0
64 136 140 145 146 149 151 152 157 160 172 173 190 192 199 202 218 219 241 283 299 0
64 137 139 142 143 144 145 150 155 158 163 170 182 184 188 217 231 238 276 291 292 0
64 137 139 142 144 145 149 155 159 163 165 169 170 178 180 181 182 188 199 217 291 0
64 137 139 142 144 145 155 158 163 168 169 174 178 180 181 182 184 198 217 238 276 0
64 137 139 142 144 145 155 163 164 165 169 170 181 199 217 219 238 249 260 284 290 0
64 137 139 142 144 145 155 163 165 166 169 170 181 182 188 199 217 238 239 268 291 0
64 137 139 143 144 145 147 149 151 155 171 172 178 181 188 199 205 217 258 291 295 0
64 137 139 143 144 145 149 150 151 155 174 178 184 188 198 199 205 217 219 273 295 0
64 137 139 143 144 145 149 150 155 166 174 180 184 199 205 217 249 268 273 279 295 0
64 137 139 143 144 145 155 158 163 164 172 174 180 181 182 184 188 205 217 219 238 0
64 139 143 144 145 151 155 166 169 174 181 184 198 199 205 217 238 239 268 292 295 0
66 138 140 146 149 150 152 160 167 170 173 180 186 202 219 224 225 229 288 293 296 0
67 138 139 144 151 157 158 159 160 162 163 165 174 178 192 226 233 240 287 295 299 0
67 139 144 145 149 150 151 155 156 158 162 163 168 174 178 226 229 240 277 295 299 0
67 139 144 145 151 155 156 158 162 163 168 174 178 180 217 218 226 268 287 289 299 0
68 136 139 143 144 146 151 160 162 166 184 192 197 203 204 207 211 216 270 275 295 0
68 136 140 146 147 149 152 164 168 177 179 181 188 197 202 204 214 244 264 292 293 0
68 136 150 155 161 162 165 169 184 192 194 199 200 202 204 205 214 220 239 240 269 0
68 138 140 143 145 146 160 161 166 168 172 174 186 187 191 200 202 204 217 270 277 0
68 138 143 145 146 148 152 155 160 168 172 191 202 204 212 232 255 258 270 277 292 0
68 138 143 145 146 155 168 175 182 186 188 191 202 204 217 258 268 277 286 292 303 0
71 136 141 144 149 150 163 169 181 185 191 199 212 219 224 238 239 247 255 276 285 0
71 138 139 140 145 146 149 150 153 156 161 170 174 175 180 184 191 204 213 219 255 0
71 138 139 140 146 154 162 166 170 184 199 200 219 233 241 258 265 266 269 270 290 0
71 138 139 141 145 146 158 161 164 165 170 174 175 184 191 204 219 241 255 266 286 0
71 138 139 146 153 156 161 164 170 174 175 184 191 205 213 241 245 255 280 286 300 0
71 140 141 144 145 149 150 151 153 166 171 181 185 199 215 231 238 258 268 274 295 0
71 140 144 155 163 169 171 177 180 188 189 198 199 230 239 240 258 261 274 276 285 0
71 140 145 149 150 151 153 172 174 184 196 200 202 217 224 225 228 229 233 239 248 0
71 144 145 150 151 153 165 180 185 189 199 205 215 219 224 240 244 269 276 280 295 0
72 84 136 144 150 154 161 191 204 205 208 215 226 235 239 243 247 248 266 268 269 0
72 136 139 144 161 165 166 167 171 189 191 204 208 226 239 244 247 262 266 268 291 0
73 136 137 145 162 163 164 172 178 179 189 190 218 224 245 250 258 282 284 299 302 0
75 138 140 145 150 162 163 166 167 178 194 195 204 208 215 216 218 221 262 278 290 0
75 141 142 143 144 145 146 148 151 165 172 183 197 198 199 200 207 224 232 283 288 0
75 141 142 154 159 160 164 170 172 188 197 204 209 218 220 239 242 253 268 276 300 0
75 154 157 159 160 166 170 172 189 201 207 209 212 218 220 224 226 234 283 287 300 0
76 136 140 141 144 145 155 156 157 163 169 171 177 184 186 188 199 219 220 236 241 0
76 140 141 144 145 156 163 167 168 171 174 177 180 186 199 204 205 215 220 269 270 0
76 146 147 149 154 155 163 188 198 210 212 213 230 246 273 277 278 288 289 291 293 0
76 147 149 154 170 181 197 198 208 220 221 231 237 239 240 253 269 271 284 287 294 0
76 152 163 186 187 188 190 197 204 210 219 220 238 239 248 251 283 284 288 291 296 0
77 136 141 144 145 146 149 150 153 156 179 181 183 185 186 202 204 226 262 290 292 0
78 136 137 139 141 144 145 156 159 172 178 185 190 207 216 218 219 255 262 277 300 0
78 136 138 139 142 143 145 154 171 180 184 188 197 205 214 241 250 255 269 276 286 0
78 136 139 141 145 149 152 154 156 159 178 194 199 207 218 219 255 269 276 277 300 0
78 136 139 142 143 145 154 158 188 194 197 205 209 214 224 258 277 279 284 286 293 0
78 136 141 145 146 147 150 164 165 167 168 201 202 203 218 226 235 236 238 255 268 0
78 136 142 144 145 146 150 154 158 172 180 184 194 197 199 202 205 241 249 279 284 0
78 136 144 145 146 147 149 150 163 164 168 182 194 202 203 218 231 235 236 268 290 0
78 137 141 144 149 161 163 170 174 181 188 198 212 215 217 225 228 233 258 275 288 0
78 138 141 160 169 170 172 181 185 198 210 211 212 220 235 239 240 253 268 269 280 0
79 136 139 141 144 146 163 166 168 178 184 198 205 212 218 238 240 255 273 292 301 0
79 139 142 144 145 150 160 165 166 174 178 184 197 199 224 238 239 268 287 292 296 0
79 144 153 154 156 159 163 164 176 177 189 199 209 213 226 241 244 245 247 274 282 0
79 144 154 164 172 179 185 188 191 204 205 209 221 235 242 247 253 266 269 280 298 0
79 144 166 172 179 185 188 197 199 204 205 209 231 235 239 241 253 262 266 268 283 0
79 145 156 166 179 185 189 192 201 204 209 213 224 235 241 247 262 271 292 293 298 0
79 156 159 166 176 189 197 205 209 223 224 239 240 244 245 262 266 268 269 271 295 0
79 156 187 189 197 199 212 213 215 221 223 233 235 239 241 262 271 274 278 280 295 0
80 102 136 137 145 146 147 159 164 165 167 168 171 183 184 188 192 233 272 275 287 0
80 137 139 140 144 147 148 150 151 153 154 155 158 162 163 164 188 195 206 224 271 0
80 137 139 140 147 148 150 151 153 154 155 163 164 195 206 215 226 232 258 271 283 0
80 137 140 147 148 150 151 153 154 155 162 163 164 171 176 184 188 195 198 206 224 0
80 137 140 147 148 150 151 153 154 155 162 163 164 176 180 195 206 224 258 271 285 0
80 137 141 142 144 147 148 150 153 154 160 162 163 172 188 193 206 208 226 267 271 0
80 137 144 147 148 150 151 153 154 155 164 176 195 205 206 226 232 269 271 282 284 0
80 138 139 142 143 146 150 155 157 161 164 166 168 169 171 175 184 197 199 212 286 0
80 139 140 142 144 149 151 153 162 163 167 172 176 182 190 194 224 231 233 263 271 0
80 139 140 142 144 151 153 162 163 167 171 172 176 188 193 224 231 233 276 283 284 0
80 139 144 148 150 151 153 154 155 157 161 163 171 172 176 195 206 232 263 283 284 0
80 140 141 144 152 158 159 160 169 171 198 204 206 207 208 214 221 255 268 270 282 0
80 140 141 144 155 158 159 160 166 169 171 185 198 206 207 208 214 221 232 255 295 0
80 140 141 148 152 155 159 160 161 169 175 206 207 208 213 214 249 255 273 293 295 0
81 136 139 143 144 145 146 151 156 159 160 166 194 199 207 215 224 226 246 272 290 0
81 136 141 143 145 146 151 156 159 160 180 195 199 212 215 224 226 238 258 271 272 0
81 143 144 145 146 151 156 159 160 161 162 164 172 175 177 208 212 215 224 246 277 0
82 136 137 138 139 141 142 145 150 160 166 173 202 205 208 224 260 263 274 292 302 0
82 136 137 138 141 142 145 150 158 160 163 171 173 175 202 205 224 229 246 280 284 0
82 136 137 139 141 142 145 160 163 171 173 180 202 205 214 217 224 229 241 263 291 0
82 136 138 145 148 149 150 156 159 162 168 180 184 216 218 240 247 277 288 293 300 0
82 136 139 145 148 149 150 156 162 173 180 184 200 207 216 236 239 240 265 287 293 0
82 136 145 148 149 150 156 159 162 168 184 207 216 218 233 240 247 277 287 288 293 0
82 137 138 141 142 143 145 157 160 172 173 175 208 214 221 224 241 258 263 271 277 0
82 137 139 141 142 145 150 157 158 160 172 173 197 202 205 208 224 246 277 284 302 0
82 137 141 142 145 150 157 160 172 173 180 197 202 205 208 214 224 246 258 277 302 0
82 138 143 145 148 149 150 156 162 172 178 184 200 216 233 236 239 240 288 289 294 0
82 142 143 145 148 149 156 165 192 200 212 216 218 233 236 239 240 253 272 288 292 0
83 136 138 141 146 149 151 173 182 184 190 198 199 201 204 219 241 255 268 272 302 0
84 123 136 141 146 147 154 164 168 180 194 202 205 218 226 255 268 269 272 290 293 0
84 136 137 138 139 141 146 150 158 161 175 191 207 208 221 224 248 255 258 266 270 0
84 136 137 138 139 141 146 150 177 199 202 207 208 221 224 226 248 258 266 275 301 0
84 136 137 145 146 151 155 159 165 168 169 171 181 192 195 216 219 228 239 245 287 0
84 138 139 140 146 149 153 156 158 161 162 170 174 175 194 197 198 202 213 241 250 0
84 138 139 141 142 143 146 150 155 161 168 175 191 207 221 224 253 255 259 266 273 0
84 138 139 146 162 163 164 170 175 197 198 199 228 241 245 250 258 266 282 285 286 0
84 139 141 142 143 146 157 161 163 168 181 188 195 205 224 238 270 276 286 292 293 0
84 139 141 143 146 147 151 155 159 163 165 169 181 198 238 239 240 273 286 292 301 0
84 139 141 143 146 147 154 163 170 181 198 238 239 240 263 270 273 279 286 288 301 0
84 141 143 146 147 148 149 157 158 159 161 163 168 177 181 205 232 240 284 286 296 0
84 141 143 146 149 154 158 161 163 168 170 177 181 186 188 198 205 207 212 240 269 0
84 141 143 146 151 157 158 161 162 163 165 177 181 188 205 238 239 273 286 295 296 0
84 141 143 146 151 158 161 163 165 168 170 181 198 205 238 240 270 286 292 293 301 0
85 136 142 144 145 149 150 152 154 159 160 162 171 173 183 185 193 205 214 270 284 0
85 137 139 140 142 147 149 150 153 154 155 159 160 162 166 171 177 193 205 268 273 0
85 137 140 142 143 149 154 159 162 171 173 177 183 193 197 204 215 239 270 275 295 0
85 137 140 142 143 149 154 160 162 164 173 177 193 205 215 232 244 258 276 293 294 0
85 137 142 143 145 149 154 160 162 166 173 175 177 183 193 205 215 244 255 268 270 0
85 137 142 143 149 153 154 159 160 162 166 173 175 177 183 193 268 270 273 275 285 0
99 136 138 141 146 157 166 168 175 177 179 190 197 202 203 218 219 235 238 277 283 0
99 144 145 151 153 155 157 158 159 163 166 174 192 197 199 238 239 240 288 293 295 0
100 136 138 140 147 155 159 160 161 171 173 174 185 223 250 255 258 269 283 284 301 0
100 136 138 140 147 155 159 160 166 171 173 174 223 232 246 250 255 258 268 269 301 0
100 138 140 143 144 145 149 151 152 153 157 163 164 173 176 177 181 190 229 244 250 0
100 140 147 149 153 154 155 156 157 159 164 169 177 188 190 208 219 238 240 264 295 0
101 145 146 149 152 160 174 183 196 198 200 202 210 224 225 240 245 267 274 285 288 0
102 136 137 138 139 142 144 145 148 159 160 168 172 174 177 178 183 192 212 215 272 0
102 136 137 139 145 146 157 159 165 167 168 171 175 177 180 183 184 188 192 219 228 0
102 136 137 144 145 146 150 159 161 165 167 168 171 183 192 219 233 239 287 301 302 0
102 136 138 139 142 143 145 152 160 171 178 181 184 197 198 200 204 216 241 243 276 0
102 137 139 142 145 149 151 152 160 161 162 183 190 200 211 215 220 239 243 258 275 0
102 139 140 141 142 149 151 154 155 158 162 165 167 176 190 197 217 218 269 283 301 0
102 139 143 145 148 156 157 160 162 163 164 167 212 225 233 239 262 274 275 278 285 0
106 136 138 139 145 148 150 156 167 168 172 174 178 184 233 240 264 272 288 296 300 0
106 136 138 145 146 156 157 165 170 173 174 188 189 216 233 236 239 240 241 244 292 0
106 136 141 145 146 149 150 152 153 154 156 159 177 179 181 188 197 207 268 274 292 0
106 136 145 148 150 156 162 172 173 178 184 200 207 218 233 236 239 240 272 277 300 0
106 137 138 139 141 144 145 150 152 155 159 167 168 178 181 192 207 224 228 233 287 0
121 141 144 145 155 156 158 169 180 184 186 188 196 198 236 241 249 256 292 293 295 0
123 136 137 140 145 146 147 151 159 162 164 165 168 171 175 183 192 219 220 287 290 0
123 136 137 142 144 145 146 155 159 165 168 169 171 183 192 199 202 219 239 287 302 0
123 136 137 143 145 146 155 157 159 165 168 171 177 183 184 192 199 219 228 239 283 0
123 136 137 144 145 146 155 157 159 164 165 168 171 175 177 183 192 219 257 270 302 0
123 136 137 145 146 147 159 164 165 168 171 175 177 183 184 188 192 207 219 245 270 0
123 136 137 145 146 155 157 159 165 168 169 171 175 183 184 192 216 228 272 287 295 0
123 136 137 145 146 155 159 165 168 169 171 175 183 184 192 199 228 257 272 281 287 0
130 138 142 144 150 155 157 161 162 163 168 169 172 174 176 220 234 242 261 276 277 0
132 136 137 142 143 145 148 149 150 156 160 162 177 180 181 192 239 240 257 272 295 0
132 136 138 140 142 145 147 148 149 150 156 159 161 168 177 180 226 240 287 288 301 0
132 136 138 140 142 145 148 150 156 159 161 177 200 204 226 233 236 239 240 287 288 0
132 136 141 144 145 146 149 150 153 156 164 177 179 181 183 204 207 219 262 292 301 0
132 137 139 143 145 146 148 149 150 151 155 160 164 168 175 180 217 242 258 285 301 0
132 137 140 142 143 145 148 149 150 156 160 177 180 192 220 236 239 240 272 288 295 0
132 139 143 144 145 150 151 154 155 160 166 168 180 193 217 233 256 274 285 288 301 0
133 136 140 142 143 158 161 162 163 164 165 167 168 170 188 193 217 230 263 265 277 0
133 136 142 143 144 153 162 164 165 170 172 178 184 188 193 194 200 220 247 257 295 0
133 136 142 143 150 162 164 167 168 170 178 181 182 184 188 193 194 214 270 276 295 0
134 136 137 138 140 142 145 150 151 161 173 177 178 179 193 199 204 219 226 245 303 0
134 136 138 139 143 154 155 156 165 166 168 170 189 215 226 235 247 255 266 268 278 0
135 136 138 140 143 147 150 172 182 194 200 204 207 255 261 267 274 277 280 286 295 0
135 136 138 140 144 147 150 172 180 182 200 202 204 205 221 255 260 262 267 271 277 0
135 136 138 140 146 147 150 153 155 172 180 200 202 205 235 243 253 255 260 267 280 0
135 138 140 146 147 150 157 172 180 182 200 202 204 205 208 250 258 262 267 280 295 0
1 136 138 140 143 154 162 163 169 172 188 212 218 227 248 261 265 278 280 285 292 303 0
1 136 138 149 172 178 188 193 205 212 226 237 248 251 261 269 280 283 292 293 298 299 0
1 136 138 153 154 159 162 170 173 183 205 212 257 259 261 265 278 279 280 292 293 298 0
1 136 138 153 166 170 172 178 188 191 204 205 212 250 260 269 272 280 292 293 298 299 0
1 136 149 169 172 186 193 205 212 223 224 237 246 248 251 259 261 278 280 288 292 293 0
1 138 140 143 144 153 160 162 163 164 170 179 212 250 251 257 259 260 263 269 280 298 0
1 138 140 153 162 172 204 205 212 230 244 250 259 260 261 265 269 272 278 280 298 299 0
1 138 143 147 153 154 160 170 185 188 212 227 250 251 257 260 279 280 283 293 298 299 0
1 138 143 163 172 188 212 223 240 244 250 251 260 261 269 278 280 282 288 292 293 298 0
1 138 143 166 178 179 183 186 191 208 212 238 240 248 257 260 264 269 285 288 292 293 0
1 138 144 154 160 162 164 170 172 188 205 206 212 240 249 250 260 265 279 280 293 298 0
1 138 159 160 172 204 205 212 227 240 248 250 251 259 269 272 278 280 285 288 292 293 0
1 140 143 153 159 160 162 163 170 188 206 212 224 225 233 250 257 262 265 278 279 303 0
1 140 160 162 163 169 172 178 200 205 206 207 224 225 227 248 259 265 269 270 278 291 0
1 143 154 159 160 170 204 212 224 227 240 250 257 259 265 272 278 279 280 285 293 299 0
1 145 159 160 176 200 205 206 207 218 224 225 240 248 250 251 257 259 270 286 292 293 0
2 82 146 148 170 172 189 201 204 210 212 224 225 236 239 240 262 266 277 285 288 293 0
2 136 144 147 149 152 155 166 188 189 197 201 210 212 222 226 231 235 239 248 255 262 0
2 137 152 154 166 169 172 187 188 194 197 204 210 212 218 231 234 236 240 248 253 277 0
2 140 147 155 166 170 172 188 191 197 211 224 225 244 250 260 265 269 277 287 294 297 0
2 146 147 152 154 155 166 184 186 210 212 220 227 234 235 240 248 253 266 268 299 303 0
2 146 149 152 166 168 170 181 200 204 207 213 231 234 240 246 253 257 262 270 277 286 0
2 147 155 159 160 166 172 182 186 188 191 197 211 234 244 246 250 277 279 286 297 300 0
2 152 154 166 186 188 197 200 204 207 213 234 235 236 240 248 253 266 270 286 288 293 0
2 159 160 161 166 176 189 191 197 201 204 211 213 230 234 237 250 251 279 280 282 301 0
2 160 162 163 166 189 190 197 198 201 204 210 212 220 234 235 236 248 262 268 273 299 0
3 139 149 153 159 164 170 172 188 189 199 201 204 209 212 213 218 234 277 287 288 289 0
3 140 160 166 167 169 170 172 183 188 191 206 211 225 264 265 268 269 274 278 288 298 0
3 141 150 154 170 172 184 198 199 221 230 235 236 250 251 261 274 279 280 283 288 298 0
3 142 153 154 156 170 172 182 188 196 199 204 205 209 213 233 234 240 247 253 266 283 0
3 145 150 154 160 165 167 170 172 176 183 191 196 221 235 246 253 264 283 288 292 298 0
3 146 149 154 160 168 170 172 188 191 240 241 246 247 250 251 274 278 279 280 288 298 0
3 147 163 166 167 170 172 188 191 212 213 240 250 251 261 268 280 283 285 287 288 298 0
3 150 161 163 167 170 172 191 221 224 225 230 244 251 261 270 274 278 280 285 296 299 0
3 150 167 170 172 173 184 198 199 212 213 224 225 230 235 241 261 265 280 283 285 299 0
3 153 166 167 170 172 177 188 191 206 211 212 213 225 235 250 251 261 268 283 298 299 0
4 139 140 148 162 179 188 191 192 195 205 214 216 218 225 227 232 233 246 256 272 278 0
5 136 143 146 147 160 166 170 204 206 212 221 224 225 250 251 260 264 268 285 292 293 0
5 136 147 155 159 160 166 170 183 205 211 212 224 225 251 264 268 269 273 280 283 303 0
5 137 138 140 141 143 146 155 159 160 174 175 176 197 239 244 256 258 264 288 291 302 0
5 138 139 140 141 142 143 150 155 157 159 171 188 192 226 263 264 276 291 299 300 302 0
5 139 148 149 153 154 155 156 157 158 162 163 164 188 192 194 205 217 232 235 286 295 0
5 140 147 149 162 170 188 205 210 212 218 222 239 240 246 257 269 270 272 277 300 301 0
6 136 138 139 144 146 147 149 156 157 164 170 171 178 180 188 190 226 255 265 277 284 0
6 136 139 149 160 164 176 179 185 209 221 223 224 227 235 239 241 247 262 263 288 300 0
6 138 147 167 177 187 188 189 191 205 216 221 233 234 240 244 245 256 270 292 298 301 0
6 139 145 152 162 168 180 198 202 204 205 222 226 228 237 255 265 268 286 292 293 303 0
7 145 154 165 176 183 189 197 198 204 208 219 222 230 236 240 241 244 267 283 288 298 0
7 147 163 168 183 186 198 199 209 219 235 236 240 241 247 262 264 266 274 277 278 298 0
7 154 170 172 176 183 188 189 198 201 204 209 213 229 239 240 241 247 277 296 299 300 0
7 157 159 170 172 179 183 188 189 191 197 198 201 209 213 220 235 239 262 287 288 294 0
7 159 170 172 173 176 183 186 188 189 191 197 198 201 209 213 219 235 239 277 299 300 0
8 142 148 181 183 194 195 200 204 206 207 214 257 259 260 264 270 271 276 279 288 293 0
8 163 169 172 200 206 212 213 218 222 226 244 250 254 256 259 260 279 280 288 293 303 0
9 136 156 184 188 189 190 191 204 205 206 225 229 231 251 261 266 271 273 279 285 296 0
11 136 138 140 145 147 149 156 158 161 166 170 172 177 180 188 207 210 232 255 275 286 0
11 136 140 144 154 159 160 165 179 191 197 212 214 223 235 239 250 255 257 269 278 299 0
11 137 149 154 163 164 165 179 185 191 197 199 212 223 235 239 250 257 260 273 279 299 0
11 138 143 149 150 154 164 172 173 185 189 197 199 201 209 211 213 235 239 242 250 263 0
11 138 149 162 188 209 213 222 234 235 237 241 247 253 260 262 263 277 283 287 294 298 0
11 138 176 189 201 209 213 220 223 234 235 247 260 262 277 278 286 287 288 298 300 303 0
11 140 163 172 176 191 209 212 213 219 220 230 250 277 282 283 287 291 293 294 299 303 0
11 141 144 146 153 154 156 175 177 185 208 209 221 226 235 239 247 253 277 283 288 300 0
11 141 150 153 154 159 167 184 185 198 199 204 205 211 235 236 238 250 269 279 283 297 0
11 142 154 159 163 164 166 172 189 191 201 204 211 212 213 235 239 247 250 268 276 282 0
11 147 149 159 163 191 205 211 217 230 231 235 246 250 262 269 272 282 283 289 292 297 0
11 149 156 160 163 176 179 182 185 197 209 213 235 239 262 263 265 277 278 299 300 303 0
11 149 159 165 186 191 197 204 211 230 231 240 244 250 262 264 269 281 283 292 293 301 0
11 159 160 164 166 208 209 212 218 221 223 234 242 253 266 271 277 278 287 288 294 302 0
12 136 142 143 144 149 158 160 163 165 168 169 170 171 180 197 217 221 256 267 271 282 0
12 137 140 142 146 149 151 153 156 169 172 173 183 195 213 224 258 265 269 281 283 287 0
12 137 140 148 149 151 156 170 172 177 183 193 206 210 213 232 240 258 264 273 279 290 0
12 140 143 154 162 166 172 178 193 206 207 208 223 224 225 227 248 259 261 262 265 278 0
12 143 154 157 160 162 163 170 188 191 204 214 224 240 244 265 269 270 278 280 293 303 0
12 157 160 162 166 172 188 193 197 205 206 214 218 224 225 239 248 249 262 265 283 293 0
12 157 162 166 178 191 204 205 206 208 214 218 224 225 244 251 259 261 269 270 278 293 0
12 157 162 166 178 191 204 205 206 214 218 224 225 227 244 251 259 261 269 270 278 293 0
12 170 178 197 199 204 205 208 224 227 239 240 257 259 261 262 265 280 283 293 299 301 0
13 136 139 142 143 144 160 162 163 164 172 174 175 178 184 192 194 206 224 228 255 292 0
13 136 139 152 154 156 160 170 189 201 205 212 213 218 231 234 236 240 269 283 287 288 0
13 136 140 144 157 159 170 186 188 191 220 234 246 250 255 265 269 272 274 298 300 303 0
13 140 165 183 184 188 197 198 199 208 211 220 239 241 260 263 264 268 269 291 297 300 0
13 145 168 169 170 172 186 187 188 200 207 210 211 240 247 253 270 274 277 279 286 297 0
13 149 154 165 185 191 197 204 212 214 235 239 250 257 260 263 265 269 272 283 292 299 0
13 149 160 184 186 187 188 189 201 205 210 212 235 239 246 248 262 269 277 286 292 297 0
13 159 181 192 207 213 220 222 234 250 251 253 254 256 261 262 268 269 280 281 292 300 0
14 136 137 138 140 141 142 145 150 151 154 166 171 177 180 197 221 246 255 275 288 289 0
14 138 141 143 145 147 152 156 162 164 165 169 170 175 205 206 208 225 240 255 257 279 0
14 138 141 143 145 147 152 156 162 164 169 170 175 194 205 206 208 225 240 241 244 255 0
14 140 146 157 166 170 184 197 204 208 213 220 224 225 250 260 263 279 285 287 293 300 0
14 140 159 161 162 165 166 170 172 173 183 197 204 213 220 244 265 269 272 277 285 300 0
15 136 142 144 154 197 200 221 224 239 240 244 253 254 255 256 260 266 271 276 283 287 0
15 136 144 149 154 168 169 181 186 212 220 222 226 231 235 253 255 257 259 268 288 293 0
15 144 147 155 160 168 169 170 172 184 186 189 191 200 201 207 210 240 262 268 286 299 0
15 145 149 154 159 191 197 204 205 207 209 216 232 240 244 246 250 254 264 265 292 298 0
15 159 165 170 183 184 198 199 201 212 221 235 241 247 254 262 264 274 277 279 283 285 0
15 163 170 174 183 191 196 197 201 204 206 211 213 224 225 230 254 261 274 283 296 299 0
15 164 174 182 183 184 187 188 190 198 199 200 210 211 239 241 250 257 277 279 297 300 0
16 19 136 142 144 145 146 157 158 168 169 170 193 194 197 199 202 205 221 235 258 270 0
16 58 142 145 149 150 152 154 160 162 169 173 177 182 183 205 214 217 244 270 284 294 0
16 70 142 143 149 154 160 162 169 173 177 193 195 232 244 255 258 270 275 284 285 295 0
16 120 140 141 149 150 153 155 157 158 162 163 165 167 182 184 188 190 229 233 284 296 0
16 136 137 138 140 154 160 165 188 205 212 227 235 250 251 257 260 269 283 288 293 298 0
16 136 137 142 143 144 145 149 162 173 177 183 193 204 232 244 255 267 273 275 292 293 0
16 136 138 139 140 143 144 145 147 155 159 163 166 170 174 188 215 226 238 258 262 270 0
16 136 138 140 142 143 145 147 155 159 163 166 170 172 175 188 210 215 224 226 255 279 0
16 136 138 140 144 145 147 158 159 166 170 172 174 188 210 211 232 255 270 271 275 283 0
16 136 139 141 143 144 147 149 151 155 157 158 165 166 170 172 195 217 224 240 275 284 0
16 136 140 144 145 147 153 158 159 164 166 170 171 174 188 224 233 238 255 258 270 279 0
16 136 142 144 145 149 150 152 154 162 169 173 177 182 183 185 195 232 275 276 284 295 0
16 136 142 144 145 149 150 152 154 162 169 173 177 185 193 205 232 244 276 284 292 293 0
16 137 138 139 155 159 166 177 180 191 198 205 213 220 222 224 225 250 255 268 279 280 0
16 137 138 140 143 154 162 164 170 172 188 189 197 204 208 212 225 239 240 251 261 285 0
16 137 138 142 166 170 172 178 205 212 227 240 249 251 259 261 276 280 283 293 298 299 0
16 137 138 143 154 204 212 223 227 229 257 259 261 265 270 271 273 280 283 288 293 298 0
16 137 140 142 143 149 154 162 164 166 169 171 182 197 232 239 244 268 273 275 276 295 0
16 137 143 144 162 170 179 188 204 212 216 224 240 245 250 257 260 269 272 279 280 293 0
16 137 143 164 178 193 199 212 214 223 224 225 231 257 259 261 265 269 272 273 293 299 0
16 137 149 153 159 162 169 170 172 188 191 204 205 207 224 225 250 262 270 279 286 293 0
16 137 150 172 188 204 205 212 224 227 235 244 250 260 261 265 269 280 283 292 293 299 0
16 137 160 174 176 183 187 189 201 204 205 213 218 224 225 234 254 260 262 264 279 293 0
16 139 140 141 143 147 149 151 153 155 158 162 165 167 170 193 231 233 251 255 269 284 0
16 139 140 141 147 149 150 151 153 155 158 162 165 166 167 172 193 197 215 231 233 258 0
16 142 143 145 149 152 153 154 159 162 166 169 173 177 185 189 193 210 268 273 275 276 0
16 142 143 145 149 152 154 159 162 166 169 173 177 182 183 195 210 232 267 268 275 284 0
16 142 149 150 154 155 158 162 163 176 190 193 194 201 202 205 214 216 221 239 292 293 0
18 136 137 138 140 142 144 150 151 177 193 198 199 205 206 224 235 238 245 255 270 293 0
18 137 138 140 143 144 146 154 172 177 181 198 215 221 235 238 255 260 262 270 271 280 0
18 137 147 155 160 166 172 183 184 186 187 189 194 197 201 210 212 234 236 240 248 262 0
18 138 143 144 151 153 163 164 170 172 175 176 179 182 231 255 267 269 271 283 284 296 0
18 139 140 144 151 158 161 163 169 174 177 199 212 215 219 220 228 241 284 293 295 300 0
19 46 136 139 143 144 148 150 158 161 166 183 190 218 257 260 264 265 268 269 270 285 0
19 72 82 150 151 166 187 193 198 199 213 226 232 239 240 248 255 266 272 284 295 303 0
19 126 136 138 149 150 152 154 164 167 188 192 194 204 214 218 232 265 269 286 291 292 0
20 22 139 149 153 155 157 164 192 195 204 208 217 223 225 228 230 237 248 261 270 286 0
20 136 139 142 146 147 154 155 166 210 212 218 222 234 240 248 253 268 283 288 291 300 0
20 136 142 146 166 168 184 188 204 210 212 221 235 248 250 253 262 277 283 288 294 300 0
20 139 140 142 162 166 168 188 191 197 200 204 206 211 224 225 234 237 250 253 265 268 0
20 139 142 145 152 154 160 166 176 177 188 197 204 210 212 213 235 277 278 279 291 299 0
20 139 142 152 154 160 166 172 176 188 197 198 204 210 212 213 235 244 268 283 288 300 0
20 140 141 142 145 150 159 166 184 188 197 198 204 205 211 239 250 251 263 268 297 300 0
20 140 141 142 147 150 155 162 166 183 184 197 198 205 211 234 251 260 264 268 269 300 0
20 140 142 152 166 183 188 191 197 204 205 208 211 260 263 264 265 269 272 277 297 300 0
20 142 146 147 155 158 163 166 170 172 183 184 186 189 201 210 212 218 234 240 262 288 0
20 142 146 149 154 163 166 184 188 189 198 201 204 210 212 231 234 235 248 268 273 277 0
20 142 146 166 170 172 183 184 194 198 204 205 210 212 234 236 240 253 262 263 268 269 0
20 142 157 159 161 166 183 188 191 197 200 204 211 239 264 265 272 279 285 286 297 300 0
20 142 157 159 166 172 191 197 200 204 211 239 244 250 265 279 286 288 291 297 298 300 0
20 142 160 166 183 189 191 197 201 204 206 211 212 237 239 264 265 271 277 280 285 297 0
21 36 144 153 154 156 166 172 182 185 189 197 199 201 205 208 209 221 235 239 242 278 0
21 36 149 153 154 156 158 159 166 201 205 208 209 221 234 242 244 247 253 268 271 283 0
21 56 138 139 140 143 158 163 167 172 175 212 213 215 216 271 283 285 288 292 298 303 0
21 80 138 139 141 144 146 148 149 155 162 181 199 200 207 208 255 270 273 275 295 301 0
21 84 136 137 140 145 146 155 159 165 168 169 171 192 195 216 239 272 284 290 295 302 0
21 84 140 143 144 150 151 155 162 171 174 184 192 198 199 203 207 208 216 276 295 300 0
21 120 140 141 145 149 152 153 155 160 163 169 181 191 196 202 204 208 214 215 260 273 0
21 136 138 139 143 147 167 181 187 189 191 213 216 220 221 224 225 229 234 256 292 303 0
21 136 138 139 147 167 191 193 195 204 205 213 216 220 221 224 225 234 253 268 292 301 0
21 136 138 140 143 147 152 161 164 177 190 199 214 217 226 232 238 244 245 255 264 302 0
21 136 149 153 154 170 172 188 209 221 223 227 234 247 248 253 271 273 277 278 288 300 0
21 136 149 153 170 172 173 176 188 189 191 201 209 221 234 240 247 262 263 271 281 300 0
21 136 153 157 159 163 170 172 188 199 209 212 220 221 223 224 235 271 278 282 294 299 0
21 136 170 172 173 188 191 209 221 235 237 239 247 253 262 266 271 277 278 299 300 303 0
21 138 139 140 141 142 146 150 153 155 199 202 205 208 216 221 224 259 274 275 297 300 0
21 138 139 140 147 167 168 187 191 193 205 213 216 221 231 245 253 256 297 298 301 302 0
21 138 139 147 158 163 164 167 187 191 197 205 213 216 231 239 240 244 253 256 292 298 0
21 138 139 147 158 163 164 167 187 191 205 213 216 220 231 239 240 244 253 256 292 298 0
21 138 139 147 163 164 167 187 191 192 197 205 213 216 231 239 240 244 253 256 292 298 0
21 138 139 147 164 166 167 177 191 195 213 216 229 231 234 242 253 256 268 270 292 298 0
21 138 139 147 167 187 189 191 205 213 216 221 224 225 229 239 240 244 245 256 292 303 0
21 138 139 147 170 187 189 191 193 204 213 215 216 220 221 239 268 270 292 298 301 303 0
21 139 154 166 170 172 188 189 201 209 213 220 227 234 240 241 247 268 278 292 293 299 0
22 136 138 139 144 151 158 159 160 163 170 178 192 226 240 261 265 280 288 291 295 298 0
22 136 139 141 144 151 157 158 159 160 163 170 178 211 217 226 229 265 280 288 291 293 0
22 136 139 142 144 145 147 150 151 154 155 157 164 180 203 207 208 224 240 251 279 296 0
22 138 139 140 142 143 144 147 151 157 164 165 172 204 208 217 219 224 251 255 279 303 0
22 138 139 144 145 151 154 158 160 163 172 174 178 226 229 240 272 274 280 288 295 298 0
22 138 139 144 145 151 155 157 158 159 162 163 166 174 178 197 217 226 238 239 245 299 0
22 139 140 142 144 147 149 151 157 164 165 192 202 204 207 208 219 224 235 248 279 303 0
23 136 138 145 146 152 160 175 177 181 185 188 197 204 207 219 220 238 242 268 272 296 0
23 138 139 141 142 143 144 146 150 155 156 166 199 202 213 221 224 238 248 259 275 301 0
23 138 139 141 142 143 146 149 150 156 166 175 181 199 202 208 216 221 259 271 276 300 0
23 138 139 146 150 164 170 174 175 184 199 205 248 253 255 257 266 270 286 288 295 300 0
23 139 142 143 146 151 153 164 165 171 183 184 192 198 199 202 203 204 207 210 278 297 0
23 139 142 145 149 153 165 168 172 184 188 192 199 205 216 217 235 241 248 260 265 279 0
23 139 142 154 161 163 164 169 181 182 183 195 211 217 220 242 264 270 276 278 281 286 0
23 139 145 149 150 153 160 163 184 188 192 199 200 214 216 228 235 239 241 248 265 272 0
23 139 145 159 166 197 201 204 205 207 211 213 224 239 250 261 265 268 277 279 280 300 0
23 140 142 160 162 188 191 201 204 205 213 216 224 231 234 265 269 276 280 285 287 294 0
23 140 145 159 160 162 177 184 201 205 211 213 222 224 234 250 254 256 265 277 280 294 0
23 145 149 160 165 168 174 184 188 192 196 208 216 217 228 229 240 242 248 280 292 295 0
23 145 156 160 166 178 196 205 213 217 224 234 251 253 256 260 268 280 282 285 292 293 0
23 156 160 168 172 178 196 197 201 205 208 211 213 224 228 251 254 256 257 269 280 293 0
23 160 166 172 178 205 206 207 208 211 213 224 225 239 251 253 256 257 268 270 273 293 0
36 132 136 137 142 143 145 148 155 156 159 165 174 177 233 236 238 239 240 272 288 295 0
36 132 136 138 140 142 145 148 150 156 159 161 167 170 177 181 200 204 216 233 239 240 0
36 136 138 142 144 149 153 154 159 163 193 197 212 221 235 239 253 263 266 278 282 287 0
36 136 153 154 160 176 209 221 224 233 234 241 244 247 260 266 271 277 278 287 288 300 0
36 138 140 145 159 160 162 185 191 204 206 211 218 225 235 245 250 262 265 274 281 298 0
36 140 154 159 183 191 196 197 205 206 211 212 214 218 224 225 235 246 261 264 265 269 0
36 140 154 184 198 199 235 241 250 251 260 261 273 274 279 280 281 283 291 293 298 299 0
36 145 154 165 176 184 197 198 199 204 225 230 235 241 250 260 270 278 279 281 298 299 0
36 149 154 184 186 198 199 240 241 246 250 260 261 265 266 274 279 280 281 283 298 299 0
36 159 161 164 183 184 195 197 198 199 212 223 241 251 261 264 273 278 280 298 299 302 0
37 136 144 153 164 167 169 170 172 196 201 204 212 233 250 260 261 265 279 280 292 299 0
37 139 140 145 147 160 166 172 208 213 225 234 253 256 262 265 268 270 273 280 300 301 0
37 140 141 145 150 154 159 166 177 189 191 192 198 201 208 221 222 250 268 271 277 294 0
37 140 149 154 160 161 178 188 200 204 206 207 225 227 235 250 257 265 270 283 299 302 0
37 140 152 154 160 161 162 164 172 178 200 204 207 223 227 240 244 251 259 270 271 280 0
37 140 154 162 166 170 179 188 200 207 214 240 250 251 257 260 261 263 270 278 279 280 0
37 142 160 166 172 174 177 188 205 206 213 225 231 239 253 256 260 268 270 271 276 294 0
37 145 154 155 160 165 187 191 197 204 208 221 225 231 239 253 265 271 277 280 296 300 0
37 172 177 188 189 191 201 207 208 213 224 225 234 251 256 261 269 270 271 273 280 294 0
38 136 137 139 140 141 145 160 163 169 177 182 188 192 196 205 225 226 251 279 283 301 0
38 136 137 140 141 145 149 160 168 174 176 177 181 190 200 205 221 225 226 249 259 293 0
38 137 142 145 181 188 191 192 194 197 205 213 234 250 260 272 276 277 286 292 297 300 0
38 140 142 157 191 195 196 208 213 217 219 236 250 251 260 261 276 277 279 282 297 300 0
38 140 186 188 191 197 200 208 213 216 239 250 260 261 263 265 269 277 281 291 297 300 0
42 60 82 138 156 163 165 166 174 194 198 199 202 226 238 239 255 260 277 288 294 297 0
42 72 138 139 145 150 151 156 158 159 164 172 174 200 207 218 220 229 268 270 279 289 0
44 142 145 150 157 163 166 168 178 182 187 199 209 212 220 233 239 259 271 289 291 300 0
44 142 149 150 157 164 166 168 178 182 187 199 209 212 220 224 239 259 271 287 291 292 0
45 138 139 142 143 144 145 151 162 163 165 198 199 200 202 224 230 233 265 275 291 301 0
45 138 142 143 144 145 146 151 162 165 175 178 185 191 198 200 205 233 264 276 283 288 0
45 139 159 162 167 188 189 199 201 205 209 212 218 221 224 225 231 241 277 287 289 303 0
46 137 145 146 149 151 152 163 174 180 183 184 190 194 198 217 218 222 229 240 248 257 0
46 138 139 140 144 145 147 150 155 159 163 169 171 173 178 183 188 199 206 215 232 283 0
46 138 139 140 144 147 149 150 155 163 164 169 171 173 183 184 188 198 199 215 230 288 0
46 138 139 140 144 147 150 155 163 169 171 172 173 174 184 188 198 199 235 266 278 297 0
46 140 143 144 146 161 164 174 190 197 199 201 207 208 212 218 232 239 269 285 288 302 0
46 145 146 149 151 152 154 161 175 180 183 189 190 200 217 220 224 225 239 245 268 270 0
46 145 149 151 152 165 174 180 182 183 190 198 202 220 228 240 242 245 248 258 270 272 0
47 136 138 140 141 145 149 156 157 160 165 167 168 181 191 204 205 216 221 253 283 295 0
47 136 138 143 147 157 158 164 167 181 187 191 193 197 216 224 225 231 239 253 256 301 0
47 136 138 144 147 157 158 163 164 167 168 187 191 193 197 204 205 216 253 255 268 298 0
47 136 138 147 164 167 177 187 188 189 191 193 194 205 216 226 239 256 273 292 298 301 0
47 142 146 154 156 159 175 182 201 204 205 209 220 223 240 244 247 277 278 292 293 299 0
47 146 159 162 164 166 172 185 188 189 191 197 201 209 212 219 220 223 235 239 245 268 0
47 162 163 164 189 197 199 205 209 220 221 224 225 235 239 260 262 268 282 289 291 294 0
48 137 139 144 146 152 155 157 159 172 173 176 205 221 224 225 239 245 248 269 287 293 0
48 139 144 146 152 154 159 162 170 172 179 185 188 191 204 205 217 227 239 240 269 293 0
48 139 144 146 152 154 159 166 170 172 176 177 188 198 200 204 207 208 221 239 240 286 0
48 144 149 160 167 169 172 173 180 183 204 227 235 248 249 251 260 263 272 278 279 280 0
49 136 138 154 163 166 188 205 212 227 244 257 261 262 265 280 282 283 285 288 293 296 0
49 136 140 143 144 154 162 164 172 178 199 200 206 207 224 248 259 261 265 269 270 280 0
49 136 144 154 170 172 205 206 212 215 224 225 240 251 255 259 261 269 282 283 288 293 0
49 136 163 172 191 197 205 212 224 227 239 248 249 251 259 261 262 278 280 282 293 299 0
49 138 154 162 188 191 200 204 205 207 208 223 244 251 261 262 270 278 280 286 293 298 0
49 143 159 166 180 183 191 192 194 197 198 206 219 253 262 263 264 268 277 289 296 300 0
50 70 136 141 142 144 145 160 170 173 180 199 202 205 207 221 224 241 249 260 263 271 0
50 136 137 138 139 141 142 143 145 150 151 160 166 173 208 209 211 224 255 263 274 300 0
50 136 137 138 139 141 142 143 145 151 155 166 173 197 208 224 241 255 263 274 276 302 0
50 136 137 138 139 141 142 144 145 160 162 181 199 223 241 249 255 258 262 263 275 289 0
50 136 137 138 139 141 142 145 150 151 155 160 162 163 168 181 217 228 258 263 275 289 0
50 136 137 138 139 141 142 145 151 158 160 162 199 202 207 214 241 246 258 260 275 284 0
50 136 137 138 141 142 143 145 151 157 160 168 171 181 211 214 224 241 255 263 274 302 0
50 136 137 138 141 142 143 145 151 158 160 180 181 214 217 224 241 258 263 274 284 300 0
50 136 137 138 141 142 144 145 151 155 166 168 172 202 205 207 209 214 224 241 246 302 0
50 136 137 139 141 142 144 145 160 162 166 172 173 174 175 180 199 202 223 241 263 275 0
50 136 137 140 141 143 145 149 169 171 177 188 196 204 205 212 225 226 251 261 271 293 0
50 136 137 140 141 145 169 171 174 177 188 190 192 204 205 225 226 249 261 264 270 293 0
50 136 137 141 142 145 150 157 160 168 171 173 180 181 202 205 207 214 217 224 255 263 0
50 136 137 141 142 145 158 160 166 173 181 197 202 205 217 224 241 258 260 263 284 302 0
50 136 139 140 146 149 156 163 165 169 174 184 188 189 198 201 211 226 231 248 270 286 0
50 136 139 140 146 156 157 161 163 165 169 170 174 177 211 231 240 253 258 260 270 286 0
50 136 139 140 151 156 163 165 169 174 188 193 197 198 205 211 216 231 248 253 270 286 0
50 136 139 140 152 156 157 161 163 165 169 170 173 174 188 202 211 212 240 253 258 260 0
50 136 140 141 144 145 154 155 160 171 181 190 200 205 225 226 238 249 259 265 287 293 0
50 136 140 141 144 145 154 162 169 175 177 190 192 204 205 225 226 249 251 259 261 270 0
50 136 140 141 144 145 154 162 169 175 177 190 205 225 226 238 249 256 259 261 265 270 0
50 138 139 140 146 156 163 165 169 174 177 188 198 200 208 211 225 248 253 287 289 294 0
50 138 139 140 148 156 157 161 165 169 174 177 185 197 208 211 212 232 248 253 258 301 0
50 139 140 144 148 149 156 163 165 169 170 174 189 197 198 200 201 208 211 216 240 260 0
50 164 168 170 180 184 188 194 198 199 213 224 228 237 241 250 260 263 279 287 297 300 0
51 136 139 142 143 144 145 148 149 151 152 157 159 160 170 171 204 213 236 239 240 290 0
51 136 140 145 149 153 154 159 160 199 206 218 225 244 249 250 251 259 263 278 285 302 0
51 136 142 143 144 145 147 149 151 153 156 160 166 170 171 192 198 202 216 236 239 253 0
51 136 142 143 144 145 147 151 156 160 163 166 170 175 192 202 215 236 239 240 271 277 0
51 142 143 144 147 149 151 157 159 160 166 170 172 173 175 202 211 213 239 240 271 280 0
52 137 141 144 146 151 157 160 167 201 204 206 208 211 213 219 224 225 231 236 245 251 0
52 137 141 146 149 157 167 173 182 190 200 201 206 208 211 213 219 225 247 251 261 285 0
52 137 142 146 148 150 154 157 161 166 167 180 193 194 197 204 207 218 219 232 243 258 0
52 137 146 149 151 157 160 167 170 201 204 206 211 213 219 224 225 241 265 282 292 299 0
52 138 139 143 145 146 152 156 167 173 187 204 213 221 222 234 245 253 275 292 298 301 0
52 140 157 159 161 174 188 197 198 199 205 208 213 219 220 222 239 240 241 269 297 300 0
52 145 154 159 161 163 165 167 183 189 190 191 221 230 240 244 247 280 283 288 292 298 0
53 140 157 160 166 168 188 191 197 204 211 212 219 222 250 251 260 269 277 297 298 300 0
53 140 159 166 180 183 184 197 198 199 200 204 211 237 241 264 265 277 279 297 298 300 0
53 145 159 166 191 197 200 204 205 208 213 224 225 250 263 272 277 285 292 293 300 303 0
54 137 138 139 143 147 148 149 152 154 171 175 178 181 186 188 189 197 206 216 230 257 0
54 138 145 165 183 185 204 205 224 225 232 244 251 260 262 263 264 266 281 285 292 293 0
54 140 159 160 168 170 172 174 188 191 196 205 230 232 250 262 266 269 280 283 288 298 0
54 145 159 167 172 188 206 211 213 218 221 224 225 250 251 253 261 262 274 288 292 293 0
54 150 160 170 172 183 184 196 198 199 204 212 224 225 241 264 265 266 278 280 285 288 0
54 154 159 161 164 170 172 188 191 195 196 205 211 212 213 236 244 250 265 269 279 298 0
56 136 144 147 153 161 165 166 170 191 204 208 239 240 244 247 268 274 277 280 301 303 0
56 138 139 142 143 145 150 152 153 160 161 163 174 181 183 184 206 220 248 255 276 283 0
56 139 140 144 145 155 158 163 164 165 166 169 171 172 173 182 183 188 239 240 268 280 0
56 139 140 144 153 158 163 164 165 166 169 171 172 173 178 181 182 188 194 263 268 280 0
56 139 142 145 149 150 151 152 161 163 170 181 183 206 220 240 257 258 275 276 283 302 0
56 139 142 145 150 151 160 161 163 181 183 197 202 206 220 239 240 248 258 276 283 291 0
56 139 142 145 152 160 161 163 164 165 170 181 183 184 206 220 239 240 275 276 278 280 0
56 139 142 145 152 160 161 163 165 172 181 183 184 206 220 240 248 275 283 285 288 291 0
56 141 142 143 144 147 148 150 151 153 154 160 163 166 177 195 208 255 271 283 288 295 0
58 136 138 139 140 145 147 156 164 169 172 174 180 181 193 194 208 210 217 218 244 270 0
58 136 138 139 145 147 156 164 168 172 174 193 194 213 217 218 229 240 270 283 292 293 0
58 136 138 141 142 144 146 149 150 163 164 168 179 181 184 190 203 204 207 235 268 290 0
58 136 138 141 146 149 150 152 158 161 168 175 181 203 204 207 218 219 233 235 267 268 0
58 136 138 141 146 152 157 163 165 166 168 177 180 181 192 203 207 218 228 235 239 290 0
58 137 139 142 144 145 147 155 158 171 172 181 184 188 198 217 219 238 249 276 291 295 0
58 137 139 142 144 145 147 155 158 171 172 181 184 188 198 217 238 249 260 276 291 295 0
58 137 139 142 144 145 149 155 158 165 169 174 177 178 180 181 198 205 217 249 284 295 0
60 136 137 140 144 146 149 152 157 162 163 164 166 177 179 183 208 214 217 264 274 297 0
60 136 137 140 146 152 156 157 163 164 166 173 183 188 205 213 214 224 238 250 281 287 0
62 136 137 140 144 145 148 159 161 163 164 168 177 183 192 212 218 219 222 255 264 265 0
62 136 137 140 145 148 159 161 163 164 168 173 174 183 188 192 218 219 222 223 224 258 0
62 136 137 140 145 148 159 161 163 164 168 177 183 188 192 212 218 219 258 264 265 289 0
62 136 137 140 145 148 159 161 164 168 173 174 177 183 188 192 214 218 219 223 255 302 0
62 136 137 140 145 148 159 161 168 173 174 177 181 183 188 192 207 218 219 258 289 296 0
62 140 143 144 145 146 148 156 157 160 162 163 172 175 212 215 220 233 247 262 274 288 0
63 136 139 149 150 153 155 161 165 166 191 193 195 199 202 208 215 235 239 247 262 268 0
63 136 141 144 145 156 165 168 181 193 195 204 206 215 238 240 244 247 249 258 268 278 0
63 136 142 155 156 161 165 166 193 196 197 215 239 240 244 258 262 266 268 270 276 303 0
64 136 139 141 142 144 145 150 155 164 169 174 184 188 198 199 205 217 238 249 255 295 0
64 136 140 144 145 146 149 150 151 152 155 172 173 190 199 219 236 246 272 283 286 288 0
64 136 144 145 146 149 150 151 152 155 160 166 172 178 208 218 219 236 246 268 272 299 0
64 136 145 146 149 150 151 152 157 162 163 172 178 190 197 199 208 218 219 223 238 255 0
64 136 145 146 149 151 152 172 178 190 199 204 208 219 223 241 255 268 272 276 299 301 0
64 137 139 142 144 145 147 149 155 158 159 163 171 172 180 181 184 188 198 217 249 291 0
64 137 139 142 144 145 150 155 158 163 164 168 169 170 178 180 182 184 188 202 217 238 0
64 139 142 144 145 151 155 158 163 174 177 178 180 181 184 205 217 238 240 269 276 280 0
64 139 142 144 145 155 158 164 165 169 170 180 181 182 188 198 217 224 238 276 280 295 0
64 139 142 144 145 155 158 165 169 170 177 178 180 181 217 219 238 240 249 276 291 295 0
65 136 137 138 140 141 144 146 147 159 160 163 175 205 228 255 256 264 275 280 288 291 0
65 137 138 140 141 145 147 150 154 159 170 172 173 175 177 178 202 205 206 240 280 291 0
66 137 138 140 142 143 144 155 160 162 166 174 177 196 200 226 229 241 247 258 273 303 0
68 138 143 145 146 160 168 172 175 186 187 198 202 204 220 232 236 238 239 268 270 292 0
70 136 137 138 145 146 149 155 156 159 161 168 169 171 177 188 219 236 239 240 296 302 0
70 136 137 142 143 146 149 153 155 156 157 159 170 171 177 179 199 202 226 228 239 240 0
70 136 137 143 146 149 153 155 156 157 159 164 171 177 179 199 219 226 228 239 240 283 0
70 136 137 143 146 155 159 161 164 168 170 171 172 181 188 199 214 240 255 287 296 302 0
71 138 139 146 162 164 170 174 175 184 199 200 204 233 235 241 250 255 266 270 286 300 0
73 136 140 141 144 150 153 156 158 161 171 173 174 201 202 209 221 248 269 285 287 303 0
74 136 139 143 144 145 149 153 155 159 161 171 172 173 181 184 188 239 255 273 283 295 0
74 138 139 145 149 153 154 155 162 163 164 169 170 206 208 209 212 217 225 266 274 276 0
74 150 166 187 189 192 194 196 197 205 231 239 246 251 253 256 261 262 268 271 280 293 0
74 159 161 163 170 173 184 187 191 209 211 212 221 265 271 273 280 283 288 292 293 298 0
74 161 166 184 197 198 204 210 212 230 234 235 248 253 262 265 268 283 288 291 293 300 0
75 136 137 138 139 140 142 144 162 178 179 190 191 208 223 256 259 270 276 283 286 302 0
75 136 138 139 140 146 157 160 162 166 168 169 171 179 188 197 198 212 256 270 277 302 0
75 139 144 158 160 161 163 169 170 172 192 195 200 202 207 263 280 282 283 285 288 291 0
76 136 141 144 145 156 158 161 163 168 169 172 180 186 204 215 219 224 260 270 276 285 0
76 136 145 154 155 156 159 166 183 188 198 204 207 213 221 225 262 264 268 287 292 294 0
76 137 140 142 143 147 149 150 155 159 162 163 167 168 170 172 178 180 182 229 244 246 0
76 138 154 155 156 159 172 177 183 188 194 197 212 213 221 225 239 254 256 264 269 292 0
78 136 137 138 139 141 145 150 156 159 166 172 178 186 194 205 218 220 258 262 268 300 0
78 136 137 138 141 144 145 146 156 157 159 172 178 185 218 219 220 230 255 262 288 300 0
78 136 138 142 144 145 146 147 150 157 164 166 168 182 189 202 203 231 235 236 277 290 0
78 136 145 146 147 149 152 157 173 192 203 216 218 219 228 229 235 241 245 255 279 293 0
78 138 139 140 145 153 155 168 171 172 174 178 181 188 198 218 219 231 277 289 293 296 0
78 139 147 155 159 174 183 200 205 213 220 224 234 253 254 261 264 268 269 280 292 300 0
78 139 149 166 168 180 200 205 207 213 224 225 251 253 256 261 263 268 269 270 287 292 0
78 139 160 168 176 197 200 205 213 224 225 250 253 254 256 260 265 269 270 273 277 292 0
78 141 145 146 149 152 155 165 171 182 188 189 192 198 200 207 240 257 258 262 290 293 0
79 139 151 154 166 179 189 195 197 212 221 239 240 244 245 266 274 279 280 283 292 293 0
79 141 151 154 159 162 163 166 176 186 189 197 212 223 235 239 245 266 268 271 274 279 0
79 144 149 156 166 179 185 188 197 205 209 213 224 235 237 239 241 253 262 268 269 278 0
80 121 138 139 150 177 184 197 198 199 200 208 221 253 258 264 266 275 277 281 284 300 0
80 136 137 139 140 147 148 150 151 153 154 155 157 164 170 195 206 224 240 255 271 282 0
80 136 137 139 140 148 150 151 153 154 155 159 163 164 170 188 195 206 224 232 255 271 0
80 136 137 139 148 150 151 153 154 155 161 163 176 195 205 206 220 255 269 271 282 284 0
80 137 139 140 144 147 148 150 151 153 154 155 157 162 164 171 195 206 224 232 282 284 0
80 137 144 147 148 149 150 151 153 154 155 157 164 171 172 176 195 206 224 232 282 283 0
80 139 151 153 155 157 161 163 168 169 171 172 176 181 182 197 202 220 224 225 275 283 0
80 140 141 143 144 148 152 155 159 160 161 163 169 175 206 207 208 214 232 249 255 271 0
80 140 141 144 146 150 155 159 160 161 162 169 171 202 206 207 208 214 221 239 256 268 0
80 140 141 144 152 159 160 161 169 175 204 206 207 208 214 222 249 255 268 270 271 282 0
80 140 141 144 159 160 161 162 169 175 185 204 206 207 208 214 232 249 255 268 270 271 0
80 140 141 144 159 160 161 164 169 171 176 185 204 206 207 208 214 232 255 268 270 282 0
80 140 141 144 159 160 161 169 171 176 185 188 204 206 207 208 214 232 255 268 270 282 0
80 148 150 151 153 154 155 159 162 163 164 172 176 195 206 224 226 232 258 271 273 276 0
81 136 144 146 147 151 156 157 159 160 166 181 191 207 215 223 224 246 269 270 275 281 0
81 136 144 146 150 151 156 159 160 168 191 194 212 215 224 226 246 270 272 274 275 292 0
81 143 145 146 151 156 159 160 172 180 187 198 199 207 208 215 226 246 258 268 271 272 0
81 146 151 156 159 160 167 172 198 199 207 208 215 258 263 268 270 271 274 275 281 292 0
82 123 136 137 140 145 161 164 198 205 221 224 245 256 259 261 265 270 272 278 280 293 0
82 136 137 138 140 141 142 143 150 160 166 173 175 176 177 214 217 221 246 258 260 274 0
82 136 137 138 141 142 143 145 147 173 180 205 214 217 224 241 246 258 260 288 300 302 0
82 136 137 140 141 145 147 149 155 162 169 173 177 182 188 190 205 225 226 261 264 265 0
82 136 137 140 141 145 147 160 162 169 173 176 177 188 196 205 225 226 238 251 256 283 0
82 136 137 141 142 145 150 151 155 157 171 173 199 202 205 214 224 263 277 288 300 302 0
82 136 138 145 148 149 150 153 156 159 166 178 180 184 200 216 218 220 235 236 239 287 0
82 136 138 145 148 149 150 156 157 159 173 178 181 184 200 216 218 220 233 239 240 300 0
82 136 138 145 148 149 150 156 159 166 173 178 180 184 200 216 218 220 236 239 240 287 0
82 136 140 141 145 147 154 160 169 171 173 188 192 196 205 225 226 237 256 265 287 293 0
82 136 143 145 148 149 150 153 156 162 180 184 200 212 216 235 236 239 288 289 293 300 0
82 136 145 148 149 150 153 156 159 173 178 180 184 200 212 216 218 235 236 239 277 300 0
82 136 145 148 149 150 156 159 162 184 200 212 216 218 233 236 239 240 277 287 288 293 0
82 136 145 148 149 150 156 159 173 178 180 181 184 200 212 216 218 239 240 253 277 300 0
82 136 145 148 149 150 156 159 173 178 181 184 200 207 216 218 233 239 240 277 300 303 0
82 136 145 148 149 150 156 159 178 181 184 200 207 216 218 220 233 239 240 254 287 288 0
82 137 138 139 141 142 143 145 151 155 157 172 173 175 180 199 208 224 246 277 292 300 0
82 138 140 142 143 148 149 150 156 163 168 173 176 182 190 214 216 233 240 269 271 286 0
82 138 140 142 143 148 149 151 156 163 165 168 176 180 195 197 216 240 269 271 286 289 0
82 138 140 142 143 148 149 153 156 163 165 168 173 176 193 195 216 218 233 235 269 271 0
82 140 142 143 148 149 151 156 163 165 168 176 195 197 207 216 233 240 269 271 286 289 0
84 138 139 140 146 149 153 156 158 161 162 170 174 175 192 198 202 213 241 250 290 300 0
84 138 139 141 142 144 145 146 150 155 163 168 169 199 200 202 205 217 221 259 275 300 0
84 138 139 141 143 144 146 150 152 173 199 202 221 242 246 247 248 259 266 270 275 300 0
84 139 141 143 146 147 163 170 177 181 195 198 238 239 240 270 273 279 286 288 300 301 0
84 149 156 160 169 172 174 197 205 207 215 217 224 225 228 235 238 269 287 288 289 301 0
85 136 138 139 140 144 145 147 150 155 164 168 170 172 181 188 194 200 208 210 255 275 0
85 136 138 139 140 147 150 155 161 164 171 172 175 180 200 205 220 227 255 260 262 280 0
85 136 138 140 145 147 150 158 161 170 172 182 188 200 202 204 210 228 250 255 270 280 0
85 136 140 142 144 145 149 150 152 154 160 162 171 173 177 185 193 204 215 232 270 275 0
85 137 138 141 142 147 150 154 155 158 162 163 164 171 176 190 201 205 237 239 255 284 0
85 138 142 145 149 150 152 154 159 160 162 175 177 193 197 244 264 267 273 275 288 294 0
85 138 142 145 149 150 152 154 160 162 175 177 193 197 202 244 264 267 273 275 288 294 0
85 142 143 145 149 152 154 159 162 166 173 183 185 193 204 232 244 268 273 275 276 293 0
85 142 145 146 149 150 152 154 159 162 169 173 175 182 202 206 215 244 270 275 280 287 0
85 142 150 154 155 158 162 176 186 190 194 201 202 205 216 221 231 233 238 239 283 302 0
99 136 138 140 141 146 148 149 150 166 168 172 197 203 204 207 218 233 244 268 290 293 0
99 136 138 141 143 146 150 168 171 172 179 181 204 205 218 224 238 244 255 268 269 283 0
99 136 138 141 143 146 155 166 168 175 179 194 197 199 203 204 218 238 240 241 244 268 0
99 136 139 144 145 151 155 157 158 159 161 163 165 178 233 240 265 277 287 288 291 295 0
99 136 144 145 151 157 158 159 160 162 163 174 175 197 199 229 238 239 240 277 295 299 0
99 138 139 144 145 151 155 157 158 159 161 162 163 174 178 229 238 240 268 287 295 299 0
100 136 143 145 148 149 150 152 156 167 173 174 178 184 200 207 219 233 236 239 240 294 0
100 138 139 143 148 149 150 166 167 168 170 172 178 184 190 197 233 240 272 288 289 293 0
100 140 142 148 149 153 154 155 157 159 162 164 169 177 195 208 214 220 235 264 295 297 0
100 140 147 149 152 153 154 156 157 159 162 164 177 188 195 208 214 229 235 264 277 302 0
102 136 137 138 139 142 144 145 148 155 159 168 172 174 177 178 183 192 207 215 219 261 0
102 136 137 138 139 142 144 145 148 159 160 168 172 174 177 178 183 192 207 215 272 300 0
102 136 137 145 146 151 158 159 165 168 170 171 175 177 180 183 188 190 192 219 301 302 0
102 136 137 145 146 157 159 165 167 168 171 177 180 183 184 188 192 202 219 228 267 292 0
102 137 139 142 145 149 151 152 154 155 171 183 198 200 202 206 215 220 228 243 245 288 0
102 137 139 142 145 149 151 152 160 161 162 163 183 200 202 211 215 220 243 257 258 274 0
106 136 139 142 143 145 148 150 155 156 157 159 173 178 200 218 233 236 239 240 265 301 0
106 136 141 145 146 149 150 152 153 154 156 159 179 181 188 204 207 219 274 281 287 301 0
106 137 138 139 141 144 145 150 152 155 159 168 170 177 178 181 192 207 219 228 233 265 0
106 137 138 139 141 145 150 152 159 168 174 177 178 180 181 188 192 207 211 215 228 288 0
106 137 138 139 141 145 150 152 159 168 174 177 178 180 182 188 207 211 228 231 287 298 0
106 138 139 140 142 143 144 148 150 156 163 168 174 176 178 182 190 218 225 233 240 269 0
106 140 141 142 144 147 150 164 166 171 173 175 177 202 205 207 208 214 224 257 276 293 0
123 136 137 138 145 146 159 161 165 168 171 183 184 192 214 226 228 229 284 287 290 292 0
123 136 137 140 145 146 147 151 157 159 162 164 165 168 171 175 177 183 188 192 219 239 0
123 136 137 140 145 146 147 151 159 164 165 168 171 175 177 183 192 219 255 284 290 300 0
123 136 137 144 145 146 155 159 165 168 169 171 177 183 192 228 268 272 284 290 292 300 0
123 136 137 145 146 151 155 159 165 168 169 171 175 177 183 192 199 219 226 239 245 302 0
123 136 137 145 146 155 159 165 168 171 172 175 177 183 184 192 219 226 228 244 270 283 0
124 136 137 138 139 142 144 145 148 155 159 168 172 174 177 178 183 192 212 261 272 292 0
124 136 137 138 139 142 144 145 148 159 160 168 172 174 177 178 182 183 192 212 272 292 0
130 138 139 140 146 147 164 167 175 189 191 193 195 213 216 229 239 256 269 270 297 298 0
131 136 138 140 141 145 156 165 167 173 189 194 198 204 216 219 234 236 240 244 268 300 0
131 139 144 146 158 159 163 164 171 172 173 180 183 188 196 204 205 219 261 263 269 292 0
132 136 137 142 143 145 148 156 160 162 165 177 182 192 233 236 239 240 242 272 295 298 0
132 136 138 139 140 142 145 148 150 156 157 161 168 177 178 199 216 219 233 238 240 264 0
132 136 141 144 145 146 149 150 153 156 159 175 177 179 181 183 202 205 233 262 268 292 0
132 136 141 144 145 146 149 150 153 156 159 179 181 183 202 205 224 262 281 287 292 293 0
132 137 139 142 143 144 145 146 150 155 163 166 168 180 197 202 212 217 233 270 271 285 0
132 137 139 142 143 145 146 148 150 151 155 163 180 200 202 212 217 233 256 258 270 285 0
132 137 139 142 143 145 146 149 150 151 164 166 167 168 180 193 202 212 215 270 285 301 0
132 137 139 142 143 145 148 153 156 159 160 163 165 177 233 235 236 238 239 265 272 288 0
132 143 145 148 149 150 151 153 156 159 172 180 182 184 197 200 207 235 236 239 253 257 0
133 136 138 141 144 146 147 148 149 150 152 160 164 166 167 189 197 201 203 207 268 283 0
133 136 138 141 144 146 147 148 149 150 152 160 164 167 172 189 197 201 203 207 268 283 0
133 136 138 142 143 149 150 152 162 164 167 168 170 178 184 188 192 193 194 214 263 295 0
134 136 137 138 139 140 143 145 150 161 179 180 192 193 199 216 245 249 250 256 287 303 0
134 136 137 138 140 142 145 150 161 179 180 192 193 199 216 219 245 249 250 287 289 303 0
135 136 137 140 143 144 145 146 150 155 159 162 165 168 171 177 179 183 184 192 272 302 0
135 140 143 145 157 160 162 166 167 172 178 193 197 204 212 233 243 262 274 275 288 303 0
1 82 136 137 138 140 145 147 150 158 161 166 171 172 173 224 232 245 255 260 270 271 275 0
1 136 138 140 144 145 147 149 150 155 161 166 167 170 171 172 184 194 202 210 226 231 275 0
1 136 138 140 151 160 162 166 169 172 178 193 205 212 214 248 259 265 269 272 280 283 298 0
1 136 138 140 154 160 188 199 205 212 223 235 249 250 251 257 260 279 280 283 285 288 293 0
1 136 140 143 144 154 157 164 178 188 193 206 212 214 224 225 227 257 261 265 269 293 299 0
1 136 140 145 147 159 160 162 179 185 188 205 206 212 224 225 230 235 250 251 257 278 299 0
1 136 140 154 160 162 172 204 205 206 212 223 224 225 235 248 250 259 260 265 279 283 285 0
1 138 140 142 143 162 169 178 181 188 197 205 212 224 231 239 255 257 261 265 276 280 283 0
1 138 140 143 145 162 170 172 188 197 212 239 240 250 260 261 263 265 272 274 280 283 298 0
1 138 140 143 154 159 162 178 204 212 214 235 250 257 259 261 263 265 272 279 280 283 285 0
1 138 140 143 159 162 163 164 172 183 200 206 207 225 235 244 251 259 261 264 269 270 285 0
1 138 140 143 160 162 170 172 179 188 199 204 212 223 240 250 251 260 262 278 279 280 298 0
1 138 143 153 160 172 183 185 204 212 244 251 259 260 264 269 270 280 283 285 288 292 293 0
1 138 153 160 170 172 200 204 205 207 250 259 260 265 269 270 278 280 285 286 288 292 293 0
1 139 159 166 183 187 197 205 213 224 239 251 253 256 261 264 268 269 277 280 292 296 300 0
1 140 143 149 153 159 160 188 200 206 207 224 225 235 250 257 265 269 270 272 278 288 293 0
1 140 145 159 162 164 166 205 207 208 212 218 224 236 240 248 250 251 257 259 261 263 280 0
1 140 147 162 166 170 185 205 206 212 224 225 230 240 241 250 257 259 260 261 265 269 278 0
1 143 163 170 172 188 212 224 240 249 250 260 261 265 269 272 280 282 283 292 293 299 303 0
1 154 159 160 166 174 189 201 205 213 222 224 234 250 256 268 272 277 279 280 287 293 294 0
2 82 148 152 154 157 168 170 181 187 188 190 191 197 204 210 212 218 240 253 257 266 295 0
2 137 140 147 152 155 157 159 161 162 166 183 191 194 197 213 219 239 264 269 277 300 303 0
2 140 145 154 162 164 165 166 189 191 197 201 204 211 218 234 251 257 277 280 289 300 302 0
2 146 152 163 166 170 174 188 189 198 201 204 212 213 220 234 240 257 262 268 273 288 293 0
2 147 155 159 166 183 188 191 197 205 211 239 251 263 264 269 272 277 279 286 291 297 300 0
2 147 155 160 164 166 173 183 191 197 200 211 239 260 263 272 277 279 287 289 294 297 302 0
2 154 166 169 170 179 184 187 188 189 197 198 201 204 210 212 217 237 239 240 244 288 293 0
3 45 142 143 144 146 148 151 162 163 165 166 177 199 200 207 208 226 232 233 258 264 283 0
3 138 143 150 170 172 186 191 196 240 244 250 251 255 261 262 274 278 279 280 288 291 298 0
3 138 163 166 170 172 177 188 199 204 209 213 221 225 234 235 247 253 262 268 282 283 298 0
3 140 141 146 150 154 170 172 184 198 199 235 247 250 251 261 264 274 279 280 283 288 298 0
3 140 150 167 169 170 172 184 198 199 205 206 211 225 241 250 251 261 269 283 288 291 298 0
3 141 149 167 169 170 172 183 184 188 198 199 230 241 251 261 264 274 279 280 283 288 298 0
3 141 150 163 166 170 172 184 196 198 199 211 212 224 225 235 251 261 268 280 283 288 296 0
3 142 143 154 156 166 170 172 182 185 188 197 199 204 209 213 239 240 245 253 266 274 283 0
3 142 145 150 154 163 165 170 172 176 182 186 191 224 225 240 250 261 283 285 292 296 299 0
3 145 154 160 165 170 172 176 188 191 197 232 240 241 250 264 283 288 291 292 298 300 301 0
3 145 154 160 170 172 188 191 196 197 204 205 235 250 264 265 273 278 279 280 298 299 300 0
3 150 154 170 172 174 183 191 225 240 246 261 264 266 270 274 279 280 283 288 292 293 298 0
3 150 154 170 172 191 204 230 232 240 250 251 261 266 274 278 279 280 287 288 291 293 298 0
3 150 160 170 172 177 191 211 224 225 236 240 242 249 250 262 265 266 274 279 280 283 299 0
3 150 166 170 172 199 200 204 205 212 213 224 240 241 253 264 268 269 280 283 286 288 300 0
3 160 163 167 168 170 172 177 188 191 204 211 212 213 216 232 240 251 280 283 288 296 298 0
4 136 139 146 149 154 166 190 199 204 210 212 222 231 239 240 246 248 253 277 283 299 300 0
5 136 137 138 139 147 149 156 159 164 178 218 228 230 231 240 244 250 254 255 283 286 292 0
5 136 140 141 146 149 150 157 158 164 168 175 181 202 203 204 218 219 233 235 267 277 296 0
5 136 145 147 166 167 168 170 196 205 211 212 221 224 225 228 232 250 251 260 261 268 280 0
5 137 139 142 149 153 156 158 159 164 170 180 188 195 202 208 217 263 276 277 286 299 302 0
5 139 140 146 149 153 156 158 162 164 204 205 208 217 228 235 237 246 261 262 268 270 297 0
6 136 138 142 144 146 156 157 164 172 207 208 215 224 225 227 232 233 236 255 270 276 277 0
6 136 141 144 146 150 164 165 166 168 176 179 181 184 197 203 207 218 235 238 239 268 293 0
6 146 149 154 156 160 163 164 165 167 172 175 176 179 208 209 221 223 227 235 239 247 299 0
7 136 138 142 143 144 151 164 171 176 177 184 192 197 202 203 216 267 277 286 292 293 300 0
7 136 139 145 149 150 163 184 188 192 199 200 205 214 239 240 241 248 265 272 279 288 293 0
7 152 172 184 185 204 205 207 208 211 213 224 234 251 254 261 269 277 280 287 293 294 296 0
7 154 170 172 183 188 189 198 199 201 205 209 213 220 239 240 241 242 247 268 287 294 299 0
8 137 138 143 154 160 163 165 172 204 207 212 214 239 244 250 259 260 278 279 285 288 293 0
8 155 169 189 201 205 207 213 224 225 239 250 254 256 260 261 265 269 273 277 292 293 300 0
9 136 145 156 176 189 190 191 194 204 205 207 213 223 224 231 251 259 261 279 280 282 287 0
9 160 176 183 196 201 207 225 246 254 256 259 260 264 265 266 269 270 271 273 277 280 292 0
10 137 140 145 146 149 151 152 153 155 163 165 166 168 172 174 179 183 184 185 210 245 286 0
10 139 141 146 149 150 158 160 165 168 175 183 186 200 202 204 205 211 213 224 230 276 280 0
10 139 143 144 149 158 165 168 169 170 173 175 176 180 183 186 204 221 230 241 242 276 283 0
10 145 146 159 170 172 177 183 188 196 224 225 230 241 247 261 264 265 274 278 280 285 299 0
11 136 138 140 145 147 156 158 161 166 170 172 177 178 188 210 211 226 232 243 255 275 283 0
11 136 147 149 154 186 197 212 235 239 250 256 257 259 260 263 269 271 288 292 293 294 301 0
11 138 143 154 166 169 188 193 199 200 207 218 223 227 255 257 261 265 270 280 283 286 299 0
11 140 142 149 150 157 172 176 182 199 202 209 212 213 220 241 250 263 278 289 297 299 300 0
11 140 154 163 164 165 166 170 179 183 184 185 191 193 200 207 240 257 260 264 270 279 299 0
11 140 159 163 164 172 197 200 207 210 227 235 239 244 248 250 261 262 265 270 279 280 299 0
11 142 149 154 163 166 185 195 196 211 212 213 235 239 247 253 263 268 273 276 282 283 294 0
11 142 163 166 185 209 211 213 223 235 239 241 242 245 247 253 260 262 276 282 284 297 300 0
11 143 144 148 152 155 158 159 178 188 195 205 220 239 248 254 256 262 264 266 268 293 300 0
11 145 148 149 159 167 183 191 197 204 205 221 224 225 230 235 251 261 264 280 283 285 299 0
11 145 159 166 183 191 197 205 211 230 234 235 238 241 251 261 264 268 273 280 283 297 299 0
11 159 164 172 173 191 197 208 209 210 220 221 239 240 244 253 262 266 268 271 287 288 294 0
11 163 164 166 167 172 173 188 199 209 212 213 214 220 223 230 241 268 278 282 297 299 300 0
12 137 138 142 150 160 163 174 176 178 184 199 205 206 221 225 245 249 259 277 288 300 303 0
12 137 138 142 150 160 166 176 178 184 199 205 221 225 231 238 249 259 265 268 277 287 288 0
12 137 140 144 146 147 156 172 183 184 190 206 210 213 224 228 242 264 277 279 281 287 290 0
12 138 139 147 151 155 156 159 162 163 165 172 178 200 205 218 220 223 250 254 279 288 301 0
12 139 160 172 186 188 199 205 206 208 223 224 246 248 249 258 262 265 271 278 280 293 299 0
12 144 148 150 158 159 161 162 172 190 192 195 197 218 219 239 250 254 265 270 279 293 302 0
13 136 137 140 141 145 149 169 171 188 190 204 205 209 226 237 249 251 254 261 280 287 293 0
13 137 149 154 157 160 165 170 178 179 184 185 191 212 214 235 239 250 257 260 278 279 288 0
13 137 149 157 168 169 170 172 182 184 187 188 189 194 201 210 212 240 246 247 262 274 277 0
13 139 140 142 144 150 164 169 170 172 184 186 190 194 202 206 223 224 240 244 258 284 293 0
13 141 150 152 161 164 165 173 183 184 198 199 200 208 211 239 260 269 277 292 293 300 302 0
13 145 150 172 177 189 197 201 204 207 208 213 222 239 250 254 259 260 262 271 277 292 294 0
13 147 155 156 159 198 205 213 219 220 227 229 234 250 251 253 254 261 268 279 280 289 300 0
14 136 137 138 139 140 141 142 145 150 154 170 177 180 184 197 221 224 241 246 255 260 289 0
14 136 137 140 146 147 151 152 154 162 163 174 178 198 200 205 208 214 225 226 254 269 294 0
14 136 138 139 140 156 162 165 174 177 178 188 189 197 198 200 201 205 206 211 248 284 301 0
14 136 138 139 142 143 145 148 149 150 156 166 168 173 192 204 216 233 240 250 258 272 292 0
14 136 142 143 145 148 149 156 160 165 181 207 211 216 220 233 239 240 288 289 292 295 298 0
14 136 143 145 146 151 152 173 196 201 205 208 211 219 224 225 241 245 246 255 268 272 280 0
14 136 152 162 166 197 200 204 211 213 220 250 260 263 268 269 286 292 293 295 298 300 303 0
14 137 159 162 166 172 183 197 204 213 224 225 244 245 264 269 272 277 285 292 295 297 300 0
14 138 139 140 144 145 146 148 151 153 171 172 178 190 197 198 200 215 220 244 288 289 296 0
14 140 145 147 149 151 152 157 160 162 163 172 174 178 185 198 202 208 210 212 243 255 294 0
14 140 145 159 166 170 184 195 196 197 198 199 204 205 208 213 241 250 265 277 285 293 300 0
14 157 166 170 172 184 188 197 204 205 208 213 219 220 244 250 260 269 285 287 292 294 297 0
14 159 165 166 183 188 197 204 205 208 211 220 222 264 268 269 272 287 292 294 297 298 303 0
14 166 170 172 184 197 198 199 200 204 213 220 241 244 250 260 263 268 279 285 287 294 297 0
15 136 138 139 140 141 143 146 148 149 168 171 184 188 192 199 202 205 221 232 255 266 270 0
15 138 139 144 151 155 157 158 159 162 163 166 174 175 178 184 226 238 240 259 264 288 295 0
15 138 143 146 149 151 152 153 155 158 163 166 170 171 175 178 208 215 218 228 259 293 296 0
15 139 148 149 154 159 161 166 177 187 191 200 205 212 213 220 224 234 235 250 253 268 279 0
15 139 149 153 154 156 160 163 165 167 168 176 179 197 213 248 254 265 277 283 287 288 303 0
15 139 156 160 163 166 176 182 197 204 213 220 239 240 244 262 268 283 287 292 293 299 303 0
15 147 152 155 163 169 170 172 179 184 198 205 212 213 233 234 240 253 262 266 269 273 291 0
15 149 152 160 169 186 187 188 189 200 201 207 220 231 234 235 246 257 262 268 270 286 288 0
15 149 154 157 160 163 176 200 209 213 220 221 224 227 239 240 244 247 260 283 288 300 303 0
15 153 154 156 159 160 166 167 176 182 208 219 220 221 223 248 251 266 268 271 278 288 300 0
15 159 160 172 176 191 200 209 213 220 223 230 235 239 241 247 257 262 268 278 288 296 300 0
16 58 136 137 138 191 197 205 212 214 223 239 244 259 261 265 271 272 280 283 293 298 299 0
16 136 137 144 154 191 205 213 219 222 224 246 250 254 255 260 269 277 280 292 293 296 300 0
16 136 138 140 141 144 146 149 150 151 153 155 158 162 165 167 176 180 182 217 269 283 284 0
16 136 142 144 145 149 150 152 154 162 164 169 173 177 193 198 214 232 270 275 284 285 295 0
16 137 138 140 143 149 153 159 162 163 166 170 172 173 183 188 212 225 251 261 269 278 298 0
16 137 138 140 143 154 159 160 162 164 165 166 191 212 231 235 250 257 271 279 285 300 302 0
16 137 138 140 149 154 159 162 166 179 191 205 212 213 235 248 250 257 279 280 298 299 301 0
16 137 138 143 149 157 179 185 191 204 212 219 225 235 250 257 260 262 270 279 285 293 299 0
16 137 138 143 153 157 159 162 163 166 172 179 191 212 214 244 250 269 279 280 285 293 303 0
16 137 138 143 154 159 179 191 212 224 240 244 245 250 255 257 272 273 279 285 288 291 293 0
16 137 138 154 163 178 204 205 212 218 225 257 259 261 265 270 271 282 283 285 288 293 303 0
16 137 139 147 154 155 159 160 165 177 191 205 208 221 224 231 234 251 253 266 271 277 280 0
16 137 139 148 159 176 177 188 205 207 213 224 232 250 253 254 256 269 271 277 279 280 296 0
16 137 139 154 159 160 165 172 188 189 204 205 213 224 237 239 251 253 254 277 280 296 300 0
16 137 140 145 150 162 166 177 204 205 212 213 224 226 250 259 260 268 271 277 280 289 294 0
16 137 140 154 160 162 166 178 188 204 205 207 218 223 224 225 227 251 257 270 271 278 302 0
16 137 140 162 166 173 179 183 185 188 205 212 224 225 235 251 257 260 261 269 278 279 299 0
16 137 143 154 163 166 170 172 178 186 188 204 212 224 225 238 240 261 265 278 282 288 293 0
16 137 143 163 170 172 186 188 204 212 224 225 238 240 261 265 269 270 278 279 282 288 293 0
16 137 145 154 159 166 182 204 205 213 215 220 224 225 242 250 268 270 273 292 293 296 300 0
16 137 147 154 159 160 165 205 207 213 222 224 225 229 231 234 251 253 254 256 277 293 300 0
16 137 156 166 183 198 205 212 213 219 222 224 245 256 260 264 268 269 277 279 280 293 300 0
16 141 142 145 148 150 155 158 162 163 164 165 170 172 176 188 190 194 201 216 237 269 275 0
16 142 145 146 149 150 152 154 162 168 169 173 181 182 195 224 232 244 270 273 275 287 295 0
16 142 145 150 155 158 162 163 164 170 171 172 176 188 190 194 201 204 214 216 232 237 275 0
17 104 137 139 142 143 144 145 149 150 155 164 174 177 178 184 199 217 237 240 249 273 283 0
17 137 139 142 143 144 145 149 150 155 164 174 177 178 184 188 199 217 237 240 249 283 295 0
17 139 142 144 146 155 159 164 174 178 184 188 192 198 199 205 215 217 226 228 241 290 295 0
18 136 137 138 139 140 142 144 164 184 193 198 205 208 211 215 229 235 241 250 255 270 280 0
18 136 139 141 146 150 155 162 170 177 193 197 202 203 207 221 224 228 233 253 258 267 280 0
18 137 146 148 149 150 151 152 153 154 155 163 170 176 180 188 195 206 224 226 232 271 302 0
18 139 140 144 146 151 158 161 163 169 174 177 205 215 217 219 220 228 238 268 269 284 293 0
18 146 149 160 166 170 172 183 186 187 191 204 205 210 212 220 231 234 240 253 262 268 269 0
18 146 152 154 157 166 187 189 201 204 210 212 214 218 234 235 240 248 266 277 283 299 300 0
19 40 137 138 139 141 143 160 164 166 174 175 208 214 216 218 220 229 232 265 275 292 293 0
20 136 139 142 166 184 186 187 197 204 210 212 234 235 236 248 253 262 277 278 288 297 300 0
20 136 140 142 147 155 157 166 191 197 200 211 213 216 239 250 260 279 281 285 297 300 303 0
20 137 140 142 159 160 166 184 194 197 198 204 205 211 216 241 250 269 272 277 297 300 303 0
20 140 142 145 147 155 157 159 161 165 166 191 197 200 208 211 250 265 274 285 288 297 300 0
20 140 142 157 162 166 170 173 183 184 197 198 204 205 211 219 241 260 265 269 277 289 300 0
20 142 146 149 166 168 186 189 198 201 204 210 212 222 226 231 235 236 248 262 265 277 299 0
20 142 146 163 166 170 184 186 190 191 204 210 212 234 236 240 244 253 262 265 268 273 299 0
20 142 154 157 165 166 184 197 198 204 208 211 217 218 239 241 251 253 257 280 292 297 300 0
21 36 136 137 140 144 145 150 153 154 155 169 175 182 205 207 217 224 226 236 238 287 293 0
21 136 138 139 140 147 167 168 187 191 193 197 205 213 216 221 223 231 253 256 297 298 301 0
21 136 138 139 140 147 167 168 187 191 193 197 205 213 216 221 231 253 256 297 298 301 302 0
21 136 138 139 144 147 163 164 167 191 194 195 204 205 213 216 224 225 239 242 253 255 292 0
21 138 139 140 143 144 150 155 163 164 167 172 180 212 213 216 218 280 283 288 291 297 298 0
21 138 139 140 143 147 150 163 164 168 170 187 189 191 215 216 256 259 266 271 292 297 298 0
21 138 139 140 143 155 160 162 164 167 172 180 193 209 210 212 213 215 216 280 297 298 301 0
21 138 139 140 145 147 167 176 187 189 191 202 204 205 213 216 224 225 229 234 286 296 297 0
21 138 139 140 147 153 167 189 191 195 204 205 216 221 231 239 242 245 268 271 297 298 301 0
21 138 139 141 148 150 159 164 172 199 207 208 218 221 224 232 248 255 275 276 284 301 302 0
21 138 139 143 147 148 158 164 167 187 191 210 216 223 232 239 253 256 266 271 292 298 301 0
21 138 139 147 164 167 177 187 189 191 193 204 205 210 213 216 224 225 229 239 240 244 292 0
21 138 139 147 167 174 175 176 187 189 191 215 216 220 229 239 256 266 270 271 292 298 302 0
21 139 149 154 163 170 172 173 188 189 191 201 212 213 221 224 234 240 241 242 247 263 282 0
21 152 156 157 170 172 188 191 192 209 213 220 223 232 234 235 236 245 247 253 262 283 299 0
21 153 159 162 170 172 176 188 189 199 201 209 212 213 223 224 232 236 248 277 278 300 303 0
21 159 163 170 172 188 199 208 209 212 221 224 227 244 253 266 271 277 278 282 289 299 300 0
21 163 170 172 182 188 189 199 201 204 209 212 213 223 240 241 242 277 278 282 299 300 303 0
22 100 139 144 151 157 158 160 163 170 178 211 217 226 229 261 265 272 277 280 287 288 291 0
22 136 137 140 141 144 145 154 160 165 169 175 177 204 205 207 218 226 259 265 280 283 293 0
22 136 139 141 142 147 151 157 164 166 202 207 208 219 224 238 248 251 258 262 271 279 303 0
22 138 139 140 142 144 147 149 150 151 157 164 192 204 208 217 219 240 245 275 279 296 298 0
22 138 139 144 145 151 157 158 160 162 163 166 170 172 175 178 214 226 240 265 288 291 295 0
22 138 140 141 145 146 149 152 157 167 174 183 187 189 191 197 215 230 239 254 257 275 301 0
22 138 141 145 146 149 152 154 156 157 167 168 181 183 187 189 191 197 202 224 254 257 292 0
22 139 144 145 150 151 156 157 158 160 163 166 169 174 178 226 239 240 257 287 288 293 295 0
22 139 146 147 150 151 155 157 164 173 184 198 199 207 208 224 240 250 258 271 275 279 296 0
23 80 177 204 205 212 213 222 224 225 234 246 250 254 260 261 265 269 277 279 280 293 294 0
23 136 140 142 143 144 145 147 155 159 162 163 166 174 175 184 193 204 211 215 238 258 303 0
23 138 139 146 149 150 153 156 164 170 174 175 180 184 199 202 205 213 235 245 250 286 290 0
23 139 140 145 159 160 162 182 184 187 205 213 224 239 250 253 254 256 265 277 280 285 287 0
23 139 142 146 152 159 161 163 164 169 180 181 183 195 211 215 217 220 242 257 276 278 302 0
23 139 145 149 150 151 153 160 184 188 192 199 200 214 216 228 235 239 241 248 265 272 292 0
23 139 150 160 177 205 207 211 213 224 239 250 251 253 254 256 259 260 269 271 277 279 280 0
23 139 156 178 188 204 205 206 213 224 225 231 234 251 253 254 260 261 262 270 271 282 285 0
23 140 145 159 162 174 204 205 207 213 224 239 242 246 249 250 253 254 261 277 280 285 300 0
23 140 156 162 168 177 196 197 204 205 207 213 224 231 251 253 254 260 261 262 280 285 294 0
23 145 149 153 159 165 168 172 174 184 188 192 194 196 211 216 217 224 235 248 249 255 279 0
23 147 155 156 160 174 178 201 205 211 213 224 228 231 239 254 260 262 272 273 280 289 293 0
23 155 159 166 172 198 201 205 207 211 213 220 224 225 250 256 268 269 280 287 292 293 294 0
23 156 158 160 168 172 178 196 201 205 208 211 213 215 224 228 251 254 256 257 269 280 293 0
23 168 205 208 221 224 250 253 254 256 260 261 265 266 269 271 277 280 285 287 292 293 294 0
36 124 136 137 139 142 145 148 155 159 168 172 173 174 177 178 183 188 192 212 218 219 261 0
36 136 149 160 163 176 209 220 221 224 239 240 247 260 262 266 268 271 278 287 289 294 299 0
36 141 150 154 159 160 166 183 184 196 198 199 205 207 212 218 235 264 265 268 269 279 280 0
36 145 158 159 184 198 199 211 212 218 224 225 240 241 250 261 262 265 274 280 281 284 292 0
37 136 140 144 159 162 163 167 169 170 200 207 233 240 250 257 261 265 269 270 278 280 299 0
37 140 166 172 178 180 204 205 208 215 221 250 260 266 268 269 270 271 273 277 287 294 296 0
37 141 150 155 159 177 178 183 189 205 208 221 238 254 256 259 264 266 271 277 279 281 294 0
37 149 154 164 169 178 179 188 191 199 200 206 207 213 237 249 251 261 270 280 286 293 299 0
37 149 154 165 174 177 181 187 191 206 207 213 220 224 225 231 234 253 256 261 268 273 294 0
37 149 154 165 181 183 191 196 206 213 225 229 234 237 251 253 256 261 264 273 277 285 300 0
37 154 165 166 174 183 187 191 196 204 213 220 222 225 231 234 253 261 264 268 270 280 300 0
38 136 137 139 140 141 145 160 169 171 177 178 188 190 205 226 237 238 249 251 273 280 283 0
38 136 140 141 144 145 154 155 171 181 182 190 192 200 205 225 226 259 261 263 265 287 293 0
38 140 142 180 183 191 195 196 213 217 237 239 251 260 261 264 276 277 279 282 293 300 303 0
38 140 157 160 168 174 187 188 191 196 197 211 220 228 234 250 260 263 265 279 296 297 300 0
38 149 186 187 188 189 200 201 205 207 210 231 234 235 246 248 261 262 269 270 286 288 293 0
43 138 139 140 143 146 147 150 156 159 166 171 173 174 175 178 188 214 226 228 230 231 233 0
44 136 141 143 145 146 149 150 155 157 166 167 169 172 175 190 205 212 240 243 244 262 284 0
44 138 143 144 151 152 153 154 155 159 161 166 176 178 188 196 200 240 266 277 283 294 296 0
44 139 141 142 145 148 153 159 160 165 171 173 174 177 178 182 188 203 233 238 255 292 300 0
44 142 150 151 157 163 166 168 178 188 192 193 199 209 212 220 233 239 245 289 292 300 303 0
44 143 144 145 148 151 152 154 155 159 161 178 190 200 207 220 223 243 268 283 294 295 302 0
44 149 153 159 166 167 172 173 186 199 201 204 205 212 213 224 234 244 246 247 262 268 283 0
44 160 168 176 183 184 187 197 204 206 207 218 225 246 251 254 260 262 264 269 272 285 292 0
45 138 159 160 162 167 189 197 201 205 209 212 218 220 221 225 239 268 269 292 298 300 303 0
46 137 139 142 150 151 153 160 173 174 176 182 184 188 199 221 224 231 233 238 277 287 288 0
46 139 143 147 154 155 165 174 177 180 183 188 189 191 196 222 225 234 253 261 264 271 277 0
47 136 138 142 143 146 151 160 171 181 184 192 197 203 204 208 253 254 266 271 275 293 301 0
47 136 138 143 147 148 157 163 164 167 174 181 188 189 191 195 204 215 216 224 225 234 242 0
47 136 143 144 146 150 151 155 166 171 184 192 198 199 200 203 207 242 250 253 255 267 293 0
47 138 144 147 157 163 167 177 187 188 189 191 197 216 221 224 225 226 233 239 255 256 270 0
47 138 144 147 157 167 175 176 177 187 191 192 204 205 216 220 224 225 231 234 253 255 301 0
47 141 145 156 159 178 197 198 207 220 222 224 238 239 250 254 256 262 268 279 280 287 294 0
49 136 138 143 144 154 188 191 204 206 212 227 231 244 251 261 269 270 278 280 285 293 299 0
49 138 139 143 154 160 166 172 188 189 193 204 208 212 248 258 262 265 280 283 288 293 298 0
49 138 143 154 160 163 192 208 212 223 231 246 248 257 259 262 265 278 280 282 285 293 299 0
49 139 162 163 169 170 172 188 193 197 205 208 212 224 239 248 258 261 262 265 280 283 293 0
49 143 153 154 160 163 170 172 188 204 208 212 222 224 235 249 251 269 278 280 282 288 293 0
49 144 160 163 166 172 193 205 206 208 212 216 223 224 225 248 259 262 265 278 282 288 293 0
49 163 170 178 188 191 199 205 206 208 212 224 225 227 240 244 261 262 265 282 283 288 293 0
50 136 137 138 139 141 142 143 145 150 151 160 168 207 208 214 224 258 260 263 274 292 302 0
50 136 137 140 141 145 160 169 177 190 192 204 205 225 226 249 251 259 264 270 271 293 302 0
50 136 138 139 140 146 156 162 163 165 169 170 173 174 178 188 198 200 204 211 240 253 260 0
50 136 138 139 140 156 163 165 169 174 177 184 187 188 197 198 205 211 212 248 253 292 293 0
50 136 139 140 141 144 145 154 160 169 174 175 178 192 196 205 225 226 237 256 259 270 287 0
50 136 140 141 143 145 149 154 160 162 169 174 175 176 177 188 196 205 212 213 225 226 256 0
50 139 140 146 148 156 165 174 181 188 194 198 200 208 211 229 248 253 260 280 281 289 301 0
51 136 139 142 143 144 145 149 151 153 156 159 160 166 170 175 197 198 239 261 271 272 290 0
51 136 142 143 144 145 148 149 151 152 153 156 157 160 170 171 180 186 197 236 238 239 256 0
51 136 149 153 159 160 185 193 196 206 214 218 228 244 250 259 262 263 265 271 279 280 283 0
51 136 149 159 163 170 179 188 204 218 228 240 250 261 262 263 265 270 272 279 280 282 283 0
51 139 142 143 144 145 147 151 157 159 160 163 166 170 171 172 197 213 215 236 239 240 290 0
51 139 142 143 144 148 149 151 152 153 160 170 171 172 177 192 211 213 261 276 277 280 290 0
51 140 145 160 173 179 183 188 191 195 197 215 235 239 241 256 257 260 262 273 280 288 296 0
51 152 184 186 187 188 189 198 200 201 206 210 211 220 222 226 239 240 248 257 261 268 269 0
52 136 137 140 145 154 162 165 169 173 174 175 178 188 204 205 207 218 225 226 241 261 287 0
52 137 140 148 150 153 154 157 160 161 166 167 174 177 197 207 218 219 229 255 258 275 288 0
52 137 141 142 146 149 151 153 160 167 170 201 204 208 211 213 219 231 265 268 280 288 298 0
52 137 141 146 149 153 157 160 167 173 197 200 211 213 219 239 249 251 280 282 283 292 293 0
52 138 139 140 145 146 149 152 164 167 173 189 195 213 222 229 234 242 256 270 275 297 298 0
52 138 139 140 145 146 152 163 164 167 195 197 204 205 213 216 239 242 245 253 275 297 298 0
52 138 139 143 145 146 152 167 173 175 176 187 189 204 222 234 245 268 271 292 298 301 302 0
52 138 139 145 146 149 152 156 163 164 167 189 193 195 197 204 205 213 222 239 275 292 298 0
52 138 139 145 146 152 164 167 187 197 202 222 224 229 239 245 253 256 270 271 286 292 298 0
52 138 140 141 145 149 154 159 163 165 179 189 195 221 224 225 235 270 280 283 285 297 299 0
52 140 147 149 154 163 165 205 207 224 225 235 236 246 260 269 280 281 283 285 291 293 299 0
53 136 137 140 141 145 148 168 171 176 181 188 196 200 205 225 226 238 251 261 270 287 293 0
53 136 140 141 145 149 154 162 168 169 175 177 181 182 190 205 225 226 251 259 261 270 271 0
53 137 140 145 153 159 166 180 191 197 200 204 205 213 220 245 250 265 268 272 285 293 300 0
53 146 159 161 166 170 173 175 183 191 197 200 204 211 224 225 263 265 269 277 292 297 300 0
54 140 141 146 150 159 160 161 165 167 191 212 218 220 238 247 250 262 265 266 274 279 281 0
54 140 143 159 160 166 186 217 218 220 225 246 250 262 265 266 268 269 274 280 281 288 298 0
54 142 148 149 154 159 160 165 179 182 186 196 205 218 231 250 251 269 280 281 288 292 298 0
54 143 146 154 159 166 174 206 215 218 220 225 247 250 261 264 268 272 274 279 285 288 298 0
56 137 139 140 144 149 154 165 169 171 173 178 184 188 198 199 240 265 273 278 291 295 302 0
58 136 139 140 144 146 147 148 153 156 157 160 162 163 171 172 175 193 235 238 255 265 277 0
58 136 139 140 145 147 155 156 161 164 172 174 193 194 195 200 213 218 239 240 270 283 295 0
58 136 139 145 147 155 156 161 164 169 172 174 186 194 210 213 215 218 246 269 270 292 295 0
58 137 139 142 144 145 155 158 161 163 165 166 168 169 174 180 181 188 217 238 240 249 268 0
58 137 139 144 145 150 155 158 166 169 174 180 182 184 198 205 217 238 255 267 268 284 295 0
60 136 137 140 144 146 149 152 156 157 163 164 166 183 205 213 214 224 226 228 264 287 303 0
60 136 137 140 144 147 149 152 156 157 163 164 166 177 179 183 188 213 214 264 277 279 302 0
60 137 138 140 142 154 156 157 158 162 171 172 178 193 197 202 205 216 239 246 267 275 284 0
60 137 140 146 152 154 157 159 162 164 173 177 179 183 188 195 208 214 232 235 248 250 279 0
62 136 137 138 140 145 148 159 161 164 168 177 183 188 192 222 223 255 264 265 272 286 302 0
62 136 137 140 144 145 148 159 161 163 168 177 183 192 197 212 218 219 258 264 265 289 303 0
62 136 137 140 144 145 148 159 161 164 168 183 192 218 219 223 224 255 264 265 287 289 302 0
62 136 137 140 145 148 159 161 163 164 168 173 177 183 184 188 192 199 218 223 255 272 289 0
62 136 137 140 145 148 159 161 164 168 183 188 192 218 219 223 224 258 264 265 287 289 302 0
63 136 138 143 144 147 150 153 161 165 168 185 193 199 204 205 206 208 235 247 268 269 301 0
63 136 139 142 144 145 149 156 165 166 167 171 193 195 196 204 235 240 255 268 270 276 291 0
63 136 144 145 156 157 161 165 168 181 185 193 196 197 204 205 215 219 240 244 258 277 302 0
63 139 144 147 160 163 165 169 171 173 174 178 181 182 183 188 199 206 223 230 240 278 302 0
64 136 140 141 144 145 146 150 151 152 155 157 172 173 182 190 204 214 218 219 245 283 299 0
64 136 140 143 144 145 146 149 150 151 152 155 157 163 173 190 204 208 214 219 236 299 301 0
64 136 145 146 149 151 152 155 157 172 178 182 191 197 218 219 221 223 224 225 241 258 288 0
64 136 145 146 151 152 157 160 178 182 190 204 208 218 219 241 245 246 247 255 288 292 302 0
64 137 139 142 144 145 147 151 155 163 174 177 178 181 182 199 205 217 219 238 240 258 269 0
64 137 139 142 144 145 147 155 158 164 170 181 184 188 198 205 215 217 238 240 249 290 295 0
64 137 139 142 144 145 155 163 165 170 178 181 188 198 199 205 217 219 238 240 249 284 291 0
64 137 139 143 144 145 150 155 158 164 170 177 178 182 184 188 205 217 219 237 238 269 295 0
64 139 142 144 145 155 158 163 168 169 174 180 181 182 184 198 205 217 219 238 240 260 279 0
65 136 137 139 140 145 156 157 159 163 182 192 197 207 215 217 224 239 242 281 287 292 294 0
65 137 138 140 141 143 145 146 147 155 159 169 171 172 181 205 206 214 224 225 264 287 293 0
65 137 138 140 141 145 147 159 166 169 170 171 173 177 204 205 206 233 240 258 268 275 288 0
65 139 140 142 143 145 148 154 157 159 160 172 177 188 189 197 202 206 207 225 239 276 285 0
68 138 140 143 145 146 149 150 153 155 160 166 168 174 180 184 193 198 215 231 255 277 292 0
68 140 143 145 149 150 152 161 168 170 188 189 192 198 202 217 218 220 231 235 236 255 270 0
70 136 137 144 145 146 149 155 156 157 159 163 168 169 171 177 184 188 198 216 236 240 302 0
71 141 143 144 145 150 151 153 155 158 159 163 169 177 180 185 189 191 219 230 238 240 258 0
72 136 138 139 143 145 146 150 151 156 158 164 172 174 180 200 207 214 220 222 229 267 293 0
72 136 138 139 145 150 151 155 156 158 164 172 174 180 200 218 220 229 255 271 286 289 293 0
72 136 139 145 147 150 151 156 158 161 164 172 174 200 212 214 215 218 220 229 255 270 292 0
74 145 150 154 172 189 191 194 195 205 207 208 221 231 234 253 256 261 271 272 280 289 293 0
74 161 166 184 186 197 204 210 212 222 230 239 240 248 253 257 262 265 277 278 288 300 303 0
75 162 164 170 172 189 201 209 219 221 222 224 230 241 247 250 260 277 287 295 299 300 302 0
76 136 141 143 144 145 156 161 166 184 186 189 198 205 212 219 238 240 268 269 278 284 295 0
76 141 142 144 145 151 156 186 188 189 199 204 215 219 220 224 230 238 240 270 276 280 295 0
76 141 142 144 145 156 158 163 168 177 180 186 188 189 204 212 219 220 240 276 280 292 293 0
76 152 172 186 188 197 200 204 205 207 210 220 238 248 265 269 270 278 284 286 288 293 295 0
77 136 143 144 145 147 153 158 159 162 164 166 171 172 175 184 198 232 233 238 255 257 284 0
78 136 137 141 145 146 156 159 162 172 186 194 207 218 220 230 255 262 277 287 288 292 293 0
78 136 138 139 142 145 154 155 158 178 184 194 197 199 202 205 208 211 214 241 279 284 286 0
78 137 144 149 151 154 157 161 165 167 174 188 200 205 212 217 233 251 258 269 291 292 296 0
78 139 156 159 160 168 188 189 200 204 205 213 224 231 253 254 263 265 269 271 273 280 287 0
78 140 162 166 168 172 189 196 200 201 204 205 208 213 224 225 232 254 261 263 265 269 270 0
78 144 149 155 161 169 171 174 181 185 188 198 212 217 220 229 233 245 251 258 262 275 291 0
78 145 160 174 176 200 205 207 213 220 224 225 234 250 253 254 256 260 268 273 279 281 293 0
78 163 169 170 184 187 189 198 201 207 210 211 212 214 220 229 234 240 244 262 268 273 288 0
79 136 137 145 146 152 154 156 163 174 177 179 181 189 193 194 202 204 214 238 249 270 274 0
79 136 139 140 144 145 147 150 158 160 165 169 171 173 182 183 188 198 223 231 240 278 295 0
79 136 139 142 145 149 150 154 155 165 166 172 173 174 178 219 240 250 261 268 271 274 300 0
79 136 139 142 150 155 156 165 166 172 173 174 178 192 239 240 250 261 268 271 287 292 301 0
79 141 146 151 157 161 163 165 166 168 169 170 195 199 205 212 238 240 258 273 275 292 293 0
79 143 145 148 152 153 155 158 159 166 188 195 198 220 224 239 241 256 268 272 276 294 296 0
79 144 156 164 166 173 176 179 188 201 205 209 213 214 230 235 247 262 268 269 280 296 298 0
80 136 137 139 140 147 148 150 151 153 154 155 162 164 171 172 195 206 224 255 276 282 283 0
80 137 140 144 147 148 149 150 151 153 154 155 157 164 172 176 195 205 206 226 269 271 282 0
80 137 147 148 150 151 153 154 155 164 171 172 176 195 200 202 206 207 224 232 258 283 295 0
80 138 139 140 143 144 148 150 151 153 154 155 159 163 164 171 172 180 195 206 232 255 280 0
80 139 140 148 150 151 153 154 155 159 162 163 164 172 188 195 205 206 258 269 271 280 284 0
80 139 144 151 153 157 161 162 163 166 171 172 176 181 182 188 197 202 275 276 280 283 284 0
80 140 141 143 144 149 159 160 161 169 171 181 185 202 204 206 207 208 214 221 249 268 282 0
80 140 141 144 149 159 160 161 163 169 171 176 181 185 204 207 208 211 214 255 268 270 280 0
80 140 141 144 152 155 159 160 161 162 169 175 176 207 208 211 213 214 254 255 256 280 293 0
80 140 141 144 152 155 159 160 161 163 169 175 176 206 207 208 214 233 249 255 268 271 293 0
80 140 141 144 155 159 160 163 169 171 176 194 198 199 206 207 208 214 216 232 255 268 293 0
80 140 141 144 159 160 162 169 171 191 194 199 204 206 207 208 214 221 226 232 255 268 270 0
80 140 141 159 160 169 175 194 198 199 204 207 208 211 214 232 249 255 268 270 271 280 282 0
81 136 140 143 146 151 156 159 160 161 180 187 202 207 215 224 246 258 271 272 274 281 293 0
81 136 143 144 145 146 147 151 156 159 160 161 163 164 173 177 183 212 215 223 224 263 268 0
81 136 146 151 156 159 160 161 180 187 205 207 215 224 258 262 263 270 271 275 277 279 281 0
81 142 143 144 145 146 151 156 159 160 161 172 177 180 194 202 208 212 215 224 225 246 277 0
81 144 146 151 156 159 160 161 166 172 194 208 212 215 217 224 246 268 269 270 275 281 293 0
82 136 137 138 139 141 142 143 144 145 155 157 172 173 175 204 224 241 249 263 274 277 291 0
82 136 137 138 141 142 143 145 160 163 166 171 173 175 180 197 224 229 241 260 263 288 300 0
82 136 137 139 140 141 142 143 150 151 155 170 173 175 177 199 208 221 246 271 291 300 302 0
82 136 137 139 140 141 142 145 146 151 157 160 162 173 174 175 177 200 208 241 263 277 302 0
82 136 137 140 141 145 147 149 155 160 169 173 174 177 182 188 190 205 226 229 237 280 293 0
82 136 137 140 141 145 147 149 162 169 173 176 177 188 196 205 225 226 237 256 261 265 301 0
82 136 138 139 143 145 148 149 151 153 156 165 168 173 178 184 193 216 233 235 253 265 287 0
82 136 138 140 142 145 148 149 150 156 159 161 163 167 168 170 173 192 199 216 233 240 287 0
82 136 138 140 142 145 148 149 150 156 159 161 167 168 170 173 177 178 199 216 233 240 288 0
82 136 138 140 142 145 148 149 150 156 159 161 168 173 212 216 218 229 233 240 253 277 287 0
82 136 139 145 148 149 150 156 159 162 163 168 184 212 216 218 233 239 240 277 293 300 303 0
82 136 140 141 145 147 149 154 160 169 171 173 174 177 196 204 205 225 226 259 271 273 293 0
82 137 138 139 141 142 143 145 150 158 160 166 170 172 173 208 224 246 274 284 288 300 302 0
82 138 139 140 142 143 144 148 149 150 151 156 163 168 173 176 190 216 218 233 240 244 269 0
82 138 140 142 143 148 149 151 153 156 163 165 168 176 190 216 218 233 235 247 269 271 289 0
82 139 140 142 143 144 148 149 150 156 163 168 173 176 195 212 216 233 240 249 269 286 289 0
82 139 143 145 148 149 153 156 162 163 164 165 172 181 184 200 212 216 233 235 239 289 293 0
82 140 142 143 148 149 150 153 156 163 168 173 176 195 212 216 233 235 249 269 271 272 286 0
83 137 139 142 143 145 150 151 155 164 166 168 172 180 197 202 224 233 258 262 282 285 301 0
84 136 137 140 145 146 155 157 159 164 165 168 169 171 181 192 219 239 255 257 281 287 302 0
84 136 137 142 145 146 155 157 159 164 165 168 169 171 192 202 219 239 255 257 281 287 302 0
84 138 139 141 142 146 150 153 155 156 175 199 202 205 213 216 221 235 248 259 270 284 300 0
84 138 139 146 163 164 170 174 175 177 178 198 199 205 209 219 228 241 253 258 266 286 300 0
84 141 143 145 146 151 155 163 165 168 169 181 185 188 198 218 238 255 262 273 275 286 292 0
84 141 143 146 147 149 151 155 157 158 159 161 163 165 168 169 181 188 215 286 288 292 301 0
85 136 138 140 142 145 147 150 170 172 180 182 188 200 202 204 210 220 250 255 270 280 295 0
85 138 139 140 142 143 145 149 152 154 160 162 166 177 183 193 197 244 264 268 273 275 276 0
85 138 142 150 154 155 158 162 164 176 190 201 205 216 217 224 225 237 245 255 283 292 293 0
85 142 143 145 149 154 159 160 162 166 177 193 204 214 221 244 266 268 273 275 276 292 293 0
99 136 138 141 146 157 166 168 171 175 177 180 188 205 207 218 219 220 235 238 240 269 283 0
102 136 137 138 139 142 144 145 148 159 160 168 172 174 177 178 183 192 207 215 219 296 300 0
102 136 137 144 145 146 150 155 159 165 167 168 169 171 177 181 183 184 192 219 233 239 302 0
102 136 137 145 146 158 159 165 167 168 171 172 175 177 183 184 188 192 214 228 229 233 244 0
102 136 137 145 146 158 159 165 167 168 171 175 177 183 184 188 192 214 228 229 233 245 253 0
102 136 137 145 146 159 165 167 168 171 175 177 183 184 188 190 192 219 226 233 255 284 302 0
102 136 138 145 150 160 162 171 172 173 174 177 178 181 184 189 190 198 200 202 204 214 299 0
102 137 139 142 145 149 151 152 160 163 183 198 200 202 211 215 220 222 243 257 258 268 288 0
102 138 139 143 145 160 169 172 173 174 177 178 188 189 225 236 241 242 255 267 275 276 285 0
102 139 142 145 149 151 152 154 157 160 161 163 171 183 189 200 202 205 211 215 220 288 293 0
123 136 137 140 144 145 146 147 159 162 164 165 168 171 175 183 192 219 239 268 283 287 290 0
123 136 137 140 145 146 155 159 162 165 168 169 170 171 175 183 184 192 240 244 272 287 302 0
123 136 137 143 145 146 155 159 165 168 171 172 183 184 192 228 239 244 272 281 287 292 293 0
124 136 137 138 139 142 144 145 148 155 159 168 170 172 177 178 183 192 207 219 261 276 300 0
124 136 137 139 142 144 145 148 159 160 168 170 172 173 177 178 183 192 193 207 218 219 292 0
127 139 142 145 151 154 155 162 163 166 168 171 184 220 224 225 248 264 265 268 275 276 285 0
130 136 138 139 146 147 164 170 175 177 187 189 191 205 213 215 216 229 234 256 270 292 298 0
132 136 137 141 144 145 146 149 150 153 154 156 159 166 177 179 181 183 202 205 219 257 296 0
132 136 137 141 145 146 149 153 154 156 159 164 166 179 181 183 188 202 216 219 274 287 296 0
132 136 141 144 145 146 149 150 153 154 156 159 166 172 177 179 181 183 202 233 244 274 292 0
132 136 141 145 146 149 153 154 156 159 166 177 179 181 183 188 205 207 233 255 257 292 293 0
133 136 138 141 144 146 147 148 149 150 152 160 164 166 167 189 197 201 203 207 208 268 271 0
133 136 142 143 144 153 162 164 165 170 178 182 187 193 197 200 206 214 225 263 285 288 295 0
134 139 140 144 147 150 155 159 160 163 165 169 171 173 183 188 199 202 205 223 240 256 278 0
134 140 142 144 146 148 151 152 154 155 157 158 167 174 177 189 190 201 239 240 262 275 302 0
1 102 136 140 144 145 147 150 158 159 166 174 224 232 248 253 255 258 260 270 271 275 288 303 0
1 136 139 140 142 145 147 158 159 162 164 166 170 171 172 188 193 226 238 255 257 270 273 279 0
1 137 140 145 162 166 183 185 197 205 212 223 224 235 239 245 257 259 260 261 264 265 278 280 0
1 138 140 143 153 160 162 163 164 170 185 197 212 239 250 251 257 259 260 263 269 279 280 298 0
1 138 143 153 154 170 199 200 204 207 250 251 257 259 260 261 270 278 279 280 285 286 293 299 0
1 139 141 145 166 174 178 197 205 213 220 222 224 238 239 250 253 256 260 261 268 280 292 300 0
1 139 141 145 172 176 188 189 201 204 205 207 213 222 224 238 250 254 260 270 277 285 292 300 0
1 139 145 160 170 184 187 204 205 207 213 224 234 240 244 250 251 253 254 260 277 279 280 300 0
1 139 158 178 197 205 213 224 239 250 251 253 254 256 260 261 264 269 277 280 284 285 287 292 0
1 139 160 168 177 183 196 204 205 207 213 220 224 251 253 254 260 264 268 269 273 279 280 300 0
1 140 143 144 145 156 159 160 162 167 169 172 206 212 224 225 227 244 250 265 274 283 285 299 0
1 140 143 159 162 167 169 188 200 207 224 227 235 250 251 257 261 270 274 279 280 283 299 302 0
1 140 143 160 162 166 188 200 204 207 208 223 224 230 235 249 250 251 257 260 269 270 278 280 0
1 143 149 151 154 162 169 179 182 188 191 195 197 212 218 224 237 239 251 261 269 280 283 293 0
1 160 166 183 187 189 196 201 205 213 224 239 251 256 260 264 268 269 270 277 279 280 293 300 0
2 42 50 155 158 159 165 166 169 171 172 173 176 195 198 199 200 204 221 240 247 255 295 297 0
2 82 148 154 172 186 187 190 191 197 204 210 212 219 220 239 240 248 253 266 284 288 291 293 0
2 82 148 159 164 165 187 188 190 191 197 204 205 211 239 250 263 269 277 291 292 293 300 302 0
2 138 143 152 154 157 166 184 187 188 189 191 197 204 205 210 212 219 234 235 248 253 255 269 0
2 147 155 166 184 187 188 190 197 198 199 211 224 225 234 241 250 260 263 277 279 287 294 297 0
2 154 159 160 163 166 176 191 197 200 204 206 211 213 217 224 225 239 250 253 263 265 279 281 0
2 154 159 160 166 176 184 197 198 199 204 206 211 213 217 224 225 234 241 250 251 253 263 279 0
3 141 150 154 165 170 172 176 177 183 191 197 204 205 232 235 246 264 266 269 279 283 298 299 0
3 143 145 150 170 172 191 197 205 206 211 224 225 239 240 241 246 250 251 261 262 278 279 299 0
3 149 150 160 163 167 170 172 177 191 196 211 212 213 216 224 225 231 240 251 273 280 283 288 0
3 153 154 156 170 172 173 185 188 189 199 200 201 209 213 227 239 241 244 247 277 278 299 300 0
3 167 169 170 172 184 188 198 199 204 205 230 241 250 251 261 269 279 280 283 288 291 293 298 0
5 136 138 141 146 150 157 158 164 168 175 179 181 197 202 203 238 244 255 267 284 290 293 296 0
5 136 140 144 154 159 174 188 189 201 210 212 218 220 231 235 239 248 255 261 268 270 297 300 0
5 143 152 158 159 165 170 188 189 201 210 212 218 220 222 229 239 240 257 267 268 288 297 300 0
6 172 176 188 198 199 202 204 208 209 212 213 220 224 225 226 228 241 250 272 278 289 299 300 0
7 141 142 145 149 150 154 165 182 183 186 190 197 198 230 236 239 240 244 274 280 283 288 298 0
7 159 160 161 170 172 188 189 197 200 201 209 213 220 223 239 240 241 262 264 277 286 288 300 0
8 137 170 174 189 191 200 201 205 212 213 224 225 231 234 240 244 256 260 261 269 273 293 300 0
8 158 160 166 176 189 200 201 205 213 224 225 234 250 256 260 262 265 268 270 277 279 284 293 0
8 166 183 187 196 200 204 205 213 224 234 251 253 260 261 264 268 269 273 277 279 280 293 300 0
9 160 176 188 196 197 198 201 215 218 239 246 250 251 254 256 260 266 268 271 273 279 280 288 0
10 137 140 145 146 149 150 152 153 155 160 163 166 168 172 174 183 184 185 188 219 236 283 286 0
10 137 140 145 146 152 153 155 163 165 166 172 174 183 184 185 188 200 204 236 239 245 283 286 0
10 141 149 150 161 168 170 172 177 188 191 197 206 211 221 224 225 231 251 261 274 283 299 300 0
10 146 149 158 163 170 172 174 188 204 206 221 225 231 241 247 261 264 274 283 285 288 296 298 0
10 159 170 172 177 183 184 188 196 197 198 199 226 241 261 264 265 266 273 274 278 280 288 298 0
11 136 138 143 154 159 166 167 189 197 201 209 218 221 239 255 266 271 277 278 289 299 300 303 0
11 136 144 163 167 174 185 191 196 204 211 221 230 238 240 244 245 255 261 280 283 288 296 297 0
11 137 139 142 143 144 146 150 151 152 153 156 164 166 174 175 188 207 231 233 239 248 301 302 0
11 137 142 144 149 154 166 178 192 197 206 210 212 216 225 235 239 248 250 260 276 279 281 285 0
11 138 143 144 148 151 156 157 160 163 169 174 177 178 186 204 208 215 217 240 274 275 282 293 0
11 149 150 154 159 164 165 170 172 179 183 185 191 199 200 207 227 235 264 270 273 279 286 288 0
11 149 150 163 172 182 185 199 202 204 209 213 219 220 242 247 250 263 268 278 282 297 299 300 0
11 149 163 164 167 177 186 191 197 216 230 231 240 244 246 250 260 262 264 274 278 279 296 298 0
11 153 154 163 165 170 172 178 188 191 199 212 214 227 239 250 260 263 273 279 283 288 296 303 0
12 136 144 148 155 158 161 162 175 177 181 190 193 216 218 229 250 254 257 260 265 279 285 302 0
12 137 139 142 150 151 160 176 182 184 188 199 205 206 221 224 231 238 265 277 288 289 295 300 0
13 136 137 140 141 145 166 169 190 205 209 225 226 228 229 238 249 251 259 261 264 271 287 293 0
13 152 163 198 200 204 210 211 212 239 248 251 261 277 278 280 284 286 292 293 296 298 299 300 0
13 154 162 163 165 179 184 185 191 193 204 208 212 218 223 227 235 239 250 257 260 279 283 292 0
14 136 137 141 142 144 150 151 152 153 156 157 158 161 166 167 173 176 197 204 214 233 255 258 0
14 136 142 143 145 148 149 150 153 156 159 160 162 180 192 211 212 216 235 236 239 257 289 295 0
14 137 157 159 160 162 166 170 184 188 197 204 208 211 219 245 250 269 277 292 295 297 298 300 0
14 138 139 140 144 145 148 153 157 168 171 172 174 178 180 218 240 244 255 266 270 289 293 303 0
14 141 142 145 147 152 156 162 164 175 178 193 194 202 205 206 207 208 224 225 238 276 279 286 0
14 159 166 188 195 196 197 200 204 205 211 213 220 224 225 250 269 272 277 286 292 293 300 303 0
15 143 146 149 151 153 155 158 163 166 170 171 175 178 197 202 207 208 223 225 259 284 293 296 0
15 147 149 155 162 169 184 186 187 198 210 212 217 218 231 234 235 236 248 253 262 265 268 299 0
16 120 139 140 141 150 152 155 158 161 164 169 196 198 202 204 207 214 221 226 240 260 268 295 0
16 136 138 139 140 141 144 146 147 149 150 151 153 155 158 162 164 165 167 172 180 182 190 284 0
16 136 138 139 140 144 145 146 147 158 159 166 170 174 188 202 207 208 226 232 238 255 258 290 0
16 137 138 142 143 154 163 164 188 204 212 227 251 257 261 270 271 276 280 282 285 288 293 301 0
16 137 138 143 149 162 163 164 166 172 188 191 197 212 239 240 248 250 260 269 272 285 292 293 0
16 137 138 149 166 178 188 191 205 208 212 223 227 237 244 249 261 265 271 280 283 293 298 299 0
16 137 138 163 178 193 204 205 212 218 225 257 259 261 265 270 271 279 282 283 285 288 293 303 0
16 137 140 141 162 166 191 205 207 213 222 224 225 238 250 260 268 269 270 277 279 281 296 300 0
16 137 140 143 162 166 179 188 197 204 212 214 216 224 235 239 245 250 257 260 269 279 280 281 0
16 137 140 150 159 162 166 179 183 188 191 197 204 205 212 224 225 235 239 257 264 269 270 279 0
16 137 140 159 160 162 170 188 204 205 207 213 224 225 233 240 250 251 257 269 270 278 285 294 0
16 137 142 150 154 155 158 162 163 164 170 172 176 188 190 201 204 216 229 237 245 275 292 293 0
16 137 145 172 189 201 204 205 208 212 221 222 224 225 250 254 260 271 272 277 279 280 293 300 0
16 137 151 159 172 183 188 191 193 204 205 212 218 224 233 235 245 248 262 264 279 285 288 293 0
16 137 172 182 188 191 205 207 208 212 213 220 224 225 242 250 254 260 268 271 279 280 293 300 0
16 142 143 145 149 152 154 155 159 162 166 168 169 173 177 181 183 193 195 205 232 244 268 273 0
16 142 143 145 149 152 154 159 162 164 166 169 170 173 177 182 215 240 244 268 270 275 294 295 0
16 142 143 145 150 155 158 162 170 171 172 176 188 190 201 204 205 216 221 229 233 245 267 269 0
16 142 145 149 150 152 154 160 162 169 170 173 177 182 183 195 232 240 275 276 284 285 294 295 0
16 142 145 149 150 152 154 162 169 173 177 183 193 195 197 202 214 239 244 270 273 275 292 293 0
17 139 142 144 146 150 151 155 159 164 174 184 188 192 198 199 205 217 226 228 241 290 295 296 0
18 136 137 138 140 146 151 153 155 162 163 164 168 169 171 175 176 179 182 184 198 231 267 269 0
18 137 149 160 166 169 170 172 184 187 194 197 204 205 210 212 234 236 240 246 253 262 269 272 0
18 138 139 142 149 153 156 157 164 188 190 197 204 207 208 217 218 225 240 246 270 275 296 302 0
18 140 142 143 145 154 155 156 157 160 166 172 197 202 204 205 211 224 225 233 243 247 270 295 0
18 144 147 148 149 155 166 168 172 187 189 197 198 201 212 213 220 240 246 248 262 265 268 299 0
18 146 149 157 166 169 170 184 186 187 189 201 204 210 212 222 231 234 240 257 262 277 278 300 0
18 146 149 166 169 170 172 179 187 188 189 194 201 204 210 212 234 237 240 246 262 263 277 293 0
18 146 151 166 175 193 198 200 204 207 213 222 226 235 236 239 248 251 253 262 270 286 288 293 0
18 146 152 160 166 170 172 184 186 188 193 198 204 210 212 214 222 226 239 240 253 262 268 299 0
18 146 154 160 166 169 170 184 186 187 188 204 205 210 212 220 236 237 239 240 244 253 268 269 0
18 148 154 160 166 169 170 172 183 184 187 188 197 198 204 210 212 220 232 236 239 240 253 268 0
18 154 166 186 187 197 200 204 205 207 210 220 222 226 234 235 236 248 253 268 269 270 286 293 0
20 138 142 143 147 148 149 154 155 160 166 188 197 198 210 212 236 239 240 244 248 253 255 299 0
20 139 142 145 160 166 173 180 183 188 191 197 204 205 206 211 212 239 253 265 268 280 297 298 0
20 140 142 152 161 166 170 183 188 191 197 204 205 211 260 263 264 265 269 272 277 297 300 303 0
20 140 142 153 160 166 172 174 188 191 192 197 204 211 233 234 244 250 251 253 277 280 282 293 0
20 140 142 154 162 165 166 189 191 197 200 201 204 208 211 231 239 242 251 257 268 269 280 300 0
20 140 142 154 165 166 180 191 197 204 208 211 218 234 242 251 253 260 268 279 280 287 294 297 0
20 141 142 150 152 166 183 184 197 198 204 205 211 215 239 260 264 265 269 277 279 297 300 303 0
20 142 146 147 149 154 155 166 168 169 172 182 187 191 198 210 212 231 235 236 248 250 253 268 0
21 80 136 138 139 140 147 167 168 187 191 193 197 213 216 221 231 245 253 256 270 297 298 301 0
21 136 138 139 140 147 167 168 187 191 193 197 213 216 221 223 231 253 256 270 297 298 301 302 0
21 136 138 139 144 147 164 167 168 189 191 195 204 205 213 216 224 225 231 242 255 268 292 301 0
21 136 139 144 153 157 158 160 170 172 176 188 197 209 220 221 223 224 227 239 244 262 283 299 0
21 138 139 140 142 143 144 160 162 164 167 172 180 209 212 213 216 270 280 283 291 292 298 301 0
21 138 139 140 142 147 155 170 187 189 191 193 204 205 213 215 216 221 239 292 297 298 301 303 0
21 138 139 140 143 158 160 162 163 164 167 172 180 193 197 209 210 212 213 216 285 291 292 298 0
21 138 139 140 147 163 164 167 168 172 187 191 197 204 205 213 216 231 245 253 260 292 297 298 0
21 138 139 147 158 167 175 176 187 189 191 192 197 216 229 239 245 256 266 270 271 292 298 302 0
21 138 143 149 153 154 159 163 166 170 172 185 188 199 209 213 239 242 244 247 253 255 278 282 0
21 138 154 157 159 164 166 170 172 176 188 199 209 212 213 218 220 221 234 253 289 298 299 300 0
21 149 152 153 156 163 170 172 188 209 213 219 220 234 244 247 253 262 268 273 278 282 288 291 0
21 152 153 154 156 163 164 170 172 179 185 188 189 201 209 213 220 234 237 244 247 268 282 288 0
21 157 166 170 172 188 195 196 199 208 209 220 221 227 234 235 247 253 262 266 271 278 288 294 0
21 157 170 172 173 188 199 208 209 220 221 223 224 225 234 235 247 253 262 266 271 278 288 294 0
21 163 164 170 172 179 188 208 209 221 224 234 240 244 247 253 262 266 271 277 278 282 288 300 0
22 136 137 140 141 144 145 154 160 165 169 175 177 178 204 205 207 218 259 263 265 280 283 293 0
22 138 141 145 146 149 152 154 157 158 167 173 174 183 187 189 193 215 234 254 256 257 275 292 0
23 80 139 149 154 159 165 172 177 180 184 188 191 205 206 213 224 225 239 256 261 265 273 277 0
23 136 139 144 148 156 168 177 181 196 201 205 211 213 224 254 255 256 260 261 265 269 270 280 0
23 136 141 143 146 150 157 160 162 166 167 180 194 197 200 236 257 269 270 274 283 286 293 300 0
23 138 139 140 143 146 151 153 155 164 165 171 173 181 183 192 203 210 214 235 248 276 278 279 0
23 138 139 146 164 166 170 174 175 184 198 199 205 241 248 253 257 258 266 270 286 288 295 300 0
23 139 145 155 158 160 172 174 178 188 191 204 205 206 211 212 213 215 224 225 234 253 292 300 0
23 139 145 155 159 160 172 174 178 188 191 204 205 206 211 212 213 224 225 234 237 253 292 300 0
23 139 145 166 172 184 188 201 205 212 213 224 225 231 239 251 256 261 268 279 280 282 285 300 0
23 139 147 154 155 156 159 172 205 208 211 212 221 224 246 250 254 266 269 271 277 280 292 300 0
23 147 154 155 188 205 206 213 219 224 225 229 246 250 253 254 260 269 277 285 289 292 293 300 0
23 156 159 166 178 198 201 205 207 211 213 220 224 250 256 268 269 272 280 287 289 292 293 294 0
23 159 168 198 201 205 206 211 212 213 224 225 250 254 256 261 265 268 269 273 277 292 293 300 0
36 136 138 144 153 166 204 209 220 221 223 239 244 247 253 260 262 266 268 278 287 298 299 300 0
36 138 154 155 159 183 184 198 199 205 206 212 225 240 241 261 264 265 269 278 279 285 298 299 0
36 140 141 145 149 159 183 184 196 198 199 205 212 218 231 236 240 241 251 261 262 264 280 297 0
36 141 150 154 159 166 184 196 198 199 204 206 211 224 225 240 250 251 261 268 274 278 279 299 0
36 141 150 160 167 184 197 198 199 204 205 230 240 250 251 260 264 269 273 280 283 291 298 299 0
36 142 145 154 165 167 176 186 191 197 201 204 232 237 240 241 250 260 278 288 291 292 298 301 0
37 136 144 149 154 160 165 191 197 206 213 220 225 239 253 255 256 265 268 270 287 289 294 296 0
37 140 153 159 160 166 170 188 200 207 218 233 249 250 257 262 263 265 270 273 278 279 280 291 0
37 140 154 159 166 178 188 189 201 204 207 208 221 222 250 266 268 269 271 272 277 287 294 296 0
37 147 155 159 166 170 172 206 208 221 225 229 240 244 250 266 268 269 271 277 281 292 294 300 0
38 136 140 141 145 149 154 155 169 171 181 188 196 205 225 226 231 261 263 264 265 271 287 293 0
38 139 159 163 166 170 172 174 191 200 204 207 210 214 218 240 268 270 277 278 286 287 288 296 0
38 145 157 159 165 170 174 184 191 194 195 196 208 211 217 220 235 250 274 282 292 293 300 303 0
38 152 161 170 172 173 180 183 188 191 205 213 220 224 237 244 260 265 268 269 287 292 294 297 0
44 136 140 141 143 145 146 148 149 156 157 166 167 175 179 181 188 201 212 219 262 274 288 301 0
44 139 141 142 143 150 154 160 163 164 165 177 178 199 209 212 216 233 235 245 274 277 292 300 0
46 138 139 144 147 150 153 158 163 164 169 171 172 173 175 178 181 188 199 235 270 284 288 298 0
46 147 148 154 160 166 170 174 180 181 189 196 201 228 229 234 240 244 256 268 270 273 280 295 0
47 136 138 140 141 145 156 157 160 164 165 167 168 174 175 176 181 204 215 245 253 270 281 283 0
47 138 147 148 157 158 167 177 181 188 189 191 193 195 204 216 221 234 240 244 268 270 298 301 0
47 145 163 172 188 191 204 208 209 212 221 223 227 240 244 264 271 277 280 283 294 298 299 303 0
47 162 164 172 182 189 197 199 201 204 209 212 219 221 225 226 227 239 241 242 264 277 294 298 0
48 136 141 144 145 150 151 155 156 157 158 161 163 164 169 178 184 186 215 221 225 230 236 275 0
48 136 141 144 145 150 151 155 156 158 161 164 169 172 178 186 191 221 225 230 260 268 275 295 0
48 139 140 142 146 154 157 159 162 172 173 176 188 189 193 197 205 221 224 226 262 284 285 287 0
48 144 157 160 167 169 172 179 197 201 204 219 223 227 235 239 248 249 250 260 265 279 280 283 0
49 136 138 139 140 142 143 154 162 163 164 191 193 212 227 244 258 259 261 265 269 276 280 298 0
49 136 138 143 144 148 154 170 212 227 240 255 257 259 261 265 269 278 280 292 293 294 298 299 0
49 136 139 143 154 163 170 197 212 224 227 239 248 257 258 259 261 262 265 278 280 282 293 299 0
49 136 139 154 172 193 204 205 212 216 223 224 244 251 253 258 259 261 269 270 278 280 293 299 0
49 136 140 160 162 191 197 204 205 206 212 223 224 225 227 239 248 251 257 259 262 270 278 282 0
49 138 140 142 160 162 163 169 170 172 188 197 199 205 208 212 239 248 265 269 276 280 283 285 0
49 140 160 162 163 166 170 192 193 205 206 208 212 223 224 225 240 246 251 257 259 269 283 303 0
49 143 154 160 169 170 172 178 188 204 208 212 224 240 249 265 269 270 278 280 282 288 291 293 0
49 143 154 162 163 166 170 178 188 197 204 208 212 224 239 240 257 261 265 269 270 278 280 293 0
50 136 137 138 141 142 145 151 155 176 199 202 205 207 214 221 224 241 246 258 260 274 292 300 0
50 136 137 139 141 142 144 145 155 160 162 168 172 173 199 214 223 241 246 249 269 275 276 292 0
50 136 137 140 141 145 149 155 169 181 196 205 225 226 228 237 251 259 261 271 279 283 287 293 0
50 136 137 141 142 143 144 145 150 155 166 171 173 181 199 202 211 214 217 224 246 249 260 262 0
50 136 138 139 140 156 163 165 169 174 184 189 197 198 200 201 204 205 211 222 231 248 287 294 0
50 136 139 140 144 152 156 157 161 165 169 173 174 188 189 200 201 202 211 226 231 248 255 301 0
50 136 139 140 146 149 156 165 169 170 174 188 189 198 201 211 212 216 231 240 260 287 294 301 0
50 136 140 141 145 154 169 171 174 177 188 192 196 205 221 225 226 256 261 270 271 273 279 293 0
50 139 140 151 156 157 161 162 165 169 173 174 178 188 193 197 208 211 248 253 258 270 286 301 0
50 139 140 156 157 161 165 169 170 174 187 188 197 200 205 208 211 216 237 240 253 258 260 301 0
51 136 142 143 144 147 149 151 153 160 163 166 170 173 175 192 197 208 211 215 268 271 280 295 0
51 136 149 159 162 163 166 170 179 188 197 218 239 240 250 251 261 262 263 272 278 279 280 302 0
52 136 137 140 141 143 145 154 162 165 169 174 175 177 188 205 207 212 218 225 226 256 261 283 0
52 136 137 140 141 145 154 165 169 171 176 177 178 188 204 205 207 218 225 226 251 261 270 293 0
52 137 139 140 146 151 157 167 172 173 200 206 211 213 219 241 244 245 247 251 261 280 282 301 0
52 137 146 153 160 167 173 182 196 201 204 206 208 211 213 219 224 225 241 245 251 268 283 288 0
52 138 139 140 144 145 146 149 152 167 187 197 204 205 221 222 229 239 253 255 271 275 297 298 0
53 136 137 140 141 143 145 149 162 168 176 177 181 196 200 205 212 221 225 226 231 259 261 265 0
53 136 140 141 145 149 150 154 160 175 181 182 188 190 200 205 221 225 226 251 271 283 287 293 0
53 140 159 160 166 170 183 184 197 198 199 200 204 211 241 263 264 265 277 279 287 293 294 298 0
53 145 166 183 186 188 191 197 204 205 211 212 222 260 263 264 277 281 287 292 293 294 298 303 0
53 160 172 189 200 201 204 207 210 220 236 237 238 240 248 262 265 270 284 286 288 291 292 293 0
54 137 138 139 140 143 144 145 147 152 156 160 171 175 178 186 189 197 206 214 230 233 268 297 0
54 140 154 159 160 162 165 170 172 183 188 191 228 230 251 264 266 269 274 280 283 298 299 303 0
54 143 149 159 170 172 177 188 191 205 211 213 224 225 230 231 251 261 269 280 283 292 293 299 0
54 145 146 159 160 166 168 183 205 206 211 218 219 224 225 241 246 247 262 264 265 268 292 299 0
54 145 149 150 160 166 168 170 172 174 191 196 205 206 224 225 230 231 238 268 273 283 285 299 0
54 145 159 161 163 166 167 195 196 207 213 214 221 244 250 262 265 268 272 274 292 293 296 298 0
54 146 154 159 160 161 165 167 174 204 206 211 218 224 225 240 241 247 250 270 274 279 281 282 0
54 146 159 160 166 167 183 186 211 218 224 225 246 247 262 264 265 268 273 274 279 280 281 288 0
56 136 139 142 144 145 150 160 161 163 164 170 181 183 184 211 220 240 255 275 278 285 286 288 0
56 139 140 144 145 147 160 163 164 165 169 171 172 173 177 181 188 189 199 223 239 240 280 293 0
56 139 142 145 153 160 161 163 165 181 183 184 197 211 215 220 225 248 258 265 270 275 283 285 0
58 136 138 139 145 146 147 153 156 164 172 174 186 193 194 200 208 210 215 217 239 270 292 293 0
58 136 139 141 144 151 158 160 161 162 163 165 175 211 215 217 233 240 265 278 280 284 287 299 0
58 136 141 146 147 150 152 157 158 164 166 168 172 175 180 188 203 207 218 238 244 267 290 293 0
60 138 140 142 143 144 145 149 153 160 168 180 184 185 188 198 218 220 224 225 232 254 255 279 0
62 136 137 138 140 145 148 159 161 164 168 174 183 188 192 222 223 224 255 264 272 286 296 302 0
62 136 137 140 142 144 145 148 159 161 168 183 192 197 207 218 224 258 264 265 272 288 289 296 0
62 136 137 140 144 145 148 159 161 164 168 171 177 183 184 192 212 218 264 265 272 288 289 302 0
62 136 137 140 144 145 148 159 161 168 171 173 177 181 183 184 192 212 218 222 265 272 288 296 0
62 136 137 140 145 148 159 161 163 164 168 171 183 184 188 192 218 219 223 224 226 264 265 289 0
62 136 137 140 145 148 159 161 168 174 177 181 183 188 192 212 218 219 229 258 264 288 289 303 0
62 137 140 141 145 148 150 152 159 161 163 164 168 172 173 183 192 207 214 218 219 224 259 265 0
63 136 142 144 145 156 161 165 184 193 195 204 206 226 230 235 243 248 268 270 276 278 301 303 0
63 139 142 144 145 146 149 163 165 169 171 173 182 188 197 199 212 239 240 262 276 278 298 302 0
64 136 137 139 142 144 145 147 150 155 158 164 165 170 180 182 205 217 238 255 269 276 295 299 0
64 136 140 143 145 146 149 150 151 152 157 162 163 172 173 180 182 190 205 208 214 218 219 255 0
64 136 141 145 146 151 152 173 178 182 183 196 201 204 208 219 223 229 245 255 272 276 283 299 0
64 137 139 140 142 144 145 155 158 163 169 170 171 181 182 184 187 188 198 217 219 238 291 292 0
64 137 139 143 144 145 149 155 158 163 166 170 180 181 182 184 188 205 217 219 240 260 268 291 0
64 137 139 143 144 145 155 158 164 165 170 180 181 182 188 198 205 215 217 238 261 279 290 295 0
64 137 139 143 144 145 155 165 168 169 170 181 182 188 198 199 205 217 219 238 267 284 291 295 0
64 137 139 144 145 149 150 155 158 163 164 166 174 184 188 198 205 217 240 249 255 268 290 292 0
64 139 142 144 145 150 151 155 164 169 174 180 184 188 198 199 205 217 238 255 276 280 295 298 0
68 138 139 144 146 147 167 175 189 191 195 205 213 216 221 229 234 242 255 256 287 292 298 303 0
68 140 143 144 145 150 152 153 168 172 184 198 202 217 218 220 224 225 232 233 236 238 239 255 0
70 136 137 143 146 149 155 156 157 159 168 170 171 172 181 188 199 239 240 255 260 283 287 302 0
71 138 139 140 146 161 164 170 174 184 191 202 204 205 240 241 245 250 266 270 276 280 300 302 0
74 136 138 149 157 163 164 171 200 204 207 208 217 225 237 240 246 255 262 266 276 293 294 296 0
74 146 154 159 160 166 186 188 189 199 201 204 210 212 234 235 248 251 268 279 283 286 293 300 0
75 136 139 140 143 144 145 146 147 151 156 158 159 162 166 171 172 174 175 226 232 255 267 295 0
76 136 139 140 141 143 147 149 150 153 154 155 159 162 163 166 168 172 180 188 207 215 230 293 0
76 136 139 141 144 146 147 150 152 155 165 175 178 181 199 202 203 224 230 233 238 244 283 300 0
76 136 144 146 157 170 191 200 201 204 207 208 218 221 222 225 229 230 240 244 271 277 285 287 0
76 146 149 159 160 172 177 188 198 204 205 210 213 229 239 244 246 269 277 283 286 288 289 294 0
77 149 153 154 161 166 170 172 176 179 188 189 197 201 209 213 220 239 241 248 264 268 299 300 0
78 136 138 141 146 147 160 164 165 167 189 201 203 204 207 208 232 240 244 255 268 271 290 293 0
78 136 140 142 144 149 150 152 153 159 161 163 164 173 192 199 222 224 229 248 250 253 257 268 0
78 136 141 144 145 152 154 156 159 162 172 200 207 218 220 230 245 255 262 268 286 287 288 293 0
78 136 141 145 152 154 156 159 163 178 199 207 209 212 216 218 219 220 245 255 268 269 300 303 0
78 137 139 159 160 168 172 200 204 205 207 213 222 224 246 250 251 254 277 279 280 281 296 300 0
78 138 139 140 144 145 147 148 153 155 171 172 174 178 198 200 214 215 218 266 277 287 289 301 0
78 139 141 144 149 157 161 168 170 179 180 181 188 192 217 225 229 258 275 286 288 291 292 293 0
78 139 159 183 189 192 196 200 201 204 205 213 224 229 234 251 254 261 264 269 277 280 292 300 0
78 139 189 196 200 201 204 205 207 213 220 224 225 234 242 250 254 260 261 262 265 268 279 287 0
78 141 146 149 153 155 156 157 162 165 166 171 185 188 192 198 200 207 219 224 229 233 258 260 0
79 136 139 141 144 146 150 163 165 166 168 169 178 186 188 192 198 202 240 270 273 275 286 292 0
80 136 137 140 147 148 149 150 151 153 154 155 157 164 171 176 195 205 206 226 232 255 269 282 0
80 137 139 140 147 148 149 150 151 153 154 155 157 164 172 195 204 206 258 271 273 280 282 283 0
80 137 146 148 149 150 151 152 153 154 155 171 176 188 195 200 206 207 224 270 280 282 287 302 0
80 139 140 141 144 152 158 159 160 169 175 204 206 207 208 213 214 216 254 255 256 270 282 293 0
80 140 141 143 144 152 155 159 160 161 162 169 175 176 198 202 206 207 208 214 222 233 268 271 0
80 140 141 143 144 152 159 160 161 169 175 176 195 202 204 206 207 208 214 217 233 268 271 295 0
80 140 141 143 144 159 160 161 164 169 171 191 194 195 204 206 207 208 214 221 232 255 268 282 0
80 140 141 143 144 159 160 164 169 171 176 185 198 199 204 206 207 208 214 232 255 268 282 293 0
80 140 141 144 149 159 160 161 162 169 171 176 181 185 191 204 206 207 208 214 222 255 268 270 0
80 140 141 144 149 159 160 161 162 169 171 176 181 185 204 206 207 208 214 255 268 270 283 303 0
80 140 141 144 155 159 160 161 169 175 176 185 207 208 211 213 214 232 249 255 268 280 293 295 0
80 140 141 144 155 159 160 169 171 176 185 198 199 206 207 208 214 232 255 268 282 283 293 303 0
80 140 141 148 152 159 160 169 175 195 196 198 199 204 206 207 208 214 222 255 270 271 273 295 0
81 136 143 144 146 150 151 156 159 160 161 173 177 180 181 183 195 202 212 215 220 224 246 269 0
81 138 144 145 146 147 151 156 157 159 160 163 172 180 197 199 208 212 215 239 263 270 281 295 0
81 142 144 146 151 156 157 159 160 163 172 181 194 199 202 208 212 215 224 226 246 269 270 272 0
82 136 137 138 139 141 142 143 145 151 157 160 173 175 180 199 207 208 224 263 274 277 291 292 0
82 136 137 138 139 141 142 145 160 162 166 173 176 199 214 221 241 246 258 260 275 288 300 302 0
82 136 137 138 141 142 143 144 145 147 150 170 173 214 221 223 224 255 260 263 271 274 300 302 0
82 136 137 138 141 142 145 147 150 166 173 175 176 202 205 214 221 224 258 260 263 274 292 300 0
82 136 137 139 140 141 142 146 160 162 166 171 173 175 177 180 199 200 207 214 241 260 263 300 0
82 136 137 139 140 141 145 147 169 171 173 177 178 188 196 204 205 225 226 238 261 264 265 270 0
82 136 137 139 140 145 147 154 155 160 165 169 175 176 177 182 186 188 205 225 226 238 241 265 0
82 136 137 140 141 144 145 147 149 162 169 173 176 177 190 205 226 249 251 256 259 261 273 280 0
82 136 137 140 141 145 147 148 149 160 162 173 176 177 181 182 188 190 200 204 205 225 226 251 0
82 136 138 140 142 145 148 149 150 153 156 159 161 167 168 173 174 175 199 216 233 235 287 288 0
82 136 138 140 142 145 148 149 150 156 159 161 166 167 168 173 174 177 180 199 204 216 240 288 0
82 136 138 145 148 149 150 153 156 157 159 168 173 175 178 180 184 216 218 219 220 235 288 300 0
82 136 139 145 148 149 150 156 159 162 184 200 207 216 218 233 236 239 240 277 288 293 296 300 0
82 136 140 141 145 147 149 154 155 169 170 171 173 176 196 205 213 226 251 259 261 280 287 293 0
82 136 140 141 145 147 149 154 169 173 175 177 188 196 205 225 226 251 256 261 271 279 283 293 0
82 137 139 141 142 144 145 158 160 166 173 180 202 205 208 214 221 224 241 260 263 271 284 302 0
82 137 139 141 142 145 153 160 162 166 170 172 173 175 198 199 207 208 233 241 246 275 300 302 0
82 138 140 142 143 148 149 151 156 163 165 168 173 176 190 206 215 216 233 240 269 271 272 286 0
82 139 140 142 143 144 148 149 150 151 156 163 168 173 176 190 212 215 216 233 240 269 286 289 0
83 137 139 142 143 145 148 150 151 155 163 167 168 174 180 197 202 217 233 258 262 270 271 280 0
84 138 139 140 146 149 161 162 170 171 177 178 191 192 204 219 233 241 245 253 255 266 300 303 0
85 136 138 140 143 144 147 150 158 161 166 172 194 197 200 204 220 227 250 255 262 267 268 270 0
85 137 141 142 146 150 154 155 158 161 162 171 173 176 190 201 202 205 219 221 232 233 244 283 0
85 137 142 143 149 154 159 160 162 166 173 175 177 193 197 239 268 273 275 276 285 292 293 295 0
100 136 138 139 140 142 143 144 149 150 158 164 166 176 177 197 219 229 232 244 258 268 275 284 0
100 136 138 140 146 147 149 152 153 154 155 156 157 164 177 188 195 208 214 229 240 255 264 302 0
100 136 138 140 147 149 152 159 160 161 164 166 170 174 183 200 217 240 258 264 268 275 284 301 0
100 136 138 140 147 159 161 164 171 173 174 197 200 214 215 217 239 246 250 258 286 292 293 301 0
100 136 140 142 144 145 146 147 148 149 152 153 156 157 161 164 173 176 177 199 214 217 250 283 0
102 136 137 139 145 146 159 165 167 168 171 172 175 177 183 184 188 190 192 219 233 244 284 302 0
102 136 137 145 146 147 159 164 165 167 168 169 171 172 175 177 183 184 188 192 233 244 272 284 0
102 136 137 145 146 147 159 164 165 167 168 169 171 172 175 180 183 184 188 192 239 244 272 287 0
102 136 137 145 146 151 159 165 168 170 171 177 183 188 190 192 219 228 233 239 240 244 255 257 0
102 139 143 145 146 149 150 151 154 157 160 163 164 166 167 175 197 205 212 271 283 284 285 288 0
104 137 138 140 142 144 151 153 156 160 162 169 174 182 200 202 208 215 219 225 233 247 262 273 0
106 136 141 144 145 146 149 150 152 153 154 156 164 179 181 202 205 216 219 264 281 292 293 301 0
106 136 141 144 145 146 149 150 152 153 156 164 166 177 179 181 183 202 204 216 219 229 262 292 0
106 136 145 147 148 149 150 153 156 168 172 173 178 180 184 192 207 218 235 272 277 287 288 303 0
106 137 142 143 145 148 150 152 156 157 159 162 168 173 174 175 177 218 229 233 240 288 292 301 0
123 136 137 140 145 146 151 155 159 162 165 168 169 171 175 177 183 188 192 205 219 255 269 302 0
123 136 137 144 145 146 147 159 164 165 168 171 175 177 183 188 192 207 239 255 257 270 272 283 0
123 136 137 145 146 155 157 159 164 165 168 169 171 183 184 188 192 199 220 272 287 292 293 302 0
125 138 139 140 146 148 149 164 170 188 194 202 208 212 223 225 227 232 237 266 267 268 288 302 0
126 130 138 139 146 147 158 167 177 187 189 191 193 216 221 239 256 266 270 271 275 292 298 301 0
126 136 146 148 149 150 161 167 170 184 201 208 210 214 220 221 223 232 233 238 245 258 265 290 0
127 139 142 145 149 151 155 162 163 168 171 184 205 220 224 225 245 248 264 265 268 275 276 285 0
130 138 139 140 143 146 147 160 167 168 176 187 189 191 193 197 213 216 224 225 256 275 297 301 0
131 136 138 139 140 142 143 144 148 149 150 151 156 163 168 176 190 216 218 233 240 269 272 289 0
131 139 140 144 146 154 155 159 163 166 171 173 178 183 184 188 196 199 219 261 263 268 278 302 0
132 136 137 141 145 146 149 153 156 159 179 181 183 188 202 216 219 255 257 262 287 292 293 301 0
132 136 137 142 143 145 148 150 155 156 159 174 177 197 233 236 238 239 240 272 287 288 292 295 0
132 137 139 142 143 144 145 146 148 149 150 151 155 180 193 200 202 204 212 236 280 282 288 301 0
132 137 139 143 144 145 148 149 150 160 164 166 176 180 200 213 215 217 224 242 255 262 285 301 0
132 137 139 143 144 145 149 150 160 163 166 168 170 172 180 193 204 215 217 224 235 271 285 288 0
132 139 143 144 145 146 148 149 150 151 154 155 160 164 168 180 212 214 216 224 242 274 285 301 0
132 139 143 145 146 148 149 150 151 154 155 160 164 167 180 193 212 236 256 258 270 275 285 301 0
134 137 139 143 144 147 149 153 154 160 164 165 171 173 178 183 188 199 223 230 232 243 273 295 0
134 138 139 145 146 151 153 157 158 159 164 168 172 174 208 212 220 229 240 266 270 279 289 292 0
134 142 144 146 148 149 151 152 154 155 158 164 167 173 174 177 189 190 201 239 240 262 275 302 0
1 136 138 140 143 153 154 159 166 170 179 188 212 249 250 251 257 261 278 279 280 282 285 293 299 0
1 136 140 143 145 149 162 163 164 185 204 206 212 224 225 227 235 237 250 251 257 259 260 261 274 0
1 137 140 149 162 186 188 204 205 212 224 227 235 237 250 257 260 261 265 269 270 272 280 283 299 0
1 138 140 142 144 162 169 178 188 199 204 205 208 212 216 223 257 261 265 269 276 280 283 298 299 0
1 139 141 154 159 160 187 205 207 213 220 222 224 234 238 250 253 254 256 265 268 270 279 280 287 0
1 139 145 147 155 159 160 168 184 197 205 213 219 222 224 229 250 253 254 265 277 279 280 285 300 0
1 139 145 159 160 187 196 204 205 206 212 213 222 224 225 234 246 250 251 253 254 277 279 281 300 0
1 139 145 159 176 178 188 189 192 204 205 207 213 224 231 234 246 253 254 261 265 270 273 280 292 0
1 139 159 187 196 205 212 213 217 224 234 250 253 254 256 261 265 269 270 273 277 280 281 292 300 0
1 140 143 145 147 179 185 206 208 212 224 230 235 250 257 259 260 261 265 271 274 278 280 293 299 0
1 140 149 154 160 163 170 172 173 183 205 206 212 224 225 237 240 259 260 265 278 279 288 293 303 0
1 143 159 163 170 172 173 183 212 213 218 224 240 251 253 259 261 262 279 280 282 283 288 292 293 0
1 145 159 177 183 187 196 197 205 213 220 224 226 239 253 254 256 261 264 265 268 279 280 293 300 0
1 145 159 179 184 205 207 213 224 233 234 246 250 251 253 254 256 261 270 273 277 280 292 293 300 0
1 147 154 155 168 188 189 197 201 205 207 213 224 250 254 260 261 265 271 277 279 280 281 293 300 0
2 82 148 159 170 184 191 197 200 204 208 211 220 224 225 239 250 265 269 272 292 297 299 300 303 0
2 136 144 146 147 154 155 160 166 170 172 184 188 200 205 207 210 218 234 240 253 255 269 277 286 0
2 145 147 155 159 166 184 197 198 199 200 205 211 212 220 237 239 241 242 250 253 265 268 280 297 0
2 159 160 161 163 166 176 191 197 200 204 206 211 213 224 225 230 239 249 250 253 265 279 281 282 0
3 139 166 169 170 172 188 191 197 199 200 204 205 212 213 224 242 250 262 268 278 279 280 287 288 0
3 141 145 149 150 154 165 168 170 172 176 184 186 197 198 199 204 240 250 274 279 283 287 298 299 0
3 141 150 152 160 167 169 170 172 177 180 183 184 198 199 216 237 251 264 274 279 280 283 288 298 0
3 141 150 160 163 167 170 172 184 188 196 198 199 204 212 224 225 230 235 251 273 280 283 285 288 0
3 145 149 160 167 170 172 184 188 198 199 204 206 211 212 224 225 230 231 240 241 251 278 289 299 0
3 145 158 163 167 170 172 177 188 191 204 205 211 213 224 225 226 240 250 251 261 280 283 291 299 0
3 149 150 154 166 167 170 172 186 191 204 230 232 240 244 246 250 265 266 268 274 279 283 287 298 0
5 136 141 146 150 152 158 163 164 166 168 175 180 192 197 203 207 218 244 245 255 268 276 293 296 0
5 137 143 148 159 163 187 199 210 218 220 232 235 239 245 248 253 267 268 273 278 286 288 293 300 0
5 139 140 142 144 150 151 154 155 157 168 169 171 184 188 198 199 217 219 241 273 276 291 295 299 0
6 136 138 139 140 141 144 145 151 155 158 161 163 173 174 177 178 204 226 240 258 261 287 288 295 0
6 139 145 148 150 151 158 168 169 173 175 176 202 205 206 212 216 217 219 220 242 280 284 286 303 0
7 139 140 143 144 145 151 162 172 184 192 197 198 199 203 207 216 224 242 250 253 267 277 279 295 0
7 139 142 143 144 146 151 164 176 177 183 184 192 198 199 203 207 208 216 253 266 275 277 292 300 0
7 149 154 163 165 167 173 176 183 198 204 205 207 233 240 241 244 253 266 269 283 291 296 298 299 0
8 136 137 138 140 153 159 162 165 170 172 178 184 191 204 205 207 212 235 249 250 279 283 285 299 0
8 136 137 143 144 154 163 164 165 172 188 191 197 212 224 239 244 250 255 260 265 269 288 292 293 0
8 136 138 139 140 147 159 163 167 168 175 176 187 188 191 193 203 216 253 256 268 270 271 297 298 0
8 139 166 177 183 200 205 212 213 215 222 224 225 239 251 253 256 260 261 264 268 269 277 279 281 0
10 141 150 160 170 172 183 184 188 196 197 198 199 205 211 224 225 264 265 269 278 280 288 292 293 0
11 138 153 156 157 159 163 188 204 209 212 213 220 227 241 244 248 253 278 282 287 289 298 299 300 0
11 142 153 163 164 166 185 191 195 196 235 236 250 260 262 263 265 268 274 276 278 279 281 296 298 0
11 149 153 159 172 173 185 188 195 197 199 201 205 211 212 213 236 239 240 241 244 253 262 266 269 0
12 136 137 138 139 141 154 155 160 165 169 175 176 177 178 188 216 225 226 265 273 285 288 295 300 0
12 136 137 138 139 143 154 160 165 169 174 175 176 177 178 188 204 212 216 217 225 226 241 280 300 0
12 136 160 162 163 170 178 188 191 192 193 205 224 240 244 246 249 265 269 273 280 283 291 293 303 0
12 137 138 142 150 157 160 166 174 176 178 184 199 204 205 206 220 221 238 245 249 259 287 292 298 0
12 138 139 155 156 159 162 163 165 166 172 178 184 205 208 212 218 222 223 250 268 272 287 292 299 0
13 140 144 154 159 160 162 163 167 169 170 179 212 223 227 240 241 250 251 253 257 269 278 280 303 0
13 149 154 157 169 170 172 184 187 188 189 201 205 210 211 212 222 224 225 226 231 234 240 246 269 0
13 164 166 173 183 209 212 235 236 241 247 249 251 256 257 259 260 261 262 270 272 279 280 299 302 0
14 136 138 139 142 143 145 147 148 149 150 156 166 173 178 200 216 217 233 236 239 240 265 287 292 0
14 136 139 140 148 156 165 170 174 177 188 189 194 197 198 200 201 204 206 211 232 240 244 261 301 0
14 136 140 141 145 147 154 160 169 173 174 175 179 188 190 192 204 205 224 226 249 280 287 293 302 0
14 136 140 144 145 159 166 170 180 184 188 197 204 205 213 216 220 237 250 255 272 277 285 297 300 0
14 136 144 145 146 151 152 190 201 205 208 219 224 225 236 241 245 246 247 255 268 272 285 292 293 0
14 140 145 159 160 162 166 170 184 188 197 200 204 205 208 211 217 230 250 263 265 277 298 300 303 0
15 136 137 138 139 141 142 146 149 155 165 168 170 175 188 192 199 202 205 221 253 258 266 284 301 0
15 137 145 149 160 169 172 179 186 188 189 194 205 210 212 233 234 240 246 248 253 262 266 288 293 0
15 138 140 143 146 149 151 152 153 158 162 163 166 171 178 188 205 207 208 228 239 248 266 284 296 0
15 138 143 146 149 151 152 153 155 158 163 166 171 175 178 207 208 228 239 240 259 273 293 294 296 0
15 139 142 143 145 146 156 158 159 162 172 174 177 200 204 207 208 209 221 239 240 250 263 272 292 0
15 149 160 184 185 197 198 199 224 225 230 231 240 244 245 254 265 270 274 278 280 285 288 292 293 0
15 152 159 161 184 188 190 192 198 199 206 211 213 217 225 231 234 236 241 242 251 253 257 261 298 0
15 153 160 163 172 176 181 199 213 221 223 224 227 241 244 254 260 262 264 277 283 287 299 300 303 0
15 159 167 200 201 205 212 213 218 227 232 236 239 242 247 253 256 277 278 289 292 293 299 300 303 0
15 166 169 171 172 184 186 198 200 204 207 234 236 240 248 250 253 259 262 268 270 284 286 288 291 0
16 136 137 138 140 154 160 163 165 188 205 212 227 235 239 241 250 257 260 269 272 283 288 293 298 0
16 136 139 140 141 147 149 150 151 153 155 158 162 164 165 167 172 176 182 186 215 218 231 251 269 0
16 137 138 140 145 160 162 176 197 204 205 212 213 217 218 224 225 239 250 251 253 254 260 288 301 0
16 137 138 145 179 185 205 212 223 235 250 251 257 259 260 261 263 272 280 282 283 285 292 293 299 0
16 137 139 145 159 170 182 189 191 201 205 207 213 224 240 242 244 250 254 270 277 280 292 296 300 0
16 137 139 154 159 160 165 172 188 204 205 212 213 224 225 237 239 251 253 254 271 277 280 296 300 0
16 137 139 166 172 188 204 205 208 212 213 220 224 225 246 250 260 268 269 271 280 281 287 292 296 0
16 137 140 145 149 154 162 163 164 166 191 204 205 207 212 213 218 224 235 248 250 257 260 280 285 0
16 137 140 149 160 162 172 205 207 223 224 233 235 244 250 259 260 265 269 270 272 278 279 280 285 0
16 137 149 154 159 162 166 185 188 205 212 224 225 227 235 236 250 257 261 265 272 278 279 285 293 0
16 137 149 154 165 183 187 205 213 224 229 231 239 251 253 254 256 260 261 264 270 277 280 293 300 0
16 137 150 157 163 179 183 191 205 212 213 214 216 224 225 235 257 260 262 264 279 293 294 299 303 0
16 137 154 158 170 180 183 191 205 213 215 224 228 240 244 246 254 260 264 277 279 280 293 296 300 0
16 137 170 178 188 193 197 204 205 212 224 227 239 240 249 251 257 261 269 270 271 280 283 293 299 0
16 139 140 143 146 151 158 162 167 168 172 176 186 190 197 212 219 238 239 255 269 284 285 286 295 0
16 142 143 145 149 152 154 159 162 164 169 173 177 182 185 195 197 214 215 217 232 239 244 267 275 0
16 142 145 149 150 152 154 159 162 164 169 170 173 177 182 183 185 217 232 240 244 273 275 276 294 0
16 142 145 149 150 152 154 160 162 164 166 169 170 173 177 182 232 240 268 270 275 280 284 288 295 0
16 142 150 154 155 158 162 164 170 172 176 190 193 194 201 202 204 205 216 231 237 258 292 293 302 0
18 136 139 141 146 150 155 170 171 173 193 198 199 202 203 207 217 221 224 241 250 253 267 278 280 0
18 136 141 146 148 149 152 155 170 171 177 181 188 194 202 203 207 208 217 221 224 241 266 267 271 0
18 137 140 144 145 151 152 158 159 161 163 168 169 174 176 177 202 219 220 222 228 245 293 295 300 0
18 137 140 147 148 150 151 153 154 155 162 164 176 192 195 205 206 215 258 269 271 275 280 282 283 0
18 137 143 146 148 149 150 151 152 153 154 155 159 171 176 195 197 200 206 207 224 228 270 273 295 0
18 138 139 144 152 158 159 172 179 185 188 191 204 208 212 217 224 225 230 235 248 262 286 295 303 0
18 146 147 151 152 155 163 166 169 170 172 182 186 188 189 201 210 212 239 240 262 273 286 291 293 0
18 146 152 154 157 160 166 169 172 174 175 187 188 191 204 205 210 212 218 234 235 236 248 253 269 0
18 147 155 166 174 186 187 191 197 212 213 222 226 234 236 240 244 248 249 253 262 268 286 293 299 0
18 157 159 165 166 172 189 191 197 201 204 210 212 218 230 234 244 248 265 274 277 278 287 294 296 0
19 20 137 138 139 141 143 146 160 164 166 172 173 174 188 214 215 221 222 229 265 266 275 292 293 0
19 46 139 144 146 148 150 161 162 190 199 204 208 212 218 240 244 250 254 257 260 269 270 285 302 0
20 136 140 142 161 162 166 170 188 191 197 204 205 211 212 213 239 250 260 265 268 269 287 294 298 0
20 137 138 139 140 148 161 163 170 175 182 188 208 214 215 223 226 240 255 275 277 283 291 300 303 0
20 139 142 163 166 184 186 187 188 197 204 210 212 227 234 235 236 248 253 262 273 286 288 297 303 0
20 142 154 160 166 176 186 189 191 197 200 201 204 211 213 239 250 251 260 263 279 280 283 284 285 0
20 142 160 166 168 176 183 191 197 204 211 212 213 221 228 234 237 249 253 260 264 265 279 280 298 0
21 36 136 137 139 140 144 145 148 151 153 159 165 169 175 178 181 182 190 205 207 217 226 238 297 0
21 80 140 141 144 150 152 155 159 160 162 169 171 176 188 191 195 199 202 206 207 208 214 222 268 0
21 80 140 141 144 159 160 161 164 166 169 175 194 204 207 208 211 214 232 255 270 271 277 280 282 0
21 136 138 139 140 143 144 162 164 167 168 172 177 180 195 210 212 213 215 216 270 280 297 298 301 0
21 136 138 139 147 163 164 167 172 174 189 191 192 195 205 213 215 216 234 242 256 260 273 292 298 0
21 136 139 144 149 153 170 172 185 188 197 209 221 222 227 239 240 241 253 262 263 277 281 283 299 0
21 138 139 140 142 143 144 160 164 170 172 180 209 210 212 213 215 216 224 225 229 270 280 288 297 0
21 138 139 140 143 144 163 164 168 170 172 177 180 212 216 234 266 270 271 283 285 288 291 297 298 0
21 138 139 140 143 144 163 164 168 170 172 180 188 212 216 234 266 270 271 283 285 288 291 297 298 0
21 138 139 140 143 150 155 167 172 180 193 212 213 216 221 224 225 268 283 285 288 291 297 301 303 0
21 138 139 140 147 160 170 187 189 191 193 204 205 213 215 216 220 221 239 268 292 297 298 301 303 0
21 138 139 142 147 155 163 168 170 187 189 191 193 197 204 205 213 215 216 221 240 244 268 292 298 0
21 138 139 147 160 164 167 187 189 191 192 193 197 204 213 216 231 239 240 244 268 270 292 298 301 0
21 146 149 152 153 156 170 172 179 182 188 209 213 219 220 234 244 247 253 262 268 273 278 288 291 0
21 152 156 157 158 170 172 182 188 192 209 213 219 220 223 232 234 235 236 247 253 262 283 286 299 0
21 154 163 166 170 172 182 186 188 197 199 200 204 209 213 235 238 239 253 268 277 278 299 300 303 0
22 136 137 140 144 145 154 165 169 173 175 178 205 207 216 218 238 241 251 256 259 261 280 287 293 0
23 138 139 140 141 143 144 146 150 166 168 199 200 202 205 207 221 235 238 242 248 259 266 270 300 0
23 139 145 159 166 176 177 187 205 206 213 219 220 224 225 234 250 251 253 256 261 268 285 289 292 0
23 139 156 160 168 181 182 197 205 207 211 213 224 231 242 251 253 254 256 257 262 270 273 280 287 0
23 140 154 155 160 162 176 196 205 207 213 224 239 250 251 253 254 260 269 277 279 280 281 285 296 0
23 145 148 154 156 159 168 172 177 181 205 208 211 221 224 228 251 253 254 256 261 271 280 293 294 0
23 145 149 150 160 168 170 184 188 192 196 199 204 211 214 216 217 224 225 228 240 241 242 272 292 0
23 149 154 160 165 170 185 191 204 205 206 213 224 225 231 234 240 253 262 265 273 277 285 293 300 0
23 155 166 168 178 181 188 205 207 213 224 225 253 255 256 261 265 268 269 271 280 285 292 293 300 0
23 161 166 172 178 183 201 205 211 212 213 220 224 228 234 256 260 264 265 268 269 279 293 294 300 0
23 187 205 206 207 211 213 222 224 225 234 246 250 251 253 254 256 260 261 269 277 279 281 293 300 0
36 136 160 163 164 166 173 176 209 220 221 224 237 239 240 247 260 262 266 268 271 278 287 294 299 0
36 137 140 145 157 166 189 197 199 200 201 204 205 212 213 224 225 230 235 241 273 278 293 299 300 0
36 139 140 144 153 156 164 204 205 208 209 220 221 223 224 234 247 248 253 262 266 268 287 293 299 0
36 139 145 166 170 199 200 204 205 208 212 221 224 240 241 253 260 264 268 271 278 279 280 288 300 0
36 140 166 189 191 197 199 200 201 204 205 212 213 224 225 239 240 260 264 268 269 283 287 288 294 0
36 141 142 145 154 159 160 161 165 176 182 183 186 191 225 235 236 238 264 270 279 283 298 299 301 0
36 141 145 149 150 154 160 173 184 198 199 231 235 236 240 250 260 265 274 279 280 281 283 298 299 0
36 154 159 162 199 204 207 208 209 218 221 223 224 239 245 247 253 266 271 274 277 278 280 287 294 0
36 154 161 165 176 184 186 197 198 199 204 225 230 235 241 250 260 263 270 274 278 279 281 298 299 0
37 139 147 154 155 165 172 174 187 189 191 196 197 201 205 213 225 229 231 239 261 277 280 287 289 0
37 145 147 159 178 188 189 197 201 204 207 208 219 221 239 246 250 254 271 277 279 287 289 294 301 0
37 166 172 174 188 189 201 204 205 206 207 208 213 224 225 234 261 262 268 269 270 273 279 285 300 0
38 136 140 144 145 157 180 183 186 191 200 205 213 220 224 228 237 239 255 260 263 264 287 297 300 0
38 140 157 164 165 170 172 184 197 198 199 211 220 239 240 241 244 250 260 272 279 287 293 294 302 0
44 136 140 141 143 145 146 147 148 149 154 156 157 162 166 167 172 175 181 188 201 205 212 240 244 0
44 136 140 141 143 145 148 149 154 155 156 157 163 166 167 175 188 201 205 220 240 243 244 270 275 0
44 139 141 142 143 144 145 149 150 154 157 160 165 177 178 199 208 209 212 216 220 221 274 300 303 0
44 139 142 144 149 150 154 163 165 178 182 188 192 197 199 209 212 239 240 242 274 277 289 291 300 0
44 142 145 150 151 154 163 166 168 178 182 192 199 205 209 212 233 242 245 259 268 277 289 292 300 0
45 138 141 143 146 154 159 160 162 163 188 189 197 201 209 218 220 222 237 239 242 255 257 277 300 0
45 142 163 172 182 197 204 209 212 219 223 224 227 232 236 239 250 260 277 283 287 289 294 299 303 0
45 156 159 162 166 167 176 204 209 212 218 220 224 226 227 253 268 269 283 287 289 292 293 300 303 0
46 136 140 143 144 145 147 150 154 156 158 159 160 161 164 167 170 193 197 207 218 239 257 288 302 0
46 138 139 140 144 146 147 150 153 155 163 168 169 171 173 178 188 199 206 212 215 230 235 247 283 0
46 140 142 143 144 146 147 150 154 161 164 166 170 185 193 195 199 207 208 212 218 240 269 270 276 0
46 147 154 155 158 160 172 174 177 187 188 189 191 196 201 206 208 212 224 231 234 269 284 294 301 0
46 147 154 155 160 168 176 179 191 196 206 208 221 231 251 253 266 270 271 272 273 287 289 294 301 0
46 154 160 165 172 174 177 185 188 189 191 201 205 226 237 239 242 245 249 256 271 280 294 295 300 0
47 136 138 140 143 145 150 156 157 160 165 167 181 187 189 204 216 219 221 236 239 245 265 283 295 0
47 136 138 140 147 157 158 163 167 168 175 176 177 189 191 193 195 216 231 240 244 256 268 270 298 0
47 136 138 143 146 151 155 166 171 173 184 198 199 203 208 214 242 253 255 266 267 271 279 293 301 0
47 138 147 157 167 168 175 176 177 187 189 191 193 197 205 216 224 225 231 240 244 245 256 268 301 0
48 136 141 144 145 150 151 155 156 157 158 161 163 164 168 169 178 180 186 191 219 221 225 230 275 0
49 138 143 154 160 178 188 192 199 206 212 213 223 225 227 246 248 253 257 265 269 278 293 298 299 0
49 139 140 143 154 160 162 163 166 193 200 204 207 208 224 248 249 257 258 259 265 269 270 280 283 0
50 138 139 140 146 148 149 156 162 163 165 169 174 178 188 198 200 205 208 211 216 225 248 253 260 0
50 139 140 152 156 165 169 170 173 174 188 189 198 201 202 205 208 211 216 231 240 260 270 286 301 0
51 136 140 142 145 153 154 159 160 166 199 206 218 222 225 244 249 250 251 259 263 276 278 285 302 0
51 136 144 145 149 186 188 189 194 198 200 204 206 210 211 220 231 234 235 246 248 253 255 268 274 0
52 136 137 139 140 145 154 159 165 169 171 174 177 188 196 204 205 207 218 224 241 261 263 280 283 0
52 137 141 144 146 149 151 167 170 200 206 208 211 213 219 224 225 228 236 247 261 265 268 283 292 0
52 140 148 149 159 162 166 168 170 186 205 221 224 225 235 237 246 253 260 262 268 269 281 283 285 0
52 145 160 161 164 169 178 184 187 189 199 201 210 211 234 241 250 263 277 278 292 293 300 301 303 0
53 136 137 140 141 145 149 150 151 176 177 181 196 200 204 205 221 225 226 228 251 259 261 283 293 0
53 140 152 159 162 165 166 184 188 197 198 199 200 204 208 211 224 241 250 263 269 277 287 294 298 0
53 159 161 166 170 183 188 191 194 197 204 211 212 224 230 263 264 265 277 279 285 287 294 297 301 0
54 137 138 139 140 142 143 144 147 149 152 154 155 160 171 172 175 178 186 189 197 211 216 230 268 0
54 140 141 145 146 150 154 159 160 165 170 172 177 191 205 224 225 240 247 250 251 280 283 285 288 0
54 140 148 149 154 159 170 172 173 188 204 207 212 217 236 244 246 250 265 269 272 274 282 283 293 0
54 145 150 158 159 160 163 167 170 172 191 195 204 205 206 211 224 225 230 250 265 283 288 289 296 0
54 146 150 158 160 161 163 170 172 191 204 206 212 213 223 225 234 241 251 278 285 288 292 293 298 0
54 159 170 172 186 188 191 197 204 211 221 224 225 244 246 250 262 264 265 266 272 274 279 283 300 0
58 136 137 139 143 144 145 147 150 155 161 174 178 180 184 199 205 215 217 237 238 249 279 290 295 0
58 136 139 140 145 147 156 158 161 164 168 172 174 194 200 210 213 215 218 225 240 270 280 286 295 0
58 136 141 146 149 152 157 158 163 164 166 168 172 175 179 194 197 203 207 217 218 244 276 277 282 0
60 136 142 143 144 151 153 162 164 165 168 170 178 181 188 193 205 214 220 231 244 253 255 268 295 0
62 136 137 140 144 145 148 151 159 161 163 164 168 177 181 182 183 192 207 218 219 222 258 264 265 0
62 136 137 140 145 148 151 159 161 168 182 183 188 192 207 218 219 224 228 255 264 265 288 289 296 0
62 136 137 140 145 148 159 161 168 173 174 177 182 183 188 192 207 218 219 222 228 242 255 288 296 0
63 139 144 147 150 155 159 160 163 165 169 171 173 178 181 182 188 194 199 202 205 223 240 263 283 0
64 136 140 141 143 145 146 149 151 152 155 157 163 173 180 182 190 204 208 214 218 219 241 258 299 0
64 137 139 140 142 144 145 149 155 165 168 169 171 174 177 178 180 181 182 188 198 199 217 260 295 0
64 137 139 140 142 144 145 150 155 158 163 164 168 169 170 171 178 180 182 184 202 217 238 260 283 0
64 139 143 144 145 155 174 177 178 180 181 182 184 198 199 205 217 219 238 240 260 269 280 284 295 0
68 136 140 146 147 148 149 152 153 156 164 166 168 173 175 177 180 181 202 214 229 232 235 264 268 0
68 138 139 140 145 146 147 150 163 167 175 187 189 191 194 204 205 221 222 223 234 259 271 297 298 0
70 136 137 138 142 146 149 155 156 157 159 168 169 171 177 179 188 195 199 219 226 235 239 270 302 0
70 136 137 138 142 146 149 155 157 159 161 169 171 177 179 188 192 195 199 219 239 270 277 296 302 0
72 136 138 139 142 145 150 151 155 156 158 164 172 174 180 200 215 218 220 229 244 255 286 289 293 0
72 136 138 139 143 145 150 151 156 158 164 172 174 180 200 207 218 220 222 229 235 248 267 289 297 0
74 139 149 154 165 172 185 187 188 189 205 206 225 228 237 239 250 253 254 256 260 261 270 277 287 0
74 139 172 176 187 188 189 191 196 204 205 208 213 214 215 216 217 234 251 253 261 262 272 280 293 0
74 146 161 163 166 168 184 186 189 201 204 210 212 222 230 235 248 262 265 268 273 283 296 299 300 0
75 138 139 143 144 158 160 161 162 163 166 168 169 170 172 206 209 221 255 263 267 268 282 285 291 0
75 140 142 145 149 193 197 204 214 218 222 237 239 249 251 257 259 261 262 270 272 276 280 282 293 0
76 136 137 140 141 142 143 144 146 153 157 160 161 163 165 170 200 202 229 240 247 249 280 282 288 0
76 136 137 140 143 147 149 150 153 155 159 162 163 165 167 168 172 175 205 207 229 246 248 249 293 0
77 138 139 146 147 164 166 167 175 188 189 191 194 195 204 213 222 229 234 242 268 270 287 292 298 0
78 136 138 140 141 144 160 170 184 187 190 200 206 210 211 222 226 239 240 244 253 255 269 277 297 0
78 136 140 142 143 144 146 147 149 151 153 156 159 160 166 170 171 197 200 207 258 272 276 281 295 0
78 136 141 144 145 149 150 152 154 156 159 162 163 166 171 172 194 205 207 218 269 277 287 293 303 0
78 137 139 170 200 205 207 213 214 224 225 239 240 244 251 253 254 256 261 269 270 272 273 287 292 0
78 138 139 140 144 145 153 155 157 168 170 171 172 175 178 185 218 231 245 255 265 270 289 293 296 0
78 139 144 149 151 154 155 161 163 165 168 170 180 188 198 217 228 229 235 243 258 269 275 286 292 0
78 139 147 155 169 170 183 205 207 213 224 239 240 244 251 254 260 261 264 277 279 280 281 287 296 0
78 140 145 147 155 159 162 170 189 200 201 205 207 213 224 225 234 240 244 246 251 254 261 273 300 0
78 142 143 144 146 151 157 159 160 166 170 172 175 194 197 200 207 213 240 261 271 276 279 281 295 0
79 140 142 145 148 152 154 159 160 162 163 166 177 189 213 224 225 236 239 245 267 268 271 285 296 0
79 154 156 159 163 164 166 173 176 185 189 195 204 209 213 219 223 240 241 244 247 267 271 274 282 0
80 136 137 140 142 145 148 150 155 159 160 161 169 173 175 177 182 199 222 226 245 256 282 295 296 0
80 137 139 140 144 147 148 150 151 153 154 155 159 162 164 170 172 180 195 206 215 224 271 276 282 0
80 139 140 141 155 159 160 161 169 175 194 195 196 206 207 208 213 214 222 232 246 255 265 268 282 0
80 140 141 143 144 145 149 159 160 161 162 169 170 175 181 194 202 204 206 207 208 214 249 268 271 0
80 140 141 143 144 148 152 155 159 160 161 162 169 175 176 188 198 202 206 207 208 214 217 268 271 0
80 140 141 143 144 149 159 160 161 164 169 171 176 181 194 202 204 207 208 211 214 268 280 282 293 0
80 140 141 143 144 152 159 160 161 169 171 176 188 195 202 204 206 207 208 214 222 249 268 293 295 0
80 140 141 144 146 158 159 160 162 169 175 188 198 204 207 208 211 214 224 225 239 254 255 270 271 0
80 140 141 144 149 155 158 159 160 162 169 170 175 194 195 198 206 207 208 214 232 240 255 268 271 0
80 140 141 144 149 155 159 160 161 169 171 176 181 185 188 197 206 207 208 214 239 249 255 268 295 0
80 140 141 144 149 159 160 161 162 166 169 171 176 181 185 197 204 206 207 208 214 239 255 270 293 0
80 140 141 144 149 159 160 161 163 169 171 176 181 185 204 207 208 211 214 222 224 225 255 268 270 0
80 140 141 144 159 160 163 169 170 171 176 194 198 199 204 206 207 208 214 226 232 249 254 255 270 0
80 140 141 144 159 160 169 171 176 191 194 199 204 207 208 211 214 232 233 249 255 268 270 280 282 0
81 136 139 144 145 146 147 151 156 159 160 161 180 181 195 212 215 220 223 224 246 270 281 290 292 0
81 143 144 146 150 151 156 157 159 160 172 181 194 197 199 207 208 215 226 246 264 269 272 275 277 0
82 136 137 139 140 141 144 145 147 149 173 177 178 181 196 200 205 225 226 237 256 259 261 265 279 0
82 136 137 140 141 142 144 145 150 155 172 173 175 177 180 197 202 205 214 246 255 260 280 300 302 0
82 136 137 140 141 142 144 150 155 157 163 172 173 175 177 199 202 205 217 229 249 263 277 280 302 0
82 136 137 140 141 144 145 147 155 162 170 173 176 177 181 196 200 205 225 226 229 238 251 259 261 0
82 136 137 140 141 145 147 154 160 162 165 169 172 174 175 177 204 205 225 226 259 270 271 273 283 0
82 136 137 140 141 145 147 155 162 173 176 181 192 196 200 205 213 225 226 237 259 261 265 283 287 0
82 136 137 140 141 145 147 166 173 176 181 188 196 200 205 225 226 237 238 251 256 261 264 287 293 0
82 136 138 145 148 149 150 156 159 162 168 173 180 184 192 216 218 224 240 277 287 288 292 293 303 0
82 136 140 141 145 147 149 154 155 160 162 169 173 175 177 188 190 205 225 226 249 251 256 263 302 0
82 136 145 148 149 150 156 159 162 166 181 184 192 200 212 216 218 220 233 239 240 288 293 300 303 0
82 138 139 140 142 143 144 148 149 150 153 156 163 168 176 180 195 197 216 235 249 269 272 286 289 0
82 138 139 140 142 143 144 148 149 156 163 165 168 176 182 190 197 216 221 233 240 269 283 286 289 0
84 139 141 143 146 147 151 154 155 159 163 165 168 169 178 181 188 192 195 198 273 274 275 286 296 0
85 138 140 142 143 144 145 149 152 154 155 160 162 164 177 183 193 197 232 244 248 258 264 273 275 0
85 138 140 142 143 144 145 149 152 154 159 160 162 164 166 177 185 193 197 205 232 264 268 276 284 0
85 138 140 143 144 147 150 153 155 157 161 170 172 182 188 194 200 205 208 210 227 235 250 258 280 0
85 138 142 150 154 155 158 162 163 164 176 190 194 197 201 204 205 216 233 239 255 258 269 292 293 0
94 136 137 139 140 145 146 147 159 162 164 165 168 170 171 172 175 177 219 239 240 244 283 290 300 0
102 136 137 138 143 145 146 155 159 161 163 165 167 168 171 183 184 188 192 214 233 281 287 296 302 0
102 136 137 139 145 146 151 158 159 165 168 170 171 175 183 188 192 214 233 239 257 281 287 301 302 0
102 136 137 139 145 146 151 158 159 165 168 170 171 175 183 188 192 214 233 239 281 287 295 301 302 0
102 136 137 139 145 146 151 159 165 168 170 171 175 177 183 188 190 192 219 228 233 239 240 244 257 0
102 136 137 139 145 146 155 159 165 167 168 171 175 177 183 184 188 192 199 214 233 239 295 296 302 0
102 136 137 145 146 147 151 155 159 164 165 168 169 170 171 175 180 183 188 192 219 257 281 284 287 0
102 136 137 145 146 158 159 165 168 170 171 175 177 183 184 188 192 214 233 240 244 245 253 301 302 0
102 137 139 142 145 149 150 151 152 155 166 171 181 183 198 200 202 206 215 220 243 268 272 274 288 0
102 139 140 143 145 149 151 154 157 160 162 163 164 166 167 197 204 205 224 270 271 275 276 278 285 0
102 139 140 143 145 149 151 156 157 160 163 164 166 167 172 197 205 262 270 271 275 278 280 284 288 0
102 143 145 149 150 151 157 160 162 163 164 166 167 172 176 205 225 247 262 270 271 275 278 280 284 0
106 136 138 141 145 156 157 160 165 166 167 168 177 181 184 187 189 197 204 216 231 250 268 286 292 0
106 136 138 145 148 149 150 156 167 172 174 180 184 192 200 218 236 239 240 264 272 277 289 293 300 0
106 136 139 145 148 150 153 156 162 168 172 178 184 207 218 220 233 235 242 249 250 268 272 300 303 0
106 136 141 144 145 146 149 150 152 153 156 164 166 177 179 181 185 202 216 219 229 262 264 292 293 0
106 138 139 141 142 143 145 150 151 152 155 163 166 168 180 207 216 232 233 255 256 262 270 285 286 0
121 141 144 145 155 156 166 169 186 194 199 205 219 221 225 226 230 256 268 269 275 292 293 295 302 0
124 136 137 138 139 140 142 145 148 150 159 160 168 172 174 178 182 183 189 192 212 219 224 258 259 0
130 138 139 140 145 147 167 177 189 191 193 194 195 197 205 218 221 222 229 234 256 271 275 297 298 0
130 138 139 143 144 146 147 150 164 167 175 177 187 189 191 204 213 222 229 234 255 259 268 292 298 0
131 136 138 141 145 156 165 166 167 173 180 188 189 198 216 234 236 245 265 268 272 274 286 292 300 0
132 136 139 143 144 145 146 149 150 151 154 155 160 163 164 166 167 168 180 193 207 270 285 286 288 0
132 136 139 143 145 149 150 151 155 160 163 164 166 167 168 171 174 180 184 193 197 198 224 262 285 0
132 136 141 144 145 146 149 150 153 156 164 166 179 181 183 197 202 205 219 224 229 262 281 292 293 0
132 137 138 139 141 142 143 145 148 149 150 151 155 156 167 168 174 180 197 204 216 255 280 288 301 0
132 137 138 139 142 143 144 145 148 150 163 164 168 180 197 207 215 216 217 233 255 270 271 285 286 0
132 137 138 139 142 143 145 146 148 149 150 151 155 170 180 197 200 204 212 216 255 270 282 285 301 0
132 137 138 139 142 143 145 148 153 156 157 160 162 165 175 177 178 181 220 233 235 238 239 292 295 0
132 137 138 139 142 143 145 150 151 164 166 167 168 180 193 197 204 215 231 233 255 270 278 280 301 0
134 140 142 144 146 148 151 154 155 157 158 167 173 174 177 189 190 197 201 205 239 248 257 262 302 0
1 136 138 140 143 154 159 162 176 185 188 190 206 212 214 218 225 235 244 250 251 261 269 271 281 298 0
1 139 160 177 187 189 201 205 206 213 215 222 224 225 226 234 250 254 256 260 265 269 270 277 292 300 0
1 140 145 148 159 160 168 187 189 196 201 204 205 213 219 224 232 250 251 254 270 277 280 289 293 300 0
1 140 153 159 160 162 199 204 205 206 212 213 224 241 248 249 250 257 259 265 269 278 280 285 299 300 0
1 140 158 162 166 196 198 204 205 212 213 224 239 250 251 253 260 261 268 269 277 279 280 284 287 294 0
1 140 159 160 162 183 184 187 198 204 205 207 213 220 224 234 246 253 254 264 265 268 269 273 280 300 0
1 140 162 170 186 190 200 205 206 207 224 225 238 240 250 257 259 260 261 262 265 270 271 272 278 279 0
1 155 160 172 176 182 183 187 189 201 205 206 208 213 218 224 225 239 254 260 264 265 269 273 292 293 0
1 158 159 188 189 197 201 205 213 215 217 224 239 250 251 254 256 261 269 271 277 279 280 287 293 294 0
1 160 163 169 170 172 197 200 204 205 207 208 218 224 239 240 259 265 270 278 280 286 292 293 299 303 0
1 176 198 205 207 208 212 220 221 222 224 225 250 254 256 260 266 268 269 271 280 287 292 293 294 296 0
1 179 187 196 205 213 220 224 233 239 246 250 253 254 256 260 261 262 265 268 270 279 280 281 293 300 0
2 3 56 138 140 142 143 144 172 195 198 199 211 221 224 250 258 266 271 274 275 277 280 288 293 300 0
2 82 136 148 183 188 191 197 204 205 211 212 213 220 224 225 228 239 260 264 269 277 287 292 293 294 0
2 138 139 143 144 152 154 166 184 186 187 189 197 198 201 204 212 213 219 235 239 248 255 268 277 288 0
2 138 143 152 166 168 170 174 184 186 187 188 190 197 198 204 212 213 220 240 244 253 255 262 268 284 0
3 136 144 160 163 165 166 170 172 185 188 191 195 204 235 238 245 251 255 268 273 274 278 280 298 299 0
3 140 141 149 150 160 167 170 172 174 184 197 198 199 205 235 250 262 264 269 280 281 283 297 298 299 0
3 142 146 147 150 154 155 166 170 172 199 200 205 212 213 224 225 234 241 264 268 279 283 288 293 300 0
3 143 145 149 167 170 172 188 191 196 197 221 225 230 231 234 235 241 242 261 265 274 280 283 298 299 0
3 149 150 159 161 163 166 170 172 183 191 231 240 251 261 264 266 268 273 274 280 283 288 293 296 298 0
3 149 150 160 170 172 183 184 197 198 199 231 235 239 241 246 251 262 264 269 274 280 283 288 292 298 0
4 136 142 144 149 152 166 180 186 191 197 199 204 210 212 213 214 234 237 246 251 255 268 278 288 300 0
4 142 151 154 166 180 187 188 189 197 198 199 201 204 210 212 228 235 237 239 248 268 278 299 300 303 0
7 139 141 155 159 160 162 170 172 188 191 198 209 213 216 224 236 237 239 240 247 253 262 264 277 287 0
7 148 149 154 159 163 170 172 174 188 191 192 196 204 205 212 215 218 240 244 251 261 264 269 273 280 0
7 150 159 160 166 168 170 172 181 191 192 196 218 220 224 225 235 250 251 257 262 268 274 280 285 299 0
8 139 140 145 147 155 160 168 169 205 207 213 222 224 225 227 250 253 254 260 265 277 281 287 296 297 0
9 143 159 160 168 176 183 188 192 197 201 206 212 213 219 223 225 251 254 256 264 266 277 279 285 289 0
10 137 140 145 146 152 155 163 165 166 168 172 174 177 183 184 185 188 193 226 227 236 243 254 283 286 0
10 147 155 163 165 167 170 172 174 188 195 197 204 206 212 216 225 261 264 266 278 281 285 288 293 298 0
11 138 142 143 154 166 170 172 178 179 183 195 197 210 212 217 239 240 244 255 260 264 272 276 279 280 0
11 140 146 153 154 156 159 162 163 166 172 176 197 199 209 213 219 220 239 244 268 278 282 299 300 303 0
11 140 149 154 163 164 165 170 173 178 179 183 188 191 197 200 204 207 239 240 257 260 263 269 270 299 0
11 144 149 151 154 160 166 169 193 200 204 206 207 216 223 237 251 257 259 269 270 280 283 286 288 292 0
11 145 159 166 187 192 194 213 215 217 219 222 234 250 251 253 256 261 262 263 268 273 277 280 292 300 0
11 146 149 156 172 175 176 199 204 208 209 220 221 223 241 247 250 263 271 274 277 278 292 293 299 300 0
11 146 149 167 177 185 191 196 204 206 211 225 226 230 231 235 245 247 251 261 264 278 285 288 292 293 0
12 136 137 138 139 141 144 154 160 165 169 174 175 177 178 204 205 215 222 223 225 226 259 270 287 302 0
12 136 137 138 139 141 154 160 165 169 175 176 177 178 188 204 205 213 216 223 224 225 226 265 270 300 0
12 136 138 139 155 156 159 162 163 165 166 178 184 205 214 215 218 220 223 250 268 270 279 286 287 288 0
12 136 139 140 144 148 155 163 166 177 180 190 192 193 199 218 219 226 250 257 260 268 273 279 285 302 0
12 138 143 144 148 155 156 159 161 162 175 177 183 190 199 212 216 218 254 257 264 266 269 271 285 302 0
12 141 143 144 148 155 158 159 162 163 172 175 177 183 190 208 218 228 229 238 254 264 269 270 290 303 0
12 149 154 160 170 179 199 200 205 207 224 227 237 248 257 259 262 265 270 280 283 284 286 288 291 293 0
13 136 137 140 141 144 145 149 162 166 169 174 177 182 190 204 205 209 226 237 259 261 273 280 283 302 0
14 136 138 139 140 148 156 162 165 174 177 178 184 188 189 193 194 197 198 200 201 206 211 232 248 301 0
14 139 140 148 149 156 163 165 169 173 174 185 188 189 193 198 202 206 207 208 211 240 248 249 253 260 0
15 140 158 159 161 162 182 191 199 205 209 217 235 236 250 251 254 256 262 269 280 281 283 284 298 299 0
15 149 152 160 169 172 180 184 187 189 194 201 205 212 220 231 234 235 244 246 259 262 263 268 269 299 0
15 159 184 194 198 199 200 205 212 213 224 235 241 247 250 253 254 263 264 265 269 277 279 283 293 300 0
16 120 137 139 140 141 153 154 155 158 161 169 196 198 204 207 213 214 232 233 254 255 260 277 295 303 0
16 137 138 140 149 154 166 172 179 191 204 205 207 208 218 225 235 248 250 260 269 270 293 298 299 301 0
16 137 138 140 162 163 166 170 178 188 191 204 205 212 227 240 244 249 261 265 269 270 278 280 298 303 0
16 137 138 163 164 170 185 205 212 225 235 250 257 259 260 261 265 269 272 278 282 291 292 293 298 299 0
16 137 138 186 191 197 199 204 205 212 214 223 239 246 259 261 265 271 272 273 280 283 293 298 299 300 0
16 137 139 140 145 156 159 166 172 183 190 198 205 207 213 220 222 224 253 256 264 268 285 287 293 296 0
16 137 139 145 160 174 176 189 196 201 204 205 208 212 221 224 225 234 250 254 260 271 273 277 279 296 0
16 137 139 154 159 160 165 166 172 177 187 189 196 201 204 205 207 213 224 231 234 250 251 268 277 280 0
16 137 140 149 154 155 162 165 196 197 205 213 222 224 225 239 250 253 254 256 260 261 265 273 277 300 0
16 137 140 149 154 160 162 172 205 207 223 224 230 235 244 250 259 260 265 269 270 272 278 279 280 296 0
16 137 140 154 160 162 163 185 188 204 205 212 213 224 235 246 248 250 251 257 260 270 279 280 283 303 0
16 137 140 157 159 160 162 166 185 197 204 205 212 219 224 225 227 235 239 250 251 257 259 269 278 279 0
16 137 140 159 162 163 166 204 205 207 212 224 225 227 235 249 250 251 257 259 261 269 277 278 279 303 0
16 137 142 160 163 164 166 178 192 197 199 204 205 212 224 225 239 246 249 251 257 259 276 282 288 293 0
16 137 143 149 153 160 172 208 212 224 230 244 249 250 251 253 259 260 269 272 278 280 292 293 299 301 0
16 137 145 154 159 165 183 189 196 201 205 208 221 222 224 239 251 254 256 261 264 271 277 280 293 300 0
16 137 147 150 155 160 168 172 176 177 189 196 201 205 207 213 224 225 229 251 254 259 269 279 293 294 0
16 137 149 154 160 165 166 172 196 205 213 224 234 242 250 253 256 260 265 268 270 277 280 287 293 294 0
16 142 143 145 149 152 153 154 160 162 167 168 169 171 173 177 181 182 183 189 205 210 232 255 267 284 0
18 136 139 141 146 148 152 155 170 171 177 188 194 198 199 202 203 207 211 217 221 224 233 241 267 280 0
18 141 146 147 149 154 155 160 166 170 179 187 188 189 198 201 205 210 212 220 231 234 240 257 268 269 0
18 146 152 154 160 166 184 186 187 198 204 205 212 213 220 227 234 236 238 240 248 253 257 268 269 303 0
18 147 149 152 154 155 160 166 169 172 176 180 186 188 197 210 212 213 220 235 246 248 268 283 291 300 0
20 136 142 145 154 166 170 184 188 189 197 204 205 210 212 234 240 253 266 277 278 279 287 288 293 294 0
20 137 138 139 140 149 154 159 161 162 164 166 175 187 188 208 214 215 223 249 255 269 277 285 287 296 0
20 139 142 147 152 154 160 163 166 172 176 197 204 206 210 212 213 224 225 240 248 277 283 285 287 299 0
20 140 142 147 152 155 161 162 166 183 188 191 197 200 208 211 239 260 264 265 277 279 295 298 300 301 0
20 142 146 147 149 155 159 166 184 188 198 210 212 235 236 239 246 248 253 262 268 278 288 289 291 300 0
21 56 136 139 140 142 143 151 160 163 183 184 192 197 198 199 200 202 203 204 207 228 253 254 258 271 0
21 136 138 144 153 166 167 169 170 172 179 188 212 220 221 233 234 235 241 247 253 255 262 268 288 300 0
21 136 152 156 170 172 179 188 189 197 201 205 209 221 223 237 239 240 241 242 262 266 271 277 278 288 0
21 138 139 140 143 144 147 150 155 162 163 164 167 172 174 180 194 210 212 215 216 266 271 285 292 298 0
21 138 139 140 143 158 160 162 163 170 172 175 180 188 193 209 212 215 216 266 271 283 285 297 298 303 0
21 138 139 140 147 150 153 167 189 191 195 197 204 205 216 220 221 231 239 242 259 268 271 297 298 301 0
21 138 149 170 172 185 188 191 197 209 213 221 223 235 239 253 262 263 264 277 280 283 289 294 298 299 0
21 142 156 170 172 182 188 199 201 204 205 209 213 220 223 241 244 247 250 253 274 277 283 286 288 300 0
21 154 159 160 163 164 166 170 172 188 189 201 204 209 213 218 227 231 234 242 244 247 277 282 294 299 0
22 136 138 140 141 145 146 149 152 154 156 166 170 174 175 187 191 197 198 215 234 250 253 257 268 272 0
22 138 139 140 141 145 146 149 152 154 156 157 166 170 173 189 193 195 202 204 215 224 234 250 257 268 0
23 139 146 152 160 161 163 164 169 175 180 181 183 188 195 200 211 215 217 220 242 257 270 271 278 302 0
23 140 147 155 160 162 184 187 205 207 211 213 222 224 234 250 251 253 254 260 269 273 277 279 280 300 0
23 152 156 176 181 204 205 206 213 222 224 225 234 250 254 260 261 265 273 277 279 281 285 287 293 294 0
23 154 159 172 183 197 205 207 208 211 213 220 224 225 239 254 256 264 268 270 279 280 287 293 294 296 0
23 159 168 198 201 205 206 211 212 213 214 224 225 246 250 254 256 261 265 268 269 272 277 292 293 300 0
23 166 168 170 172 204 205 206 208 212 213 224 225 231 240 251 253 261 268 269 273 279 285 287 293 294 0
23 172 178 184 188 191 205 206 207 211 213 216 224 225 231 234 251 253 256 261 269 270 273 279 293 294 0
36 141 145 147 150 155 166 173 199 200 205 208 212 221 224 240 250 253 260 268 271 278 280 286 288 300 0
37 136 145 183 188 189 201 204 208 212 221 224 234 254 255 260 261 262 264 265 271 277 280 281 292 300 0
37 144 153 154 167 169 170 172 200 201 207 208 223 233 250 251 260 261 270 278 279 280 286 292 299 302 0
37 145 147 155 160 184 188 189 191 201 205 207 213 224 225 231 234 251 262 272 273 279 280 287 289 294 0
38 184 186 187 188 196 198 199 211 220 222 224 229 238 241 250 251 260 261 268 279 281 287 296 297 300 0
42 102 139 142 145 149 151 152 155 183 198 200 202 215 220 230 243 245 257 258 270 274 285 286 288 297 0
44 139 143 148 152 153 155 156 158 159 175 188 190 195 204 205 208 221 224 229 254 276 277 283 293 296 0
46 138 140 143 144 145 156 158 160 161 164 167 170 172 190 197 212 218 239 240 244 270 272 279 288 291 0
47 136 138 147 157 163 164 170 174 181 187 188 189 191 193 197 204 205 215 216 224 225 231 239 268 282 0
47 138 143 147 150 167 174 177 187 189 191 193 197 204 215 216 221 224 225 229 239 259 266 271 292 303 0
48 137 139 144 147 149 152 154 159 160 163 172 191 198 205 217 229 235 248 254 255 269 282 286 293 303 0
49 136 137 138 139 144 154 160 165 169 175 176 177 178 204 205 216 225 226 241 251 259 273 275 287 288 0
49 136 138 143 148 154 159 170 179 185 188 212 218 228 240 249 250 251 253 261 269 272 280 283 285 293 0
49 138 140 143 154 163 170 172 188 197 199 200 207 213 239 240 251 261 262 270 280 282 283 288 293 298 0
49 138 140 149 151 162 163 164 170 188 191 192 193 204 205 208 212 237 244 246 261 265 269 270 280 285 0
49 140 160 162 163 191 197 200 204 205 207 208 223 224 227 239 244 259 262 265 270 278 280 286 301 303 0
50 136 137 139 141 142 144 145 155 166 170 173 181 197 199 202 205 208 209 214 217 224 241 249 263 300 0
51 136 142 149 154 159 176 185 188 197 218 222 235 239 248 249 250 261 263 265 269 276 280 282 283 292 0
52 137 141 146 149 151 157 167 173 184 193 196 197 199 200 201 211 213 214 219 239 261 265 280 282 302 0
52 137 141 146 160 167 170 182 190 204 206 208 211 213 215 219 224 225 245 265 268 269 282 288 292 293 0
53 142 152 157 166 168 172 191 197 204 212 213 220 224 225 244 250 260 279 285 286 287 288 292 293 300 0
54 143 144 148 160 166 170 172 183 191 196 197 204 206 212 213 225 241 251 253 264 268 283 285 288 298 0
54 159 170 172 177 183 188 191 197 206 211 224 225 236 261 262 264 265 266 274 278 279 281 288 291 300 0
56 138 139 142 143 145 150 152 160 161 163 164 181 183 184 211 215 220 225 239 240 248 255 257 270 278 0
58 137 139 144 145 149 150 155 168 169 174 180 184 198 199 202 204 205 217 240 249 261 267 269 292 295 0
58 139 144 145 151 153 156 157 158 159 160 165 168 181 192 199 215 219 233 235 265 277 278 288 295 301 0
60 82 137 139 142 144 145 160 162 170 173 180 199 207 208 221 223 241 249 260 263 271 275 288 291 300 0
62 143 144 145 146 149 150 151 156 157 160 163 164 166 167 175 176 205 212 247 262 271 278 284 285 288 0
64 136 144 145 146 149 151 152 162 163 172 173 178 190 192 199 202 208 214 215 218 219 241 272 273 283 0
64 136 145 146 151 152 155 160 172 173 178 182 190 199 204 214 219 223 241 245 258 268 272 283 299 301 0
64 137 139 142 144 145 147 150 151 153 155 156 159 163 164 165 168 169 170 199 202 213 215 217 238 276 0
68 136 140 144 145 146 147 148 152 158 161 163 164 166 173 176 177 214 226 232 238 244 245 250 268 283 0
68 138 139 146 147 163 164 166 167 175 187 191 193 197 204 205 213 222 239 240 244 253 268 270 292 298 0
71 138 139 146 151 158 161 162 163 164 170 174 175 182 184 198 200 202 228 241 253 266 270 286 295 300 0
72 138 139 145 146 150 151 156 158 159 164 172 174 180 200 208 214 220 222 229 268 270 279 286 287 293 0
74 137 142 146 152 166 182 184 186 194 199 204 205 210 212 213 218 219 222 234 238 268 269 283 299 300 0
74 138 149 154 157 164 169 171 173 175 200 205 206 207 208 209 223 225 237 245 248 267 293 294 298 302 0
74 139 166 170 186 188 197 199 204 205 206 210 212 215 225 230 235 239 248 253 262 277 283 297 299 300 0
74 140 147 150 154 165 168 170 172 174 177 179 189 191 197 205 206 207 224 229 240 244 253 256 261 294 0
76 136 137 140 143 147 149 150 153 155 159 162 163 165 167 168 172 175 182 186 205 207 230 246 248 293 0
76 136 138 139 143 144 145 147 155 161 174 208 212 218 221 229 231 236 245 264 268 272 275 276 283 287 0
76 137 138 140 142 143 144 145 146 157 160 162 163 174 175 200 205 208 228 230 247 249 255 273 280 283 0
76 137 139 140 143 147 150 151 155 159 162 165 167 168 170 172 175 215 226 233 239 244 245 258 280 302 0
76 137 140 143 144 145 147 149 150 151 153 154 155 159 162 163 165 166 168 172 175 180 188 230 291 295 0
76 160 163 179 184 188 197 200 204 205 207 210 213 224 225 230 233 239 268 269 270 283 285 286 296 299 0
77 138 139 146 147 148 163 164 167 175 177 187 189 191 192 193 194 205 213 220 222 232 239 256 292 298 0
78 136 138 141 145 152 154 156 157 159 162 163 178 190 199 218 220 226 230 245 255 269 286 287 288 303 0
78 136 139 142 143 144 145 146 149 151 152 159 160 163 170 171 197 200 213 215 236 239 240 256 277 290 0
78 137 139 159 160 165 178 184 188 189 191 197 200 201 204 205 213 224 225 237 239 262 265 270 277 287 0
78 138 139 140 144 145 153 155 171 172 174 178 190 197 198 200 215 218 219 220 222 231 287 288 293 303 0
78 141 144 149 151 155 161 163 165 168 169 170 174 179 188 198 212 217 220 225 228 229 237 243 258 288 0
78 145 159 166 188 200 205 207 213 224 225 232 239 250 256 261 262 265 268 271 273 277 287 292 293 294 0
78 159 160 166 172 176 200 205 207 208 213 220 224 225 239 250 251 253 256 262 268 270 273 279 281 293 0
78 159 172 177 179 200 204 205 207 213 220 222 224 225 237 239 249 250 251 254 261 268 279 293 294 296 0
79 141 145 146 151 158 161 163 165 166 168 169 185 188 198 207 224 238 240 258 262 270 273 275 286 303 0
80 137 140 141 143 144 145 146 154 159 160 161 162 169 171 175 204 207 208 214 225 239 255 268 279 295 0
80 139 140 141 145 155 159 160 161 169 175 194 196 206 207 208 213 214 224 232 246 255 265 268 273 282 0
80 140 141 143 144 146 155 159 160 163 169 175 191 195 199 202 206 207 208 214 224 239 246 249 254 271 0
80 140 141 143 144 148 149 152 155 159 160 161 163 169 175 188 195 202 207 208 211 214 217 249 271 280 0
80 140 141 143 144 148 149 159 160 161 169 170 171 176 181 185 202 204 206 207 208 214 217 222 249 295 0
80 140 141 143 144 152 155 159 160 161 163 164 166 169 171 176 188 195 207 208 211 214 232 255 277 280 0
80 140 141 144 146 149 158 159 160 169 171 181 195 198 204 206 207 208 214 221 239 249 255 268 270 295 0
80 140 141 144 146 150 155 159 160 161 169 171 202 206 207 208 214 221 222 233 247 249 265 268 282 293 0
80 140 141 144 146 150 155 159 160 161 169 171 202 206 207 208 214 221 225 233 239 249 268 282 285 293 0
80 140 141 144 148 155 159 160 161 169 171 194 206 207 208 214 221 222 232 233 249 255 282 283 293 296 0
80 140 141 144 149 155 159 160 161 164 166 169 171 176 181 188 194 195 206 207 208 214 255 277 282 293 0
80 140 141 144 150 155 159 160 161 169 171 185 195 202 207 208 211 214 216 221 224 225 232 233 254 295 0
80 140 141 144 152 155 158 159 160 169 175 176 188 191 195 206 207 208 214 216 249 255 268 271 293 295 0
80 140 141 144 155 159 160 164 169 170 175 188 194 195 198 199 206 207 208 214 232 249 255 268 271 295 0
80 140 141 144 159 160 169 171 176 191 194 195 199 204 207 208 211 214 232 255 268 270 280 282 283 303 0
81 136 139 144 145 146 151 156 157 159 160 163 166 177 180 181 187 191 194 212 215 223 224 263 270 290 0
81 138 142 144 146 151 156 157 159 160 163 172 181 194 199 202 208 212 215 223 263 270 274 277 279 281 0
81 143 144 145 146 147 150 151 156 159 160 161 166 168 169 172 177 194 208 212 215 224 240 263 267 268 0
82 136 137 138 139 140 141 142 144 146 160 162 166 170 172 173 175 177 180 200 214 249 255 260 263 302 0
82 136 137 138 141 142 144 145 150 155 163 166 172 173 175 199 202 205 214 224 229 246 280 292 300 302 0
82 136 137 140 141 143 145 147 148 149 159 160 169 173 174 176 177 188 196 204 205 212 225 226 257 293 0
82 136 138 139 140 142 145 148 149 150 156 159 161 163 167 168 173 174 177 199 216 232 233 240 288 303 0
82 136 138 140 142 145 148 149 150 153 156 159 161 163 167 168 173 174 175 177 193 196 199 216 233 235 0
82 136 139 140 141 144 145 147 154 155 160 169 170 171 173 174 178 196 205 225 226 237 238 259 287 292 0
82 136 140 141 143 145 147 154 169 173 175 188 192 196 204 205 212 224 225 226 251 261 263 283 287 293 0
82 136 145 148 149 150 156 159 168 172 178 180 184 197 204 207 216 218 240 242 249 253 277 288 296 300 0
82 137 138 139 140 141 142 150 153 160 162 166 172 173 175 177 180 188 198 199 208 233 246 275 300 302 0
85 136 137 139 144 147 149 154 155 158 159 160 168 171 173 188 223 224 255 261 265 276 278 280 291 295 0
99 139 141 144 151 155 157 158 161 162 163 170 172 178 194 215 219 240 265 277 280 287 293 295 298 299 0
102 136 137 138 139 142 144 145 148 152 155 159 168 172 174 177 178 183 192 212 215 261 272 276 292 300 0
102 136 137 139 142 144 145 148 159 160 168 172 173 174 177 178 183 189 192 212 215 218 272 288 292 300 0
102 136 137 140 144 145 146 150 151 158 159 162 165 168 170 171 175 183 192 214 226 233 284 287 296 302 0
102 136 137 140 145 146 147 159 162 164 165 167 168 171 172 175 183 184 188 192 219 233 239 244 287 290 0
102 136 137 140 145 146 157 159 165 168 170 171 172 181 183 184 188 190 192 219 228 233 239 244 284 287 0
102 136 137 144 145 146 150 159 165 168 170 171 172 177 183 184 192 219 228 233 239 240 244 255 290 300 0
102 136 137 145 146 155 159 165 168 170 171 175 180 183 184 188 190 192 199 214 226 228 255 257 287 296 0
102 136 137 145 146 159 165 167 168 171 172 177 181 183 184 188 190 192 219 226 233 244 253 284 292 302 0
102 137 139 142 145 146 149 151 152 155 171 183 189 198 200 202 206 209 215 229 242 245 257 270 274 288 0
102 143 145 149 150 151 156 157 160 162 163 164 166 167 172 176 247 262 270 271 274 275 276 278 280 284 0
104 140 142 144 146 148 152 154 159 162 167 171 172 175 177 188 189 190 193 201 226 240 269 291 293 295 0
106 136 137 139 143 145 148 149 150 151 152 155 156 160 164 168 180 232 242 243 253 255 280 282 288 301 0
106 136 138 141 145 149 156 165 166 167 173 180 188 189 198 216 219 234 236 240 244 250 265 268 286 292 0
106 136 139 140 141 142 143 144 155 166 170 173 175 177 180 199 205 207 208 214 221 234 249 271 280 300 0
123 136 137 140 145 146 155 159 162 163 165 168 169 171 172 177 183 184 188 192 199 239 244 268 272 302 0
130 136 138 139 146 147 148 163 164 170 181 189 191 195 204 205 213 215 222 239 240 242 244 275 292 298 0
130 138 139 145 146 147 160 167 176 177 189 191 192 193 194 195 205 213 216 229 239 256 270 275 292 298 0
131 136 139 140 142 143 144 148 149 150 151 156 163 166 168 176 180 195 207 216 218 240 257 268 269 272 0
132 136 137 139 142 143 145 150 151 156 166 168 180 193 197 202 215 216 232 233 253 256 270 271 285 301 0
132 137 138 139 142 143 145 148 150 151 155 156 159 177 178 233 236 238 239 240 242 265 272 288 292 295 0
132 137 139 140 142 143 145 148 151 153 156 157 160 165 175 177 193 197 233 235 236 238 239 288 293 295 0
132 137 139 142 143 145 149 150 151 156 163 166 180 197 202 207 215 221 236 256 262 270 271 275 285 286 0
132 139 142 143 145 146 148 149 150 151 155 156 160 163 168 180 212 214 217 255 262 270 271 274 285 288 0
132 139 143 145 146 148 149 150 151 154 155 156 160 163 169 180 193 204 212 216 236 258 271 274 275 280 0
133 136 142 143 144 150 153 160 162 163 164 170 178 181 182 184 187 188 193 194 200 204 214 217 247 257 0
133 136 142 143 144 150 153 160 162 163 164 170 178 181 184 187 188 193 194 200 204 214 217 247 257 277 0
134 136 139 145 147 151 156 158 161 164 168 172 174 180 212 215 218 220 222 229 240 255 267 270 289 292 0
134 137 142 144 146 151 152 154 155 158 166 167 172 174 177 188 189 190 226 239 240 245 253 269 275 284 0
134 138 139 145 146 151 156 157 158 159 164 172 174 180 200 208 215 220 222 229 240 270 279 286 289 292 0
134 138 139 145 151 156 158 159 162 164 168 172 174 175 178 208 212 214 215 218 220 229 268 270 271 287 0
135 136 137 139 140 145 146 147 159 164 165 168 171 175 183 184 188 192 201 233 239 255 257 272 281 287 0
135 136 138 139 143 145 147 155 160 171 172 173 174 177 179 182 184 188 198 200 201 214 224 236 241 288 0
1 136 139 145 166 188 198 205 206 213 222 224 225 234 246 250 251 253 255 256 260 261 268 271 277 287 292 0
1 136 140 143 144 162 164 166 169 188 197 200 204 206 207 223 224 225 239 251 257 261 268 269 270 294 295 0
1 136 140 143 147 154 159 160 162 170 199 212 224 227 233 240 249 250 257 259 263 265 279 280 283 285 302 0
1 136 143 151 172 179 182 185 212 223 224 240 244 250 253 259 260 261 265 269 278 280 282 285 292 293 299 0
1 137 138 149 153 154 159 160 162 170 172 178 185 205 208 212 250 251 259 269 272 280 283 285 292 293 295 0
1 138 140 143 162 163 169 193 197 199 200 205 207 208 218 224 239 251 255 257 259 261 270 278 279 280 303 0
1 138 140 143 163 170 179 188 200 204 206 207 225 240 250 257 260 261 262 265 270 279 282 283 288 293 298 0
1 138 140 159 160 170 204 205 208 212 223 230 240 249 250 251 257 259 263 269 280 281 282 283 285 293 299 0
1 139 145 155 159 174 189 197 201 204 205 207 213 220 224 234 246 250 254 261 264 268 280 281 287 289 292 0
1 139 148 149 154 159 165 168 177 183 188 189 201 204 205 213 222 224 228 232 251 254 261 264 277 280 296 0
1 139 160 179 183 187 189 201 204 205 207 213 220 222 224 231 239 254 260 264 265 268 269 273 279 280 300 0
1 140 154 158 159 162 183 184 187 205 213 215 220 224 231 239 251 253 254 256 261 264 268 269 279 280 300 0
1 140 154 159 162 166 172 174 187 205 206 208 213 220 224 225 231 239 250 253 256 261 268 273 279 281 300 0
1 140 159 162 187 188 196 204 205 206 207 213 224 225 234 246 250 253 254 261 262 265 271 277 279 285 300 0
1 143 163 204 206 208 212 224 235 249 250 257 259 260 261 263 265 269 270 271 272 278 280 288 292 293 303 0
1 145 147 159 166 183 197 198 204 205 206 208 212 220 221 224 225 239 246 264 268 271 279 287 293 294 301 0
1 149 163 188 204 205 206 212 224 225 235 237 250 251 257 260 261 262 263 270 278 279 282 285 288 293 303 0
1 159 177 185 187 197 205 213 219 224 234 246 250 251 253 254 256 261 262 264 273 277 279 280 289 293 294 0
2 138 143 152 166 168 172 184 186 190 197 198 204 205 212 213 220 227 240 248 253 255 262 266 268 269 303 0
2 142 145 161 166 168 190 191 193 197 204 205 206 211 222 224 225 226 237 239 250 253 265 273 291 292 293 0
3 138 140 153 170 172 173 188 197 199 209 212 213 220 223 239 245 248 253 262 268 278 287 288 295 298 300 0
3 138 143 158 159 160 163 164 170 172 188 189 197 201 209 212 213 218 223 227 239 255 277 278 282 288 300 0
3 142 166 170 172 177 188 191 197 198 199 200 204 205 212 213 224 234 250 262 277 279 280 283 288 293 294 0
3 146 149 154 158 163 165 170 172 176 177 188 191 196 204 205 235 241 247 250 266 269 279 283 288 291 298 0
3 150 167 169 170 172 186 191 200 207 216 232 246 247 250 251 261 269 273 274 278 280 281 291 292 298 299 0
3 154 160 167 170 172 184 188 196 197 198 199 204 239 240 241 250 251 264 274 279 280 281 283 288 291 298 0
6 136 138 141 144 146 150 152 157 161 163 165 166 168 176 182 190 202 203 218 232 233 238 239 244 293 296 0
7 136 140 159 167 170 172 183 185 188 198 199 209 212 220 221 224 240 241 266 271 277 287 288 292 293 294 0
7 142 170 172 182 183 186 188 189 191 198 201 208 209 212 219 221 224 235 250 266 271 277 287 295 299 300 0
7 149 153 154 170 180 183 186 195 196 197 198 199 212 221 231 235 239 241 260 264 265 274 283 285 292 293 0
7 159 164 170 172 173 176 183 188 191 198 209 210 213 221 224 230 235 239 247 250 253 262 277 299 300 303 0
9 136 159 166 167 169 170 188 197 204 210 212 217 220 222 227 236 240 262 268 282 283 286 287 292 293 294 0
9 145 159 160 163 176 188 189 196 201 205 218 220 239 250 254 256 262 265 268 270 271 273 280 281 288 292 0
11 137 154 170 179 185 188 206 208 210 212 227 231 235 245 248 250 260 261 265 269 271 278 280 281 288 292 0
11 140 154 170 172 197 205 208 210 221 222 239 240 244 250 253 254 256 260 266 269 270 271 277 287 294 296 0
11 141 145 147 150 163 185 191 196 197 204 205 206 211 221 224 225 228 230 240 244 245 261 265 283 288 303 0
11 146 149 163 176 197 205 208 209 220 221 224 239 240 244 246 263 269 271 277 278 287 289 297 299 300 303 0
11 149 154 159 160 163 164 166 167 209 213 218 220 223 237 239 242 247 253 268 278 282 289 292 293 299 300 0
11 160 162 163 172 185 191 195 196 209 213 215 220 221 224 225 234 235 247 253 260 262 264 268 278 282 300 0
12 64 136 137 138 139 154 160 165 169 175 176 177 178 204 216 226 239 241 249 259 265 271 280 283 284 300 0
12 136 138 139 155 156 159 162 165 178 183 184 205 207 222 223 254 264 270 272 277 286 288 289 292 295 301 0
12 136 140 143 144 146 148 155 159 160 163 166 177 190 192 199 212 218 250 257 265 268 273 279 285 290 302 0
12 137 138 139 142 150 160 164 166 174 176 178 184 188 199 205 206 221 225 231 245 249 268 277 288 300 302 0
12 138 139 142 151 155 156 159 162 163 165 172 178 200 205 214 218 220 223 244 250 254 268 279 288 289 301 0
12 140 144 148 150 156 159 161 177 183 190 192 193 199 213 215 218 226 229 246 254 257 264 270 279 282 303 0
12 144 148 155 159 161 172 177 183 190 195 199 208 218 226 240 244 254 264 266 269 271 282 284 285 293 302 0
13 156 159 183 188 189 196 201 207 213 220 222 227 234 246 251 254 256 261 264 268 269 271 279 280 296 300 0
14 136 137 140 141 143 145 147 150 154 165 168 169 171 177 181 204 205 225 226 229 245 259 261 265 271 293 0
14 136 140 141 145 147 149 154 160 169 171 173 196 205 226 229 237 251 256 259 263 264 271 280 283 287 293 0
14 136 140 141 145 147 154 169 173 175 182 190 192 205 226 229 237 256 259 261 263 265 271 280 287 292 293 0
14 139 140 148 156 157 161 165 174 181 185 187 188 197 200 205 206 208 211 226 248 253 258 260 270 286 301 0
15 139 147 155 163 166 169 172 174 177 179 183 184 198 200 207 233 234 248 259 273 277 278 286 288 292 293 0
15 139 149 154 169 184 186 187 189 191 201 204 210 212 224 225 231 234 240 248 251 257 268 285 286 288 297 0
15 159 161 164 191 193 197 204 209 228 230 239 240 241 244 250 254 262 266 274 278 279 281 292 293 298 301 0
16 136 137 140 144 145 149 159 179 188 191 204 205 212 215 216 224 235 250 255 257 270 273 281 285 288 293 0
16 136 138 142 144 146 150 153 154 155 158 162 170 171 172 176 190 194 201 204 205 214 216 221 233 235 243 0
16 137 138 139 159 160 176 181 197 198 204 205 212 213 220 224 225 239 250 251 253 254 268 269 273 280 292 0
16 137 138 140 144 159 160 162 188 189 204 205 208 212 223 225 240 248 250 257 265 269 272 278 285 294 299 0
16 137 138 142 143 154 164 178 188 204 212 218 227 251 257 261 270 271 276 280 282 285 288 291 293 301 302 0
16 137 139 140 162 168 184 187 194 197 205 212 213 224 227 250 251 253 254 256 260 261 269 277 280 287 302 0
16 137 139 147 155 160 166 178 188 189 201 205 207 213 222 224 225 234 246 250 260 265 268 269 277 287 292 0
16 137 139 159 160 168 187 189 196 197 201 204 205 212 213 217 224 250 254 265 269 273 277 280 281 292 300 0
16 137 139 176 189 197 201 205 207 213 220 224 225 239 250 254 256 260 264 268 269 270 279 280 281 289 300 0
16 137 140 142 143 145 149 159 160 162 164 166 169 171 173 177 190 193 205 214 244 258 267 268 273 294 295 0
16 137 140 142 149 162 178 192 194 199 204 205 212 223 224 230 237 246 249 257 259 261 265 276 279 280 283 0
16 137 140 143 162 163 188 199 208 212 224 225 230 235 249 250 257 260 261 263 265 269 271 283 296 300 303 0
16 137 140 148 149 154 159 160 162 165 174 191 197 204 205 207 213 220 224 225 229 232 239 253 268 296 300 0
16 137 140 149 157 159 162 163 166 178 204 205 212 219 224 225 227 235 250 251 257 259 261 269 278 279 303 0
16 137 140 154 160 163 172 204 205 207 213 215 224 225 240 241 248 250 259 260 270 273 279 288 293 300 303 0
16 137 140 156 162 177 183 197 205 207 208 221 224 225 228 239 246 254 256 260 264 266 269 271 277 296 300 0
16 137 145 150 160 166 176 187 189 196 204 205 207 213 220 224 234 250 253 259 260 265 268 280 281 292 293 0
16 137 145 160 168 183 187 196 204 205 207 213 215 222 224 253 254 260 264 265 270 277 280 281 292 293 300 0
16 137 145 160 174 183 187 189 192 196 201 204 205 207 213 217 224 234 254 260 264 273 277 279 280 293 300 0
16 137 166 188 189 191 192 201 205 207 212 213 219 220 222 224 225 246 250 260 262 268 271 279 293 296 300 0
16 142 143 146 150 154 155 156 158 162 168 170 172 176 190 201 205 212 221 232 233 238 239 245 247 258 284 0
18 136 137 139 146 149 154 157 160 166 170 176 185 190 204 210 212 220 222 226 240 246 253 268 278 287 296 0
18 136 141 146 150 155 164 170 171 173 188 193 200 202 203 207 217 221 224 228 253 267 270 271 278 280 302 0
18 136 144 148 149 166 168 172 184 187 188 189 197 198 204 207 210 220 234 235 248 253 255 262 268 270 286 0
18 139 147 152 154 155 160 166 168 172 184 189 197 198 201 205 207 210 218 220 236 240 248 268 269 286 297 0
18 147 149 155 157 160 163 166 169 187 188 189 191 197 201 212 213 234 236 240 246 248 250 257 262 273 288 0
20 142 146 149 152 154 160 163 166 176 186 204 210 212 213 222 224 225 235 246 263 277 283 285 296 299 300 0
20 142 154 165 166 172 180 181 191 195 196 197 200 204 211 217 218 228 239 244 251 253 268 280 292 293 300 0
21 80 166 167 172 185 188 191 197 200 212 213 224 235 239 241 242 245 248 250 253 262 268 275 292 293 294 0
21 136 137 139 142 143 145 146 151 156 160 166 181 184 192 198 199 200 203 204 207 208 216 247 258 271 301 0
21 136 138 139 140 143 144 147 158 167 187 189 191 193 213 216 221 234 245 255 256 268 292 297 298 301 303 0
21 136 138 139 140 143 150 155 160 163 164 167 168 172 180 193 195 209 210 212 213 215 216 285 288 297 298 0
21 138 139 140 142 143 144 150 160 164 167 168 172 180 209 212 213 215 216 234 270 283 285 288 297 298 301 0
21 138 139 140 143 144 150 153 155 162 164 167 168 172 174 180 194 195 197 210 212 216 271 280 292 298 301 0
21 138 139 140 143 150 153 155 160 162 164 166 167 172 174 180 193 209 210 212 216 268 271 280 292 298 301 0
21 138 139 140 143 150 155 160 162 164 167 168 172 180 193 209 212 215 216 218 229 268 271 280 283 297 298 0
21 138 139 140 143 150 158 160 164 167 172 180 193 195 197 209 210 212 213 215 216 268 280 288 292 298 301 0
21 139 159 160 166 170 172 176 188 194 197 201 204 205 207 209 212 213 218 223 227 239 253 277 283 288 292 0
21 149 154 170 172 176 188 199 201 205 208 209 221 224 236 237 239 240 241 242 247 253 263 266 271 283 300 0
22 136 137 140 144 145 149 154 160 162 169 175 177 178 179 189 196 205 207 218 237 241 246 256 259 265 280 0
23 138 139 143 156 159 168 172 187 188 201 205 206 208 211 213 224 225 231 251 254 255 256 261 269 273 300 0
23 140 142 162 172 178 188 191 196 197 201 205 211 212 213 224 225 231 239 251 256 261 269 273 276 280 294 0
36 136 149 153 159 160 164 166 173 176 205 209 214 220 221 224 234 235 247 262 266 268 269 271 287 288 300 0
36 145 166 199 200 204 205 207 208 221 224 225 235 241 253 260 264 268 270 271 279 283 286 287 293 294 299 0
36 159 162 166 184 189 197 198 199 200 201 204 205 212 213 224 240 241 250 268 269 280 283 286 287 294 299 0
37 136 140 144 160 162 178 185 188 193 196 200 204 206 207 225 235 246 250 251 255 257 260 262 269 270 278 0
37 140 159 170 174 177 188 189 196 197 201 204 207 213 226 239 240 244 250 254 261 262 263 269 277 280 300 0
37 145 154 159 168 172 177 184 189 201 204 208 221 222 225 231 250 254 261 265 270 271 277 279 280 282 294 0
44 142 145 149 150 154 166 168 177 178 182 187 199 209 212 216 220 233 239 259 268 271 274 287 289 291 303 0
44 143 144 145 148 151 152 155 158 159 161 163 176 178 188 190 200 204 208 215 221 224 240 277 282 296 300 0
44 143 144 148 149 151 155 159 161 178 190 191 199 200 204 222 223 224 243 245 254 263 266 277 283 294 295 0
45 138 139 142 143 159 162 163 182 189 197 201 209 212 218 223 232 239 255 257 276 277 283 287 292 293 303 0
46 140 144 148 155 161 162 166 172 188 190 193 197 199 218 239 240 244 246 250 260 265 268 272 279 285 302 0
46 140 144 148 155 163 172 177 180 190 192 199 208 218 219 228 250 254 260 266 268 271 279 284 290 295 303 0
46 144 148 155 158 161 166 172 177 183 190 192 208 218 226 233 260 264 265 266 268 269 271 272 285 293 302 0
47 136 138 147 157 164 167 174 177 188 189 191 193 195 204 205 215 216 223 224 225 231 234 240 244 270 301 0
48 139 140 144 146 149 154 159 162 166 172 173 176 188 189 197 205 221 224 226 228 237 239 248 262 280 287 0
49 136 138 142 149 160 170 191 200 204 205 206 207 218 225 237 244 259 265 269 270 276 283 286 288 293 298 0
49 136 140 143 154 160 166 170 191 200 204 207 216 218 224 227 229 240 244 251 259 269 270 278 280 293 299 0
49 138 149 157 163 164 170 172 188 197 205 208 212 214 215 227 237 239 248 261 262 265 273 280 288 293 298 0
49 139 140 160 162 166 170 188 191 193 199 205 206 208 212 218 223 224 225 227 240 244 249 251 258 269 283 0
49 142 143 154 160 162 163 164 166 170 172 188 193 197 208 212 216 224 227 239 240 265 269 276 280 292 293 0
50 139 140 146 148 156 157 161 163 165 169 174 184 185 188 204 205 208 211 222 232 237 248 253 258 270 286 0
52 136 137 140 141 145 147 149 154 155 169 175 177 180 181 188 196 205 207 218 225 226 231 243 251 261 293 0
52 136 137 140 141 145 154 160 165 169 171 177 178 181 188 192 196 205 207 218 225 233 256 265 270 293 295 0
52 137 140 148 150 154 157 160 162 166 167 174 177 180 184 196 197 199 207 218 219 229 240 241 251 255 275 0
54 142 148 153 164 165 179 183 184 198 199 205 207 214 223 232 241 260 262 264 265 269 276 279 281 282 298 0
54 145 154 159 160 170 172 183 184 186 188 197 198 199 205 206 211 214 224 225 241 264 265 283 291 292 299 0
54 146 149 150 159 160 163 168 170 172 191 213 230 231 240 247 250 251 262 274 279 280 283 287 288 296 298 0
56 136 139 143 145 147 150 153 156 158 161 164 172 174 181 182 184 212 214 218 220 229 239 240 255 267 297 0
56 139 142 145 149 150 153 161 163 164 170 181 183 184 197 206 220 239 248 264 270 275 276 283 286 289 302 0
58 136 139 143 145 147 153 155 161 164 168 172 174 181 186 194 197 205 208 215 217 218 239 266 268 283 292 0
58 139 142 144 145 146 153 155 158 159 163 164 169 174 188 189 192 198 208 213 217 226 228 236 239 240 261 0
62 136 137 138 140 145 148 159 161 162 168 174 175 177 178 183 188 192 212 219 258 264 286 288 289 297 303 0
64 137 139 140 141 142 144 145 155 158 163 164 165 166 170 171 181 182 188 217 219 238 263 268 276 290 292 0
64 137 139 140 142 144 145 155 163 164 165 168 169 171 174 180 181 199 217 219 238 240 249 260 273 279 290 0
67 138 139 144 151 153 155 158 159 162 163 165 178 192 197 204 219 226 233 235 239 261 265 277 291 295 299 0
68 136 140 146 147 148 150 152 153 156 164 168 175 177 192 194 197 202 204 214 232 233 235 240 264 292 293 0
76 138 139 140 142 149 152 154 155 157 159 163 166 177 185 188 193 195 207 208 214 221 240 244 258 273 291 0
77 150 152 161 174 183 185 188 197 198 200 205 207 211 220 232 239 260 263 277 284 286 289 292 297 300 303 0
78 136 137 138 140 141 142 144 147 150 154 159 163 166 171 173 174 197 200 204 205 211 215 239 286 295 302 0
78 136 140 146 147 148 149 150 152 164 165 167 168 171 192 201 202 203 204 218 226 240 244 255 268 271 290 0
78 155 166 174 183 192 197 200 204 205 213 220 224 239 253 260 261 262 264 268 279 280 281 287 289 293 294 0
79 136 137 139 145 146 149 152 154 159 163 170 177 179 188 189 193 197 199 202 214 215 236 241 249 265 270 0
80 140 141 143 144 146 152 159 160 161 163 169 171 176 204 206 207 208 214 217 222 255 268 270 275 287 293 0
80 140 141 143 159 160 162 169 175 185 195 196 197 198 199 202 204 207 208 211 213 214 232 239 268 280 293 0
80 140 141 144 146 148 150 152 155 159 160 169 171 176 188 195 198 199 202 206 207 208 214 222 224 282 287 0
80 140 141 144 146 149 150 155 159 160 161 162 169 171 174 176 181 195 202 207 208 211 214 239 249 268 280 0
80 140 141 144 146 155 159 160 161 169 171 194 207 208 211 214 221 222 225 232 249 255 268 275 282 287 293 0
81 136 139 144 146 150 151 156 159 160 161 181 194 197 202 207 215 220 223 224 226 239 246 269 270 272 290 0
82 136 137 140 141 145 147 162 169 170 173 176 188 190 192 205 221 225 226 237 249 256 261 264 265 273 287 0
82 136 140 141 143 145 147 154 169 171 173 177 179 182 188 190 192 205 212 225 226 251 256 261 263 292 293 0
82 136 140 141 144 145 147 149 154 169 173 175 196 204 205 225 226 229 237 251 259 261 263 270 283 287 293 0
82 140 142 143 146 148 149 153 156 162 163 164 165 167 168 170 190 212 215 216 218 233 235 239 269 271 301 0
82 140 142 143 148 149 153 156 162 163 164 165 167 168 170 173 190 192 207 215 216 218 233 235 269 271 301 0
83 136 137 139 142 143 145 148 150 151 155 167 171 174 180 184 197 198 202 212 217 221 233 270 275 280 301 0
83 136 137 139 142 143 145 148 150 151 155 170 171 180 184 188 197 198 202 207 221 233 270 275 285 286 301 0
84 136 137 140 142 145 146 155 159 164 165 168 169 171 188 192 195 216 218 239 255 270 272 284 287 295 302 0
85 137 141 142 143 146 149 150 154 155 158 161 162 163 166 175 176 190 201 204 205 221 268 269 283 292 293 0
85 138 139 140 142 143 145 147 150 153 155 157 164 170 171 172 180 184 188 198 200 235 241 250 258 280 283 0
102 136 137 139 145 146 147 159 164 165 167 168 169 171 175 180 183 184 188 190 192 207 219 257 270 284 287 0
102 136 137 140 145 146 157 159 165 168 170 171 172 183 184 188 190 192 219 226 228 233 239 244 283 284 287 0
102 136 137 145 146 159 165 167 168 171 172 177 181 183 184 188 190 192 219 226 233 244 253 255 283 284 302 0
102 139 143 145 146 148 150 151 156 157 160 162 163 164 166 167 175 205 212 225 227 233 239 262 271 278 280 0
106 136 137 139 142 143 145 150 151 152 155 156 160 166 167 168 172 174 180 224 233 258 271 274 282 285 301 0
106 136 138 141 145 156 157 160 165 167 168 177 179 181 188 189 197 202 216 224 230 231 233 250 286 292 301 0
106 136 138 145 146 156 157 164 165 166 168 170 174 177 188 189 197 216 233 236 240 241 242 244 268 292 300 0
106 136 140 143 144 146 147 149 152 153 156 161 164 166 170 171 172 173 176 177 184 199 216 217 219 250 268 0
106 139 141 143 145 150 151 154 155 160 163 164 166 167 168 174 180 197 216 224 232 233 242 255 256 278 285 0
123 136 137 138 145 146 151 155 159 161 165 168 169 170 171 177 181 183 188 192 214 228 239 240 244 245 301 0
130 133 138 139 145 147 149 167 168 175 177 187 189 191 193 197 204 205 213 216 218 221 263 270 292 298 301 0
130 136 138 139 140 146 147 163 164 167 175 177 180 187 188 189 191 192 213 216 234 256 268 269 270 297 298 0
130 136 138 139 144 146 147 158 164 170 187 189 191 197 204 205 213 215 222 224 225 231 239 255 275 292 301 0
130 138 139 140 143 150 155 160 164 167 168 172 175 180 193 209 210 212 213 215 216 280 288 297 298 300 301 0
130 138 139 143 146 147 148 163 164 170 187 191 193 204 210 213 215 222 232 239 253 268 273 275 287 292 298 0
130 138 139 146 147 167 176 177 187 188 189 191 193 205 216 220 231 239 256 266 268 271 275 292 298 301 302 0
132 136 137 139 143 144 145 148 149 150 160 164 172 176 180 200 204 213 215 217 224 242 255 262 278 285 301 0
132 139 142 143 145 146 150 151 154 155 156 160 166 167 168 172 174 180 212 216 217 224 233 255 271 285 301 0
135 136 137 140 144 145 146 150 155 157 159 165 168 169 171 172 179 183 184 192 219 220 228 239 244 255 287 0
1 136 138 140 143 148 149 154 160 162 164 179 204 212 223 227 235 237 250 251 257 259 260 279 280 298 299 302 0
1 136 160 163 166 169 170 172 188 197 205 206 212 214 218 224 225 239 240 249 265 269 272 283 292 293 299 303 0
1 137 140 149 154 159 162 163 164 200 204 205 207 218 224 240 248 250 257 259 261 265 269 270 271 280 294 299 0
1 137 143 144 149 160 185 188 204 208 212 223 224 235 250 257 260 262 265 270 273 278 279 280 288 292 293 294 0
1 138 140 154 159 162 163 183 185 200 205 207 227 240 244 251 257 259 261 263 264 270 272 278 279 280 298 299 0
1 138 143 160 166 170 195 196 204 212 223 227 240 250 251 257 259 260 262 263 270 278 279 280 282 285 293 299 0
1 139 143 156 160 168 189 194 196 197 201 205 206 207 213 224 225 246 250 251 254 255 256 260 269 277 279 300 0
1 139 145 154 159 174 183 188 189 194 201 204 205 207 213 224 227 239 246 254 261 264 271 277 280 287 292 303 0
1 139 145 178 184 188 189 205 212 213 222 224 231 234 242 249 250 251 253 254 256 260 261 277 279 280 281 300 0
1 139 150 172 176 183 189 197 198 204 205 206 213 224 225 239 254 259 260 264 268 269 271 277 285 287 292 296 0
1 139 154 165 166 170 172 178 191 198 205 207 213 224 234 240 244 253 256 261 265 268 272 277 280 289 296 300 0
1 140 160 162 166 174 177 187 188 205 206 213 217 224 225 239 246 250 253 256 260 268 269 271 277 279 282 294 0
1 145 159 160 166 174 179 189 201 205 207 208 215 220 221 224 231 239 242 249 250 256 268 271 280 292 293 300 0
1 145 159 166 182 187 188 197 205 207 213 220 222 224 231 239 250 251 253 256 261 268 271 279 280 285 293 300 0
1 149 154 159 160 165 168 183 187 188 189 197 204 205 213 224 231 251 253 254 264 270 271 277 280 285 293 300 0
1 154 160 179 185 197 204 205 206 212 214 223 224 225 227 235 239 250 257 259 260 265 270 279 282 283 288 293 0
2 80 137 138 140 143 144 166 169 170 172 188 197 198 205 210 221 242 250 255 256 266 270 271 275 277 280 300 0
2 80 138 140 143 144 150 151 169 172 198 199 211 221 224 242 250 255 260 266 270 271 274 275 277 280 293 300 0
2 82 148 152 179 184 185 187 188 189 191 197 201 204 210 212 214 220 224 225 235 237 239 245 248 262 285 288 0
2 82 148 170 184 197 198 199 204 208 211 212 220 239 240 241 250 251 260 263 277 279 285 288 292 297 300 303 0
3 136 137 166 170 188 198 199 200 204 205 212 213 224 240 241 253 264 265 266 269 277 280 283 288 292 293 294 0
3 140 145 146 149 150 154 159 160 170 172 174 177 183 191 218 226 231 235 236 246 247 264 274 280 288 298 300 0
3 154 163 170 172 184 186 188 196 198 199 205 216 240 241 250 261 265 266 269 273 280 283 292 293 298 299 300 0
4 139 142 166 186 187 188 189 197 198 199 204 210 212 218 222 234 235 248 253 262 268 278 286 291 297 299 300 0
7 138 159 160 164 170 172 186 188 191 196 209 211 213 218 240 241 253 262 264 265 269 274 279 280 281 286 298 0
9 146 147 155 161 166 167 168 170 186 188 189 198 210 212 220 222 235 240 248 262 266 268 279 286 287 293 294 0
10 137 138 139 143 145 146 147 148 149 152 159 171 178 186 188 189 197 211 216 221 230 242 257 270 271 275 283 0
11 136 137 144 149 154 159 160 163 165 173 183 184 191 200 207 223 227 235 249 255 257 265 270 278 279 286 288 0
11 140 145 146 149 150 158 164 170 171 175 176 177 188 195 196 202 204 217 235 240 245 258 270 281 284 293 302 0
11 146 150 153 154 156 157 166 170 172 175 179 185 188 191 209 213 220 230 234 244 247 253 264 283 299 300 303 0
11 154 157 159 160 166 172 173 176 185 199 204 209 213 220 221 224 237 239 240 244 247 283 287 292 293 299 300 0
12 136 137 138 139 140 141 144 154 155 160 165 169 171 176 177 178 216 223 225 226 239 259 265 273 285 288 300 0
12 136 137 138 139 154 155 160 163 165 169 175 177 178 188 208 215 216 221 223 225 226 241 251 271 280 287 291 0
13 144 145 149 151 154 182 186 189 198 200 201 204 205 206 207 210 211 231 235 239 248 268 270 277 279 286 293 0
14 136 138 139 140 142 143 145 147 148 149 150 153 156 163 166 168 173 180 192 198 199 214 216 218 235 253 277 0
14 136 138 140 142 143 145 148 149 153 156 157 163 165 168 173 178 180 199 209 214 216 218 235 247 250 276 277 0
14 136 140 152 157 159 161 162 166 170 183 187 196 197 200 204 213 215 220 239 263 264 265 279 285 287 294 303 0
14 138 139 140 144 145 146 149 150 168 171 172 174 178 190 198 204 217 231 235 241 246 266 268 288 289 298 303 0
14 140 141 142 144 150 166 167 170 171 176 177 194 196 199 201 205 206 208 221 224 241 255 257 261 270 282 297 0
15 136 138 139 140 145 147 155 156 158 159 160 163 164 170 184 199 202 209 214 216 218 227 250 254 272 279 286 0
16 19 136 142 145 147 155 157 158 160 169 170 175 184 193 197 199 202 205 217 221 224 235 241 264 276 286 301 0
16 136 137 140 162 163 170 179 189 199 204 205 212 224 227 240 245 250 251 257 259 260 261 262 278 279 280 303 0
16 136 137 144 155 164 166 170 173 183 205 207 212 224 227 240 257 259 260 261 265 269 272 277 280 292 293 299 0
16 137 138 140 149 159 162 166 179 185 188 199 205 207 212 235 237 249 250 251 257 261 262 277 278 279 280 298 0
16 137 138 140 159 162 163 179 183 191 197 205 212 215 216 235 239 257 262 264 271 272 273 279 280 285 294 303 0
16 137 138 155 159 160 176 189 196 198 201 205 212 213 218 224 225 234 250 251 254 268 269 272 273 280 292 293 0
16 137 139 149 154 159 165 172 188 189 204 205 212 213 222 224 225 233 239 253 254 261 265 271 277 280 296 300 0
16 137 154 155 158 170 183 188 191 205 213 215 224 225 228 240 244 246 254 260 264 271 277 279 280 293 296 300 0
16 137 166 188 189 191 192 201 205 207 213 219 220 222 224 225 228 242 246 249 250 260 262 268 279 293 296 300 0
17 134 138 145 146 151 155 156 157 161 164 166 180 190 199 202 205 208 212 229 240 257 262 273 277 283 292 302 0
18 136 144 146 149 151 154 157 160 166 169 185 189 193 201 204 205 210 212 234 235 236 246 248 255 263 269 277 0
18 145 159 160 166 169 170 172 177 187 197 204 205 210 212 217 218 222 231 234 238 240 253 277 283 293 294 296 0
18 146 149 152 154 157 166 172 174 175 186 187 188 189 191 194 197 201 204 210 212 215 231 234 235 246 248 263 0
18 146 152 154 157 166 171 172 184 186 187 198 204 210 212 214 218 226 234 240 248 253 265 266 277 278 299 300 0
21 80 136 137 139 142 143 145 151 160 167 174 181 184 192 197 203 204 207 215 216 250 254 258 267 271 286 301 0
21 136 137 140 145 147 148 150 152 153 161 164 166 176 177 199 202 205 208 214 224 229 238 258 264 268 271 283 0
21 136 138 139 140 144 147 158 164 167 168 189 191 193 195 197 210 213 216 224 225 229 255 256 268 270 297 302 0
21 138 139 140 143 150 155 160 168 171 172 174 175 180 188 193 209 212 216 234 271 280 283 288 292 298 301 303 0
21 138 139 140 143 158 160 162 163 168 171 172 174 180 193 197 209 212 213 215 216 221 224 225 280 283 297 303 0
21 138 139 147 158 167 174 175 176 177 187 189 191 192 193 197 215 216 229 239 245 256 266 270 271 292 296 298 0
22 136 138 140 141 145 146 149 152 156 160 166 174 175 187 191 197 198 205 215 230 234 250 253 257 268 272 301 0
23 136 139 141 142 143 146 150 154 157 160 162 166 167 168 169 172 194 201 205 212 214 223 227 269 275 278 295 0
23 136 141 142 143 146 154 157 160 162 164 166 167 168 188 190 194 200 212 220 223 227 257 265 269 274 293 294 0
23 136 141 143 146 148 150 152 154 160 162 164 167 168 169 175 184 194 212 216 223 238 255 257 269 271 274 295 0
23 139 147 154 155 168 192 196 205 207 213 222 224 225 246 250 251 253 254 255 260 261 277 279 280 282 285 300 0
23 141 172 178 183 191 192 201 204 205 207 208 213 220 222 224 254 260 262 264 268 270 272 279 285 287 293 294 0
23 145 147 155 156 160 178 187 192 201 205 206 212 213 222 224 225 234 250 251 254 260 277 285 287 292 293 294 0
23 150 154 170 178 191 204 205 208 212 221 224 225 231 234 240 251 253 259 261 266 269 271 280 285 292 293 300 0
23 152 156 159 160 166 169 172 183 204 205 208 211 220 221 224 246 251 264 266 268 269 271 279 280 287 293 294 0
23 155 158 159 172 188 205 207 208 211 221 224 225 231 239 251 253 254 256 261 266 269 271 280 284 293 294 300 0
36 139 145 146 154 155 159 166 169 177 199 200 204 205 207 208 221 224 241 242 250 268 271 279 280 283 286 288 0
36 145 148 155 157 159 162 166 199 200 204 205 207 208 221 224 232 235 241 253 264 271 277 278 280 286 299 300 0
36 145 154 158 160 165 179 183 186 189 190 191 197 221 227 232 235 241 245 260 264 279 280 283 284 291 298 299 0
36 159 166 189 191 197 199 200 201 204 205 207 213 224 225 239 240 250 262 265 270 277 279 283 286 288 293 300 0
46 138 139 140 144 145 146 150 157 158 159 163 164 165 166 167 169 192 199 208 213 219 220 226 229 239 270 296 0
46 143 150 154 168 174 177 180 185 196 197 206 228 229 237 253 254 256 259 261 271 272 273 285 289 294 295 296 0
48 136 140 141 144 145 150 155 156 161 162 163 164 169 171 180 184 186 188 196 221 225 226 230 238 249 268 275 0
49 136 149 160 162 163 170 172 178 188 199 200 205 207 224 227 237 240 249 251 269 270 273 280 283 286 291 293 0
50 136 139 140 141 145 146 148 156 165 174 178 181 185 187 198 200 205 207 211 216 217 225 248 253 280 292 301 0
51 136 153 159 169 170 178 195 196 197 204 206 212 218 225 227 239 250 259 261 262 265 272 278 279 282 285 287 0
52 136 137 140 141 143 145 154 160 162 165 169 174 175 177 178 182 188 205 207 208 212 216 218 221 225 256 271 0
52 136 137 140 145 149 154 155 160 162 169 173 174 175 179 188 189 196 205 207 216 218 225 237 241 246 256 287 0
53 142 146 159 166 168 175 183 191 197 200 204 208 213 220 224 263 264 269 277 285 286 287 288 292 297 300 303 0
54 137 138 139 140 143 144 145 147 152 160 171 175 178 186 188 189 197 200 211 214 216 225 230 233 254 257 285 0
54 137 139 150 159 166 170 191 197 199 200 204 205 208 212 213 224 225 234 250 251 253 266 268 269 279 283 288 0
54 140 153 154 159 170 172 174 183 186 188 191 196 204 213 236 261 264 272 274 279 280 283 288 289 297 298 300 0
54 150 159 160 167 170 172 173 191 195 196 204 206 211 212 221 225 230 244 250 265 266 282 283 288 291 298 301 0
56 139 142 145 149 151 153 160 161 163 164 165 170 171 173 181 183 190 197 206 220 239 248 264 275 278 280 288 0
58 136 145 146 151 152 155 157 161 173 178 182 190 204 205 214 218 219 221 224 225 241 245 246 258 278 288 292 0
58 137 139 140 142 144 145 149 155 164 166 168 169 170 171 177 178 180 181 182 184 198 199 215 217 268 283 295 0
58 137 139 142 144 145 147 155 158 163 164 166 168 169 170 171 172 178 181 182 184 188 198 217 238 240 268 284 0
62 136 137 139 140 145 148 159 161 164 168 177 182 183 188 189 192 197 218 222 223 242 255 257 264 265 272 302 0
62 136 137 140 141 142 145 148 150 152 159 161 164 168 177 181 183 192 197 207 218 219 259 264 265 288 289 302 0
62 140 143 144 145 146 148 151 156 157 160 162 163 164 172 175 176 212 220 224 233 247 262 271 274 278 285 288 0
62 143 145 148 151 154 155 156 157 160 162 163 164 166 168 169 172 176 197 212 225 233 271 274 275 278 280 284 0
63 136 137 139 140 141 142 144 145 146 150 155 162 170 175 177 193 198 199 202 203 207 221 228 241 278 297 300 0
72 136 138 139 145 146 150 151 156 158 164 168 172 174 180 181 197 212 215 220 222 229 246 270 279 287 289 292 0
72 139 145 147 150 151 156 157 158 159 161 164 172 174 180 200 208 218 220 222 229 244 246 255 270 286 289 293 0
74 146 149 154 166 172 186 199 204 210 212 221 222 224 225 239 240 246 248 253 266 268 282 283 285 288 291 300 0
77 137 139 142 143 145 149 150 151 155 156 164 166 168 170 180 197 202 212 235 239 243 255 275 278 280 288 301 0
77 149 154 161 163 164 167 170 172 176 188 199 209 213 223 234 235 236 237 241 247 253 264 277 282 287 288 294 0
78 137 139 154 155 160 169 172 178 184 188 189 192 201 205 207 208 213 224 225 231 234 246 254 256 265 279 300 0
78 138 139 140 142 144 145 153 155 157 168 171 172 174 178 180 182 190 218 222 228 232 240 266 287 288 293 303 0
78 139 150 159 178 189 197 200 201 205 213 224 231 239 250 254 256 259 261 262 264 265 271 273 277 279 280 300 0
78 139 159 166 183 185 188 200 205 207 213 220 224 225 239 245 251 253 256 261 264 268 269 270 271 281 287 292 0
78 140 154 160 162 166 169 183 196 204 205 207 208 220 221 222 224 225 234 251 253 260 264 266 268 271 279 300 0
78 140 162 166 172 188 189 200 205 208 212 221 224 225 231 239 251 253 256 261 263 266 268 269 271 279 287 294 0
78 147 149 150 154 159 169 172 204 205 207 213 222 224 234 250 254 259 261 265 271 277 279 280 287 293 294 301 0
78 150 160 172 174 176 189 196 197 200 201 204 205 208 221 224 239 250 254 259 260 266 269 271 277 279 280 293 0
78 160 170 183 184 189 197 200 201 205 213 224 234 240 244 254 256 260 264 265 269 270 277 280 287 292 293 294 0
80 136 137 139 148 150 151 153 154 155 161 163 172 176 188 195 200 205 206 207 224 232 255 269 270 271 282 284 0
80 137 139 140 141 143 152 153 154 159 160 161 169 175 196 200 204 207 208 213 214 222 224 255 268 280 282 286 0
80 137 140 141 143 152 154 158 159 160 169 175 188 195 196 198 204 207 208 214 222 225 255 268 271 282 285 293 0
80 137 140 141 144 145 146 152 158 159 160 161 162 164 166 169 171 173 204 205 207 208 211 219 255 258 270 280 0
80 137 140 141 152 154 159 160 161 169 175 177 195 196 204 207 208 214 225 246 255 268 270 271 275 282 285 293 0
80 140 141 143 144 145 146 159 160 161 162 166 168 169 175 176 202 204 205 208 211 213 214 217 218 222 247 280 0
80 140 141 143 144 149 159 160 164 169 170 175 181 194 195 198 199 202 204 207 208 211 214 249 268 271 280 295 0
80 140 141 143 144 159 160 161 169 175 176 182 185 188 202 204 206 207 208 214 216 232 233 246 254 271 282 293 0
80 140 141 143 146 159 160 169 171 191 194 196 199 202 204 207 208 211 214 222 232 268 271 275 280 282 287 293 0
80 140 141 144 145 146 158 159 160 169 171 198 204 205 206 207 208 214 221 224 239 255 268 270 281 282 287 293 0
80 140 141 144 146 148 150 152 155 159 160 161 169 170 171 176 202 206 207 208 214 222 233 240 275 287 293 295 0
80 140 141 144 146 150 152 155 159 160 161 169 171 188 202 207 208 211 214 216 217 221 224 225 233 268 287 295 0
80 140 141 155 158 159 160 169 175 188 191 194 207 208 211 213 214 216 224 225 232 233 246 249 255 268 282 293 0
80 140 141 155 159 160 169 171 174 194 196 198 207 208 211 213 214 232 233 240 255 268 273 280 283 293 295 303 0
80 140 141 158 159 160 163 169 175 188 191 194 195 204 206 207 208 213 214 215 232 233 249 255 268 270 282 293 0
81 136 139 143 144 145 146 147 151 156 159 160 162 166 175 180 181 187 194 199 207 215 223 224 263 272 281 290 0
81 136 145 146 151 156 157 159 160 161 163 180 187 194 197 199 207 215 217 226 239 246 258 270 271 272 274 279 0
81 136 146 151 156 159 160 167 180 181 194 197 199 212 215 216 217 224 239 246 258 270 271 272 274 275 281 292 0
81 144 146 150 151 156 159 160 161 163 164 166 172 180 194 199 208 212 215 216 217 224 246 268 269 270 275 281 0
82 136 137 139 140 141 144 145 147 149 150 151 168 169 171 173 176 177 181 196 205 225 226 251 256 259 261 270 0
82 136 138 140 142 145 148 149 150 156 159 160 161 163 166 167 168 169 173 174 177 196 204 216 217 233 240 288 0
82 136 140 141 145 147 154 169 171 173 174 176 177 188 190 192 205 221 225 226 249 256 261 263 264 273 283 293 0
83 137 138 139 142 143 145 150 151 155 166 167 174 180 197 207 217 221 231 233 255 262 270 271 275 285 286 301 0
84 138 139 141 142 144 146 149 150 153 155 161 162 163 181 191 192 202 205 215 221 253 259 266 270 275 295 301 0
85 137 141 142 143 144 150 154 155 158 161 162 163 164 173 175 176 190 201 224 225 237 239 275 283 285 292 293 0
94 146 151 152 160 161 163 174 178 182 188 200 206 211 212 220 222 224 225 230 239 253 268 279 282 293 297 300 0
99 136 139 144 145 150 151 156 157 158 159 160 161 163 166 178 192 197 233 239 240 257 265 284 288 291 293 295 0
100 136 140 144 146 147 149 151 152 153 156 157 161 162 164 176 177 179 199 202 216 219 229 232 244 264 283 292 0
102 136 137 138 140 143 145 146 151 158 159 165 167 168 171 175 183 188 190 192 214 228 233 255 284 287 295 296 0
102 136 137 144 145 146 150 158 159 165 168 170 171 175 183 184 192 195 214 216 233 245 255 257 287 295 296 302 0
102 143 145 151 156 157 160 162 163 164 166 167 168 172 176 193 220 227 233 247 262 270 271 274 275 276 278 280 0
106 136 141 143 145 146 149 150 152 153 156 159 168 175 177 179 181 188 197 205 207 212 233 240 244 262 287 294 0
106 139 141 142 143 144 145 150 151 152 154 155 160 166 169 180 193 212 221 232 233 236 256 271 275 280 288 301 0
125 136 138 139 140 142 145 146 149 150 157 163 164 166 182 188 199 202 204 208 212 223 225 240 246 266 270 274 0
125 139 140 141 143 153 159 160 169 175 191 199 202 204 207 208 211 213 214 222 232 233 249 268 270 280 283 303 0
130 138 139 140 143 155 160 162 164 167 168 172 175 180 193 195 197 209 210 212 213 215 222 285 287 292 298 301 0
130 138 139 140 143 155 162 164 167 168 172 175 176 180 192 193 195 210 212 213 215 222 270 285 287 292 298 301 0
132 136 137 138 141 143 145 146 149 153 156 159 164 175 179 181 183 188 214 226 255 257 262 284 287 292 293 296 0
132 136 137 139 142 143 145 148 150 151 153 155 156 159 177 181 192 233 235 239 242 256 265 272 287 288 292 295 0
132 136 137 139 143 144 145 149 150 160 163 166 168 170 171 180 184 188 193 197 198 215 217 224 235 271 285 288 0
132 136 139 145 148 150 156 159 178 184 200 207 219 224 233 236 238 239 240 242 249 265 272 281 287 288 289 292 0
132 137 139 141 142 143 145 146 149 150 151 155 163 164 166 168 180 193 197 202 204 212 255 274 278 282 285 288 0
132 137 139 143 144 145 146 150 151 155 160 166 167 174 180 200 204 212 224 232 233 242 243 253 262 274 285 301 0
134 136 139 145 147 151 153 155 158 161 164 172 174 200 214 215 218 220 222 229 244 261 266 267 279 286 287 292 0
134 137 139 140 143 144 145 147 149 154 155 160 164 165 171 173 177 183 184 188 198 199 223 240 256 273 293 295 0
1 3 22 170 186 188 191 221 225 230 236 240 250 253 257 261 265 266 269 270 274 280 281 283 285 289 292 298 299 0
1 136 137 140 149 153 162 163 164 170 188 192 193 197 205 212 214 224 239 250 253 257 260 261 262 265 272 279 280 0
1 136 138 140 144 162 188 200 204 205 207 227 240 241 248 250 251 255 257 260 261 269 270 272 278 280 284 285 291 0
1 136 140 149 169 170 172 178 193 200 204 205 207 216 218 224 237 240 249 259 261 265 269 270 280 282 283 293 299 0
1 137 140 144 145 153 162 166 170 172 185 204 205 206 207 208 212 224 245 250 259 260 261 265 277 278 280 282 299 0
1 138 140 143 145 164 170 172 179 185 200 204 206 207 208 225 235 248 250 259 260 261 265 270 272 274 285 293 299 0
1 139 141 158 168 170 172 176 189 192 193 201 204 205 206 213 214 215 224 225 240 244 249 251 254 260 261 272 287 0
1 139 154 155 160 166 168 174 177 187 192 204 205 206 207 213 215 220 222 224 225 249 250 253 260 268 273 279 281 0
1 139 166 183 184 188 189 205 207 213 220 224 225 231 234 253 256 260 261 264 265 268 269 270 273 279 280 281 300 0
1 140 142 143 154 160 163 169 170 178 193 197 204 206 212 218 224 225 227 239 257 259 265 269 276 282 283 288 293 0
1 140 158 162 177 187 196 197 198 204 205 207 213 224 239 246 250 253 254 260 261 265 268 269 277 280 284 285 294 0
1 142 161 166 178 184 188 189 191 201 205 207 213 214 220 224 234 237 249 250 260 268 269 272 276 283 292 293 300 0
1 145 147 155 158 172 174 183 205 208 221 222 224 225 229 239 253 254 260 261 264 271 277 280 281 284 292 293 300 0
1 162 169 172 188 192 197 204 205 206 208 212 214 216 224 225 227 239 244 246 261 265 269 272 273 283 291 292 293 0
2 82 139 148 152 159 172 174 184 187 190 197 198 199 204 205 208 211 228 241 244 250 269 272 277 287 292 297 303 0
2 82 139 148 170 172 183 186 188 189 191 197 201 204 205 210 212 218 220 222 226 234 238 240 262 266 269 288 297 0
2 140 145 157 162 166 180 184 197 198 199 200 201 204 211 219 228 237 239 241 250 251 253 260 267 277 280 295 300 0
2 149 152 154 165 166 170 189 191 197 201 204 205 206 211 218 222 234 257 265 269 271 273 277 280 292 297 300 303 0
3 136 139 142 146 147 150 155 166 169 170 174 177 191 198 199 200 205 207 213 224 262 264 268 278 279 280 286 288 0
3 136 144 145 160 168 170 172 174 184 188 198 199 205 206 224 225 232 235 241 246 250 255 262 278 285 288 292 293 0
3 139 153 154 156 170 172 181 185 188 197 199 200 204 209 213 223 224 237 239 241 248 253 277 278 287 292 293 299 0
3 154 157 166 170 172 187 188 191 197 199 200 204 205 212 213 224 239 250 269 277 280 283 286 287 288 291 294 296 0
4 147 151 152 154 155 166 190 197 199 210 212 218 221 224 225 226 234 235 236 242 248 253 277 283 285 291 299 300 0
5 137 138 139 144 145 147 150 156 159 161 166 172 174 176 178 197 218 245 246 250 254 257 258 272 279 286 293 302 0
7 138 143 149 150 159 170 172 186 191 218 225 231 235 236 251 255 261 262 264 270 274 280 283 288 291 292 293 298 0
7 142 143 144 149 151 153 155 157 160 161 162 166 174 177 184 197 199 211 216 219 225 228 232 241 258 262 273 275 0
7 149 156 159 161 163 166 170 172 173 188 209 213 223 230 235 239 241 244 247 250 253 262 263 277 282 288 296 300 0
7 162 164 170 172 176 183 188 195 196 197 198 199 200 202 209 210 213 221 223 224 235 239 241 253 262 264 277 300 0
8 136 144 147 155 176 178 200 205 213 215 224 225 234 250 253 254 255 260 261 265 269 273 277 279 281 289 293 300 0
10 137 138 139 142 143 145 146 147 148 149 152 159 167 171 172 174 175 178 186 188 189 197 198 199 206 216 230 276 0
10 137 138 139 143 144 146 147 149 154 156 159 160 171 173 175 178 186 189 211 214 216 217 228 230 238 260 268 270 0
11 136 141 142 143 145 146 150 157 160 166 167 168 169 175 190 194 197 204 212 219 220 237 257 265 269 271 278 291 0
11 136 142 145 146 150 151 153 156 160 163 172 178 181 184 207 211 215 218 219 220 233 238 264 268 271 272 287 303 0
11 142 147 163 191 196 197 206 221 225 228 230 234 235 240 241 261 264 265 266 273 274 283 285 292 293 298 299 303 0
11 142 163 166 170 195 200 204 206 207 216 223 227 240 257 259 261 265 269 270 271 276 278 280 282 286 288 292 303 0
11 143 159 163 164 172 173 191 201 204 208 209 210 214 221 223 224 227 231 235 236 247 266 271 274 277 287 294 299 0
11 146 153 156 167 170 172 175 185 188 204 209 211 213 216 221 223 239 247 248 253 262 277 280 283 288 297 298 300 0
12 137 138 139 142 150 153 160 164 166 174 176 178 184 188 199 205 221 225 231 233 245 249 268 277 288 289 300 302 0
12 140 144 146 148 150 156 159 161 177 183 190 192 193 195 199 213 215 218 226 246 254 257 264 270 279 282 285 303 0
13 144 172 179 187 189 200 201 205 207 210 222 230 234 237 240 248 261 262 269 270 277 283 286 288 292 293 300 302 0
15 153 183 191 194 195 196 197 199 207 209 230 233 240 244 254 260 262 263 264 269 272 274 277 283 292 293 298 301 0
15 155 163 166 169 172 177 184 198 200 204 207 220 224 225 244 259 265 268 273 283 285 286 288 291 292 293 294 296 0
16 124 139 152 154 155 165 166 169 174 184 191 199 205 208 217 221 225 232 233 239 240 241 246 248 257 269 284 285 0
16 136 137 138 140 143 147 149 154 159 160 162 166 170 176 188 199 207 218 237 240 250 265 270 279 280 283 285 301 0
16 136 137 138 140 144 160 162 163 188 191 197 204 205 212 214 223 225 231 239 244 249 255 265 272 279 283 294 298 0
16 136 137 140 150 154 159 160 162 163 165 184 185 205 212 214 218 223 224 227 235 239 244 250 257 259 272 279 283 0
16 137 138 143 149 157 159 166 181 188 192 193 204 212 219 225 235 249 250 257 269 270 271 273 279 285 291 293 299 0
16 137 139 145 156 159 168 178 183 197 198 204 205 212 213 220 222 224 225 245 251 253 254 261 264 268 273 279 300 0
16 137 140 143 154 155 159 160 162 166 172 173 176 183 185 207 212 213 218 224 225 226 235 248 251 258 259 279 287 0
16 137 145 155 156 168 174 189 197 201 204 205 213 220 222 224 225 227 246 250 254 260 261 268 280 292 293 300 303 0
17 136 145 146 149 151 152 158 168 173 176 178 208 212 214 218 219 221 223 224 225 227 241 246 255 272 283 284 288 0
17 137 139 142 144 145 149 150 155 158 164 166 168 169 170 182 184 188 198 202 215 217 224 240 268 276 280 290 295 0
18 138 139 140 144 149 151 152 154 155 158 159 163 172 179 183 188 204 205 212 214 217 225 227 235 248 256 262 293 0
18 138 139 144 151 152 154 158 159 163 170 172 179 193 200 204 205 207 217 225 230 240 259 261 269 282 286 293 303 0
20 142 160 166 176 187 188 191 197 200 204 206 211 213 221 237 239 249 250 251 253 260 271 279 280 282 286 298 303 0
21 136 138 139 140 143 155 170 172 174 175 176 177 180 189 192 193 212 213 215 216 229 240 283 285 288 292 298 303 0
21 138 139 140 143 146 147 158 160 163 167 168 172 175 180 193 195 209 212 213 215 216 271 283 285 288 292 298 303 0
21 138 139 140 143 155 160 168 170 172 174 175 180 188 193 195 209 212 215 216 245 271 280 283 288 292 298 301 303 0
21 138 154 159 163 164 170 172 173 176 188 191 209 213 216 218 221 223 227 234 247 250 253 277 278 282 288 294 298 0
21 144 152 153 154 156 157 164 166 170 172 182 185 188 189 197 199 201 208 209 220 221 223 235 239 242 278 299 302 0
21 159 160 166 170 172 176 188 191 194 201 205 207 209 212 213 218 221 223 224 227 234 242 253 277 278 288 289 294 0
23 138 139 141 142 143 144 146 148 149 153 155 156 166 175 181 188 199 200 202 213 216 221 224 255 270 284 300 301 0
23 139 152 156 159 174 181 182 188 205 208 220 221 224 234 246 250 254 256 261 266 268 269 271 273 280 285 287 292 0
23 139 152 156 159 174 188 197 205 208 220 221 224 234 246 250 254 256 261 264 266 268 269 271 273 280 285 287 292 0
23 149 154 156 159 160 165 166 172 177 187 201 204 205 206 212 213 222 224 225 239 265 268 273 277 285 293 294 296 0
23 149 154 159 160 165 166 172 176 177 184 187 201 204 205 206 213 222 224 225 239 265 268 273 277 285 293 294 296 0
23 149 154 159 160 165 172 177 183 187 191 196 201 204 205 211 213 220 222 224 229 239 251 264 268 273 280 293 294 0
36 136 138 141 144 154 159 162 188 192 194 204 209 218 221 223 226 227 239 241 247 253 266 274 277 278 287 294 298 0
36 139 142 145 157 166 187 199 200 204 205 208 212 221 224 236 240 241 253 260 264 268 271 278 279 280 281 288 300 0
36 139 166 168 174 187 197 198 199 200 204 205 207 213 215 224 241 260 262 264 269 270 277 280 283 286 287 288 292 0
36 145 149 157 166 189 197 199 200 201 204 205 207 208 221 224 225 231 240 241 263 270 271 278 286 292 293 299 300 0
36 145 154 159 166 169 193 197 199 200 204 205 207 208 221 224 241 264 268 270 271 272 278 279 280 286 288 289 300 0
36 166 191 197 199 200 204 205 207 208 221 224 234 235 236 250 253 260 266 268 269 270 271 280 283 286 288 291 300 0
37 136 139 140 147 148 153 159 163 169 170 176 200 207 214 218 232 233 250 259 261 262 265 270 279 280 282 287 301 0
37 139 145 150 155 168 189 191 197 201 205 207 213 225 229 233 251 256 259 261 262 271 272 273 279 280 287 289 296 0
44 155 156 160 166 176 188 192 196 197 198 201 205 212 215 217 218 220 225 239 250 260 264 265 268 271 272 279 280 0
46 136 138 139 140 145 147 155 156 157 162 163 165 168 178 180 184 214 220 222 223 246 257 270 285 286 288 294 301 0
46 140 142 143 144 148 150 158 163 167 172 177 180 190 204 208 218 219 250 253 254 260 268 270 276 279 285 290 302 0
46 143 144 148 155 156 160 163 174 177 181 190 192 199 213 218 219 229 250 254 257 260 279 284 285 290 293 295 302 0
46 154 160 165 166 170 172 173 174 180 183 188 189 191 196 201 204 205 206 207 224 239 240 244 268 277 285 294 300 0
48 136 140 141 142 143 144 145 147 156 157 164 171 180 186 188 191 194 215 219 221 225 226 230 238 275 276 295 301 0
48 136 140 141 142 143 144 145 150 151 156 163 164 166 171 180 186 188 189 191 221 224 226 230 240 268 275 276 285 0
49 136 137 138 139 140 141 154 155 160 163 165 169 170 171 176 177 178 188 208 216 221 225 226 244 251 285 295 300 0
49 136 137 138 139 140 143 144 154 160 165 169 171 176 177 178 204 215 216 217 225 226 241 255 259 265 270 280 287 0
49 136 137 138 139 141 154 155 160 165 169 170 175 176 177 178 205 208 216 221 225 226 244 251 259 273 275 287 288 0
53 136 140 141 145 149 154 160 168 169 171 177 181 188 196 205 221 225 226 228 229 231 265 270 271 273 283 293 295 0
53 140 142 145 152 162 166 170 183 184 191 193 197 204 208 211 212 235 260 263 264 265 272 274 277 288 298 300 303 0
54 137 138 139 140 142 143 147 149 154 155 156 160 170 172 175 178 186 188 211 217 225 230 243 254 264 270 285 297 0
54 137 138 139 140 142 143 147 150 154 155 160 166 167 172 174 175 178 186 189 202 206 216 217 230 233 248 264 268 0
54 137 138 139 142 143 145 146 147 149 152 153 155 156 160 171 175 178 186 188 189 211 212 217 225 230 254 264 285 0
54 137 139 141 147 150 153 155 159 166 170 183 191 199 200 205 208 212 213 224 253 264 265 269 277 278 280 288 292 0
54 138 149 159 160 167 205 209 211 217 218 224 225 236 244 246 250 251 262 266 268 269 270 280 281 286 288 292 293 0
54 141 146 149 153 159 160 166 170 172 188 191 213 236 239 241 247 250 251 262 264 268 274 279 280 281 283 298 299 0
54 141 149 150 159 160 161 165 166 183 184 196 197 198 199 204 214 218 231 262 264 265 268 274 279 280 288 293 298 0
54 159 160 161 167 168 170 172 177 183 188 191 196 197 211 213 224 225 226 230 232 241 251 264 273 274 278 280 299 0
58 136 141 145 146 151 152 157 161 172 173 178 182 190 199 201 208 214 219 221 224 225 245 255 271 283 286 292 299 0
58 139 141 142 144 146 155 163 164 165 169 172 174 178 192 196 198 199 205 217 226 238 241 256 258 276 286 290 299 0
60 136 138 140 143 144 146 147 152 156 161 164 165 168 173 175 176 177 181 199 204 214 233 244 255 260 262 264 283 0
60 136 142 143 144 147 150 152 160 163 164 165 168 170 173 178 184 188 189 193 194 199 202 217 237 240 257 263 282 0
64 137 139 142 143 144 145 147 150 155 159 164 165 168 169 171 172 180 182 188 199 217 237 238 240 276 284 292 295 0
68 136 138 139 146 147 158 164 167 175 177 180 188 189 191 193 195 197 205 213 220 222 231 239 245 256 292 298 301 0
77 136 139 143 144 146 147 158 163 164 167 168 189 191 195 197 202 204 213 222 224 225 231 242 245 255 268 275 292 0
77 137 139 143 145 148 149 150 151 155 156 160 164 168 180 197 212 217 239 242 243 253 255 270 274 275 282 285 301 0
77 139 140 143 146 147 164 167 175 187 189 191 194 197 202 222 224 231 238 239 240 244 256 266 271 292 297 298 301 0
77 139 146 147 167 176 189 191 194 195 202 216 220 224 225 239 240 242 244 256 266 268 270 271 275 287 292 301 303 0
78 137 139 166 169 172 177 188 204 205 207 208 213 222 224 231 234 241 246 250 254 260 261 262 265 271 277 279 280 0
78 137 154 159 160 166 168 172 184 197 200 205 213 220 224 231 241 246 249 250 251 256 268 279 280 281 287 293 294 0
78 140 160 162 172 178 184 188 189 197 200 204 205 208 213 224 239 250 253 254 260 264 265 269 273 277 280 287 294 0
80 137 140 141 143 144 145 146 159 160 161 162 163 169 171 173 195 202 204 205 206 207 208 219 221 224 247 249 254 0
80 139 140 141 144 149 152 158 159 160 162 166 169 170 175 195 198 204 207 208 211 213 214 222 224 225 240 255 270 0
80 140 141 143 144 146 159 160 161 162 168 169 171 176 182 185 188 195 202 204 208 211 214 218 222 232 239 268 280 0
80 140 141 143 144 146 159 160 161 166 169 171 185 188 202 204 207 208 211 214 221 224 225 232 233 249 281 282 287 0
81 136 139 146 150 151 156 159 160 166 167 194 197 199 202 212 215 216 223 224 226 239 258 263 269 270 271 272 290 0
81 145 146 151 156 159 160 166 172 173 180 181 183 187 198 199 207 208 215 224 226 246 249 258 268 270 271 272 295 0
82 136 137 139 140 141 145 147 160 169 173 174 176 177 178 190 204 205 221 223 225 226 237 238 249 259 279 283 295 0
82 136 137 139 140 145 147 154 157 161 162 165 169 175 176 177 188 192 205 216 220 225 233 241 251 256 261 270 283 0
82 136 137 140 141 145 147 148 149 150 151 155 173 176 177 181 196 200 202 205 221 225 226 251 259 261 273 293 301 0
82 136 137 140 141 145 147 149 150 154 171 176 177 181 189 196 200 202 205 213 225 226 233 251 256 259 261 293 301 0
82 136 137 140 141 145 147 149 150 169 171 173 176 177 181 182 190 202 205 221 226 237 251 256 259 261 279 280 293 0
82 136 137 140 145 147 149 154 159 162 166 169 175 177 188 190 205 226 233 237 238 241 243 249 251 256 261 280 283 0
82 136 140 141 145 147 149 154 158 160 169 170 173 175 196 205 224 225 226 256 259 264 265 270 271 284 287 292 293 0
82 136 140 141 145 147 154 159 162 169 173 174 175 177 196 205 221 225 226 238 256 259 261 264 271 283 294 301 302 0
85 137 141 142 150 154 155 158 161 162 166 175 176 184 190 198 201 202 204 205 221 226 231 237 244 268 283 292 293 0
85 138 139 140 146 147 150 157 158 161 164 170 171 172 182 184 188 198 200 202 204 205 210 227 241 258 262 270 277 0
85 142 143 145 146 149 152 154 162 164 173 175 183 184 193 198 204 205 210 215 217 224 225 232 244 267 287 290 294 0
89 139 143 145 146 148 150 151 156 172 174 188 197 210 214 233 236 239 262 270 271 274 275 280 283 284 286 288 301 0
99 137 138 144 145 151 156 157 158 159 160 161 162 163 174 177 178 180 192 211 239 240 257 277 280 292 293 295 299 0
102 136 137 140 144 145 146 147 150 151 159 162 164 165 167 168 170 171 175 183 192 205 219 233 240 244 245 269 287 0
102 136 137 145 146 155 159 165 167 168 169 170 171 172 175 177 183 184 188 190 192 199 219 233 240 244 245 253 302 0
102 136 137 145 146 158 159 165 168 170 171 175 177 183 184 188 192 205 214 233 240 244 253 255 269 290 300 301 302 0
106 136 140 144 146 147 149 152 153 156 161 163 164 166 170 171 172 177 190 199 202 204 216 219 246 250 264 268 283 0
106 140 141 142 144 151 155 157 164 168 170 171 173 175 176 177 198 199 202 205 207 208 214 221 224 241 257 277 293 0
130 136 138 139 140 146 147 164 170 172 175 189 191 195 197 205 213 215 222 224 225 239 242 256 268 287 292 297 301 0
130 138 139 140 142 143 144 150 160 164 167 168 172 175 180 209 210 212 213 215 216 224 225 270 285 287 288 292 301 0
130 138 139 140 142 143 144 155 160 162 167 172 175 180 195 200 209 212 215 216 266 271 283 285 297 298 300 301 303 0
132 136 139 142 143 145 146 149 150 151 154 155 156 163 164 166 180 193 197 200 202 212 224 236 255 256 285 288 303 0
132 136 139 143 145 146 149 150 151 155 160 163 166 169 170 171 180 184 188 193 197 198 212 224 236 262 274 275 285 0
132 137 139 142 143 145 149 150 151 155 164 166 168 170 180 193 197 202 231 243 244 253 255 256 270 274 280 288 301 0
132 139 143 145 146 148 150 151 160 164 169 170 180 212 215 216 217 233 235 236 242 243 262 271 274 275 280 288 301 0
134 136 139 142 143 145 147 150 151 153 158 161 164 166 172 174 199 200 207 215 218 220 229 240 258 266 279 289 297 0
134 136 139 145 147 151 153 155 158 161 164 172 174 200 214 215 218 220 222 229 244 266 267 271 279 280 286 287 292 0
134 139 142 143 144 147 149 153 155 156 158 160 163 164 165 171 173 178 181 185 188 223 255 256 263 265 276 280 291 0
135 136 137 140 145 150 154 155 166 175 176 177 187 191 197 205 207 213 224 225 239 243 253 260 268 271 279 280 293 0
1 136 138 145 153 154 157 166 170 172 173 183 188 200 205 207 254 260 261 265 270 272 278 280 282 286 292 293 298 299 0
1 136 139 158 159 183 188 189 201 205 206 212 213 224 225 229 239 254 255 256 261 264 265 269 270 271 277 279 284 300 0
1 136 143 149 151 154 159 169 170 176 178 182 185 212 218 224 226 237 240 250 259 261 263 265 269 280 282 287 292 293 0
1 136 144 145 149 160 164 169 172 204 205 206 212 214 224 225 227 237 244 249 251 255 259 270 272 282 291 292 293 299 0
1 138 143 148 154 163 169 178 181 186 188 191 197 199 206 212 223 225 227 239 246 261 265 271 282 283 284 285 293 299 0
1 139 144 159 166 168 172 183 184 189 201 205 207 208 213 224 246 251 255 256 261 264 268 269 277 279 280 281 300 303 0
1 139 154 155 158 166 174 177 184 187 197 205 213 220 223 224 239 246 250 253 256 260 261 264 268 279 280 281 284 289 0
1 139 155 156 159 160 184 188 189 197 201 205 206 213 220 224 225 234 246 250 251 254 256 264 268 279 281 282 285 300 0
1 140 144 149 153 162 163 170 188 200 205 206 207 224 229 249 250 251 257 260 261 263 269 270 272 278 280 296 299 303 0
1 140 150 162 180 182 187 189 204 205 207 213 224 239 250 251 253 254 259 260 261 269 271 273 277 279 280 285 287 294 0
1 145 147 154 155 172 184 205 206 207 208 219 221 222 224 225 234 250 251 253 254 260 261 271 273 277 279 293 296 300 0
1 160 166 184 189 197 201 205 213 219 224 227 239 242 246 249 250 251 256 260 268 269 270 277 279 280 289 293 300 302 0
2 82 139 148 152 154 165 191 194 197 200 204 206 208 211 220 224 225 234 249 251 253 257 269 286 287 288 292 294 297 0
2 146 147 149 155 166 184 186 188 189 198 201 212 213 222 226 228 231 234 235 236 248 262 268 277 286 288 292 293 303 0
2 146 147 155 159 163 166 179 188 189 191 205 210 212 218 230 231 234 235 248 253 265 268 269 273 277 283 289 299 300 0
3 138 139 145 146 166 170 172 188 191 199 200 204 205 212 213 222 224 231 235 236 239 250 253 268 279 280 283 299 300 0
3 138 150 154 167 170 172 174 184 198 199 204 205 206 215 225 235 241 250 251 261 269 281 283 285 288 289 292 293 298 0
3 166 168 170 181 188 191 197 199 200 204 205 208 212 213 224 225 234 235 250 251 253 268 269 279 283 293 294 299 300 0
5 137 143 152 154 158 159 165 169 170 179 187 188 189 201 206 210 211 212 218 222 239 240 244 267 277 287 288 294 297 0
10 137 138 139 142 143 146 147 149 154 155 156 159 160 171 173 175 178 186 188 189 206 214 216 230 254 260 270 274 279 0
10 137 139 140 145 146 150 152 153 155 163 166 168 179 183 184 185 188 199 200 204 218 227 241 243 248 254 265 275 283 0
10 137 139 140 145 146 151 152 153 155 163 165 166 168 170 171 179 183 184 185 196 198 204 226 227 243 265 283 286 297 0
10 137 140 145 146 147 151 152 153 155 163 165 166 174 179 183 184 185 196 200 217 224 225 226 233 239 257 286 288 290 0
11 136 138 140 142 145 150 153 156 160 162 164 166 172 178 181 184 206 218 220 233 238 250 268 271 272 288 295 300 302 0
11 140 145 164 166 179 183 186 188 200 204 206 207 208 230 235 257 260 261 262 263 264 265 268 270 271 274 280 282 299 0
11 147 148 154 155 156 176 180 181 188 194 197 201 206 207 213 220 222 225 229 239 248 250 254 260 268 269 279 285 300 0
12 136 137 138 139 147 154 160 163 165 168 169 175 177 178 181 188 215 216 217 225 226 241 251 270 273 280 288 291 300 0
12 136 143 144 148 155 158 159 160 162 163 166 175 177 180 190 193 218 219 232 240 244 246 250 257 268 279 285 290 302 0
14 138 139 140 144 145 148 150 153 168 171 172 174 178 180 185 190 198 215 218 220 222 228 232 240 245 266 287 288 303 0
14 139 140 141 142 144 150 158 167 170 171 177 193 194 201 206 208 217 221 241 249 255 257 261 265 270 273 274 285 297 0
16 137 139 160 163 172 176 182 205 207 208 213 218 224 225 234 242 245 250 251 253 254 256 260 269 270 272 273 280 292 0
16 137 140 143 157 166 186 188 207 208 219 223 224 227 235 244 250 253 257 260 261 262 263 265 270 278 279 280 293 299 0
16 137 140 149 162 166 185 199 204 205 207 212 222 223 224 225 226 237 240 248 250 251 257 259 260 261 268 269 283 299 0
16 137 148 178 182 188 189 190 201 204 205 207 208 221 222 224 232 242 250 254 260 266 269 271 277 279 281 285 293 300 0
16 137 154 159 165 166 184 185 198 204 205 207 213 220 222 224 228 234 237 245 251 253 261 268 270 273 280 293 296 300 0
17 136 145 146 149 151 152 158 168 173 176 178 180 208 212 214 218 219 221 223 224 225 227 241 250 255 272 283 284 288 0
18 136 149 159 166 170 188 189 197 198 201 204 205 210 212 218 226 231 234 236 238 240 268 269 277 283 289 294 296 300 0
18 137 146 152 160 166 169 170 172 186 187 194 200 204 205 207 213 222 226 234 236 237 240 253 262 266 269 270 286 293 0
21 136 138 139 140 143 158 162 168 171 172 174 180 192 193 195 212 213 215 216 221 229 260 268 271 283 285 297 298 303 0
21 138 139 140 143 150 155 160 167 172 174 175 176 177 180 193 209 212 213 215 216 218 280 283 288 292 297 298 301 303 0
22 136 137 139 140 141 144 145 147 149 154 157 161 169 171 174 177 196 205 207 216 231 233 243 256 259 261 277 280 302 0
22 136 137 139 140 141 145 154 165 168 169 171 177 183 192 205 207 218 224 240 251 256 259 261 264 266 271 273 280 283 0
22 136 137 139 140 145 154 160 165 166 169 170 171 177 183 188 192 204 205 207 218 224 225 233 241 244 264 265 268 283 0
23 140 159 162 168 174 188 193 197 201 205 211 212 213 215 222 224 225 249 250 254 256 261 269 270 277 280 281 282 300 0
23 154 155 159 166 170 172 182 188 204 205 207 213 219 224 225 240 242 245 250 268 269 271 277 279 285 287 289 293 294 0
36 140 145 155 157 159 162 166 199 200 204 205 207 208 221 224 235 236 241 253 264 271 277 278 279 280 286 291 299 300 0
36 142 145 147 155 166 187 197 199 200 205 207 208 221 222 224 225 230 235 236 241 253 260 264 268 271 278 286 288 300 0
36 145 166 189 191 197 199 200 201 204 205 207 208 221 224 225 230 234 240 260 264 268 270 271 283 286 288 291 300 303 0
47 136 138 147 150 157 163 167 172 174 177 187 189 191 193 204 205 215 216 221 223 224 225 226 231 239 245 259 260 303 0
48 136 140 141 144 145 146 150 151 155 156 157 162 164 169 171 186 189 191 200 205 215 221 225 226 230 238 240 269 295 0
48 136 141 142 144 145 150 151 156 162 164 166 175 176 180 184 186 194 196 205 225 226 230 238 268 269 270 275 276 295 0
48 136 141 144 145 147 150 151 156 158 161 164 177 186 191 205 221 226 230 238 268 269 270 275 276 278 284 285 295 301 0
49 136 137 138 139 143 154 160 165 169 175 176 177 178 186 188 204 214 222 223 225 226 241 251 255 270 283 285 288 300 0
49 138 142 143 149 154 178 179 188 191 193 212 213 214 223 224 227 237 244 255 261 262 265 272 276 278 280 282 288 293 0
50 136 137 138 139 141 142 145 146 151 160 162 163 164 174 175 176 199 200 202 207 224 228 241 246 258 269 289 292 300 0
51 136 139 142 148 149 159 167 168 169 170 181 185 187 188 198 210 211 212 222 230 234 240 253 268 269 276 277 278 287 0
52 138 139 140 145 146 149 152 160 163 164 166 167 168 173 187 189 197 202 204 205 215 216 224 268 271 273 286 297 298 0
53 136 137 140 141 145 150 151 160 168 169 170 171 176 177 181 182 190 192 205 221 225 226 259 264 265 270 283 293 302 0
54 140 154 155 159 160 170 172 174 186 188 191 201 206 211 212 213 221 225 232 236 244 250 263 269 274 278 288 297 298 0
68 138 139 140 144 146 147 148 158 163 164 167 175 176 181 187 188 189 191 197 204 205 213 216 223 239 245 255 297 298 0
68 138 139 140 145 147 156 167 176 177 187 188 189 191 193 194 197 204 213 218 222 231 239 240 244 270 275 297 298 301 0
68 138 139 144 146 147 150 167 187 189 191 205 216 221 231 234 240 244 255 256 259 266 268 270 271 275 292 298 301 303 0
71 136 140 142 143 153 154 162 163 164 165 167 170 181 184 187 188 193 197 200 201 214 217 220 228 255 257 269 288 303 0
74 136 139 147 149 154 155 166 184 185 188 189 197 199 201 210 212 221 222 234 240 246 248 263 268 283 287 288 291 293 0
77 136 137 139 140 142 143 145 148 150 151 155 164 168 180 197 202 216 218 233 239 257 258 262 270 274 275 280 282 301 0
77 139 140 144 146 147 164 167 168 187 188 189 191 193 202 205 216 224 245 255 256 266 268 271 275 292 297 298 300 301 0
78 137 150 154 159 168 187 189 200 201 205 213 222 224 240 246 250 254 256 259 261 265 266 270 272 277 279 280 293 294 0
78 137 159 176 178 187 188 196 200 205 213 224 239 240 246 250 251 253 254 256 261 262 266 277 279 280 281 283 293 294 0
78 137 166 169 183 204 205 207 208 220 221 224 225 234 246 251 253 260 261 262 264 266 268 271 279 281 287 289 293 294 0
78 140 154 159 160 162 172 174 179 197 200 204 205 208 213 214 224 233 239 241 246 250 254 273 277 279 280 281 294 300 0
80 136 140 141 144 145 146 155 158 159 160 161 164 169 171 205 207 208 211 214 224 233 239 255 268 280 281 287 293 295 0
80 139 140 141 155 158 159 160 169 170 175 188 191 194 207 208 211 213 214 224 225 232 233 246 249 255 268 282 283 303 0
80 140 141 143 144 145 146 149 159 160 161 162 166 168 169 175 176 181 194 202 204 205 208 211 213 214 218 222 247 280 0
80 140 141 143 144 145 146 149 159 160 161 162 169 171 181 188 194 202 204 205 207 208 211 214 221 225 239 249 254 279 0
80 140 141 143 144 146 148 152 159 160 161 163 168 169 171 204 206 207 208 214 221 222 224 225 247 249 255 265 268 287 0
80 140 141 143 144 146 159 160 161 164 166 169 171 185 188 202 204 207 208 211 214 221 224 225 232 233 277 281 282 287 0
82 136 137 139 140 144 145 147 154 155 157 161 165 169 171 173 176 205 222 225 238 241 249 259 261 265 273 277 281 287 0
82 136 137 139 140 145 147 149 154 169 175 176 177 178 179 188 190 204 205 225 226 237 238 241 243 249 261 265 273 275 0
85 136 137 138 140 142 143 147 150 166 170 172 177 178 180 182 188 197 200 204 210 211 220 245 255 270 274 280 293 295 0
85 138 140 142 147 150 155 157 161 170 172 182 188 194 200 202 205 207 208 210 221 227 250 253 258 270 271 280 286 295 0
85 138 140 147 150 155 157 166 170 172 184 188 194 197 198 200 204 205 208 210 211 220 221 224 228 241 258 271 275 293 0
106 136 140 144 146 147 149 152 153 156 161 164 166 170 171 172 175 176 177 181 182 190 197 199 216 217 219 250 264 268 0
106 138 139 141 142 143 144 145 146 148 149 150 151 152 155 163 167 168 174 180 193 202 212 232 235 243 253 254 262 280 0
125 137 139 140 141 143 148 153 154 159 160 161 169 175 196 198 200 204 207 208 213 214 226 232 255 268 280 283 286 303 0
130 136 138 139 140 145 146 147 163 164 170 189 191 195 202 204 205 210 213 215 222 224 225 239 240 242 244 286 292 297 0
130 136 138 139 143 144 146 147 148 164 167 180 187 188 189 191 197 210 213 216 223 224 225 229 232 239 255 256 275 292 0
130 138 139 140 142 143 144 150 160 162 164 167 168 172 175 177 180 209 212 213 216 234 268 270 280 283 291 292 298 301 0
130 138 139 140 146 147 148 164 167 175 176 187 189 191 192 193 205 216 229 232 239 245 256 266 268 270 271 297 298 300 0
132 139 141 142 143 145 146 150 151 163 166 167 174 180 193 197 200 202 212 215 224 232 233 235 236 243 262 271 274 285 0
134 139 143 144 146 147 156 160 165 168 171 173 188 195 196 199 223 230 240 247 255 263 265 270 276 283 285 291 295 298 0
1 138 149 151 153 172 182 187 188 200 205 207 208 248 250 251 260 261 263 269 270 271 278 280 282 286 292 293 298 299 300 0
1 139 141 142 145 147 155 159 160 166 189 201 205 206 208 220 221 222 224 225 234 238 250 251 268 270 271 276 279 281 300 0
1 145 148 160 174 181 187 188 189 196 197 205 206 207 213 224 225 239 246 250 253 254 256 260 270 271 273 277 279 293 300 0
1 147 161 172 176 178 180 188 189 191 192 205 208 221 224 227 234 250 253 254 260 266 269 270 271 277 279 293 294 300 301 0
3 10 159 165 167 172 186 188 197 218 220 221 225 230 236 240 250 261 262 264 265 270 274 279 280 281 285 286 291 298 299 0
3 84 137 138 140 141 146 154 157 159 160 161 167 191 197 204 206 211 232 241 246 249 255 265 266 271 280 282 297 298 299 0
3 139 144 166 170 184 189 197 198 199 200 204 205 208 212 213 224 225 239 240 241 250 251 253 268 269 278 279 291 299 300 0
3 139 145 166 168 170 183 189 191 197 199 200 204 205 208 212 213 224 225 240 251 253 264 268 271 278 279 281 287 288 291 0
5 137 158 159 163 179 187 188 189 190 201 210 218 220 222 223 230 234 235 237 238 245 248 261 268 270 278 286 287 293 294 0
10 137 138 139 141 143 144 146 147 154 156 159 160 171 178 186 188 206 216 225 230 233 235 238 243 254 257 264 275 276 285 0
10 137 138 139 142 143 144 146 147 149 154 155 156 159 160 171 174 178 186 188 189 198 199 206 216 230 254 257 264 275 276 0
11 159 163 176 179 185 189 201 204 208 209 211 220 221 223 227 235 237 239 247 262 266 268 271 283 287 292 293 294 299 303 0
14 136 138 139 140 142 143 148 149 150 156 162 163 166 168 173 174 176 178 190 193 204 216 217 218 233 240 269 271 287 288 0
14 136 138 139 140 142 143 148 149 153 156 162 163 165 166 167 168 173 176 178 195 206 215 216 233 235 265 269 271 286 287 0
14 139 140 142 148 149 156 165 173 174 178 184 188 189 194 198 200 201 202 205 208 211 217 225 248 270 276 280 286 289 301 0
14 140 141 142 144 150 158 165 166 167 170 171 176 177 191 192 201 204 206 208 221 224 226 244 249 255 261 269 270 276 282 0
16 136 137 140 144 162 173 179 183 185 188 205 212 215 224 235 248 251 253 257 260 261 262 263 272 273 278 279 280 299 300 0
17 136 140 144 145 146 149 151 152 157 166 168 172 173 176 199 204 208 212 214 218 219 221 224 225 227 241 277 284 291 301 0
17 136 140 145 146 151 152 158 164 168 173 176 182 204 207 208 213 214 219 223 224 225 227 241 245 246 250 258 272 286 302 0
17 136 140 146 150 151 152 154 158 168 173 176 182 202 205 207 218 219 221 224 225 227 245 246 258 266 269 272 283 288 291 0
17 136 141 145 146 149 150 151 152 163 168 173 176 178 180 199 207 208 214 219 220 221 224 225 227 255 268 272 286 291 292 0
18 138 139 144 147 149 152 154 157 158 159 160 163 172 179 185 205 212 225 235 239 248 254 255 259 262 282 283 286 293 303 0
18 138 139 144 147 149 152 154 158 159 160 163 166 172 185 188 200 205 207 214 225 228 235 237 244 255 262 283 286 293 295 0
21 80 153 159 166 172 182 188 199 202 204 205 209 213 219 220 221 223 224 225 241 242 244 247 253 262 268 278 299 300 303 0
21 138 139 140 143 150 158 160 162 167 172 180 192 193 209 212 216 218 221 224 225 229 245 266 271 283 285 291 292 297 303 0
21 138 139 140 143 158 160 163 167 168 172 174 175 180 188 193 194 195 209 212 215 216 218 234 271 283 285 288 292 298 303 0
21 159 160 164 170 172 176 188 191 194 195 201 205 207 209 212 213 218 221 223 224 227 234 242 253 277 278 288 289 294 302 0
22 136 137 139 140 145 147 154 155 157 161 165 169 171 173 205 207 220 222 238 241 249 251 259 261 271 280 281 287 293 302 0
22 136 137 140 141 145 149 154 160 168 169 170 171 177 178 180 196 205 207 218 225 237 243 244 251 256 259 266 271 273 293 0
22 136 137 140 141 145 154 159 165 168 169 170 171 177 178 181 182 183 188 205 207 218 225 244 251 256 261 264 273 283 293 0
23 136 141 142 143 146 149 150 153 157 160 166 167 175 184 193 194 200 204 211 212 220 223 257 263 265 269 274 283 293 294 0
36 141 147 150 155 159 163 166 199 200 205 207 208 221 224 235 253 262 264 266 268 271 273 278 279 280 286 288 291 293 300 0
46 136 142 143 144 148 155 159 162 163 175 177 183 190 199 218 228 246 254 257 264 268 269 270 272 273 276 282 285 290 303 0
47 136 138 140 143 144 145 147 150 156 157 160 165 167 172 174 179 181 189 221 226 236 239 240 244 245 255 260 265 283 288 0
48 136 141 144 145 146 150 151 155 156 163 164 165 169 172 175 177 186 196 205 215 221 226 230 236 238 260 268 269 276 280 0
49 138 140 144 149 154 160 172 178 188 200 204 205 206 207 208 223 225 237 248 249 253 265 269 270 278 282 285 293 299 302 0
54 137 159 166 170 172 186 188 199 200 204 205 212 213 224 225 230 236 240 241 246 253 264 266 268 269 278 292 293 299 300 0
54 159 161 165 170 172 185 188 191 196 204 213 219 225 230 236 246 250 251 261 262 269 270 274 280 281 283 289 292 298 299 0
68 138 139 145 146 147 156 163 167 176 177 187 188 189 191 204 205 220 222 223 224 225 234 240 244 245 268 271 275 292 303 0
71 136 140 142 143 150 163 164 165 167 170 182 184 187 193 194 199 200 201 202 204 214 217 237 240 247 257 263 265 268 282 0
77 138 139 144 146 147 158 166 167 168 180 187 188 189 191 197 205 221 222 229 245 255 256 266 268 271 275 292 298 300 303 0
77 139 160 163 170 172 179 183 188 196 198 199 209 213 221 223 224 225 231 234 235 242 244 247 253 262 277 282 287 288 303 0
78 136 139 144 145 159 160 177 178 184 188 189 197 200 205 213 222 224 225 229 237 239 250 251 253 254 255 256 273 277 279 0
78 147 154 155 166 169 170 177 178 196 205 207 213 220 222 224 225 226 239 240 244 250 251 253 260 261 268 279 293 300 301 0
80 136 137 139 146 148 150 151 152 153 154 155 162 171 173 177 188 195 202 205 206 224 226 228 254 255 269 276 282 284 300 0
80 140 141 143 144 145 146 154 159 160 168 169 173 175 198 199 202 204 206 207 208 219 247 263 268 271 275 281 282 287 293 0
82 138 139 140 141 145 146 152 154 157 160 164 166 167 172 173 175 204 205 221 222 226 234 242 250 253 257 270 271 290 296 0
106 139 141 143 145 150 151 152 154 155 156 160 164 166 167 180 193 207 216 224 233 236 256 257 258 270 274 275 285 286 301 0
125 140 141 145 148 159 160 162 169 170 175 188 191 194 196 199 204 207 208 211 214 222 232 240 255 268 270 271 280 283 303 0
130 136 138 139 143 144 146 147 163 164 168 170 181 187 189 191 193 197 204 213 215 216 231 240 244 255 273 275 287 292 298 0
130 138 139 140 146 147 148 158 164 170 175 181 182 187 188 189 191 196 205 215 222 239 240 244 256 266 271 292 297 298 301 0
132 137 138 139 142 143 144 145 149 150 164 166 168 180 193 197 207 213 215 217 221 232 255 270 274 275 278 280 286 301 302 0
135 136 137 139 144 145 146 147 150 159 164 165 168 169 170 171 175 177 183 184 192 201 226 233 240 244 257 272 284 290 300 0
135 137 140 145 154 159 160 166 172 175 177 188 201 204 205 207 208 221 225 237 242 243 251 266 268 270 271 279 280 293 294 0
1 136 137 138 143 144 149 154 159 163 170 176 185 188 195 197 204 206 212 214 218 225 239 240 250 251 261 270 279 282 293 298 0
1 136 137 140 144 149 160 179 183 200 204 205 207 223 224 227 235 251 255 257 259 260 262 264 270 272 278 279 280 284 288 293 0
1 139 147 149 154 165 170 172 177 189 191 198 201 204 205 207 213 222 224 226 229 234 240 244 261 265 268 270 272 277 280 300 0
1 139 150 154 176 177 183 187 189 205 206 207 213 217 224 225 231 234 246 251 253 254 256 259 260 261 264 269 273 277 285 292 0
1 142 145 161 167 168 172 178 182 183 184 188 189 201 205 207 208 213 222 224 233 254 256 260 264 272 276 277 279 283 293 300 0
3 10 159 167 172 188 197 207 218 220 221 225 230 236 240 250 253 261 262 264 265 269 270 274 280 281 285 286 291 292 298 299 0
3 136 144 149 150 163 164 167 170 172 188 199 202 209 220 221 224 234 235 237 247 253 262 263 264 266 268 280 284 287 294 299 0
10 137 138 139 143 145 146 147 152 159 166 167 171 174 178 186 188 189 197 211 216 221 225 228 230 233 242 257 271 275 283 288 0
12 136 137 138 139 154 155 160 165 168 169 175 177 178 181 188 196 215 216 217 225 226 239 241 251 271 273 283 285 291 300 302 0
12 136 144 148 155 161 162 175 177 190 192 195 197 199 216 218 233 239 240 244 246 250 254 257 260 265 270 272 273 279 285 303 0
14 136 138 139 140 142 143 145 148 149 156 158 161 163 165 168 173 174 191 193 209 215 216 218 220 233 240 249 250 267 268 298 0
17 136 141 144 145 146 151 152 158 160 164 166 168 173 176 178 183 208 212 218 219 220 224 225 227 241 245 268 271 272 291 302 0
18 137 147 149 152 154 155 160 163 166 172 184 188 189 194 197 198 201 210 212 218 226 234 235 246 248 273 277 283 287 293 294 0
18 149 158 159 163 165 166 170 172 184 187 190 191 197 204 210 212 218 220 221 222 224 225 231 234 240 253 265 268 274 283 300 0
19 69 142 154 166 170 172 180 188 191 192 197 199 200 203 204 205 207 212 213 222 224 237 239 268 269 278 280 286 288 296 300 0
23 158 166 183 188 196 204 205 208 215 220 221 222 224 225 239 246 253 260 261 264 265 266 268 269 270 271 280 285 292 293 300 0
36 155 159 166 177 189 197 198 199 200 201 204 205 207 213 224 225 226 234 235 241 244 262 264 265 277 279 283 286 288 291 300 0
52 136 138 139 145 146 149 152 156 167 168 174 176 181 195 197 213 215 222 229 240 242 244 253 256 268 270 275 289 292 298 303 0
54 137 140 153 159 166 170 183 188 191 197 199 200 204 205 208 212 221 224 236 239 251 253 264 268 269 271 280 283 288 291 294 0
54 153 160 163 168 170 172 177 183 184 188 197 198 199 205 211 212 216 224 225 230 241 251 264 266 269 270 273 278 280 288 296 0
54 159 167 168 170 172 177 184 185 188 197 198 199 204 206 211 213 225 226 230 234 241 245 247 251 261 274 278 288 289 298 300 0
56 136 138 139 143 145 150 153 155 156 158 164 172 174 180 181 184 200 215 218 220 222 229 239 240 244 255 267 286 287 289 292 0
65 136 137 138 140 141 142 143 144 147 158 159 160 161 163 166 171 188 204 205 214 224 225 228 256 264 270 276 283 291 292 293 0
68 138 139 140 143 146 155 160 162 168 170 172 175 180 188 193 195 209 212 216 224 225 234 245 271 280 283 287 291 297 301 303 0
68 138 139 145 147 150 156 158 163 164 167 177 189 191 195 197 204 213 216 218 220 231 239 240 242 244 245 259 270 275 292 298 0
72 139 145 147 150 151 155 156 158 159 161 162 164 166 168 172 174 175 178 197 199 208 212 215 218 220 222 225 229 258 268 289 0
80 139 140 141 143 144 159 160 163 169 175 191 194 195 197 199 204 207 208 211 213 214 222 224 225 232 233 239 246 249 255 268 0
80 140 141 143 144 145 146 149 155 159 160 162 168 169 170 175 176 181 185 188 191 195 199 202 206 208 214 218 240 247 268 271 0
85 138 140 147 150 157 158 161 166 170 172 175 180 182 188 194 197 200 204 205 208 209 210 211 224 227 253 258 270 276 280 293 0
132 136 139 141 142 143 145 149 150 151 156 163 164 166 168 170 171 180 184 188 197 198 202 215 235 243 253 262 278 285 288 302 0
135 136 137 140 145 154 159 166 170 175 176 177 188 191 201 204 205 207 212 213 224 225 229 240 242 243 244 268 279 280 293 296 0
1 139 156 159 166 177 184 187 192 197 204 205 207 208 217 220 221 222 224 226 239 246 250 253 261 265 266 268 271 279 280 282 300 0
3 136 137 139 146 147 155 160 166 167 168 170 188 191 199 200 205 208 212 221 224 230 235 249 250 253 262 266 271 277 278 279 281 0
3 139 145 149 166 170 183 188 189 191 197 199 200 201 204 205 207 208 212 213 224 234 235 246 264 265 268 280 283 286 288 291 300 0
3 166 170 188 191 197 199 200 204 205 208 212 213 219 224 225 235 236 239 250 251 253 268 269 273 278 289 291 292 293 294 299 300 0
8 136 150 154 155 156 160 168 174 176 183 189 196 198 200 201 205 213 220 224 225 229 254 255 259 260 264 268 269 271 292 293 295 0
11 136 142 145 146 150 151 153 156 160 162 163 166 172 178 180 184 197 206 207 218 220 223 230 238 239 250 268 270 271 272 287 303 0
11 146 153 156 167 170 172 173 175 188 191 192 204 208 209 211 221 230 233 234 247 248 253 262 271 277 278 280 288 297 298 300 303 0
13 145 149 151 154 169 172 177 182 186 188 189 201 205 210 212 213 220 226 231 239 240 246 248 268 269 278 284 286 288 292 293 294 0
14 139 140 141 142 143 144 145 148 150 158 167 170 171 177 193 194 196 197 201 204 208 211 212 221 232 233 255 261 274 280 284 297 0
16 136 137 138 143 149 154 160 162 163 164 166 170 172 185 188 204 207 218 236 237 240 250 260 265 269 270 272 280 285 286 292 293 0
16 137 138 154 165 173 178 183 193 204 205 207 208 218 227 235 239 241 248 257 259 260 261 265 270 271 278 279 286 288 292 293 298 0
16 137 140 142 143 160 162 166 172 179 189 207 208 213 214 224 227 235 248 250 251 259 260 262 270 272 276 277 278 279 280 294 299 0
16 137 140 143 144 154 162 163 166 167 169 173 183 204 207 208 224 227 233 235 249 251 253 257 260 261 268 270 279 280 283 299 303 0
18 136 139 144 146 148 149 155 166 175 184 186 187 188 189 200 204 207 210 227 234 235 246 248 253 255 262 277 284 286 291 297 303 0
19 69 141 145 149 157 166 170 172 188 197 199 200 203 204 205 207 213 224 234 241 242 262 264 270 277 280 282 286 288 291 296 300 0
21 143 149 170 172 173 179 185 188 191 208 209 220 221 224 225 230 234 235 237 247 253 262 263 266 268 269 271 274 283 294 296 299 0
23 140 150 160 162 163 166 176 183 187 197 204 205 206 208 219 221 224 225 239 249 251 253 259 260 264 266 268 269 271 273 277 285 0
23 161 166 167 170 172 177 178 187 191 192 199 205 207 208 211 213 222 224 227 234 240 250 253 260 265 268 269 277 279 283 293 294 0
36 136 137 144 154 159 166 168 170 181 199 200 204 205 207 213 224 230 240 241 246 253 255 264 268 270 279 280 283 286 288 293 300 0
36 139 149 160 166 167 172 186 198 199 200 204 205 212 213 224 230 231 235 236 241 244 246 249 253 260 263 264 268 269 278 279 300 0
42 50 138 139 146 154 156 159 160 170 172 174 184 188 189 191 199 204 219 221 230 233 239 249 266 270 271 275 288 293 295 297 303 0
47 136 138 141 145 146 149 150 156 157 160 164 165 166 167 175 176 179 181 184 189 204 205 226 229 234 236 240 242 244 265 268 290 0
48 136 140 141 144 145 146 150 151 156 161 162 163 164 169 171 176 180 186 188 191 198 205 215 219 225 226 230 236 269 270 283 301 0
54 137 140 147 153 155 159 166 170 183 188 191 197 199 200 205 207 208 213 224 234 251 253 264 269 277 280 281 283 286 288 291 294 0
54 137 141 145 159 166 170 172 184 188 189 197 199 200 201 204 205 212 213 222 224 230 238 240 241 250 268 279 280 283 288 293 300 0
56 138 139 143 145 146 150 156 158 159 164 168 172 174 181 182 184 197 207 208 215 220 222 225 229 244 246 267 268 279 287 289 293 0
58 136 139 144 145 147 150 155 157 161 163 166 168 169 174 178 182 184 188 199 205 215 217 219 237 238 240 255 260 261 267 268 283 0
68 138 139 140 143 146 149 155 160 162 164 168 170 172 175 180 193 200 209 212 218 222 224 225 234 238 271 280 283 287 291 297 301 0
78 137 150 156 159 166 172 181 189 196 197 200 205 208 213 224 229 231 239 253 256 259 261 265 268 269 271 272 273 280 289 293 296 0
78 139 145 147 149 155 156 159 166 170 172 184 200 205 208 212 215 221 224 225 228 234 240 244 245 253 261 265 268 271 273 279 300 0
78 139 147 149 150 155 166 187 196 200 205 207 208 221 224 225 234 240 244 250 253 260 261 265 266 268 269 271 277 279 281 287 289 0
78 139 150 168 178 194 196 198 200 205 207 213 224 225 229 250 251 253 254 256 259 260 261 262 263 268 271 272 273 277 279 287 289 0
78 139 166 170 172 177 188 189 200 201 205 208 212 213 224 225 226 229 234 237 240 244 250 256 260 261 262 265 268 271 273 277 279 0
78 169 174 182 183 184 185 187 189 201 204 205 207 208 221 224 225 239 254 260 261 262 263 264 266 270 271 277 279 281 289 293 300 0
80 140 141 144 145 146 155 158 159 160 161 162 169 170 171 173 182 188 205 206 207 208 217 219 221 239 240 254 255 263 275 281 287 0
85 136 138 139 140 143 146 147 150 152 155 164 166 171 172 180 184 198 200 202 204 209 221 241 250 258 260 271 274 277 280 284 295 0
1 39 145 154 165 166 178 191 199 204 212 218 222 224 226 233 236 239 240 241 248 250 257 260 265 271 273 283 291 292 293 299 301 302 0
1 136 138 140 143 149 154 160 162 179 185 187 188 190 200 204 206 207 223 225 235 244 249 250 257 260 263 265 269 270 278 295 298 299 0
1 149 154 166 172 186 189 197 200 205 206 207 213 218 223 224 225 227 237 239 244 246 259 261 265 269 270 273 277 278 286 292 293 299 0
2 82 148 152 153 159 160 168 170 176 183 184 188 191 197 204 208 211 212 213 232 234 248 249 251 253 263 264 279 280 281 282 292 298 0
3 136 137 146 149 159 165 166 170 188 191 199 200 204 205 212 213 222 224 231 234 235 253 262 265 273 277 278 280 287 288 293 294 296 0
3 136 138 146 154 163 166 170 174 186 187 188 191 198 199 200 204 205 213 224 234 250 268 269 270 273 278 280 286 287 293 294 296 299 0
3 136 139 142 149 154 166 169 170 184 188 197 198 199 200 204 205 212 213 224 225 241 246 250 265 268 273 278 279 281 287 289 296 299 0
3 136 146 160 166 168 170 186 188 189 191 196 199 200 201 204 205 212 213 224 227 240 241 264 265 269 277 278 281 286 287 293 294 303 0
3 147 150 155 166 170 186 189 191 197 199 200 201 205 207 208 221 224 235 239 250 251 266 269 271 272 277 280 283 286 288 289 294 300 0
3 147 155 166 170 174 177 183 184 186 189 198 199 200 201 205 207 208 221 224 231 235 241 263 264 266 268 269 271 280 283 286 288 294 0
10 137 138 139 141 143 146 147 148 152 154 156 159 167 171 172 174 175 178 186 188 189 197 206 216 225 230 233 235 238 248 255 264 285 0
10 137 138 139 143 144 145 146 147 154 156 159 160 171 173 174 178 186 189 211 214 216 225 228 230 233 235 236 238 257 268 270 275 285 0
10 137 138 139 143 144 146 147 153 154 156 159 160 167 171 173 174 175 178 186 189 211 216 230 233 235 245 248 254 260 270 279 283 297 0
10 137 142 147 159 163 166 170 177 183 188 197 199 200 204 205 208 212 221 224 226 239 251 262 264 266 271 277 279 280 283 293 294 299 0
10 137 144 149 159 166 170 172 177 179 184 189 197 199 200 204 205 212 221 222 224 225 226 231 241 250 253 262 266 268 283 293 299 300 0
11 146 149 154 156 163 166 167 170 172 175 176 179 188 197 208 209 220 221 223 224 237 239 240 253 263 266 268 271 282 283 288 294 303 0
13 166 167 170 172 183 185 188 191 196 198 200 206 209 213 218 220 221 224 227 233 240 241 250 261 265 268 270 279 285 286 287 294 299 0
14 136 138 139 140 148 156 163 165 170 173 174 181 184 185 188 189 198 200 201 202 204 205 211 225 229 237 240 257 261 280 287 289 294 0
14 137 138 139 140 144 145 146 147 148 153 168 171 172 174 178 181 185 190 198 215 217 228 240 244 245 255 266 268 270 287 289 293 296 0
14 138 139 140 144 145 146 148 150 153 171 172 174 178 180 182 185 197 198 200 204 207 215 217 232 240 245 266 268 286 287 288 289 296 0
16 137 139 140 142 143 159 160 166 179 183 188 189 191 204 207 208 217 218 224 229 235 248 257 258 263 264 269 270 273 276 280 291 293 0
17 136 141 146 149 151 152 154 164 166 168 173 176 178 199 208 212 219 223 224 225 227 236 255 266 268 269 271 272 275 283 284 286 288 0
18 137 138 139 144 147 152 154 157 158 159 160 170 172 173 183 188 195 205 212 214 225 227 230 239 240 245 254 255 269 283 286 293 295 0
18 146 149 154 160 166 168 174 176 181 183 184 186 188 198 204 207 210 220 222 226 235 246 248 251 257 263 268 270 278 286 291 296 300 0
36 138 142 166 178 191 194 197 198 199 200 204 205 207 213 216 224 230 231 234 235 253 255 263 269 270 273 278 280 286 288 291 292 293 0
49 136 149 154 159 160 163 166 170 176 179 185 188 189 204 205 206 207 212 218 222 224 225 240 249 250 262 263 265 270 271 282 292 293 0
77 138 139 140 144 146 147 150 164 166 167 177 189 191 193 194 195 197 213 222 224 225 239 240 244 255 256 259 268 270 275 292 297 301 0
78 137 139 150 159 165 166 172 179 187 189 196 197 200 204 205 208 212 220 221 224 225 234 251 253 259 261 262 264 266 268 271 273 287 0
82 138 139 141 145 146 147 152 157 160 164 167 172 173 176 188 189 197 205 222 226 239 240 244 245 250 254 256 257 271 275 290 292 293 0
85 138 140 142 147 150 157 166 170 172 175 180 184 188 194 197 198 200 204 205 208 210 211 220 224 240 241 250 253 258 270 280 293 295 0
135 136 137 145 146 147 151 159 164 165 168 169 170 171 172 175 177 179 183 188 192 201 205 215 216 217 219 240 244 245 255 269 290 300 0
1 139 145 159 160 163 166 168 172 176 183 187 194 197 204 205 208 220 221 224 225 246 251 253 262 264 268 270 271 272 279 280 288 289 295 0
1 158 172 176 177 184 187 188 189 205 206 208 220 221 224 225 231 239 246 249 250 251 253 254 256 260 261 266 268 269 271 284 292 293 294 0
3 136 139 142 144 145 146 147 149 155 166 170 184 189 191 199 200 205 207 213 222 224 231 234 235 250 253 265 277 278 280 286 288 292 300 0
8 148 168 172 188 189 197 200 201 205 208 212 215 221 222 224 225 229 232 250 251 254 255 256 260 261 266 269 271 272 273 277 292 293 300 0
10 137 139 146 147 155 159 163 166 170 182 184 188 198 199 200 205 207 208 224 225 234 241 242 246 250 262 265 266 268 279 281 283 286 288 0
10 137 142 144 145 159 165 166 170 172 177 179 183 184 187 189 199 200 201 204 205 212 213 224 225 240 241 262 264 268 272 283 293 299 300 0
12 136 137 138 139 147 148 154 160 165 168 169 170 175 176 177 178 181 208 215 216 217 221 225 226 239 241 244 251 259 270 280 283 287 288 0
14 138 140 141 142 144 145 148 150 167 170 171 176 177 184 194 196 197 198 199 201 205 206 208 211 221 228 241 244 261 265 270 273 294 296 0
16 137 138 139 154 159 160 176 181 184 188 189 193 194 198 204 205 212 213 215 217 224 225 229 234 246 249 250 253 254 265 268 269 277 279 0
16 137 138 154 163 188 197 204 205 207 208 223 227 233 235 239 249 250 257 260 261 265 270 271 272 279 280 282 283 285 286 292 293 299 303 0
17 136 141 143 144 145 146 149 150 151 152 164 166 168 172 173 176 178 180 191 204 207 213 214 218 219 220 224 225 230 268 272 283 284 291 0
68 136 138 139 140 144 145 147 150 156 167 176 177 187 189 191 193 194 197 204 213 218 222 223 224 225 229 234 255 259 270 275 282 292 297 0
74 142 146 147 152 154 155 166 184 186 187 199 205 206 210 212 222 224 225 236 239 240 248 253 257 266 269 277 278 285 287 288 291 293 294 0
78 158 160 168 170 172 174 176 185 189 196 197 200 201 204 205 208 213 224 240 244 250 254 260 263 264 269 272 277 280 284 289 292 293 296 0
82 138 139 141 143 145 146 152 156 157 160 167 172 173 175 187 189 197 204 213 216 221 226 231 239 240 244 245 250 254 257 283 292 293 296 0
1 17 136 146 151 152 154 168 172 176 178 194 199 208 212 219 221 224 225 230 241 245 246 247 255 266 269 271 272 274 275 283 284 286 291 292 0
1 147 150 155 166 170 172 174 189 205 207 208 213 220 222 224 225 231 234 240 244 246 250 253 255 259 260 261 262 268 271 279 280 287 293 294 0
3 136 140 145 166 170 179 183 184 189 198 199 200 201 204 205 207 213 224 231 235 241 251 264 270 271 277 278 279 280 281 286 287 288 294 296 0
3 136 141 147 148 149 150 154 155 160 162 163 166 170 186 198 199 200 205 212 213 217 224 227 235 249 251 253 264 268 279 282 283 286 294 300 0
3 136 146 148 149 155 156 166 168 170 174 178 186 189 191 199 200 201 204 205 207 213 224 240 241 257 269 271 278 280 286 287 292 293 294 299 0
3 137 147 150 155 163 166 170 189 191 196 197 199 200 201 205 207 208 221 224 227 235 241 246 250 251 266 269 271 277 280 283 286 288 294 300 0
3 141 147 150 154 155 166 170 177 182 183 189 191 199 200 205 207 208 221 224 226 240 242 253 264 265 266 271 277 279 280 283 286 288 291 294 0
10 137 139 142 145 146 159 166 170 184 188 198 199 200 204 205 208 212 213 221 222 224 239 241 246 249 250 262 265 277 280 283 288 291 292 293 0
10 137 139 145 159 166 170 177 184 188 197 198 199 200 204 205 207 208 221 224 239 241 242 250 251 262 270 271 273 277 279 280 283 286 291 299 0
10 137 141 150 159 166 170 172 177 179 183 189 191 196 199 200 201 204 205 207 224 231 251 262 264 266 268 270 271 273 280 283 286 293 294 299 0
10 137 142 145 146 154 155 159 166 169 170 183 186 188 199 200 204 205 207 208 221 224 239 264 265 268 271 278 280 281 286 292 293 294 296 299 0
11 137 142 145 146 147 149 155 166 170 179 184 187 191 199 200 205 207 210 213 224 231 239 240 244 246 250 253 260 264 268 278 280 286 288 300 0
11 145 147 156 163 166 172 173 179 186 188 189 191 193 199 200 204 205 212 217 221 224 233 235 241 248 249 251 253 262 271 280 282 283 288 293 0
16 136 137 144 163 166 167 169 183 204 205 207 218 223 224 225 227 233 235 249 257 260 261 262 264 265 270 272 279 282 283 286 288 292 293 303 0
36 142 146 147 159 163 166 184 191 199 200 204 205 207 208 221 224 230 231 236 239 240 253 262 264 266 268 270 271 278 279 280 286 288 291 300 0
78 139 172 183 185 187 188 189 196 197 200 201 204 205 208 213 224 225 229 234 237 245 254 255 260 261 262 264 265 270 271 273 277 279 281 287 0
82 136 137 140 145 147 149 150 151 154 168 169 171 174 176 177 180 181 189 192 196 205 208 221 225 226 231 241 246 256 259 261 266 273 283 293 0
1 136 137 138 154 159 163 170 176 178 183 186 188 200 205 206 207 214 218 222 225 233 240 245 249 251 261 264 270 271 279 282 286 287 292 293 298 0
1 139 145 155 156 158 178 183 184 188 189 192 194 198 205 206 207 213 215 217 219 220 224 225 234 251 253 254 255 256 260 261 264 268 287 289 292 0
3 136 137 138 141 147 152 153 155 166 170 181 182 188 191 197 199 200 205 213 221 224 234 238 242 251 262 264 268 269 279 280 283 286 293 294 299 0
3 136 137 149 162 166 170 186 188 189 198 199 200 201 204 205 207 213 224 225 240 241 246 251 264 268 269 270 272 273 283 286 287 289 291 294 299 0
3 136 140 145 146 166 170 183 184 185 189 198 199 200 201 204 205 207 213 224 234 235 241 245 251 264 270 271 277 278 279 280 281 286 287 288 294 0
3 141 147 149 150 155 156 159 163 166 168 170 180 189 191 194 197 199 200 205 208 212 213 224 231 240 253 265 269 273 278 280 287 291 293 294 299 0
10 137 141 144 147 150 159 163 165 166 170 172 177 184 189 197 199 200 204 205 207 224 226 237 240 250 253 262 266 268 270 280 283 286 293 299 300 0
1 136 138 160 176 188 189 192 196 197 201 205 206 208 215 217 221 224 225 229 239 242 246 250 251 254 255 256 260 266 269 270 271 277 281 288 292 293 0
1 136 147 155 159 160 166 168 170 182 187 188 189 201 205 206 207 208 221 224 225 229 231 240 244 250 255 265 266 268 269 271 277 281 282 292 293 300 0
3 136 137 159 163 165 166 170 177 179 184 188 189 197 198 199 200 204 205 212 213 221 222 224 225 240 241 242 249 253 265 268 274 283 293 294 296 299 0
54 137 139 141 149 159 163 166 170 183 188 189 191 196 197 199 200 201 204 205 208 212 213 224 225 228 234 251 264 266 268 269 278 281 288 289 292 296 0
135 136 137 144 145 146 147 150 151 157 159 162 163 164 165 168 169 170 171 172 175 179 183 192 195 205 207 216 217 239 240 244 245 269 270 272 287 290 0
1 20 22 142 172 183 184 188 197 198 205 207 212 213 221 230 232 236 239 241 242 249 253 263 265 266 270 277 280 281 282 287 289 291 292 293 299 300 301 0
1 136 139 141 144 145 155 156 170 176 178 180 184 188 189 192 201 204 205 206 207 208 221 222 224 225 234 240 244 250 251 254 255 260 261 271 277 279 287 0
3 80 156 160 165 166 167 172 176 188 199 205 209 213 219 221 224 230 236 239 240 241 245 247 248 262 264 265 266 268 277 283 284 287 289 295 299 300 303 0
3 136 137 141 149 150 154 159 165 166 170 185 189 191 196 197 198 199 200 204 205 212 213 221 222 224 225 231 235 251 253 263 266 268 272 283 288 293 294 0
3 136 137 146 149 162 163 166 170 174 188 198 199 200 204 205 207 208 221 224 225 234 241 242 246 262 264 266 268 269 270 271 278 281 286 287 294 296 299 0
3 137 141 146 147 149 154 155 166 170 189 191 199 200 205 208 212 221 223 224 235 239 241 250 251 253 264 266 268 271 273 279 280 281 283 289 293 294 299 0
54 137 139 141 142 146 149 150 159 166 170 177 184 187 189 198 199 200 204 205 208 212 213 224 231 239 250 251 253 264 266 269 270 277 280 281 283 288 292 0
3 136 137 146 149 150 153 154 159 163 165 166 168 170 179 181 185 189 191 199 200 201 204 205 207 213 224 225 231 235 245 251 268 270 283 286 293 294 296 299 0
3 142 146 147 154 155 166 170 187 189 191 199 200 205 208 212 221 223 224 235 239 249 250 251 253 266 268 271 273 279 280 281 283 286 289 292 293 294 299 300 0
82 136 138 139 141 145 146 149 152 160 167 172 174 175 177 181 188 189 197 198 199 204 205 215 216 220 221 229 239 240 244 250 254 257 271 272 290 292 295 297 0
3 142 149 150 158 163 166 170 177 184 186 187 189 198 199 200 201 204 205 207 208 213 221 224 226 231 235 241 250 251 264 269 270 277 279 280 283 286 293 294 299 0
3 137 146 149 163 166 170 177 183 184 186 189 196 198 199 200 204 205 207 208 221 224 231 235 239 241 246 253 264 265 266 268 269 270 271 273 280 281 283 286 288 291 294 296 0
