p cnf 40351 1075
1 0
45 46 7 6 84 85 123 -124 0
45 46 6 84 -7 85 123 -124 0
84 -124 6 7 45 -46 85 123 0
45 -7 -46 6 84 85 123 -124 0
45 46 -85 7 6 84 123 -124 0
45 46 -85 6 84 -7 123 -124 0
84 -85 -46 6 7 -124 45 123 0
45 46 7 -6 84 85 123 -124 0
45 46 -6 84 -7 85 123 -124 0
85 -6 -46 7 45 84 123 -124 0
45 -7 -46 84 -6 85 123 -124 0
45 46 -85 7 84 -6 123 -124 0
45 46 -85 -6 84 -7 123 -124 0
45 -6 -46 -85 7 -124 84 123 0
84 46 7 6 -45 85 123 -124 0
-45 -7 6 46 84 85 123 -124 0
-45 85 -46 7 6 84 123 -124 0
-45 -7 -46 6 84 85 123 -124 0
-45 46 6 -85 7 84 123 -124 0
-45 46 6 -85 -7 84 123 -124 0
-45 123 -46 -124 6 7 -85 84 0
84 46 7 -6 -45 85 123 -124 0
-45 -7 -6 46 84 85 123 -124 0
-45 85 -46 7 -6 84 123 -124 0
-45 -7 -46 -6 84 85 123 -124 0
-45 46 -6 -85 7 84 123 -124 0
-45 46 -6 -85 -7 84 123 -124 0
-45 -6 -46 -124 -85 7 84 123 0
45 46 7 6 -84 85 123 -124 0
-84 -7 6 45 46 85 123 -124 0
-84 -124 -46 6 7 45 85 123 0
45 -7 -46 -84 6 85 123 -124 0
45 46 -85 7 6 -84 123 -124 0
-84 -7 -85 6 45 46 123 -124 0
-84 -85 45 -46 6 7 -124 123 0
45 46 7 -6 -84 85 123 -124 0
-84 -7 -6 45 46 85 123 -124 0
85 -6 -46 7 45 -84 123 -124 0
45 -7 -46 -84 -6 85 123 -124 0
45 46 -85 7 -6 -84 123 -124 0
-84 -7 -85 -6 45 46 123 -124 0
45 -6 -85 -46 -84 7 -124 123 0
-45 46 7 6 -84 85 123 -124 0
-45 -7 6 -84 46 85 123 -124 0
-45 85 -46 6 7 -84 123 -124 0
-45 -7 -46 -84 6 85 123 -124 0
-45 46 -85 7 6 -84 123 -124 0
-45 -7 -85 -84 6 46 123 -124 0
-45 -84 -85 -46 -124 6 7 123 0
-45 46 7 -6 -84 85 123 -124 0
-45 -7 -6 -84 46 85 123 -124 0
-45 85 -46 -6 7 -84 123 -124 0
-45 -7 -46 -6 -84 85 123 -124 0
-45 46 -85 7 -6 -84 123 -124 0
-45 -7 -85 -84 -6 46 123 -124 0
-45 -6 -85 -46 -124 -84 7 123 0
45 -123 -85 -46 6 7 -124 84 0
45 -6 -85 -46 -123 7 -124 84 0
-45 -123 -85 -46 -124 6 7 84 0
-45 -6 -85 -46 -124 -123 7 84 0
-123 -84 -85 -124 -46 6 7 45 0
-84 -6 -85 -123 -46 -124 7 45 0
125 8 7 47 -86 85 124 46 0
125 -8 7 -86 47 85 124 46 0
125 -86 7 8 -47 85 124 46 0
-47 -86 -8 7 46 85 124 125 0
47 8 -125 46 7 85 86 124 0
47 -8 -125 46 7 85 86 124 0
-47 -125 7 8 46 85 86 124 0
-47 -8 46 -125 7 85 86 124 0
47 -86 -125 85 8 46 7 124 0
-86 -125 7 85 -8 47 46 124 0
-47 -86 85 -125 8 46 7 124 0
-7 125 8 -86 47 85 124 46 0
-7 125 -8 -86 47 85 124 46 0
-7 125 -86 8 -47 85 124 46 0
-47 -86 -8 -7 46 85 124 125 0
47 8 -125 46 -7 85 86 124 0
47 -8 46 -125 -7 85 86 124 0
-47 -7 -125 8 46 85 86 124 0
-47 -8 -125 -7 46 85 86 124 0
47 -86 -125 85 8 46 -7 124 0
-7 -86 85 -125 -8 47 46 124 0
-47 -86 85 -125 8 46 -7 124 0
125 -86 7 8 47 85 124 -46 0
125 -8 7 -86 47 85 124 -46 0
125 -47 7 -86 8 85 124 -46 0
-47 -86 -8 -46 7 85 124 125 0
47 8 7 -46 -125 85 86 124 0
47 -8 -46 7 -125 85 86 124 0
-47 -125 -46 7 8 85 86 124 0
-47 -8 -46 -125 7 85 86 124 0
47 -86 85 -125 8 -46 7 124 0
-86 -8 7 85 -125 47 -46 124 0
-47 -86 85 -46 -125 8 7 124 0
-7 125 -86 8 47 85 124 -46 0
-7 125 -8 -86 47 85 124 -46 0
-7 125 -47 -86 8 85 124 -46 0
-47 -86 -8 -46 -7 85 124 125 0
-46 -7 -125 8 47 85 86 124 0
47 -8 -7 -46 -125 85 86 124 0
-47 -125 -46 -7 8 85 86 124 0
-47 -8 -46 -125 -7 85 86 124 0
47 -86 85 -125 8 -46 -7 124 0
-7 -86 85 -8 -125 47 -46 124 0
-47 -86 85 -46 -125 8 -7 124 0
-47 125 -86 -85 8 46 124 7 0
-47 -86 -85 -8 7 46 124 125 0
47 8 -85 46 7 -125 86 124 0
47 -8 -85 7 46 -125 86 124 0
-47 -125 -85 8 46 7 86 124 0
-47 -125 -85 -8 7 46 86 124 0
47 -86 -85 7 8 46 -125 124 0
-86 -8 -85 7 46 -125 47 124 0
-47 -86 -85 -125 7 8 46 124 0
-47 125 -86 -85 8 46 124 -7 0
-47 -86 -85 -8 -7 46 124 125 0
47 8 -85 46 -7 -125 86 124 0
47 -8 -85 -7 46 -125 86 124 0
-47 -125 -85 8 46 -7 86 124 0
-47 -125 -85 -8 -7 46 86 124 0
47 -86 -85 -7 8 46 -125 124 0
-7 -86 -85 -8 46 -125 47 124 0
-47 -86 -85 -125 -7 8 46 124 0
-47 -86 -8 -85 7 -46 124 125 0
47 8 -85 -46 7 -125 86 124 0
47 -8 -46 -85 7 -125 86 124 0
-47 -125 -85 8 -46 7 86 124 0
-47 -125 -85 -46 -8 7 86 124 0
47 -86 -85 -46 7 8 -125 124 0
-86 -125 -85 7 -8 -46 47 124 0
-47 -86 -85 -125 -46 7 8 124 0
47 8 -85 -46 -7 -125 86 124 0
47 -8 -46 -85 -7 -125 86 124 0
-47 -125 -85 8 -46 -7 86 124 0
-47 -125 -85 -46 -8 -7 86 124 0
47 -86 -85 -46 -7 8 -125 124 0
-7 -86 -85 -125 -8 -46 47 124 0
-47 -86 -85 -125 -46 -7 8 124 0
9 47 86 8 -126 48 87 125 0
-9 47 86 8 -126 48 87 125 0
9 47 86 8 -48 87 -126 125 0
-9 47 86 8 -48 87 -126 125 0
9 47 86 8 48 -126 -87 125 0
-9 -126 86 8 47 48 -87 125 0
9 -48 8 47 -87 -126 86 125 0
9 47 86 -8 -126 48 87 125 0
-9 47 86 -8 87 48 -126 125 0
9 -126 86 -8 47 -48 87 125 0
-9 -126 86 -8 47 -48 87 125 0
9 -126 86 -8 47 48 -87 125 0
-9 -126 86 -8 47 48 -87 125 0
9 -126 86 -8 -48 47 -87 125 0
9 -47 86 8 48 -126 87 125 0
-9 -47 86 8 48 87 -126 125 0
9 -48 86 8 -126 -47 87 125 0
-9 -48 86 -126 8 -47 87 125 0
9 -126 86 8 -47 48 -87 125 0
-9 -47 86 -126 8 48 -87 125 0
9 -48 86 8 -126 -47 -87 125 0
9 48 -8 -47 -126 86 87 125 0
-9 48 -8 -47 -126 86 87 125 0
9 -48 -8 -47 -126 86 87 125 0
-9 -126 -8 -47 -48 86 87 125 0
9 -126 -8 -47 48 -87 86 125 0
-9 -126 -8 -47 -87 48 86 125 0
-87 -126 -47 -8 -48 9 86 125 0
9 -126 -86 8 47 48 87 125 0
-9 -126 -86 8 47 48 87 125 0
9 -48 -86 8 -126 47 87 125 0
-9 -126 -86 8 -48 47 87 125 0
9 -126 -86 8 -87 47 48 125 0
-9 -126 -86 8 -87 47 48 125 0
-87 -126 -86 8 -48 9 47 125 0
9 -126 -8 -86 47 48 87 125 0
-9 -126 -86 -8 47 48 87 125 0
9 -48 -86 -8 -126 47 87 125 0
-9 -48 -86 -126 -8 47 87 125 0
9 -87 -86 -8 -126 47 48 125 0
-9 -87 -86 48 -8 47 -126 125 0
9 -87 -86 -48 -8 -126 47 125 0
9 48 -47 8 -86 -126 87 125 0
-9 48 -47 -86 8 -126 87 125 0
9 -48 -47 87 8 -86 -126 125 0
-9 -48 -47 87 -86 8 -126 125 0
9 -87 -86 -47 8 -126 48 125 0
-9 -87 -86 -47 -126 8 48 125 0
9 -48 -86 -47 -87 8 -126 125 0
9 48 -86 -8 -47 -126 87 125 0
-9 48 -86 -8 -47 -126 87 125 0
9 -126 -86 -8 -47 -48 87 125 0
-9 -126 -86 -8 -47 -48 87 125 0
9 48 -86 -8 -47 -126 -87 125 0
-9 -126 -86 -8 -47 48 -87 125 0
9 -126 -86 -8 -47 -48 -87 125 0
100 62 -140 23 61 22 101 139 0
61 62 -140 22 100 -23 101 139 0
22 101 -62 23 61 -140 100 139 0
100 -23 61 -140 -62 22 101 139 0
22 62 -101 -140 23 61 100 139 0
-23 61 -101 22 -140 62 100 139 0
22 -101 -62 -140 23 61 100 139 0
-22 62 -140 61 101 23 100 139 0
-22 62 -140 61 101 -23 100 139 0
-22 101 -62 -140 23 61 100 139 0
-22 -23 61 -140 -62 100 101 139 0
-22 62 23 -140 61 100 -101 139 0
61 62 -140 -23 -22 100 -101 139 0
-22 -101 -62 -140 23 61 100 139 0
100 101 -61 23 62 -140 22 139 0
22 101 -61 62 100 -140 -23 139 0
22 101 -62 23 -140 -61 100 139 0
100 -23 -62 -61 -140 22 101 139 0
22 62 -101 -61 23 100 -140 139 0
100 -23 -61 -101 22 62 -140 139 0
22 -61 -62 100 -140 23 -101 139 0
-22 62 -140 23 -61 100 101 139 0
-22 62 -140 -23 -61 100 101 139 0
-22 101 23 -140 -61 -62 100 139 0
-22 -23 -62 -61 -140 100 101 139 0
-22 62 -101 -61 23 100 -140 139 0
-22 -23 -101 -61 100 62 -140 139 0
-22 -61 -62 100 -140 23 -101 139 0
22 62 61 -140 23 -100 101 139 0
61 62 -140 -23 -100 22 101 139 0
22 101 -140 -62 23 61 -100 139 0
61 -23 -62 -140 22 -100 101 139 0
22 62 -101 61 -140 23 -100 139 0
22 -23 -101 -140 61 -100 62 139 0
22 -100 -101 -62 -140 23 61 139 0
-22 101 -140 23 61 62 -100 139 0
61 62 -140 101 -23 -22 -100 139 0
-22 101 -140 -62 23 61 -100 139 0
-22 -23 -62 61 -100 -140 101 139 0
-22 62 -101 23 -140 61 -100 139 0
-22 -23 -101 -140 -100 61 62 139 0
-22 -100 -101 -62 -140 23 61 139 0
-100 101 -61 22 -140 62 23 139 0
-140 101 -61 62 -100 22 -23 139 0
22 101 -62 -140 23 -61 -100 139 0
-100 -23 -62 -140 -61 22 101 139 0
22 62 -140 -101 -61 23 -100 139 0
-100 -23 -140 -61 -101 22 62 139 0
22 -61 -101 -62 -100 -140 23 139 0
-22 62 -140 -61 -100 23 101 139 0
-22 62 -61 -140 -23 -100 101 139 0
-22 101 23 -140 -62 -61 -100 139 0
-22 -23 -62 -140 -61 -100 101 139 0
-22 62 -101 -140 -61 23 -100 139 0
-22 -23 -101 -140 -61 -100 62 139 0
-22 -61 -101 -62 -100 -140 23 139 0
63 62 141 23 101 102 140 -24 0
-63 23 141 62 101 102 140 -24 0
-24 -102 23 62 63 101 140 141 0
-63 -24 141 23 62 101 140 -102 0
24 62 -141 23 63 101 102 140 0
63 -141 23 62 -24 101 102 140 0
24 -141 23 -63 62 101 102 140 0
-63 -24 23 -141 62 101 102 140 0
63 24 -102 62 23 -141 101 140 0
-102 -24 -141 23 62 63 101 140 0
-63 -102 -141 62 24 23 101 140 0
63 24 101 62 -141 -23 102 140 0
63 -23 -141 62 -24 101 102 140 0
-63 24 101 -23 62 -141 102 140 0
-63 -24 -141 -23 62 101 102 140 0
63 24 -102 62 -23 -141 101 140 0
-102 -24 -141 -23 62 63 101 140 0
-63 -102 -141 62 24 -23 101 140 0
63 24 -62 23 -141 101 102 140 0
-24 -141 -62 23 63 101 102 140 0
-63 24 101 -62 23 -141 102 140 0
-63 -24 -62 23 -141 101 102 140 0
63 24 -102 -141 -62 23 101 140 0
-102 -24 -62 23 -141 63 101 140 0
-102 -63 23 -62 -141 24 101 140 0
63 24 -23 -62 -141 101 102 140 0
-23 -24 -62 -141 63 101 102 140 0
24 -23 -141 -62 -63 101 102 140 0
-63 -141 -62 -24 -23 101 102 140 0
24 -102 -23 -62 63 101 -141 140 0
-102 -23 -62 -24 -141 63 101 140 0
-63 -102 -62 101 -23 24 -141 140 0
63 24 -101 23 62 -141 102 140 0
-24 102 -101 62 23 63 -141 140 0
24 -141 23 -101 -63 62 102 140 0
-24 -141 -101 23 62 -63 102 140 0
24 -102 23 62 63 -101 -141 140 0
-24 -141 -101 23 62 -102 63 140 0
-63 -102 62 -141 23 24 -101 140 0
24 -23 -141 63 62 -101 102 140 0
-24 102 -101 62 -23 63 -141 140 0
24 -23 -141 -101 -63 62 102 140 0
-24 -141 -101 -23 62 -63 102 140 0
63 24 -141 -102 62 -23 -101 140 0
-24 62 -141 -101 -23 -102 63 140 0
-63 -102 -141 62 -23 24 -101 140 0
24 -141 23 -62 63 -101 102 140 0
-24 -141 -62 -101 23 63 102 140 0
24 -141 23 -101 -62 -63 102 140 0
-63 -24 -101 -62 23 -141 102 140 0
24 -141 23 -102 -62 63 -101 140 0
-102 -24 -101 -62 23 -141 63 140 0
-63 -141 23 -102 -62 -101 24 140 0
24 -23 -101 -62 63 -141 102 140 0
-23 -24 -101 -62 -141 63 102 140 0
24 -23 -141 -101 -62 -63 102 140 0
-63 -23 -101 -62 -24 -141 102 140 0
24 -23 -141 -102 -62 63 -101 140 0
-102 -23 -101 -62 -24 -141 63 140 0
-63 -102 -141 -101 -62 -23 24 140 0
109 110 -149 32 71 70 31 148 0
109 110 70 -149 71 -32 31 148 0
109 110 -71 32 -149 70 31 148 0
31 -32 -71 -149 70 109 110 148 0
109 71 -149 32 70 31 -110 148 0
109 -32 -149 31 70 71 -110 148 0
109 31 -71 -110 32 70 -149 148 0
109 110 -149 32 71 70 -31 148 0
109 110 -149 70 71 -32 -31 148 0
109 110 -71 32 -149 70 -31 148 0
109 -32 -71 -31 70 -149 110 148 0
109 71 -149 32 70 -31 -110 148 0
109 -32 -149 -31 70 71 -110 148 0
109 -110 -71 -31 32 70 -149 148 0
109 110 32 -70 71 -149 31 148 0
109 110 -32 -70 71 -149 31 148 0
109 110 -71 -70 32 -149 31 148 0
109 -32 -71 -70 31 -149 110 148 0
109 71 -70 -149 32 31 -110 148 0
109 -32 -149 -70 31 71 -110 148 0
109 -70 -71 -110 31 32 -149 148 0
109 110 -149 32 71 -70 -31 148 0
109 110 -149 -32 71 -70 -31 148 0
109 110 -71 -149 32 -70 -31 148 0
-31 -32 -71 -70 -149 109 110 148 0
109 71 -149 -70 32 -31 -110 148 0
109 -32 -70 -31 -149 71 -110 148 0
109 -70 -71 -31 -110 32 -149 148 0
-109 110 -149 32 70 71 31 148 0
-109 110 -149 -32 70 71 31 148 0
-109 110 -71 -149 32 70 31 148 0
-109 -32 -71 -149 31 70 110 148 0
-109 71 -110 -149 32 70 31 148 0
-109 -32 -110 31 -149 70 71 148 0
-109 31 -149 -71 -110 32 70 148 0
-109 110 -149 32 70 71 -31 148 0
-109 110 -32 -149 70 71 -31 148 0
-109 110 -71 -149 32 70 -31 148 0
-109 -32 -71 -149 -31 70 110 148 0
-109 71 -110 -149 32 70 -31 148 0
-109 -32 -110 -149 -31 70 71 148 0
-109 -110 -149 -71 -31 32 70 148 0
-109 110 -149 32 -70 71 31 148 0
-109 110 -149 -32 -70 71 31 148 0
-109 110 -149 -71 -70 32 31 148 0
-109 -32 -71 -149 -70 31 110 148 0
-109 71 -110 -70 -149 32 31 148 0
-109 -32 -110 -149 -70 31 71 148 0
-109 -70 -149 -71 -110 31 32 148 0
-109 110 -149 32 -70 71 -31 148 0
-109 110 -149 -32 -70 71 -31 148 0
-109 110 -149 -71 -70 32 -31 148 0
-109 -32 -71 -70 -31 -149 110 148 0
-109 71 -110 -149 -70 32 -31 148 0
-109 -32 -110 -70 -31 -149 71 148 0
-109 -70 -149 -71 -31 -110 32 148 0
-7 -85 -124 -46 0
-47 -86 -125 -8 0
-9 -87 -126 -48 0
-23 -101 -62 -140 0
-63 -102 -141 -24 0
-32 -71 -149 -110 0
-116 -155 -77 -38 0
-118 -79 -157 -40 0
-47 -86 -8 -85 -7 -46 0
-9 -48 -86 -47 -87 -8 0
-45 -84 -85 -46 -124 -123 0
-48 -87 -86 -46 -47 -85 0
-120 -119 -122 -121 0
-126 -125 -123 -124 0
-127 -128 -130 -129 0
126 -130 -1 0
126 130 857 -1 0
-129 125 -857 0
858 129 125 -857 0
-128 -858 124 0
-134 130 -1 0
134 872 130 -1 0
-133 129 -872 0
873 129 133 -872 0
-132 128 -873 0
-138 134 -1 0
134 138 887 -1 0
-137 133 -887 0
888 137 133 -887 0
-136 132 -888 0
-142 138 -1 0
142 902 138 -1 0
-141 137 -902 0
903 141 137 -902 0
-140 136 -903 0
-146 142 -1 0
142 146 917 -1 0
-145 141 -917 0
918 145 141 -917 0
-141 -145 918 -917 0
-144 140 -918 0
919 144 140 -918 0
-143 -919 139 0
-150 146 -1 0
150 932 146 -1 0
145 -149 -932 0
933 145 149 -932 0
933 -145 -149 -932 0
-148 144 -933 0
934 144 148 -933 0
-147 -934 143 0
150 -154 -1 0
150 154 947 -1 0
-153 149 -947 0
948 153 149 -947 0
-152 -948 148 0
949 152 148 -948 0
-151 -949 147 0
-151 -950 147 0
950 151 -949 147 0
119 -9701 0
9701 -9706 0
120 -9706 0
9706 -9712 0
121 -9712 0
9712 -9719 0
122 -9719 0
9719 -9727 0
9727 -9736 0
9736 -9746 0
9746 -9756 126 0
-9757 9746 0
-9768 9756 9757 0
127 -9768 9757 0
-9769 9757 0
-9781 9768 9769 0
128 -9781 9769 0
-9782 9769 0
-9795 9781 9782 0
-9795 129 9782 0
-9796 9782 0
-9809 9795 130 0
9795 -9810 9796 0
-9810 9796 130 0
-9811 9796 0
-9825 9809 9810 0
-9826 9810 9811 0
-9827 9811 0
-9842 9825 9826 0
-9843 9826 9827 0
-9844 9827 0
9842 -9860 9843 0
-9861 9843 9844 0
-9861 133 9844 0
-9862 9844 0
-9878 9860 134 0
-9879 9861 134 0
-9880 9861 9862 0
-9880 9862 134 0
-9881 9862 0
-9898 9878 9879 0
-9899 9879 9880 0
-9900 9880 9881 0
-9901 9881 0
9898 -9919 9899 0
-9919 136 9899 0
-9920 9899 9900 0
-9920 136 9900 0
-9921 9900 9901 0
-9940 9919 137 0
9919 -9941 9920 0
-9941 137 9920 0
-9942 9920 9921 0
-9942 137 9921 0
-9962 9940 138 0
-9963 9941 138 0
-9964 9942 138 0
-9985 9962 139 0
-9986 9963 139 0
-9987 9964 139 0
-10009 9985 140 0
-10010 9986 140 0
-10011 9986 9987 0
-10011 140 9987 0
-10034 10009 141 0
-10035 10010 141 0
-10036 10010 10011 0
-10036 10011 141 0
-10059 10034 142 0
-10060 10035 142 0
-10061 10036 142 0
-10084 10059 143 0
-10085 10060 143 0
-10086 10060 10061 0
-10086 10061 143 0
-10109 10084 144 0
-10110 10085 144 0
-10111 10086 144 0
-10134 10109 145 0
-10135 10110 145 0
-10136 10111 145 0
-10159 10134 146 0
-10160 10135 146 0
-10161 10136 146 0
-10184 10159 147 0
-10185 10160 147 0
-10186 10161 147 0
-10209 10184 148 0
-10210 10185 148 0
-10211 10186 148 0
-10234 10209 149 0
-10210 10235 0
-10235 10210 149 0
-10236 10210 10211 0
-10236 149 10211 0
-10259 10234 150 0
10260 -10235 0
-10260 10235 150 0
-10261 10236 150 0
-10284 10259 151 0
10285 -10260 0
-10285 10260 151 0
-10286 10261 151 0
-10309 10284 152 0
-10310 10285 152 0
-10311 10286 152 0
-10334 10309 153 0
-10335 10310 153 0
-10336 10311 153 0
-10359 10334 154 0
10335 -10360 154 0
-10361 10336 154 0
10359 10360 -10385 0
10360 155 -10385 0
10360 10361 -10386 0
10385 -10410 156 0
-10386 10411 0
-10411 10386 156 0
10411 10410 -10436 0
157 10411 -10436 0
-10411 -157 10437 0
10436 -39736 0
39736 -39737 0
39737 -39738 0
39738 -39739 0
39739 -39740 0
39740 -39741 0
39741 -39742 0
39742 -39743 0
39743 -39744 0
39744 -39745 0
39745 -39746 0
39746 -39747 0
39747 -39748 0
39748 -39749 0
39749 -39750 0
39750 -39751 0
39751 -39752 0
39752 -39753 0
39753 -39754 0
39754 -39755 0
39755 -39756 0
39756 -39757 0
39757 -39758 0
39758 -39759 0
39759 -39760 0
39760 -39761 0
39761 -39762 0
39762 -39763 0
39763 -39764 0
39764 -39765 0
39765 -39766 0
39766 -39767 0
39767 -39768 0
39768 -39769 0
39769 -39770 0
39770 -39771 0
39771 -39772 0
39772 -39773 0
39773 -39774 0
39774 -39775 0
-10437 -40072 0
40072 -40073 0
40073 -40074 0
40074 -40075 0
40075 -40076 0
40076 -40077 0
40077 -40078 0
40078 -40079 0
40079 -40080 0
40080 -40081 0
40081 -40082 0
40082 -40083 0
40083 -40084 0
40084 -40085 0
40085 -40086 0
40086 -40087 0
40087 -40088 0
40088 -40089 0
40089 -40090 0
40090 -40091 0
40091 -40092 0
40092 -40093 0
40093 -40094 0
40094 -40095 0
40095 -40096 0
40096 -40097 0
40097 -40098 0
40098 -40099 0
40099 -40100 0
40100 -40101 0
40101 -40102 0
40102 -40103 0
40103 -40104 0
40104 -40105 0
40105 -40106 0
40106 -40107 0
40107 -40108 0
40108 -40109 0
40109 -40110 0
40110 -40111 0
155 39 -157 40 77 78 79 116 117 118 -38 156 0
155 -116 -38 39 40 77 78 79 117 118 -157 156 0
155 -40 78 -38 39 77 -117 -157 116 118 79 156 0
78 -39 -40 116 -38 -157 -117 118 79 77 155 156 0
155 -77 78 -40 -38 39 -117 -157 116 118 79 156 0
78 -39 116 -40 118 -38 -117 79 -77 155 -157 156 0
-78 155 -117 -40 -38 39 77 -157 116 118 79 156 0
-78 -39 -117 -40 116 -38 -157 118 79 77 155 156 0
-78 155 -117 -77 -40 -38 39 -157 116 118 79 156 0
-78 -39 -117 116 -40 118 -38 79 -77 155 -157 156 0
155 -40 -157 78 -38 39 77 -117 116 118 -79 156 0
78 -39 116 -40 -79 -38 77 -117 155 118 -157 156 0
155 -77 -157 78 -40 -38 39 -117 116 118 -79 156 0
78 -39 116 -157 -40 -77 -38 -117 -79 118 155 156 0
-78 155 -157 -117 -40 -38 39 77 116 118 -79 156 0
-78 -39 116 -117 -40 -79 -38 77 155 118 -157 156 0
-78 155 -157 -117 -77 -40 -38 39 116 118 -79 156 0
-78 -39 116 -117 -157 -40 -77 -38 -79 118 155 156 0
78 -40 118 -116 -38 39 -117 -157 79 77 155 156 0
78 -39 79 -40 -116 -38 77 -117 155 118 -157 156 0
78 -117 118 -116 -40 -38 39 -157 79 -77 155 156 0
78 -39 79 -157 -40 -77 -38 -117 -116 118 155 156 0
-78 -116 118 -157 -40 -38 39 -117 79 77 155 156 0
-78 -39 79 -117 -40 -116 -38 77 155 118 -157 156 0
-78 -116 118 -157 -117 -40 -38 39 79 -77 155 156 0
-78 -39 79 -117 -157 -40 -77 -38 -116 118 155 156 0
78 -116 -79 155 -40 -38 39 77 -117 118 -157 156 0
78 -39 -116 -79 -40 -117 -38 77 -157 118 155 156 0
78 -77 -116 -79 -117 -40 -38 39 -157 118 155 156 0
78 -39 -157 -79 -116 -40 -77 -38 -117 118 155 156 0
-78 -116 -79 155 -117 -40 -38 39 77 118 -157 156 0
-78 -39 -116 -79 -157 -40 -117 -38 77 118 155 156 0
-78 -116 -77 -79 -157 -117 -40 -38 39 118 155 156 0
-78 -39 -157 -79 -117 -116 -40 -77 -38 118 155 156 0
78 -118 -117 -40 -38 39 77 155 79 116 -157 156 0
78 -39 -117 -40 116 -38 77 -118 79 155 -157 156 0
78 -118 -117 -157 -40 -38 39 -77 79 116 155 156 0
78 -39 -117 -157 -40 116 -38 -118 -77 79 155 156 0
-78 -118 -117 77 -40 -38 39 155 79 116 -157 156 0
-78 -39 -117 116 -40 -118 -38 77 79 155 -157 156 0
-78 -118 -117 -157 -77 -40 -38 39 79 116 155 156 0
-78 -39 -117 116 -157 -40 -77 -38 79 -118 155 156 0
78 -117 -116 -157 -40 -38 39 77 -118 79 155 156 0
78 -39 -117 -118 -40 -116 -38 77 -157 79 155 156 0
78 -117 -116 -77 -118 -40 -38 39 -157 79 155 156 0
78 -39 -117 -118 -157 -40 -116 -38 -77 79 155 156 0
-78 -116 -117 -157 -118 -40 -38 39 77 79 155 156 0
-78 -39 -117 -118 -157 -40 -116 -38 77 79 155 156 0
-78 -116 -117 -77 -157 -118 -40 -38 39 79 155 156 0
-78 -39 -117 -118 -157 -116 -40 -77 -38 79 155 156 0
117 38 39 79 77 116 40 78 118 -155 -157 156 0
-155 -38 -157 39 40 77 78 79 116 117 118 156 0
38 116 -39 -157 40 -155 78 79 77 117 118 156 0
-39 40 -38 -157 116 -155 78 79 77 117 118 156 0
117 -40 77 39 116 38 79 78 118 -155 -157 156 0
117 -40 78 39 -38 116 79 77 118 -155 -157 156 0
117 -40 77 38 -39 79 116 78 118 -155 -157 156 0
117 -40 -38 78 -39 79 116 77 118 -155 -157 156 0
116 -77 40 117 79 38 39 78 118 -155 -157 156 0
79 -77 -38 39 40 78 116 117 118 -155 -157 156 0
38 116 -155 -39 -157 40 78 79 -77 117 118 156 0
-155 -39 -38 40 -157 116 78 79 -77 117 118 156 0
117 -40 116 -77 38 79 39 78 118 -155 -157 156 0
117 -40 -38 78 39 116 79 -77 118 -155 -157 156 0
116 38 -40 79 117 -77 -39 78 118 -155 -157 156 0
117 -40 -38 78 -39 79 116 -77 118 -155 -157 156 0
117 38 39 79 77 116 40 -78 118 -155 -157 156 0
77 -78 39 40 79 -38 116 117 118 -155 -157 156 0
116 38 40 117 79 -78 -39 77 118 -155 -157 156 0
-78 40 -38 118 116 79 77 117 -39 -155 -157 156 0
117 -40 77 38 39 79 116 -78 118 -155 -157 156 0
-78 117 -38 -40 39 116 79 77 118 -155 -157 156 0
117 -40 116 38 -39 77 79 -78 118 -155 -157 156 0
-78 117 -38 -40 116 -39 79 77 118 -155 -157 156 0
-78 40 118 116 -77 79 39 117 38 -155 -157 156 0
-78 40 118 116 -77 79 39 117 -38 -155 -157 156 0
-78 40 118 116 -77 79 -39 117 38 -155 -157 156 0
-78 40 118 116 -77 79 -39 117 -38 -155 -157 156 0
-77 117 -40 116 38 79 39 -78 118 -155 -157 156 0
-78 117 -38 -40 39 116 79 -77 118 -155 -157 156 0
117 -40 116 38 -77 79 -39 -78 118 -155 -157 156 0
-78 117 -38 -40 -39 79 116 -77 118 -155 -157 156 0
117 39 -79 118 77 40 116 38 78 -155 -157 156 0
116 39 -79 40 118 77 -38 117 78 -155 -157 156 0
78 118 -79 40 116 38 -39 117 77 -155 -157 156 0
78 118 -79 40 116 -38 -39 117 77 -155 -157 156 0
116 38 39 -40 77 -79 78 117 118 -155 -157 156 0
117 -40 -38 78 39 116 77 -79 118 -155 -157 156 0
78 38 116 -79 -40 77 -39 117 118 -155 -157 156 0
117 -40 -38 78 -39 -79 116 77 118 -155 -157 156 0
116 -77 40 117 -79 39 118 38 78 -155 -157 156 0
40 -79 -38 118 39 -77 116 117 78 -155 -157 156 0
78 118 -79 40 116 38 -39 117 -77 -155 -157 156 0
78 118 -79 40 116 -38 -39 117 -77 -155 -157 156 0
78 38 116 -40 -79 -77 39 117 118 -155 -157 156 0
117 -40 -38 78 39 116 -77 -79 118 -155 -157 156 0
78 38 116 -79 -40 -77 -39 117 118 -155 -157 156 0
117 -40 -38 78 -39 -79 116 -77 118 -155 -157 156 0
117 118 -79 77 39 40 116 38 -78 -155 -157 156 0
116 39 -79 40 118 77 -38 117 -78 -155 -157 156 0
-78 40 118 116 -79 38 -39 117 77 -155 -157 156 0
-78 40 118 116 -79 -38 -39 117 77 -155 -157 156 0
-78 38 116 -40 -79 77 39 117 118 -155 -157 156 0
-78 117 -38 -40 39 116 77 -79 118 -155 -157 156 0
38 -39 -79 116 -40 77 -78 117 118 -155 -157 156 0
-78 117 -38 -40 116 -39 -79 77 118 -155 -157 156 0
116 -77 40 117 -79 39 118 38 -78 -155 -157 156 0
40 -77 -38 118 39 -79 116 117 -78 -155 -157 156 0
-78 40 118 116 -79 38 -39 117 -77 -155 -157 156 0
-78 40 118 116 -79 -38 -39 117 -77 -155 -157 156 0
-78 38 116 -40 -79 -77 39 117 118 -155 -157 156 0
-78 117 -38 -40 39 116 -77 -79 118 -155 -157 156 0
-78 38 116 -79 -40 -77 -39 117 118 -155 -157 156 0
-78 117 -38 -40 -39 -79 116 -77 118 -155 -157 156 0
77 38 40 -157 -155 79 39 78 117 -116 118 156 0
-155 -116 -157 -38 39 40 77 78 79 117 118 156 0
77 38 40 -116 -157 -155 -39 78 79 117 118 156 0
-155 -39 -38 40 -157 -116 77 78 79 117 118 156 0
117 -40 77 -116 38 78 79 39 118 -155 -157 156 0
117 -40 -38 78 39 79 -116 77 118 -155 -157 156 0
117 -40 77 -116 38 79 78 -39 118 -155 -157 156 0
117 -40 -38 78 -116 77 -39 79 118 -155 -157 156 0
-116 -77 39 40 38 78 -155 118 79 117 -157 156 0
-116 -77 40 -157 -39 38 -155 78 79 117 118 156 0
-155 -40 -116 39 -77 38 78 118 79 117 -157 156 0
-155 -40 -116 -157 -77 -39 38 78 79 117 118 156 0
77 38 117 79 40 -116 -78 39 118 -155 -157 156 0
-38 -78 117 79 40 -116 77 39 118 -155 -157 156 0
77 38 40 117 79 -116 -78 -39 118 -155 -157 156 0
-78 40 -38 118 117 -39 79 -116 77 -155 -157 156 0
117 -40 77 -116 38 -78 79 39 118 -155 -157 156 0
-78 117 -38 -40 39 79 -116 77 118 -155 -157 156 0
117 -40 77 -116 38 -78 79 -39 118 -155 -157 156 0
-78 117 -40 -38 -116 -39 77 79 118 -155 -157 156 0
-116 -77 39 -157 40 38 -78 -155 79 117 118 156 0
40 -78 -116 118 -77 -39 38 -155 79 117 -157 156 0
-155 -40 -116 -157 39 -77 38 -78 79 117 118 156 0
-78 -116 -40 118 -77 -155 -39 38 79 117 -157 156 0
77 117 -79 40 39 38 -116 118 78 -155 -157 156 0
77 117 -79 40 39 118 -116 -38 78 -155 -157 156 0
77 117 -79 40 -116 -39 38 118 78 -155 -157 156 0
117 118 -79 77 -116 -39 40 -38 78 -155 -157 156 0
117 -40 77 -79 -116 38 78 39 118 -155 -157 156 0
117 -40 -38 78 39 -79 -116 77 118 -155 -157 156 0
117 -40 77 -79 38 -116 78 -39 118 -155 -157 156 0
117 -40 -38 78 -116 -39 -79 77 118 -155 -157 156 0
40 -79 -116 -157 -77 38 39 -155 78 117 118 156 0
40 -79 -116 -39 -77 -155 38 -157 78 117 118 156 0
-155 -40 -116 -157 -77 -79 38 39 78 117 118 156 0
78 38 -40 -116 -79 -157 -77 -39 -155 117 118 156 0
77 117 -79 40 -116 39 38 118 -78 -155 -157 156 0
77 117 -79 40 -116 39 118 -38 -78 -155 -157 156 0
77 117 -79 40 -116 -39 38 118 -78 -155 -157 156 0
77 117 -79 40 -116 -39 118 -38 -78 -155 -157 156 0
38 -116 -40 -79 77 117 -78 39 118 -155 -157 156 0
-78 117 -38 -40 39 -79 -116 77 118 -155 -157 156 0
77 38 -40 -79 117 -116 -78 -39 118 -155 -157 156 0
-78 117 -38 -40 -116 -39 -79 77 118 -155 -157 156 0
-78 -116 -77 118 -79 -155 38 39 -157 117 40 156 0
40 -79 -116 -39 -155 -77 -78 38 -157 117 118 156 0
-78 -116 -40 -77 -79 -155 -157 38 39 117 118 156 0
-155 -40 -116 -77 -39 -79 -157 -78 38 117 118 156 0
78 38 -117 116 118 79 77 40 -157 -155 39 156 0
116 -117 40 39 118 79 -155 -38 -157 77 78 156 0
78 38 -117 116 118 79 77 40 -157 -155 -39 156 0
-39 40 -117 118 116 79 -155 -38 -157 77 78 156 0
78 38 -117 116 -40 118 39 77 -157 -155 79 156 0
78 -117 77 -40 -38 39 79 -157 -155 116 118 156 0
78 38 -117 116 -40 118 77 -39 -157 -155 79 156 0
78 -39 -117 -40 116 -38 118 -157 79 77 -155 156 0
-77 40 -117 116 118 79 38 39 -157 -155 78 156 0
-77 40 -117 116 118 79 -38 39 -157 -155 78 156 0
38 -117 118 40 79 78 -39 116 -157 -155 -77 156 0
78 -117 -38 -157 40 118 79 -77 -39 116 -155 156 0
78 38 -117 116 -40 118 39 -77 -157 -155 79 156 0
-155 -117 78 -77 -40 -38 39 -157 79 116 118 156 0
78 38 -117 116 -40 118 -77 -39 -157 -155 79 156 0
78 -39 -117 -157 -40 116 -38 118 79 -77 -155 156 0
79 -117 40 39 116 118 -155 38 -157 77 -78 156 0
79 -117 40 39 116 118 -155 -38 -157 77 -78 156 0
79 -117 40 118 116 -39 -155 38 -157 77 -78 156 0
-39 40 -117 118 116 79 -155 -38 -157 77 -78 156 0
116 38 39 -117 118 -40 -155 79 -157 77 -78 156 0
-78 77 -117 -157 -40 -38 39 79 -155 116 118 156 0
118 38 -117 -39 116 -40 -155 79 -157 77 -78 156 0
-78 -39 -117 -157 -40 116 -38 118 79 77 -155 156 0
79 -117 40 39 116 118 -77 -78 -157 -155 38 156 0
79 -117 40 39 116 118 -77 -78 -157 -155 -38 156 0
79 -117 40 118 116 -39 -77 -78 -157 -155 38 156 0
79 -117 40 118 116 -39 -77 -78 -157 -155 -38 156 0
-78 38 118 -117 -40 116 -77 39 -157 -155 79 156 0
-78 -155 -117 -157 -77 -40 -38 39 79 116 118 156 0
-78 38 118 -117 -40 116 -39 -77 -157 -155 79 156 0
-78 -39 -117 -157 116 -40 118 -38 79 -77 -155 156 0
77 -117 40 116 118 -79 38 78 -157 -155 39 156 0
116 39 -79 40 118 -117 -155 -38 -157 77 78 156 0
77 -117 40 116 118 -79 38 78 -157 -155 -39 156 0
-79 40 118 -39 116 -117 -155 -38 -157 77 78 156 0
116 38 39 -117 118 -40 77 78 -157 -155 -79 156 0
78 -117 77 -155 -40 -38 39 -79 -157 116 118 156 0
118 38 -117 -39 116 77 -40 78 -157 -155 -79 156 0
78 -39 -117 -157 -40 116 -38 -79 77 -155 118 156 0
-77 40 -117 116 118 -79 38 78 -157 -155 39 156 0
-77 40 -38 118 -117 -79 39 -157 -155 116 78 156 0
-77 40 -117 116 118 -79 38 78 -157 -155 -39 156 0
-79 40 -38 -39 -117 118 -77 -157 -155 116 78 156 0
116 38 39 -117 118 -40 -77 78 -157 -155 -79 156 0
78 -117 -79 -155 -77 -40 -38 39 -157 116 118 156 0
118 38 -117 -39 116 -40 -77 78 -157 -155 -79 156 0
78 -39 -117 -155 -77 -40 -79 -38 -157 116 118 156 0
116 -117 39 40 -79 118 -155 38 -157 77 -78 156 0
116 39 -79 40 118 -117 -155 -38 -157 77 -78 156 0
-79 40 -117 -39 116 118 -155 38 -157 77 -78 156 0
-79 40 118 -39 116 -117 -155 -38 -157 77 -78 156 0
-78 38 116 -117 -40 -79 -155 77 -157 39 118 156 0
-78 77 -117 -155 -157 -40 -38 39 -79 116 118 156 0
-78 38 116 -117 -40 -79 -155 77 -157 -39 118 156 0
-78 -39 -117 -157 116 -40 -79 -38 77 -155 118 156 0
-79 40 -117 39 116 118 -155 38 -157 -77 -78 156 0
-77 40 -38 118 -79 -117 39 -157 -155 116 -78 156 0
-155 -117 40 116 -39 118 -79 38 -157 -77 -78 156 0
-79 40 -38 -39 118 -117 -77 -157 -155 116 -78 156 0
-78 38 -157 116 -117 -79 -155 -40 -77 39 118 156 0
-78 -117 -79 -155 -157 -77 -40 -38 39 116 118 156 0
-78 38 -157 116 -117 -79 -40 -155 -77 -39 118 156 0
-78 -39 -117 -155 -157 -77 -40 -79 -38 116 118 156 0
77 -117 40 -116 118 -157 79 38 -155 39 78 156 0
78 -117 40 -116 118 79 -155 77 -157 -38 39 156 0
77 -117 40 -116 -157 118 79 38 -155 -39 78 156 0
78 -117 40 -116 118 79 -155 77 -157 -38 -39 156 0
77 38 -117 -116 118 79 -155 -40 -157 39 78 156 0
78 -117 -116 118 -40 -38 39 77 -157 79 -155 156 0
-155 38 -117 -116 118 79 77 -40 -157 -39 78 156 0
78 -39 -117 79 -40 -116 -38 -157 77 -155 118 156 0
-77 40 -117 -116 118 79 -157 38 -155 39 78 156 0
-77 40 -117 -116 -157 118 79 38 -155 -39 78 156 0
-155 -117 -116 -77 118 79 38 -40 -157 39 78 156 0
-155 -117 -116 -77 118 -40 79 38 -157 -39 78 156 0
-155 -117 40 -116 118 79 -157 77 38 39 -78 156 0
-78 40 -117 -116 -157 118 79 -155 77 -38 39 156 0
-155 -117 40 -116 118 -157 79 77 38 -39 -78 156 0
-78 40 -117 -116 -157 118 79 -155 77 -38 -39 156 0
77 38 -117 -116 -157 118 79 -155 -40 39 -78 156 0
-78 -116 -117 118 -157 -40 -38 39 77 79 -155 156 0
-155 38 -117 -116 -157 118 79 77 -40 -39 -78 156 0
-78 -39 -117 79 -157 -40 -116 -38 77 -155 118 156 0
-155 -117 -116 -77 118 79 40 -157 38 39 -78 156 0
-155 -117 -116 -77 118 -157 79 40 38 -39 -78 156 0
-155 -117 -116 -77 -157 118 79 38 -40 39 -78 156 0
-155 -117 -116 -77 -157 118 -40 79 38 -39 -78 156 0
78 38 -117 -116 118 -79 -155 40 77 -157 39 156 0
78 -117 40 -116 -38 118 -79 -155 77 -157 39 156 0
78 38 -117 -116 118 -79 -155 40 77 -157 -39 156 0
78 -117 40 -116 -38 118 -79 -155 77 -157 -39 156 0
78 38 -117 -116 -40 -157 -79 39 77 -155 118 156 0
78 -117 -116 -157 -79 -40 -38 39 77 -155 118 156 0
78 38 -117 -116 -40 -39 -157 -79 77 -155 118 156 0
78 -39 -117 -116 -79 -40 -155 -38 77 -157 118 156 0
78 38 -117 -116 118 -79 -77 -155 40 -157 39 156 0
78 -117 -116 -77 118 -79 -155 38 40 -157 -39 156 0
78 38 -117 39 -40 -79 -116 -77 -157 -155 118 156 0
78 38 -117 -116 -40 -157 -79 -77 -39 -155 118 156 0
-78 38 -117 -116 118 -157 -79 -155 40 77 39 156 0
-78 40 -117 -116 -38 -157 118 -79 -155 77 39 156 0
-78 38 -117 -116 118 -157 -79 -155 40 77 -39 156 0
-78 40 -117 -116 -38 -157 118 -79 -155 77 -39 156 0
-78 38 -117 -116 -40 -79 -157 -155 39 77 118 156 0
-78 -116 -117 -157 -79 -155 -40 -38 39 77 118 156 0
-78 38 -117 -116 -40 -79 -39 -157 -155 77 118 156 0
-78 -39 -117 -116 -79 -157 -40 -155 -38 77 118 156 0
-78 38 -117 -116 118 -157 -79 -77 -155 40 39 156 0
-78 -116 -117 -77 118 -157 -79 -155 38 40 -39 156 0
-78 -116 -117 -77 -40 -79 -155 39 38 -157 118 156 0
-78 -116 -117 -77 -40 -79 -157 -155 -39 38 118 156 0
117 -118 39 79 77 116 38 40 78 -155 -157 156 0
-38 -118 40 79 116 78 77 39 117 -155 -157 156 0
116 38 40 79 117 -118 77 -39 78 -155 -157 156 0
-38 -118 40 79 116 78 77 -39 117 -155 -157 156 0
117 -40 77 38 39 -118 79 116 78 -155 -157 156 0
117 -40 -38 78 39 116 79 -118 77 -155 -157 156 0
117 -40 77 38 -118 -39 79 116 78 -155 -157 156 0
117 -40 -38 78 -118 -39 79 116 77 -155 -157 156 0
116 -77 40 117 79 39 38 -118 78 -155 -157 156 0
-77 40 -38 79 -118 39 78 116 117 -155 -157 156 0
116 38 40 117 79 -39 -77 -118 78 -155 -157 156 0
-77 40 -38 79 -118 78 -39 116 117 -155 -157 156 0
117 -40 116 -77 39 38 79 -118 78 -155 -157 156 0
117 -40 -38 78 39 116 79 -118 -77 -155 -157 156 0
117 -40 116 38 -77 -39 79 -118 78 -155 -157 156 0
117 -40 -38 78 -118 -39 79 116 -77 -155 -157 156 0
117 -118 77 79 39 116 38 40 -78 -155 -157 156 0
116 -118 39 79 40 77 -38 -78 117 -155 -157 156 0
117 -118 116 38 79 -39 77 40 -78 -155 -157 156 0
-78 40 -38 79 -39 116 77 -118 117 -155 -157 156 0
117 -118 39 79 77 116 38 -40 -78 -155 -157 156 0
-78 117 -38 -40 39 116 79 -118 77 -155 -157 156 0
117 -40 116 38 -118 77 79 -39 -78 -155 -157 156 0
-78 117 -38 -40 -118 116 79 -39 77 -155 -157 156 0
116 -77 40 117 79 39 38 -118 -78 -155 -157 156 0
-77 40 -38 79 -118 39 -78 116 117 -155 -157 156 0
116 38 40 117 79 -39 -77 -118 -78 -155 -157 156 0
-77 40 -38 79 -118 -78 -39 116 117 -155 -157 156 0
117 -40 116 -77 79 38 39 -118 -78 -155 -157 156 0
-78 117 -38 -40 39 116 79 -118 -77 -155 -157 156 0
117 -40 116 38 -39 -77 79 -118 -78 -155 -157 156 0
-78 117 -38 -40 -118 -39 79 116 -77 -155 -157 156 0
78 38 -118 116 40 77 -79 39 117 -155 -157 156 0
117 -118 -38 39 40 77 -79 116 78 -155 -157 156 0
117 77 -79 116 -39 -118 40 38 78 -155 -157 156 0
117 77 -79 116 -39 -118 40 -38 78 -155 -157 156 0
78 38 -118 116 -77 40 -79 39 117 -155 -157 156 0
117 -77 -38 116 -118 40 -79 39 78 -155 -157 156 0
-39 117 116 -77 -79 -118 38 40 78 -155 -157 156 0
-39 117 -38 -77 -79 -118 40 116 78 -155 -157 156 0
-78 -118 -79 116 38 40 77 39 117 -155 -157 156 0
117 77 -79 -38 39 40 -118 116 -78 -155 -157 156 0
117 -118 77 116 -79 -39 40 38 -78 -155 -157 156 0
117 -118 77 116 -79 -39 40 -38 -78 -155 -157 156 0
-78 -118 -79 116 38 -77 40 39 117 -155 -157 156 0
117 -38 -79 116 -77 -118 40 39 -78 -155 -157 156 0
-77 117 116 -39 -118 -79 40 38 -78 -155 -157 156 0
-77 117 -38 -39 -118 -79 40 116 -78 -155 -157 156 0
117 -118 77 79 40 38 -116 39 78 -155 -157 156 0
77 -118 117 79 78 40 -116 -38 39 -155 -157 156 0
117 -118 77 -116 79 40 38 -39 78 -155 -157 156 0
-38 -118 40 117 79 78 -116 77 -39 -155 -157 156 0
117 -118 77 -116 38 -40 39 79 78 -155 -157 156 0
117 -40 -38 78 39 -118 -116 79 77 -155 -157 156 0
117 -118 77 -116 38 -40 -39 79 78 -155 -157 156 0
117 -40 -38 78 -116 77 -39 79 -118 -155 -157 156 0
-116 -77 -157 39 40 38 78 -155 -118 79 117 156 0
40 -118 -157 -116 -77 -39 38 -155 78 79 117 156 0
-155 -40 -157 -116 39 -77 38 78 -118 79 117 156 0
-155 -40 -157 -116 -118 -77 -39 38 78 79 117 156 0
117 -118 77 79 40 -116 38 39 -78 -155 -157 156 0
77 -78 117 79 40 -116 -118 -38 39 -155 -157 156 0
117 -118 77 -116 79 40 38 -39 -78 -155 -157 156 0
77 -78 40 117 79 -116 -118 -38 -39 -155 -157 156 0
117 -118 77 -116 38 -40 39 79 -78 -155 -157 156 0
-78 117 -38 -40 39 -118 -116 79 77 -155 -157 156 0
117 -118 77 -116 38 -40 -39 79 -78 -155 -157 156 0
-78 117 -38 -40 -116 -39 77 79 -118 -155 -157 156 0
-116 -78 -157 39 40 -77 38 -118 -155 79 117 156 0
40 -78 -157 -116 -118 -77 -39 38 -155 79 117 156 0
-78 -116 -157 -40 39 -77 -155 38 -118 79 117 156 0
-78 -116 -157 -40 -77 -155 -118 -39 38 79 117 156 0
117 -118 -116 77 78 -79 40 38 39 -155 -157 156 0
117 -118 -38 -116 78 40 77 -79 39 -155 -157 156 0
117 -116 -79 77 78 -118 40 38 -39 -155 -157 156 0
117 -118 -38 -116 78 40 77 -79 -39 -155 -157 156 0
40 -79 -116 -157 -155 117 38 -77 78 -118 39 156 0
40 -79 -116 -157 -155 117 -77 -39 38 78 -118 156 0
-78 117 -116 77 -118 -79 40 38 39 -155 -157 156 0
-78 117 -38 -116 -118 -79 40 77 39 -155 -157 156 0
-78 117 -116 77 -79 -118 40 38 -39 -155 -157 156 0
-78 117 -38 -116 -118 -79 40 77 -39 -155 -157 156 0
40 -79 -116 -157 -155 117 -77 38 -78 39 -118 156 0
-155 -39 -116 -157 117 -79 -77 38 -118 -78 40 156 0
77 38 -118 79 -117 116 40 39 78 -155 -157 156 0
78 -118 40 -117 79 116 -38 77 -157 -155 39 156 0
77 -117 40 -118 79 116 38 -39 78 -155 -157 156 0
78 -118 40 79 116 -117 -38 77 -157 -155 -39 156 0
77 38 -118 116 -40 39 -117 79 78 -155 -157 156 0
78 -118 77 -117 -40 -38 39 -157 -155 79 116 156 0
77 38 -117 -118 116 -40 -39 79 78 -155 -157 156 0
78 -39 -157 -117 -40 116 -38 77 -118 79 -155 156 0
-77 38 -118 79 116 -117 40 39 78 -155 -157 156 0
-155 -118 -38 -157 39 79 40 -77 -117 78 116 156 0
-77 40 -118 -117 79 116 38 -39 78 -155 -157 156 0
-155 -117 -157 -38 40 79 -39 -77 -118 78 116 156 0
-77 38 -118 -40 116 39 -117 79 78 -155 -157 156 0
78 -118 -155 -117 -77 -40 -38 39 -157 79 116 156 0
-77 38 -118 -117 -40 116 -39 79 78 -155 -157 156 0
78 -39 -77 -117 -118 -40 -155 -38 -157 79 116 156 0
77 -117 40 -118 79 116 38 39 -78 -155 -157 156 0
-78 40 -38 -117 -118 79 116 77 -157 -155 39 156 0
77 -117 40 -118 79 116 38 -39 -78 -155 -157 156 0
-78 40 -38 -117 -118 79 116 77 -157 -155 -39 156 0
77 38 -117 -118 116 -40 39 79 -78 -155 -157 156 0
-78 -118 77 -117 -157 -40 -38 39 -155 79 116 156 0
77 38 -117 -118 -40 116 -39 79 -78 -155 -157 156 0
-78 -39 -157 -117 116 -40 -118 -38 77 79 -155 156 0
-77 38 -117 -118 79 116 40 39 -78 -155 -157 156 0
-155 -117 -38 -157 39 79 40 -118 -77 -78 116 156 0
-77 40 -117 -118 79 116 38 -39 -78 -155 -157 156 0
-77 40 -38 -117 79 -118 -39 116 -157 -155 -78 156 0
-77 38 -117 -118 -40 116 39 79 -78 -155 -157 156 0
-78 -118 -155 -117 -157 -77 -40 -38 39 79 116 156 0
-77 38 -117 -118 -40 -39 116 79 -78 -155 -157 156 0
-78 -39 -77 -117 -157 -118 -40 -155 -38 79 116 156 0
78 -118 -79 -117 116 38 40 77 39 -155 -157 156 0
78 -118 40 -38 116 77 -79 -117 39 -155 -157 156 0
78 -118 -79 116 -117 38 40 77 -39 -155 -157 156 0
78 -118 40 -38 116 77 -79 -117 -39 -155 -157 156 0
78 -118 -79 -117 116 38 40 -77 39 -155 -157 156 0
78 -118 -38 -79 -77 39 40 -117 116 -155 -157 156 0
78 38 -118 116 -79 -117 40 -77 -39 -155 -157 156 0
78 -118 -38 -79 -77 -39 40 -117 116 -155 -157 156 0
-78 38 -118 116 -117 -79 40 77 39 -155 -157 156 0
-78 40 -118 -117 -38 116 77 -79 39 -155 -157 156 0
-78 -118 -79 -117 116 38 40 77 -39 -155 -157 156 0
-78 40 -117 -118 -38 116 77 -79 -39 -155 -157 156 0
-78 -118 -79 116 -117 38 -77 40 39 -155 -157 156 0
-118 -38 -79 -117 39 -77 -78 40 116 -155 -157 156 0
-78 38 -118 -117 116 -79 -77 40 -39 -155 -157 156 0
-78 -118 -38 -117 -79 -77 -39 40 116 -155 -157 156 0
77 -118 40 -117 -116 38 -155 39 -157 78 79 156 0
78 -117 -38 40 39 -118 -157 -116 77 -155 79 156 0
77 -118 40 -117 -116 -39 38 78 -157 -155 79 156 0
78 -117 -38 40 -116 -157 -39 -118 77 -155 79 156 0
77 38 39 -117 -118 -40 -116 78 -157 -155 79 156 0
78 -118 -116 -117 -155 -40 -38 39 77 -157 79 156 0
-155 38 -116 -117 77 -40 -39 -118 -157 78 79 156 0
78 -39 -118 -117 -116 -40 -155 -38 77 -157 79 156 0
40 -117 -77 -118 -116 -157 38 -155 39 78 79 156 0
40 -117 -77 -118 -116 -157 -39 38 78 -155 79 156 0
-77 38 -117 39 -118 -157 -40 -116 78 -155 79 156 0
-155 -117 -116 -77 -118 -157 -40 -39 38 78 79 156 0
77 -118 40 -117 -116 -155 38 39 -78 -157 79 156 0
-78 40 -38 -117 39 -118 -116 -157 -155 77 79 156 0
77 -118 40 -117 -116 -155 -39 38 -78 -157 79 156 0
-78 40 -38 -117 -116 -118 -157 -39 -155 77 79 156 0
-155 38 39 -117 -118 -116 -40 77 -78 -157 79 156 0
-78 -116 -118 -117 -155 -157 -40 -38 39 77 79 156 0
-78 38 -116 -117 77 -118 -40 -39 -155 -157 79 156 0
-78 -39 -118 -117 -116 -157 -40 -155 -38 77 79 156 0
40 -117 -77 -118 -116 -155 -157 38 39 -78 79 156 0
40 -117 -77 -118 -116 -155 -157 -39 38 -78 79 156 0
-155 38 -117 39 -118 -116 -157 -40 -77 -78 79 156 0
-78 -116 -117 -77 -155 -118 -157 -40 -39 38 79 156 0
78 -118 -117 -79 -116 38 39 -157 40 77 -155 156 0
78 -118 -117 -79 -116 -157 -38 39 40 77 -155 156 0
78 -118 -117 -79 -116 38 -157 -39 40 77 -155 156 0
78 -118 -117 -79 -116 -39 -157 -38 40 77 -155 156 0
-118 -117 -79 -77 -116 78 -157 38 39 40 -155 156 0
-118 -117 -79 -77 -116 78 -39 -157 38 40 -155 156 0
-78 -118 -117 -79 -116 38 -155 39 -157 40 77 156 0
-78 -118 -117 -79 -116 -157 -155 -38 39 40 77 156 0
-78 -118 -117 -79 -116 38 -155 -157 -39 40 77 156 0
-78 -118 -117 -79 -116 -39 -155 -157 -38 40 77 156 0
-118 -117 -79 -77 -116 -78 -155 -157 38 39 40 156 0
-118 -117 -79 -77 -116 -78 -155 -39 -157 38 40 156 0
39775 0
40111 0
-139 0
-156 0
