p cnf 40351 757
1 0
43 4 5 82 -122 83 44 121 0
43 4 44 -122 -5 82 83 121 0
43 4 5 82 -122 83 -44 121 0
43 4 -122 -5 -44 82 83 121 0
43 4 5 82 -122 -83 44 121 0
43 4 -83 -5 -122 44 82 121 0
43 4 5 82 -83 -122 -44 121 0
44 43 5 -122 -4 82 83 121 0
43 -5 -4 82 -122 83 44 121 0
-44 43 -4 5 -122 82 83 121 0
-44 -5 82 -4 -122 43 83 121 0
44 -83 -4 5 43 -122 82 121 0
43 -5 82 -4 -122 -83 44 121 0
-44 -83 -122 -4 5 43 82 121 0
-43 4 5 82 -122 83 44 121 0
-43 4 -5 44 -122 82 83 121 0
-43 4 -122 5 82 83 -44 121 0
-43 4 -122 -5 -44 82 83 121 0
-43 4 -122 5 82 -83 44 121 0
-43 4 -122 -83 -5 44 82 121 0
-43 4 5 -122 82 -83 -44 121 0
44 -4 -122 5 -43 82 83 121 0
-43 -5 82 -4 -122 83 44 121 0
-44 -43 -122 -4 5 82 83 121 0
-44 -5 -122 82 -4 -43 83 121 0
44 -83 -43 -4 5 -122 82 121 0
-43 -5 -122 82 -4 -83 44 121 0
-44 -83 -122 -43 -4 5 82 121 0
43 4 5 44 -82 -122 83 121 0
43 4 -5 -82 -122 83 44 121 0
43 4 -122 5 -44 -82 83 121 0
-44 4 -82 -5 43 -122 83 121 0
43 4 5 -83 -82 -122 44 121 0
43 4 -82 -5 -83 -122 44 121 0
-44 4 -83 -82 43 5 -122 121 0
44 -82 -4 5 -122 83 43 121 0
44 -5 43 -4 -122 -82 83 121 0
-44 -82 83 -4 5 -122 43 121 0
-44 -5 -82 43 -4 -122 83 121 0
44 -82 43 -4 5 -83 -122 121 0
43 -5 -82 -83 -4 -122 44 121 0
-44 -82 43 -122 -4 5 -83 121 0
-43 4 5 -82 44 -122 83 121 0
-43 4 -122 -5 -82 83 44 121 0
-43 4 -122 5 -82 -44 83 121 0
-44 4 -82 -122 -5 -43 83 121 0
-43 4 5 -122 -83 -82 44 121 0
-43 4 -82 -122 -5 -83 44 121 0
-44 4 -83 -82 -122 -43 5 121 0
44 -82 -122 -4 5 83 -43 121 0
44 -5 -122 -43 -4 -82 83 121 0
-44 -82 83 -122 -4 5 -43 121 0
-44 -5 -122 -82 -43 -4 83 121 0
44 -82 -83 -43 -4 5 -122 121 0
-43 -5 -82 -122 -83 -4 44 121 0
-44 -82 -83 -122 -43 -4 5 121 0
-44 -5 -83 -122 0
-155 -116 -77 -38 0
-156 -117 -78 -39 0
-157 -118 -79 -40 0
-126 122 -1 0
122 126 842 -1 0
-122 -126 842 -1 0
-125 -842 121 0
-130 126 -1 0
130 857 126 -1 0
-130 -126 857 -1 0
-129 125 -857 0
-134 130 -1 0
130 134 872 -1 0
-130 -134 872 -1 0
-133 129 -872 0
-138 134 -1 0
134 138 887 -1 0
-137 -887 133 0
-142 138 -1 0
142 902 138 -1 0
-141 -902 137 0
-146 142 -1 0
146 917 142 -1 0
-145 -917 141 0
-150 146 -1 0
150 932 146 -1 0
-149 -932 145 0
150 -154 -1 0
150 154 947 -1 0
-153 -947 149 0
948 149 153 -947 0
-152 -948 148 0
-9712 121 0
-9718 122 9712 0
-9719 9712 0
-9726 9718 9719 0
-9727 9719 0
-9735 9726 9727 0
-9736 9727 0
-9744 9735 125 0
-9745 125 9736 0
-9746 9736 0
-9754 9744 126 0
-9755 9745 126 0
-9756 9745 9746 0
-9756 126 9746 0
-9757 9746 0
-9766 9754 9755 0
9755 -9767 9756 0
-9768 9756 9757 0
-9769 9757 0
-9779 9766 9767 0
9767 -9780 9768 0
-9781 9768 9769 0
-9782 9769 0
-9792 9779 129 0
-9793 9780 129 0
-9794 9781 129 0
-9795 9781 9782 0
-9796 9782 0
-9806 9792 130 0
-9807 9793 130 0
-9808 9794 130 0
-9809 9794 9795 0
-9809 9795 130 0
-9810 9795 9796 0
-9811 9796 0
-9822 9806 9807 0
-9823 9807 9808 0
9808 -9824 9809 0
-9825 9809 9810 0
-9826 9810 9811 0
-9827 9811 0
-9839 9822 9823 0
9823 9824 -9840 0
9824 -9841 9825 0
-9842 9825 9826 0
-9843 9826 9827 0
-9844 9827 0
-9856 9839 133 0
-9857 9840 133 0
-9858 9841 133 0
-9859 9842 133 0
-9843 9860 0
-9860 9842 9843 0
-9861 9843 9844 0
-9862 9844 0
-9874 9856 134 0
-9875 9857 134 0
-9876 9858 134 0
-9877 9859 134 0
-9860 9878 0
9859 9860 -9878 0
134 9860 -9878 0
-9879 9860 9861 0
-9880 9861 9862 0
-9881 9862 0
-9894 9874 9875 0
-9895 9875 9876 0
-9896 9876 9877 0
9877 9878 -9897 0
9878 -9898 9879 0
-9899 9879 9880 0
-9900 9880 9881 0
-9901 9881 0
-9915 9894 9895 0
-9916 9895 9896 0
9896 9897 -9917 0
-9918 9897 9898 0
9898 -9919 9899 0
-9920 9899 9900 0
-9921 9900 9901 0
-9922 9901 0
-9936 9915 137 0
-9937 9916 137 0
-9938 9917 137 0
-9939 9918 137 0
-9940 137 9919 0
9919 -9941 9920 0
-9942 9920 9921 0
-9943 9921 9922 0
-9944 9922 0
-9958 9936 138 0
-9959 9937 138 0
-9960 9938 138 0
-9961 9939 138 0
-9962 9940 138 0
-9963 9941 138 0
9941 -9964 9942 0
138 -9964 9942 0
9943 9942 -9965 0
-9966 9943 9944 0
-9982 9958 9959 0
-9983 9959 9960 0
-9984 9960 9961 0
-9985 9961 9962 0
-9986 9962 9963 0
9963 9964 -9987 0
-9965 9988 0
-9988 9964 9965 0
-9989 9966 9965 0
-10007 9982 9983 0
-10008 9983 9984 0
9984 9985 -10009 0
-10010 9985 9986 0
-10011 9986 9987 0
-9988 10012 0
-10012 9987 9988 0
9989 -10013 9988 0
-10032 10007 141 0
-10033 10008 141 0
10009 141 -10034 0
-10035 10010 141 0
-10036 10011 141 0
-10012 10037 0
-10037 10012 141 0
10013 -10038 10012 0
141 10013 -10038 0
-10057 10032 142 0
-10058 10033 142 0
10034 -10059 142 0
-10060 10035 142 0
-10061 10036 142 0
-10037 10062 0
-10062 10037 142 0
10038 -10063 10037 0
10038 -10063 142 0
-10083 10057 10058 0
10058 10059 -10084 0
-10085 10059 10060 0
-10086 10060 10061 0
-10062 10087 0
-10087 10061 10062 0
10063 -10088 10062 0
10083 10084 -10109 0
-10110 10084 10085 0
-10111 10085 10086 0
-10087 10112 0
-10112 10086 10087 0
10088 -10113 10087 0
10109 145 -10134 0
-10135 10110 145 0
-10136 10111 145 0
-10112 10137 0
-10137 10112 145 0
10113 -10138 10112 0
10113 145 -10138 0
10134 -10159 146 0
-10160 10135 146 0
-10161 10136 146 0
-10137 10162 0
-10162 10137 146 0
10138 -10163 10137 0
10138 -10163 146 0
-10185 10159 10160 0
-10186 10160 10161 0
-10162 10187 0
-10187 10161 10162 0
10163 -10188 10162 0
-10210 10185 148 0
-10211 10186 148 0
-10187 10212 0
-10212 10187 148 0
10188 -10213 148 0
-10235 10210 149 0
-10236 10211 149 0
-10212 10237 0
-10237 10212 149 0
10213 -10238 10212 0
10213 149 -10238 0
-10260 10235 150 0
-10261 10236 150 0
-10237 10262 0
-10262 10237 150 0
10238 -10263 10237 0
10238 -10263 150 0
-10286 10260 10261 0
-10262 10287 0
-10287 10261 10262 0
10263 -10288 10262 0
-10311 10286 152 0
-10287 10312 0
-10312 10287 152 0
10288 -10313 10287 0
10288 152 -10313 0
-10336 10311 153 0
-10312 10337 0
-10337 10312 153 0
10313 -10338 10312 0
10313 153 -10338 0
-10361 10336 154 0
-10337 10362 0
-10362 10337 154 0
10338 -10363 10337 0
10338 -10363 154 0
-10386 10361 155 0
-10362 10387 0
-10387 10361 10362 0
10363 -10388 10362 0
-10387 10412 0
10386 10387 -10412 0
156 10387 -10412 0
-10413 10387 10388 0
10412 10413 -10438 0
157 10413 -10438 0
-10413 -157 10439 0
-37442 38 0
37442 -38 0
37443 -37442 0
37443 -77 0
77 37442 -37443 0
37442 -37444 0
77 -37444 0
-37447 37444 0
-37447 116 0
-37451 37447 0
37451 -37447 -155 0
10438 -39820 0
39820 -39821 0
39821 -39822 0
39822 -39823 0
39823 -39824 0
39824 -39825 0
39825 -39826 0
39826 -39827 0
39827 -39828 0
39828 -39829 0
39829 -39830 0
39830 -39831 0
39831 -39832 0
39832 -39833 0
39833 -39834 0
39834 -39835 0
39835 -39836 0
39836 -39837 0
39837 -39838 0
39838 -39839 0
39839 -39840 0
39840 -39841 0
39841 -39842 0
39842 -39843 0
39843 -39844 0
39844 -39845 0
39845 -39846 0
39846 -39847 0
39847 -39848 0
39848 -39849 0
39849 -39850 0
39850 -39851 0
39851 -39852 0
39852 -39853 0
39853 -39854 0
39854 -39855 0
39855 -39856 0
39856 -39857 0
39857 -39858 0
39858 -39859 0
-10439 -39988 0
39988 -39989 0
39989 -39990 0
39990 -39991 0
39991 -39992 0
39992 -39993 0
39993 -39994 0
39994 -39995 0
39995 -39996 0
39996 -39997 0
39997 -39998 0
39998 -39999 0
39999 -40000 0
40000 -40001 0
40001 -40002 0
40002 -40003 0
40003 -40004 0
40004 -40005 0
40005 -40006 0
40006 -40007 0
40007 -40008 0
40008 -40009 0
40009 -40010 0
40010 -40011 0
40011 -40012 0
40012 -40013 0
40013 -40014 0
40014 -40015 0
40015 -40016 0
40016 -40017 0
40017 -40018 0
40018 -40019 0
40019 -40020 0
40020 -40021 0
40021 -40022 0
40022 -40023 0
40023 -40024 0
40024 -40025 0
40025 -40026 0
40026 -40027 0
38 40283 0
77 40283 0
116 40283 0
155 40283 0
-155 -40283 -77 -38 -116 0
39 40284 0
78 40284 0
117 40284 0
156 40284 0
-156 -40284 -78 -39 -117 0
40 40285 0
79 40285 0
118 40285 0
157 40285 0
-157 -40285 -79 -40 -118 0
40 118 117 78 79 116 77 38 -155 39 -157 -156 0
40 118 117 78 79 116 77 -38 -155 39 -157 -156 0
40 118 117 78 79 116 77 38 -155 -39 -157 -156 0
40 118 117 78 79 116 77 -38 -155 -39 -157 -156 0
39 116 117 79 78 77 -40 38 118 -156 -155 -157 0
39 116 117 79 78 77 -40 -38 118 -156 -155 -157 0
116 117 -39 79 78 77 -40 38 118 -156 -155 -157 0
116 117 -39 79 78 77 -40 -38 118 -156 -155 -157 0
40 118 117 78 79 116 -77 38 -155 -157 39 -156 0
40 118 117 78 79 116 -77 -38 -155 -157 39 -156 0
40 118 117 78 79 116 -77 38 -155 -157 -39 -156 0
40 118 117 78 79 116 -77 -38 -155 -157 -39 -156 0
78 116 117 79 -77 38 39 -40 118 -156 -155 -157 0
117 79 -38 -77 78 39 116 -40 118 -156 -155 -157 0
78 116 117 79 -77 38 -39 -40 118 -156 -155 -157 0
117 79 -38 -77 78 -39 116 -40 118 -156 -155 -157 0
40 118 117 -78 79 116 77 38 -155 -157 39 -156 0
40 118 117 -78 79 116 77 -38 -155 -157 39 -156 0
40 118 117 -78 79 116 77 38 -155 -157 -39 -156 0
40 118 117 -78 79 116 77 -38 -155 -157 -39 -156 0
116 117 38 -78 77 79 39 -40 118 -156 -155 -157 0
116 117 -38 -78 77 79 39 -40 118 -156 -155 -157 0
116 38 -78 -39 77 79 -40 117 118 -156 -155 -157 0
116 -38 -78 -39 77 79 -40 117 118 -156 -155 -157 0
40 118 117 -78 79 116 -77 38 -155 -157 -156 39 0
40 118 117 -78 79 116 -77 -38 -155 -157 -156 39 0
40 118 117 -78 79 116 -77 38 -155 -157 -156 -39 0
40 118 117 -78 79 116 -77 -38 -155 -157 -156 -39 0
116 117 38 -77 -78 79 39 -40 118 -156 -155 -157 0
117 -38 -78 -77 79 39 116 -40 118 -156 -155 -157 0
116 -77 -78 38 -39 79 -40 117 118 -156 -155 -157 0
-38 -77 -39 -78 79 -40 116 117 118 -156 -155 -157 0
116 117 38 -79 77 78 40 118 -155 -157 39 -156 0
116 117 -38 -79 77 78 40 118 -155 -157 39 -156 0
116 117 38 -79 77 78 40 118 -155 -157 -39 -156 0
116 117 -38 -79 77 78 40 118 -155 -157 -39 -156 0
117 38 -79 -40 78 39 116 77 118 -156 -155 -157 0
117 -38 -79 -40 78 39 116 77 118 -156 -155 -157 0
38 117 -79 -40 -39 78 116 77 118 -156 -155 -157 0
117 -38 -79 -40 78 -39 116 77 118 -156 -155 -157 0
78 116 117 -77 38 -79 40 118 -155 -157 -156 39 0
117 78 -38 -77 -79 116 40 118 -155 -157 -156 39 0
78 116 117 -77 38 -79 40 118 -155 -157 -156 -39 0
117 78 -38 -77 -79 116 40 118 -155 -157 -156 -39 0
117 38 -79 -40 39 78 116 -77 118 -156 -155 -157 0
117 -38 -79 -40 39 78 116 -77 118 -156 -155 -157 0
117 38 -79 -40 -39 78 116 -77 118 -156 -155 -157 0
117 -38 -79 -40 -39 78 116 -77 118 -156 -155 -157 0
116 117 38 -78 77 -79 40 118 -155 -157 -156 39 0
116 117 -38 -78 77 -79 40 118 -155 -157 -156 39 0
116 117 38 -78 77 -79 40 118 -155 -157 -156 -39 0
116 117 -38 -78 77 -79 40 118 -155 -157 -156 -39 0
117 38 -79 -40 -78 39 116 77 118 -156 -155 -157 0
117 -38 -79 -40 -78 39 116 77 118 -156 -155 -157 0
38 -78 -79 -40 -39 77 116 117 118 -156 -155 -157 0
-38 -78 -79 -40 -39 77 116 117 118 -156 -155 -157 0
116 117 38 -77 -79 40 -78 118 39 -157 -156 -155 0
117 40 -38 -77 -79 116 -78 118 39 -157 -156 -155 0
116 117 38 -77 -79 40 -78 118 -39 -157 -156 -155 0
117 40 -38 -77 -79 116 -78 118 -39 -157 -156 -155 0
117 38 -79 -40 -78 39 116 -77 118 -156 -155 -157 0
117 -38 -79 -40 -78 39 116 -77 118 -156 -155 -157 0
38 -39 -79 -40 -78 -77 116 117 118 -156 -155 -157 0
-77 -39 -79 -40 -78 -38 116 117 118 -156 -155 -157 0
118 79 38 -116 117 40 78 77 -155 -157 39 -156 0
118 79 -38 117 -116 40 78 77 -155 -157 39 -156 0
118 79 38 -116 117 40 78 77 -155 -157 -39 -156 0
118 79 -38 117 -116 40 78 77 -155 -157 -39 -156 0
118 38 -40 -116 117 78 79 39 77 -156 -155 -157 0
118 -38 -40 117 78 -116 79 39 77 -156 -155 -157 0
118 38 -40 117 78 -116 79 77 -39 -156 -155 -157 0
118 -38 -40 -116 117 78 79 77 -39 -156 -155 -157 0
78 118 -116 117 79 -77 38 40 -155 -157 -156 39 0
78 118 -116 117 -77 79 38 40 -155 -157 -156 -39 0
118 117 38 -40 -116 78 39 79 -77 -156 -155 -157 0
118 117 -39 -116 78 -40 38 -77 79 -156 -155 -157 0
118 38 -116 117 79 40 -78 77 -155 -157 -156 39 0
118 117 -116 -38 79 40 -78 77 -155 -157 -156 39 0
118 38 -116 117 79 40 -78 77 -155 -157 -156 -39 0
118 117 -116 -38 79 40 -78 77 -155 -157 -156 -39 0
118 38 -40 117 -116 -78 77 79 39 -156 -155 -157 0
118 -38 -40 117 -116 -78 77 79 39 -156 -155 -157 0
118 38 -40 -116 -39 -78 79 117 77 -156 -155 -157 0
118 -38 -40 -116 -78 -39 79 117 77 -156 -155 -157 0
40 118 -116 117 -78 79 -77 38 39 -157 -156 -155 0
40 118 -116 117 -78 79 -77 38 -39 -157 -156 -155 0
39 118 117 -40 38 -116 -77 79 -78 -156 -155 -157 0
118 38 -116 -40 -39 -78 79 117 -77 -156 -155 -157 0
118 117 38 77 -116 40 -79 78 -155 -157 -156 39 0
118 117 -38 77 -116 40 -79 78 -155 -157 -156 39 0
118 117 38 77 -116 40 -79 78 -155 -157 -156 -39 0
118 117 -38 77 -116 40 -79 78 -155 -157 -156 -39 0
38 -116 -79 -40 117 78 77 39 118 -156 -155 -157 0
-38 -116 -40 -79 117 78 77 39 118 -156 -155 -157 0
38 -116 -79 -40 117 78 77 -39 118 -156 -155 -157 0
-38 -116 -40 -79 117 78 77 -39 118 -156 -155 -157 0
117 40 -79 -116 -77 38 78 118 39 -157 -156 -155 0
117 40 -79 -116 -77 38 78 118 -39 -157 -156 -155 0
117 -116 -79 -77 39 38 78 -40 118 -156 -155 -157 0
117 -116 -39 -79 -77 38 78 -40 118 -156 -155 -157 0
118 117 38 -116 77 40 -79 -78 39 -157 -156 -155 0
118 117 -38 40 -116 77 -79 -78 39 -157 -156 -155 0
118 117 38 -116 77 40 -79 -78 -39 -157 -156 -155 0
118 117 -38 -116 40 77 -79 -78 -39 -157 -156 -155 0
-116 38 -79 -40 117 -78 77 39 118 -156 -155 -157 0
-38 -116 -40 -79 117 -78 77 39 118 -156 -155 -157 0
-116 -39 -40 -79 38 -78 77 117 118 -156 -155 -157 0
-116 -39 -40 -79 -78 -38 77 117 118 -156 -155 -157 0
117 -78 -79 -116 -77 40 38 118 -157 39 -156 -155 0
117 -78 -79 -77 -116 40 38 118 -157 -39 -156 -155 0
117 -116 -79 -40 -78 -77 39 38 118 -156 -155 -157 0
-116 -39 -40 -79 -77 -78 38 117 118 -156 -155 -157 0
118 38 -117 78 116 77 79 40 -155 -157 39 -156 0
39 118 -117 78 116 79 77 40 -155 -157 -38 -156 0
118 78 38 116 -117 77 79 40 -155 -157 -39 -156 0
118 116 -39 77 79 -117 40 -38 -155 -157 78 -156 0
39 118 -117 78 116 77 79 -40 38 -156 -155 -157 0
39 118 -117 78 116 79 77 -40 -38 -156 -155 -157 0
118 116 -39 -117 77 79 78 -40 38 -156 -155 -157 0
118 116 -39 -117 79 78 77 -40 -38 -156 -155 -157 0
118 38 -117 79 -77 78 116 40 -155 -157 -156 39 0
118 -38 -117 79 78 -77 116 40 -155 -157 -156 39 0
118 79 38 -117 116 78 -39 40 -155 -157 -156 -77 0
118 79 -38 -117 78 -77 116 40 -155 -157 -156 -39 0
118 79 38 -117 -77 78 116 39 -40 -156 -155 -157 0
118 78 -38 -117 -77 79 39 116 -40 -156 -155 -157 0
118 79 38 -117 116 -39 -77 78 -40 -156 -155 -157 0
118 -77 -117 -38 79 78 -39 116 -40 -156 -155 -157 0
118 38 -117 -78 116 77 79 40 -155 -157 -156 39 0
40 118 -117 116 -78 39 77 79 -155 -157 -156 -38 0
118 116 38 -117 39 -78 77 79 -40 -156 -155 -157 0
118 116 -38 -117 39 -78 77 79 -40 -156 -155 -157 0
118 38 -117 116 -77 -78 79 40 39 -157 -156 -155 0
118 -38 -117 -77 -78 79 116 40 39 -157 -156 -155 0
118 38 -117 -77 116 39 -78 79 -40 -156 -155 -157 0
118 -38 -117 -77 -78 39 79 116 -40 -156 -155 -157 0
118 116 38 -117 -79 40 78 39 -155 -157 -156 77 0
40 118 78 -117 116 -38 -79 39 -155 -157 -156 77 0
118 116 38 -117 -79 40 78 -39 -155 -157 -156 77 0
40 118 116 -117 -38 78 -79 -39 -155 -157 -156 77 0
116 38 -79 77 78 -117 -40 39 118 -156 -155 -157 0
116 -38 -79 78 -40 -117 77 39 118 -156 -155 -157 0
116 38 -79 77 -117 -40 78 -39 118 -156 -155 -157 0
116 -38 -79 -40 -117 77 78 -39 118 -156 -155 -157 0
118 116 38 -117 -79 40 78 39 -77 -157 -156 -155 0
40 118 78 -117 116 -38 -79 39 -77 -157 -156 -155 0
118 116 38 -117 -79 40 78 -39 -77 -157 -156 -155 0
40 118 116 -117 -38 78 -79 -39 -77 -157 -156 -155 0
116 38 -117 -79 -77 78 -40 39 118 -156 -155 -157 0
-117 78 -38 -77 -79 -40 39 116 118 -156 -155 -157 0
116 38 -79 -77 -40 -117 78 -39 118 -156 -155 -157 0
-38 -77 -40 -79 -39 -117 78 116 118 -156 -155 -157 0
118 116 38 -117 -78 39 -79 40 77 -157 -156 -155 0
118 116 -38 -117 -78 39 -79 40 77 -157 -156 -155 0
116 -117 -79 77 38 39 -78 -40 118 -156 -155 -157 0
116 -117 -79 77 -38 39 -78 -40 118 -156 -155 -157 0
118 116 38 -117 -78 39 -79 40 -157 -77 -156 -155 0
118 116 -38 -117 -78 39 -79 40 -157 -77 -156 -155 0
116 -117 -40 -79 -77 -78 39 38 118 -156 -155 -157 0
-38 -117 -79 -77 -40 -78 39 116 118 -156 -155 -157 0
39 118 -116 -117 40 77 78 79 38 -156 -155 -157 0
39 118 -116 -117 79 40 77 78 -38 -156 -155 -157 0
118 -116 -39 -117 40 77 78 79 38 -156 -155 -157 0
118 -116 -117 -39 79 40 77 78 -38 -156 -155 -157 0
39 118 -116 -117 38 77 -40 79 78 -156 -155 -157 0
39 118 -116 -117 -40 79 77 -38 78 -156 -155 -157 0
118 -116 -39 -117 -40 77 38 79 78 -156 -155 -157 0
118 -116 -39 -117 79 -40 77 -38 78 -156 -155 -157 0
39 118 -117 -116 40 79 38 -77 78 -156 -155 -157 0
118 -116 -39 -117 40 -77 79 38 78 -156 -155 -157 0
39 118 -116 -117 38 -77 79 -40 78 -156 -155 -157 0
118 -116 -39 -117 -77 38 79 -40 78 -156 -155 -157 0
118 38 -117 -116 79 40 77 39 -78 -156 -155 -157 0
118 -116 -117 -38 79 40 77 -78 39 -156 -155 -157 0
39 118 -117 -40 -116 77 38 79 -78 -156 -155 -157 0
39 118 -116 -117 79 -38 77 -40 -78 -156 -155 -157 0
39 118 -116 -117 79 40 -77 38 -157 -78 -156 -155 0
39 118 -116 -117 -77 79 -40 38 -78 -156 -155 -157 0
118 38 -116 -117 40 78 -79 77 39 -156 -155 -157 0
118 -38 -117 40 -116 78 -79 77 39 -156 -155 -157 0
118 38 -117 -116 40 -79 77 78 -39 -156 -155 -157 0
118 -38 -117 40 -116 -79 77 78 -39 -156 -155 -157 0
-116 -117 -79 -40 38 39 77 78 118 -156 -155 -157 0
-38 -117 -79 -40 39 -116 77 78 118 -156 -155 -157 0
-39 -117 -40 -79 -116 38 77 78 118 -156 -155 -157 0
-116 -117 -79 -40 -38 -39 77 78 118 -156 -155 -157 0
39 118 -116 -117 78 -79 40 -77 38 -156 -155 -157 0
118 -116 -39 -117 -79 38 40 78 -77 -156 -155 -157 0
-77 -117 -79 -40 78 38 -116 39 118 -156 -155 -157 0
-77 -39 -79 -40 -117 -116 38 78 118 -156 -155 -157 0
118 38 -117 -116 40 -79 -78 39 77 -156 -155 -157 0
118 -116 -117 -38 40 -79 39 -78 77 -156 -155 -157 0
118 -117 -79 -116 -40 77 39 38 -78 -156 -155 -157 0
-38 -117 -40 -116 -79 -78 39 77 118 -156 -155 -157 0
118 38 -117 -116 -78 39 -79 -77 -157 -156 40 -155 0
-116 -78 -79 -117 -77 -40 38 39 118 -156 -155 -157 0
116 117 38 79 -118 78 77 40 -155 -157 39 -156 0
116 117 -38 79 -118 78 77 40 -155 -157 39 -156 0
116 117 38 79 -118 78 77 40 -155 -157 -39 -156 0
116 117 -38 79 -118 78 77 40 -155 -157 -39 -156 0
39 116 -118 117 -40 78 79 77 38 -156 -155 -157 0
39 116 -118 117 -40 78 79 77 -38 -156 -155 -157 0
116 -39 -118 117 -40 78 79 77 38 -156 -155 -157 0
116 117 -39 -118 -40 78 79 77 -38 -156 -155 -157 0
78 116 117 79 -118 -77 38 40 -155 -157 -156 39 0
117 -38 -118 -77 79 78 116 40 -155 -157 -156 39 0
78 116 117 -118 79 -77 38 40 -155 -157 -156 -39 0
117 79 -38 -77 78 -118 116 40 -155 -157 -156 -39 0
39 116 -118 117 -77 38 79 78 -40 -156 -155 -157 0
117 -38 -118 -77 78 39 79 116 -40 -156 -155 -157 0
116 -39 -118 117 -77 38 79 78 -40 -156 -155 -157 0
117 -38 -118 -77 78 -39 79 116 -40 -156 -155 -157 0
116 38 -118 117 79 -78 77 40 -155 -157 -156 39 0
116 -38 -118 117 79 -78 77 40 -155 -157 -156 39 0
116 38 -118 117 79 -78 77 40 -155 -157 -156 -39 0
116 -38 -118 117 79 -78 77 40 -155 -157 -156 -39 0
116 117 38 -118 79 -78 39 77 -40 -156 -155 -157 0
116 117 -38 -118 79 -78 39 77 -40 -156 -155 -157 0
116 38 -40 -118 -39 -78 79 77 117 -156 -155 -157 0
116 -38 -40 -118 -78 -39 79 77 117 -156 -155 -157 0
116 -78 -118 117 -77 79 38 40 39 -157 -156 -155 0
117 -38 -118 -77 -78 79 116 40 39 -157 -156 -155 0
116 -78 -118 117 -77 79 38 40 -39 -157 -156 -155 0
117 -38 -118 -77 -78 79 116 40 -39 -157 -156 -155 0
39 116 117 -118 -78 38 79 -77 -40 -156 -155 -157 0
117 -38 -118 -77 -78 39 79 116 -40 -156 -155 -157 0
116 -39 -40 -118 38 -77 79 -78 117 -156 -155 -157 0
-38 -77 -40 -118 -39 -78 79 116 117 -156 -155 -157 0
116 38 -79 -118 77 117 78 39 -155 -157 -156 40 0
116 -38 -79 77 -118 117 78 39 -155 -157 -156 40 0
116 38 -79 -118 117 77 78 -39 -155 -157 -156 40 0
116 -38 -79 -118 77 117 78 -39 -155 -157 -156 40 0
78 116 117 -118 -77 38 -79 39 40 -157 -156 -155 0
117 -38 -118 -77 78 -79 116 39 40 -157 -156 -155 0
116 117 38 -77 -118 -79 78 -39 40 -157 -156 -155 0
117 -38 -118 -77 -79 78 116 -39 40 -157 -156 -155 0
116 117 38 -118 77 -78 39 -79 40 -157 -156 -155 0
116 117 -38 -118 -78 77 39 -79 40 -157 -156 -155 0
116 38 -78 -118 77 -79 -39 117 40 -157 -156 -155 0
116 -38 -79 -118 77 -78 -39 117 40 -157 -156 -155 0
116 117 38 -118 -77 -79 -78 39 -157 40 -156 -155 0
117 -38 -118 -77 -79 -78 116 39 -157 40 -156 -155 0
116 -77 -78 -118 38 -79 -39 117 -157 40 -156 -155 0
-38 -78 -118 -77 -79 -39 116 117 -157 40 -156 -155 0
39 117 -118 -116 40 77 78 79 38 -156 -155 -157 0
39 117 -118 -116 40 78 77 79 -38 -156 -155 -157 0
117 -116 -39 -118 40 77 78 79 38 -156 -155 -157 0
117 -116 -39 -118 40 77 78 79 -38 -156 -155 -157 0
39 117 -118 -116 38 77 -40 79 78 -156 -155 -157 0
39 117 -118 -116 -40 77 -38 79 78 -156 -155 -157 0
117 -39 -40 -116 -118 77 38 79 78 -156 -155 -157 0
117 -39 -40 -116 -118 77 -38 79 78 -156 -155 -157 0
39 117 -118 79 40 -116 38 78 -77 -157 -156 -155 0
117 -39 -118 40 -116 -77 38 78 79 -157 -156 -155 0
39 117 -118 38 -116 -77 -40 79 78 -156 -155 -157 0
117 -39 -118 -40 -116 38 -77 79 78 -156 -155 -157 0
117 38 -116 -118 79 40 77 39 -78 -156 -155 -157 0
117 -116 -118 -38 79 40 -78 77 39 -156 -155 -157 0
40 38 -39 -78 -118 77 -116 79 117 -156 -155 -157 0
40 -116 -39 -78 -118 -38 77 79 117 -156 -155 -157 0
39 117 -116 38 -118 -40 77 79 -78 -156 -155 -157 0
39 117 -38 -40 -118 -116 77 79 -78 -156 -155 -157 0
-116 -39 -40 77 38 -118 -78 79 117 -156 -155 -157 0
-116 -39 -40 -38 -78 -118 77 79 117 -156 -155 -157 0
39 117 -118 -116 79 40 -77 38 -157 -78 -156 -155 0
117 -39 -118 -116 40 38 79 -77 -157 -78 -156 -155 0
39 117 -118 -116 38 -40 -77 79 -78 -156 -155 -157 0
117 -39 -118 -116 38 -40 -77 79 -78 -156 -155 -157 0
117 38 -116 -118 78 40 -79 77 39 -156 -155 -157 0
117 -38 -118 -116 78 40 -79 77 39 -156 -155 -157 0
117 38 -79 -116 -118 40 77 78 -39 -156 -155 -157 0
117 -38 -79 -116 -118 40 77 78 -39 -156 -155 -157 0
39 117 -116 -118 78 -79 -77 38 -157 40 -156 -155 0
117 -116 -39 -118 -79 38 78 -77 -157 40 -156 -155 0
117 38 -79 39 -118 -116 40 -78 77 -156 -155 -157 0
117 -38 -79 39 -118 -116 40 -78 77 -156 -155 -157 0
38 -78 -79 -116 -39 -118 40 77 117 -156 -155 -157 0
-38 -78 -79 -116 -39 -118 40 77 117 -156 -155 -157 0
117 38 -118 -79 -116 -78 39 -77 -157 -156 40 -155 0
-39 -78 -79 -118 -116 -77 38 117 -157 -156 40 -155 0
39 116 -117 -118 40 77 78 79 38 -156 -155 -157 0
39 116 -117 -118 40 78 77 79 -38 -156 -155 -157 0
116 -39 -118 -117 40 77 78 79 38 -156 -155 -157 0
116 -39 -118 -117 40 77 78 79 -38 -156 -155 -157 0
39 116 -117 38 -118 77 -40 79 78 -156 -155 -157 0
39 116 -117 -40 -118 77 -38 79 78 -156 -155 -157 0
116 -117 -118 -39 -40 77 38 79 78 -156 -155 -157 0
116 -117 -118 -39 -40 77 -38 79 78 -156 -155 -157 0
39 116 -117 -118 40 38 -77 79 78 -156 -155 -157 0
40 -118 -38 -77 39 -117 78 79 116 -156 -155 -157 0
116 40 -117 -39 -118 -77 38 79 78 -156 -155 -157 0
-38 -77 -39 -117 -118 40 78 79 116 -156 -155 -157 0
39 116 -117 38 -118 -77 -40 79 78 -156 -155 -157 0
-38 -117 -40 -77 -118 39 78 79 116 -156 -155 -157 0
116 38 -117 -39 -40 -118 -77 79 78 -156 -155 -157 0
-38 -77 -39 -117 -40 -118 78 79 116 -156 -155 -157 0
116 38 -117 -118 40 79 77 39 -78 -156 -155 -157 0
116 -38 -117 -118 40 79 -78 77 39 -156 -155 -157 0
39 116 -117 38 -118 -40 77 79 -78 -156 -155 -157 0
39 116 -117 -38 -118 -40 77 79 -78 -156 -155 -157 0
116 38 -117 40 -118 -78 79 -77 39 -156 -155 -157 0
79 -38 -78 -77 -118 -117 40 39 116 -156 -155 -157 0
39 116 -117 -77 38 -118 -40 79 -78 -156 -155 -157 0
-38 -78 -40 -77 -117 -118 39 79 116 -156 -155 -157 0
116 38 -118 -117 78 -79 40 77 39 -156 -155 -157 0
116 -38 -118 -117 78 -79 40 77 39 -156 -155 -157 0
116 38 -117 -118 -79 40 77 78 -39 -156 -155 -157 0
116 -38 -117 -118 -79 40 77 78 -39 -156 -155 -157 0
39 116 -118 78 -117 -79 40 -77 38 -156 -155 -157 0
-38 -77 -79 -118 -117 39 40 78 116 -156 -155 -157 0
116 -39 -79 -77 -118 -117 40 78 38 -156 -155 -157 0
-38 -39 -79 -77 -118 -117 40 78 116 -156 -155 -157 0
116 38 -118 -117 -79 39 40 -78 77 -156 -155 -157 0
116 -38 -118 -117 -79 39 40 -78 77 -156 -155 -157 0
116 38 -118 -79 -78 -117 39 40 -77 -156 -155 -157 0
-38 -77 -79 -118 -78 -117 39 40 116 -156 -155 -157 0
79 38 -116 -118 -117 40 77 78 39 -156 -155 -157 0
79 -118 -38 -116 -117 40 77 78 39 -156 -155 -157 0
79 38 -116 -117 -118 40 77 78 -39 -156 -155 -157 0
79 -38 -117 -116 -118 40 77 78 -39 -156 -155 -157 0
39 -116 -40 77 38 -118 78 -117 79 -156 -155 -157 0
39 -38 -40 -116 -117 -118 77 78 79 -156 -155 -157 0
-116 -39 -40 77 -118 38 -117 78 79 -156 -155 -157 0
-116 -39 -40 -38 -118 -117 77 78 79 -156 -155 -157 0
39 79 -116 78 -117 -118 40 -77 38 -156 -155 -157 0
79 -116 -39 -117 -118 38 40 78 -77 -156 -155 -157 0
39 -116 -40 -117 -77 38 -118 78 79 -156 -155 -157 0
-116 -39 -40 -117 -77 -118 38 78 79 -156 -155 -157 0
-116 38 -78 -117 -118 39 40 77 79 -156 -155 -157 0
-38 -116 -78 -117 -118 39 40 77 79 -156 -155 -157 0
39 -116 -118 -40 -117 77 38 -78 79 -156 -155 -157 0
-38 -116 -40 -118 -117 -78 39 77 79 -156 -155 -157 0
39 -78 -118 -116 -117 -77 40 79 -157 -156 38 -155 0
-116 -78 -40 -118 -117 -77 38 39 79 -156 -155 -157 0
39 77 -116 -79 -117 -118 40 38 78 -156 -155 -157 0
77 -116 -38 -79 -117 39 40 -118 78 -156 -155 -157 0
-116 77 -39 -79 -118 -117 40 38 78 -156 -155 -157 0
-38 -39 -79 -116 -118 -117 40 77 78 -156 -155 -157 0
39 38 -118 -116 -117 -79 -77 78 -157 -156 40 -155 0
-77 -39 -118 -116 -117 -79 38 78 -157 -156 40 -155 0
-116 38 -78 -79 -118 -117 40 39 77 -156 -155 -157 0
-38 -78 -118 -116 -79 -117 39 40 77 -156 -155 -157 0
-116 -78 -118 -79 -117 -77 38 39 -157 -156 -155 40 0
39859 0
40027 0
-121 0
-148 0
