p cnf 8841 1904
8 1 12 9 13 4 5 6 21 2 27 7 28 3 20 14 15 16 17 18 19 10 11 22 23 24 25 26 29 30 31 32 33 34 35 36 0
397 -1 0
397 -2 0
397 -3 0
397 -4 0
397 -5 0
397 -6 0
397 -7 0
397 -8 0
8 1 -397 2 3 4 5 6 7 0
398 -9 0
398 -10 0
398 -11 0
398 -12 0
398 -13 0
398 -14 0
398 -15 0
399 -9 0
399 -16 0
399 -17 0
399 -18 0
399 -19 0
399 -20 0
399 -21 0
-400 26 10 16 3 22 23 24 25 0
-401 28 11 17 4 22 27 29 30 0
-402 27 12 18 5 23 31 32 33 0
-403 28 13 19 6 24 31 34 35 0
-404 29 14 20 7 25 32 34 36 0
-405 8 15 21 26 30 33 35 36 0
65 58 48 51 41 42 43 44 39 38 40 37 45 54 55 49 50 52 53 57 56 46 47 59 60 61 62 63 64 66 67 68 69 70 71 72 0
531 -37 0
532 -531 0
-38 -531 0
533 -532 0
534 -533 0
-534 535 0
-535 536 0
-536 537 0
-537 538 0
539 -538 0
-538 -45 0
540 -539 0
-540 541 0
-541 542 0
-542 543 0
-543 544 0
-544 545 0
-545 546 0
-52 -545 0
-546 547 0
-53 -546 0
548 -547 0
-547 -54 0
549 -548 0
-55 -548 0
550 -549 0
-56 -549 0
-57 -550 0
-37 406 0
-38 406 0
-39 406 0
-40 406 0
-41 406 0
-42 406 0
-43 406 0
-44 406 0
-406 37 38 39 40 41 42 43 44 0
407 -37 0
-45 407 0
-46 407 0
-47 407 0
-48 407 0
-49 407 0
-50 407 0
-51 407 0
51 -407 37 50 46 47 45 48 49 0
-45 408 0
-52 408 0
-53 408 0
-54 408 0
-55 408 0
-56 408 0
-57 408 0
-408 54 38 45 53 52 56 55 57 0
94 95 81 84 75 76 77 80 78 74 73 79 85 86 87 88 89 90 91 92 93 82 83 96 97 98 99 100 101 102 103 104 105 106 107 108 0
566 -73 0
-74 -566 0
-75 568 0
-568 569 0
-76 569 0
-569 570 0
-77 570 0
-570 571 0
-78 571 0
-571 572 0
-79 572 0
-572 573 0
-80 573 0
-573 -81 0
-73 415 0
-74 415 0
-75 415 0
-76 415 0
-77 415 0
-78 415 0
-79 415 0
-80 415 0
-415 75 74 73 76 77 78 79 80 0
-81 416 0
-82 416 0
-83 416 0
-84 416 0
-85 416 0
-86 416 0
-87 416 0
83 -416 73 81 82 84 85 86 87 0
-88 417 0
-89 417 0
-90 417 0
-91 417 0
-92 417 0
-93 417 0
89 -417 81 88 74 90 91 92 93 0
131 130 113 114 120 124 115 116 109 110 117 125 121 122 123 111 112 126 127 128 129 118 119 132 133 134 135 136 137 138 139 140 141 142 143 144 0
-109 424 0
-110 424 0
-111 424 0
-112 424 0
-113 424 0
-114 424 0
-115 424 0
-116 424 0
-424 111 110 109 112 113 114 115 116 0
425 -109 0
-117 425 0
-118 425 0
-119 425 0
-120 425 0
-121 425 0
-122 425 0
-123 425 0
122 -425 121 117 109 118 119 120 123 0
-124 426 0
-125 426 0
-126 426 0
-127 426 0
-128 426 0
-129 426 0
-426 124 110 117 125 126 127 128 129 0
167 166 153 154 146 150 151 152 148 149 155 156 157 158 159 145 147 162 163 164 165 160 161 168 169 170 171 172 173 174 175 176 177 178 179 180 0
-145 433 0
-146 433 0
-147 433 0
-148 433 0
-149 433 0
-150 433 0
-151 433 0
-152 433 0
147 -433 145 146 148 149 150 151 152 0
-153 434 0
-154 434 0
-155 434 0
-156 434 0
-157 434 0
-158 434 0
-159 434 0
155 -434 145 153 154 156 157 158 159 0
-153 435 0
161 -435 153 160 146 163 162 164 165 0
203 202 189 193 188 195 181 186 187 184 182 183 185 196 197 194 190 198 199 200 201 191 192 204 205 206 207 208 209 210 211 212 213 214 215 216 0
671 -181 0
672 -671 0
-182 -671 0
673 -672 0
674 -673 0
675 -674 0
676 -675 0
677 -676 0
-677 678 0
-678 679 0
-679 680 0
-680 681 0
-681 682 0
-682 683 0
-683 684 0
-684 685 0
-685 686 0
-196 -685 0
687 -686 0
-686 -197 0
688 -687 0
-198 -687 0
689 -688 0
-199 -688 0
690 -689 0
-200 -689 0
-201 -690 0
-181 442 0
-182 442 0
-183 442 0
-184 442 0
-185 442 0
-186 442 0
-187 442 0
-188 442 0
-442 183 182 181 184 185 186 187 188 0
-181 443 0
-189 443 0
-190 443 0
-191 443 0
-192 443 0
-193 443 0
-194 443 0
-195 443 0
195 -443 189 181 194 190 191 192 193 0
-189 444 0
-196 444 0
-197 444 0
-198 444 0
-199 444 0
-200 444 0
-201 444 0
197 -444 189 182 196 201 198 199 200 0
239 238 228 229 221 222 223 224 217 219 220 235 236 230 231 218 225 234 233 232 237 226 227 240 241 242 243 244 245 246 247 248 249 250 251 252 0
-217 451 0
-218 451 0
-219 451 0
-220 451 0
-221 451 0
-222 451 0
-223 451 0
-224 451 0
-451 219 217 218 220 221 222 223 224 0
-217 452 0
-225 452 0
-226 452 0
-227 452 0
-228 452 0
-229 452 0
-230 452 0
-231 452 0
227 -452 217 225 226 228 229 230 231 0
-225 453 0
-232 453 0
-233 453 0
-234 453 0
-235 453 0
-236 453 0
-237 453 0
-453 235 218 225 233 234 232 236 237 0
257 258 271 270 261 254 259 260 253 255 256 264 265 266 267 263 262 275 274 272 273 268 269 276 277 278 279 280 281 282 283 284 285 286 287 288 0
741 -253 0
742 -741 0
-254 -741 0
743 -742 0
744 -743 0
745 -744 0
746 -745 0
747 -746 0
748 -747 0
749 -748 0
750 -749 0
751 -750 0
752 -751 0
753 -752 0
754 -753 0
755 -754 0
756 -755 0
-268 -755 0
757 -756 0
-269 -756 0
758 -757 0
-270 -757 0
759 -758 0
-271 -758 0
760 -759 0
-272 -759 0
-273 -760 0
-253 460 0
-254 460 0
-255 460 0
-256 460 0
-257 460 0
-258 460 0
-259 460 0
-260 460 0
255 -460 253 254 256 257 258 259 260 0
-253 461 0
-261 461 0
-262 461 0
-263 461 0
-264 461 0
-265 461 0
-266 461 0
-267 461 0
263 -461 253 261 262 264 265 266 267 0
-254 462 0
-261 462 0
-268 462 0
-269 462 0
-270 462 0
-271 462 0
-272 462 0
-273 462 0
-462 254 273 261 268 269 270 271 272 0
299 303 302 289 292 298 297 296 304 305 300 295 294 293 301 290 291 306 307 308 309 310 311 312 313 314 315 316 317 318 319 320 321 322 323 324 0
-289 776 0
-776 777 0
-290 -776 0
-777 778 0
-778 779 0
-779 780 0
-780 781 0
-781 782 0
-782 783 0
-783 784 0
-783 -297 0
-784 785 0
-785 786 0
-786 787 0
-787 788 0
-788 789 0
790 -789 0
791 -790 0
-304 -790 0
792 -791 0
-305 -791 0
793 -792 0
-306 -792 0
794 -793 0
-307 -793 0
795 -794 0
-308 -794 0
-309 -795 0
-289 469 0
-290 469 0
-291 469 0
-292 469 0
-293 469 0
-294 469 0
-295 469 0
-296 469 0
-469 290 289 291 292 293 294 295 296 0
-289 470 0
-297 470 0
470 -298 0
470 -299 0
470 -300 0
470 -301 0
470 -302 0
470 -303 0
299 303 302 -470 297 289 300 298 301 0
471 -297 0
-304 471 0
-305 471 0
-306 471 0
-307 471 0
-308 471 0
-309 471 0
290 297 -471 308 304 305 307 306 309 0
472 -298 0
473 -299 0
474 -300 0
475 -301 0
476 -302 0
477 -303 0
811 -325 0
812 -811 0
-326 -811 0
813 -812 0
814 -813 0
815 -814 0
816 -815 0
817 -816 0
818 -817 0
819 -818 0
820 -819 0
821 -820 0
822 -821 0
823 -822 0
824 -823 0
825 -824 0
826 -825 0
-340 -825 0
827 -826 0
-341 -826 0
828 -827 0
-342 -827 0
829 -828 0
-343 -828 0
830 -829 0
-344 -829 0
-345 -830 0
478 -325 0
325 -478 329 328 326 327 330 331 332 0
-333 479 0
325 -479 334 333 335 336 337 338 339 0
-480 344 333 326 341 340 343 342 345 0
-361 487 0
-361 488 0
369 370 -488 361 371 372 373 374 375 0
376 369 362 377 -489 378 379 380 381 0
-2666 0
-2765 0
-2667 0
-2766 0
2668 0
-2767 0
-1 -2774 2666 0
397 -2675 2666 0
398 -2676 2667 0
399 2677 -2668 0
2774 2677 -2668 0
-2775 -37 2675 0
-2684 2675 406 0
-2684 2775 2675 0
-2685 2676 407 0
2686 408 -2677 0
2686 2775 -2677 0
-2776 -73 2684 0
-2693 2684 415 0
-2693 2776 2684 0
-2694 2685 416 0
2695 417 -2686 0
2695 2776 -2686 0
-2777 -109 2693 0
-2702 2693 424 0
-2702 2777 2693 0
-2703 2694 425 0
2704 426 -2695 0
2704 2777 -2695 0
-2778 -145 2702 0
-2711 2702 433 0
-2711 2778 2702 0
-2712 2703 434 0
2713 435 -2704 0
2713 2778 -2704 0
-2779 -181 2711 0
-2720 2711 442 0
-2720 2779 2711 0
-2721 2712 443 0
2722 444 -2713 0
2722 2779 -2713 0
-2780 -217 2720 0
-2729 2720 451 0
-2730 2721 452 0
2731 453 -2722 0
2731 2780 -2722 0
-2781 -253 2729 0
-2738 2729 460 0
-2739 2730 461 0
2740 462 -2731 0
2781 2740 -2731 0
-2747 2738 469 0
-2782 2748 2739 -470 0
2749 471 -2740 0
2749 2782 -2740 0
-2783 2747 -325 0
-2756 2783 2747 0
-2748 2757 2783 0
2758 -2749 480 0
-2749 2758 2783 0
-362 -2784 -2758 0
-2758 -369 -2784 0
-487 -2784 2756 2765 0
2784 -2757 2766 0
2784 -2758 2767 0
3856 0
-3955 0
3857 0
-3956 0
-3858 0
-3964 -1 -3857 0
-9 3964 3858 -3857 0
397 3865 -3856 0
3865 3964 -3856 0
398 3866 -3857 0
-3866 -398 -3964 -3857 0
3965 -37 3866 -3865 0
3874 -3865 406 0
-3965 -406 -3874 -3865 0
3875 -3866 407 0
-3966 -73 -3875 0
3883 -3874 415 0
3874 -3883 415 0
3966 3883 -3874 0
3884 -3875 416 0
-3966 3875 -416 3884 0
3892 -3883 424 0
3883 -3892 424 0
3893 -3884 425 0
3901 -3892 433 0
3892 -3901 433 0
3902 -3893 434 0
-3969 -181 -3902 0
3910 -3901 442 0
3901 -3910 442 0
3969 3910 -3901 0
3911 -3902 443 0
-3969 3902 -443 3911 0
-3970 -217 -3911 0
3919 -3910 451 0
3910 -3919 451 0
3970 3919 -3910 0
3920 -3911 452 0
-3970 3911 -452 3920 0
-3970 -452 -3911 -3920 0
-3920 -253 -3971 0
3928 -3919 460 0
3919 -3928 460 0
3971 3928 -3919 0
3929 -3920 461 0
3920 3929 -3971 -461 0
-3929 -289 -3972 0
3937 -3928 469 0
3972 3937 -3928 0
3938 470 -3929 0
3929 -3972 -470 3938 0
-3938 -3973 -325 0
3938 3973 -325 -3937 0
478 3946 -3937 0
3973 3946 -3937 0
479 -3938 3947 0
-3938 3973 3947 0
3938 -479 3947 -3973 0
-3947 -361 -3974 0
-3946 487 3955 0
3974 -3946 3955 0
488 -3947 3956 0
-488 -3974 3947 3956 0
-4332 0
-4431 0
4333 0
-4432 0
4334 0
-4433 0
-9 -4440 -4334 0
397 -4341 4332 0
4342 4440 -4333 0
399 4343 -4334 0
-4350 4341 406 0
4351 407 -4342 0
4352 408 -4343 0
-4359 4350 415 0
4360 -4351 416 0
4361 417 -4352 0
-4368 4359 424 0
4369 -4360 425 0
4370 426 -4361 0
-4377 4368 433 0
4378 -4369 434 0
4379 435 -4370 0
-4386 4377 442 0
4388 444 -4379 0
-4395 4386 451 0
4397 453 -4388 0
-4447 -460 4395 4404 0
4405 -4396 461 0
4406 462 -4397 0
4447 4406 -4397 0
-4404 4413 469 0
4414 470 -4405 0
4415 471 -4406 0
-4413 478 4422 0
-4414 479 4423 0
-4415 4424 480 0
-4450 -4423 -361 0
4450 -4422 4431 0
488 -4423 4432 0
4450 -4423 4432 0
-488 -4450 4423 4432 0
4450 -4424 4433 0
5165 0
-5264 0
5166 0
5265 0
5167 0
5266 0
-9 -5273 -5167 0
397 5174 -5165 0
398 5175 -5166 0
5175 5273 -5166 0
399 5176 -5167 0
-5274 -37 -5175 0
5183 -5174 406 0
5274 5183 -5174 0
5184 407 -5175 0
5185 408 -5176 0
5192 -5183 415 0
5193 -5184 416 0
5194 417 -5185 0
5201 -5192 424 0
5202 -5193 425 0
5203 426 -5194 0
-5277 -153 -5203 0
5210 -5201 433 0
5211 -5202 434 0
5277 5211 -5202 0
5212 435 -5203 0
-5278 -181 -5211 0
5219 -5210 442 0
5278 5219 -5210 0
5220 -5211 443 0
5221 -5212 444 0
5228 -5219 451 0
-5220 5229 452 0
5230 453 -5221 0
5237 -5228 460 0
-5229 5238 461 0
5229 461 -5238 0
5239 462 -5230 0
5246 -5237 469 0
-5247 470 5238 0
5281 5247 -5238 0
-471 -5239 -5281 -5248 0
-5247 -325 -5282 0
478 5255 -5246 0
5282 5255 -5246 0
5247 479 -5256 0
5247 -479 5256 -5282 0
5248 -5257 480 0
487 -5255 5264 0
488 5256 -5265 0
-5256 -5283 -488 -5265 0
5283 5257 -5266 0
5522 0
-5621 0
-5523 0
-5622 0
5524 0
397 5531 -5522 0
398 -5532 5523 0
399 5533 -5524 0
5540 -5531 406 0
-5541 5532 407 0
5542 408 -5533 0
5549 -5540 415 0
-5550 5541 416 0
5551 417 -5542 0
-5550 -5633 -109 0
5558 -5549 424 0
5633 5558 -5549 0
-5559 5550 425 0
5559 -425 5550 -5633 0
5560 426 -5551 0
-5559 -145 -5634 0
-146 -5634 -5560 0
-153 5559 -5634 0
-153 -5634 -5560 0
5567 -5558 433 0
5634 5567 -5558 0
-5559 5568 434 0
5634 -5559 5568 0
5634 -5568 5559 0
-5634 -434 5559 5568 0
5569 435 -5560 0
-5635 -5568 -181 0
5568 -181 5635 -5567 0
-5635 -189 -5569 0
5576 -5567 442 0
5635 5576 -5567 0
-5635 -442 -5567 -5576 0
-5568 5577 443 0
-5568 5577 5635 0
-5635 -443 5577 5568 0
5578 444 -5569 0
-5636 -5577 -217 0
-5636 -225 -5578 0
5585 -5576 451 0
-5585 5576 451 0
5636 5585 -5576 0
-5577 5586 452 0
-5577 5586 5636 0
-5636 -452 5577 5586 0
5587 453 -5578 0
-5637 -5586 -253 0
-261 -5637 -5587 0
5594 -5585 460 0
-5594 5585 460 0
5637 5594 -5585 0
-5586 5595 461 0
5637 -5586 5595 0
-5637 -461 5586 5595 0
5596 462 -5587 0
-5638 -5595 -289 0
-5638 -297 -5596 0
5603 -5594 469 0
-5603 5594 469 0
5638 5603 -5594 0
-5638 -469 5594 5603 0
-5595 5604 470 0
5638 -5595 5604 0
-5638 5604 -470 5595 0
5605 471 -5596 0
-333 -5639 -5605 0
5612 478 -5603 0
-5639 5603 -478 5612 0
-5604 479 5613 0
5639 -5604 5613 0
487 -5612 5621 0
488 -5613 5622 0
-5641 0
-5740 0
5642 0
-5741 0
-5643 0
5742 0
5644 0
5645 0
5646 0
5647 0
5648 0
5649 0
-5749 -1 5641 0
-5749 -2 5641 0
-5749 -3 5641 0
-5749 -4 5641 0
-5749 -5 5641 0
-5749 -6 5641 0
-5749 -7 5641 0
-5749 -8 5641 0
5749 -9 5643 -5642 0
-10 -5749 -5644 0
-11 -5749 -5645 0
-12 -5749 -5646 0
-13 -5749 -5647 0
-14 -5749 -5648 0
-15 -5749 -5649 0
-16 -5749 -5644 0
-17 -5749 -5645 0
-18 -5749 -5646 0
-19 -5749 -5647 0
-20 -5749 -5648 0
-21 -5749 -5649 0
-22 -5749 -5645 0
-23 -5749 -5646 0
-24 -5749 -5647 0
-25 -5749 -5648 0
-26 -5749 -5649 0
-27 -5749 -5646 0
-28 -5749 -5647 0
-29 -5749 -5648 0
-30 -5749 -5649 0
-31 -5749 -5647 0
-32 -5749 -5648 0
-33 -5749 -5649 0
-34 -5749 -5648 0
-35 -5749 -5649 0
-36 -5749 -5649 0
-5650 397 5641 0
-5650 5749 5641 0
5650 -5749 -397 5641 0
5651 5749 -5642 0
-398 -5749 -5651 -5642 0
-5652 399 5643 0
-5652 5749 5643 0
-399 -5749 5652 5643 0
5653 400 -5644 0
5653 5749 -5644 0
5654 401 -5645 0
5654 5749 -5645 0
5655 402 -5646 0
5655 5749 -5646 0
5656 403 -5647 0
5656 5749 -5647 0
5657 404 -5648 0
5657 5749 -5648 0
405 5658 -5649 0
5658 5749 -5649 0
-37 -5750 5650 0
-38 -5750 5650 0
-39 -5750 5650 0
-40 -5750 5650 0
-41 -5750 5650 0
-42 -5750 5650 0
-43 -5750 5650 0
-44 -5750 5650 0
5651 -45 -5750 0
-45 5750 5652 -5651 0
-46 5651 -5750 0
-46 -5750 -5653 0
-47 5651 -5750 0
-47 -5750 -5654 0
-48 5651 -5750 0
-48 -5750 -5655 0
-49 5651 -5750 0
-49 -5750 -5656 0
5651 -5750 -50 0
-5750 -50 -5657 0
-51 5651 -5750 0
-51 -5750 -5658 0
-52 -5750 5652 0
-52 -5750 -5653 0
-53 -5750 5652 0
-53 -5750 -5654 0
-54 -5750 5652 0
-54 -5750 -5655 0
-55 -5750 5652 0
-55 -5750 -5656 0
-56 -5750 5652 0
-56 -5750 -5657 0
-57 -5750 5652 0
-57 -5750 -5658 0
-58 -5750 -5654 0
-59 -5750 -5655 0
-60 -5750 -5656 0
-61 -5750 -5657 0
-62 -5750 -5658 0
-63 -5750 -5655 0
-64 -5750 -5656 0
-65 -5750 -5657 0
-66 -5750 -5658 0
-67 -5750 -5656 0
-68 -5750 -5657 0
-69 -5750 -5658 0
-70 -5750 -5657 0
-71 -5750 -5658 0
-72 -5750 -5658 0
-5659 406 5650 0
5750 -5659 5650 0
5651 -5660 407 0
5750 5660 -5651 0
5750 5651 -5660 0
-5750 -407 -5651 -5660 0
-5661 408 5652 0
5750 -5652 5661 0
5750 -5661 5652 0
-408 5661 -5750 5652 0
-73 -5751 5659 0
-5660 -73 -5751 0
-74 -5751 5659 0
-75 -5751 5659 0
-76 -5751 5659 0
-77 -5751 5659 0
-78 -5751 5659 0
-79 -5751 5659 0
-80 -5751 5659 0
5660 -81 -5751 0
-88 -5751 5661 0
-89 -5751 5661 0
-90 -5751 5661 0
-91 -5751 5661 0
-92 -5751 5661 0
-93 -5751 5661 0
-5659 5668 415 0
-5668 5659 415 0
-5659 5751 5668 0
5751 -5668 5659 0
-5668 -5659 -5751 -415 0
5669 -5660 416 0
-5669 5660 416 0
5751 5660 -5669 0
-5751 -416 -5669 -5660 0
-5670 417 5661 0
5751 -5670 5661 0
-109 -5752 5668 0
-110 -5752 5668 0
-111 -5752 5668 0
-112 -5752 5668 0
-113 -5752 5668 0
-114 -5752 5668 0
-115 -5752 5668 0
-116 -5752 5668 0
-117 -5752 5669 0
-124 -5752 5670 0
-125 -5752 5670 0
-126 -5752 5670 0
-127 -5752 5670 0
-128 -5752 5670 0
-129 -5752 5670 0
-5668 5677 424 0
-5677 5668 424 0
-5677 5752 5668 0
-424 5668 5677 -5752 0
5678 -5669 425 0
-5678 5669 425 0
-5752 -425 -5669 -5678 0
-5679 426 5670 0
5752 -5679 5670 0
-5753 -145 5677 0
-146 -5753 5677 0
-147 -5753 5677 0
-148 -5753 5677 0
-149 -5753 5677 0
-150 -5753 5677 0
-151 -5753 5677 0
-152 -5753 5677 0
-153 -5753 5678 0
-153 -5678 5753 5679 0
-160 -5753 5679 0
-161 -5753 5679 0
-162 -5753 5679 0
-163 -5753 5679 0
-164 -5753 5679 0
-165 -5753 5679 0
-5677 5686 433 0
-5686 5677 433 0
5753 -5686 5677 0
-5753 -433 5677 5686 0
5678 -5687 434 0
5678 -5687 5753 0
-5753 -434 -5687 -5678 0
-5688 435 5679 0
-5688 5753 5679 0
-181 -5754 5686 0
-182 -5754 5686 0
-183 -5754 5686 0
-184 -5754 5686 0
-185 -5754 5686 0
-186 -5754 5686 0
-187 -5754 5686 0
-188 -5754 5686 0
5687 -189 -5754 0
-190 5687 -5754 0
-191 5687 -5754 0
-192 5687 -5754 0
-193 5687 -5754 0
5687 -5754 -194 0
-195 5687 -5754 0
-196 -5754 5688 0
-197 -5754 5688 0
-198 -5754 5688 0
-199 -5754 5688 0
-200 -5754 5688 0
-201 -5754 5688 0
-5686 5695 442 0
-5695 5686 442 0
-5695 5754 5686 0
-442 5695 5686 -5754 0
5687 -5696 443 0
5754 5687 -5696 0
-5754 -443 -5696 -5687 0
-5697 444 5688 0
5754 -5697 5688 0
-217 -5755 5695 0
-5696 -217 -5755 0
-218 -5755 5695 0
-219 -5755 5695 0
-220 -5755 5695 0
-221 -5755 5695 0
-222 -5755 5695 0
-223 -5755 5695 0
-224 -5755 5695 0
5696 -225 -5755 0
-232 -5755 5697 0
-233 -5755 5697 0
-234 -5755 5697 0
-235 -5755 5697 0
-236 -5755 5697 0
-237 -5755 5697 0
-5695 5704 451 0
-5704 5695 451 0
5755 -5704 5695 0
-451 5704 -5755 5695 0
5696 -5705 452 0
5755 5705 -5696 0
5755 5696 -5705 0
-5755 -452 -5705 -5696 0
-5706 453 5697 0
5755 -5706 5697 0
-5756 -253 5704 0
-5756 -253 -5705 0
-5756 -254 5704 0
-255 -5756 5704 0
-256 -5756 5704 0
-257 -5756 5704 0
-258 -5756 5704 0
-259 -5756 5704 0
-260 -5756 5704 0
-268 -5756 5706 0
-269 -5756 5706 0
-270 -5756 5706 0
-271 -5756 5706 0
-272 -5756 5706 0
-273 -5756 5706 0
-5704 5713 460 0
-5713 5704 460 0
5756 -5704 5713 0
5756 -5713 5704 0
-5756 -460 5704 5713 0
5714 -5705 461 0
5705 -5714 461 0
5705 5756 -5714 0
-5715 462 5706 0
-5715 5756 5706 0
-5757 -289 5713 0
-5714 -289 -5757 0
-290 -5757 5713 0
-291 -5757 5713 0
-292 -5757 5713 0
-293 -5757 5713 0
-294 -5757 5713 0
-295 -5757 5713 0
-296 -5757 5713 0
-297 5714 -5757 0
-304 -5757 5715 0
-305 -5757 5715 0
-306 -5757 5715 0
-307 -5757 5715 0
-308 -5757 5715 0
-309 -5757 5715 0
-5713 5722 469 0
-5722 5713 469 0
5757 -5713 5722 0
5757 -5722 5713 0
-5757 -469 5722 5713 0
5723 470 -5714 0
-5723 5714 470 0
5714 -5757 -470 5723 0
-5723 -5757 -5714 -470 0
-5724 471 5715 0
5757 -5724 5715 0
-5758 5722 -325 0
-5723 -5758 -325 0
-326 -5758 5722 0
-327 -5758 5722 0
-328 -5758 5722 0
-329 -5758 5722 0
-330 -5758 5722 0
-331 -5758 5722 0
-332 -5758 5722 0
-340 -5758 5724 0
-341 -5758 5724 0
-342 -5758 5724 0
-343 -5758 5724 0
-344 -5758 5724 0
-345 -5758 5724 0
-5722 478 5731 0
478 5722 -5731 0
5758 -5722 5731 0
5758 5722 -5731 0
-5723 479 5732 0
5723 479 -5732 0
5724 -5733 480 0
5724 -5733 5758 0
-5759 -5732 -361 0
-376 5733 -5759 0
-377 5733 -5759 0
-378 5733 -5759 0
-379 5733 -5759 0
-380 5733 -5759 0
-381 5733 -5759 0
-5731 487 5740 0
5759 -5731 5740 0
-487 -5759 5731 5740 0
488 -5732 5741 0
5759 -5732 5741 0
-488 -5759 5732 5741 0
5733 489 -5742 0
5759 5733 -5742 0
5760 0
-5859 0
5761 0
5860 0
-5762 0
5861 0
5763 0
5764 0
5765 0
5766 0
5767 0
5768 0
-5868 -1 -5761 0
-5868 -3 -5763 0
-5868 -4 -5764 0
-5868 -5 -5765 0
-5868 -6 -5766 0
-5868 -7 -5767 0
-5868 -8 -5768 0
-9 5868 5762 -5761 0
-5868 -10 -5763 0
-5868 -11 -5764 0
-5868 -12 -5765 0
-5868 -13 -5766 0
-5868 -14 -5767 0
-5868 -15 -5768 0
-5868 -16 -5763 0
-5868 -17 -5764 0
-5868 -18 -5765 0
-5868 -19 -5766 0
-5868 -20 -5767 0
-5868 -21 -5768 0
-5868 -22 -5764 0
-5868 -23 -5765 0
-5868 -24 -5766 0
-5868 -25 -5767 0
-5868 -26 -5768 0
-5868 -27 -5765 0
-28 -5868 -5766 0
-5868 -29 -5767 0
-5868 -30 -5768 0
-5868 -31 -5766 0
-5868 -32 -5767 0
-5868 -33 -5768 0
-5868 -34 -5767 0
-5868 -35 -5768 0
-5868 -36 -5768 0
397 5769 -5760 0
398 5770 -5761 0
5770 5868 -5761 0
-5770 -5868 -398 -5761 0
-5771 399 5762 0
-5771 5868 5762 0
5772 5868 -5763 0
5773 5868 -5764 0
5774 5868 -5765 0
5775 5868 -5766 0
5776 5868 -5767 0
5777 5868 -5768 0
-5869 -37 -5770 0
-46 -5869 -5772 0
-47 -5869 -5773 0
-48 -5869 -5774 0
-49 -5869 -5775 0
-5869 -50 -5776 0
-51 -5869 -5777 0
5778 -5769 406 0
5869 5778 -5769 0
5779 407 -5770 0
-5779 5770 407 0
5869 5779 -5770 0
-5780 408 5771 0
-5870 -73 -5779 0
5787 -5778 415 0
5870 5787 -5778 0
5788 -5779 416 0
-5788 5779 416 0
-5789 417 5780 0
5796 -5787 424 0
5797 -5788 425 0
5788 -5797 425 0
-5798 426 5789 0
-5798 -5872 -153 0
-160 -5872 5798 0
-161 -5872 5798 0
-162 -5872 5798 0
-163 -5872 5798 0
-164 -5872 5798 0
-165 -5872 5798 0
5805 -5796 433 0
5872 5805 -5796 0
5806 -5797 434 0
5872 5806 -5797 0
-5807 435 5798 0
-5873 -181 -5806 0
5814 -5805 442 0
5873 5814 -5805 0
5815 -5806 443 0
-5816 444 5807 0
5823 -5814 451 0
5824 -5815 452 0
-5825 453 5816 0
5832 -5823 460 0
-5824 5833 461 0
-5834 462 5825 0
-5834 -297 -5876 0
-5835 -298 -5876 0
-5836 -299 -5876 0
-5837 -300 -5876 0
-5838 -301 -5876 0
-5839 -302 -5876 0
-5840 -303 -5876 0
5841 -5832 469 0
470 5842 -5833 0
5876 -5833 5842 0
471 5834 -5843 0
-5842 -325 -5877 0
5850 478 -5841 0
5877 5850 -5841 0
5851 -479 5842 -5877 0
5843 -5852 480 0
487 -5850 5859 0
-5851 -5878 -488 -5860 0
5878 5852 -5861 0
5879 0
-5978 0
-5880 0
5979 0
5881 0
5882 0
5883 0
5884 0
5885 0
5886 0
5887 0
-2 -5987 -5881 0
-3 -5987 -5882 0
-4 -5987 -5883 0
-5 -5987 -5884 0
-6 -5987 -5885 0
-7 -5987 -5886 0
-8 -5987 -5887 0
-5987 -9 -5881 0
-10 -5987 -5882 0
-11 -5987 -5883 0
-12 -5987 -5884 0
-13 -5987 -5885 0
-14 -5987 -5886 0
-15 -5987 -5887 0
-16 -5987 -5882 0
-17 -5987 -5883 0
-18 -5987 -5884 0
-19 -5987 -5885 0
-20 -5987 -5886 0
-21 -5987 -5887 0
-22 -5987 -5883 0
-23 -5987 -5884 0
-24 -5987 -5885 0
-25 -5987 -5886 0
-26 -5987 -5887 0
-27 -5987 -5884 0
-28 -5987 -5885 0
-29 -5987 -5886 0
-30 -5987 -5887 0
-31 -5987 -5885 0
-32 -5987 -5886 0
-33 -5987 -5887 0
-34 -5987 -5886 0
-35 -5987 -5887 0
-36 -5987 -5887 0
397 5888 -5879 0
-5889 5987 5880 0
5890 399 -5881 0
-45 -5988 5889 0
-46 -5988 5889 0
-47 -5988 5889 0
-48 -5988 5889 0
-49 -5988 5889 0
-50 -5988 5889 0
-51 -5988 5889 0
5897 -5888 406 0
5898 -5889 407 0
-5898 407 5889 0
5988 -5898 5889 0
5899 408 -5890 0
-81 -5989 5898 0
-82 -5989 5898 0
-83 -5989 5898 0
-84 -5989 5898 0
-85 -5989 5898 0
-86 -5989 5898 0
-87 -5989 5898 0
5906 -5897 415 0
-5907 5898 416 0
5989 -5907 5898 0
5908 417 -5899 0
-117 -5990 5907 0
-118 -5990 5907 0
-119 -5990 5907 0
-120 -5990 5907 0
-121 -5990 5907 0
-122 -5990 5907 0
-123 -5990 5907 0
5915 -5906 424 0
-5916 5907 425 0
5990 -5916 5907 0
5917 426 -5908 0
-426 -5917 -5990 -5908 0
-153 -5991 5916 0
5991 -153 -5916 5917 0
-154 -5991 5916 0
-155 -5991 5916 0
-156 -5991 5916 0
-157 -5991 5916 0
-158 -5991 5916 0
-159 -5991 5916 0
5924 -5915 433 0
-5925 5916 434 0
5991 -5925 5916 0
-5991 -5916 -5925 -434 0
5926 435 -5917 0
-5926 5917 435 0
-435 -5926 -5991 -5917 0
-189 -5992 5925 0
5992 -189 -5925 5926 0
-190 -5992 5925 0
-191 -5992 5925 0
-192 -5992 5925 0
-193 -5992 5925 0
-194 -5992 5925 0
-195 -5992 5925 0
5933 -5924 442 0
-5934 5925 443 0
5992 -5934 5925 0
-443 -5925 -5992 -5934 0
5935 444 -5926 0
5993 -217 -5933 5934 0
-225 -5993 5934 0
-226 -5993 5934 0
-227 -5993 5934 0
-228 -5993 5934 0
-229 -5993 5934 0
-230 -5993 5934 0
-231 -5993 5934 0
5942 -5933 451 0
-451 -5942 -5933 -5993 0
-5943 5934 452 0
5993 -5943 5934 0
-5993 -452 5943 5934 0
-453 -5944 -5993 -5935 0
5942 -253 -5994 0
-261 -5994 5943 0
5944 5994 -5943 -261 0
-262 -5994 5943 0
-263 -5994 5943 0
-264 -5994 5943 0
-265 -5994 5943 0
-266 -5994 5943 0
-267 -5994 5943 0
5951 -5942 460 0
-5952 5943 461 0
5994 -5952 5943 0
-461 -5943 -5994 -5952 0
-297 -5995 5952 0
-5995 5952 -298 0
-5995 5952 -299 0
-5995 5952 -300 0
-5995 5952 -301 0
-5995 5952 -302 0
-5995 5952 -303 0
5960 -5951 469 0
470 5952 -5961 0
5995 -5961 5952 0
5960 -325 -5996 0
-333 5961 -5996 0
-334 5961 -5996 0
-335 5961 -5996 0
-336 5961 -5996 0
-337 5961 -5996 0
-338 5961 -5996 0
-339 5961 -5996 0
478 -5960 5969 0
5996 5969 -5960 0
479 -5970 5961 0
5996 5961 -5970 0
-369 -5997 5970 0
-370 -5997 5970 0
-371 -5997 5970 0
-372 -5997 5970 0
-373 -5997 5970 0
-374 -5997 5970 0
-375 -5997 5970 0
5997 -5969 5978 0
5970 488 -5979 0
5970 5997 -5979 0
-5970 -5997 -488 -5979 0
8674 -397 5641 0
-399 8674 5643 0
-406 8675 5650 0
5651 8675 -407 0
-408 8675 5652 0
-415 5659 8676 0
5660 8676 -416 0
-417 8676 5661 0
-424 5668 8677 0
5669 8677 -425 0
-426 8677 5670 0
-433 5677 8678 0
5678 8678 -434 0
-435 8678 5679 0
-442 5686 8679 0
5687 8679 -443 0
-444 8679 5688 0
-451 5695 8680 0
5696 8680 -452 0
-453 8680 5697 0
-460 5704 8681 0
5705 8681 -461 0
-462 8681 5706 0
-469 8682 5713 0
5714 8682 -470 0
8682 -471 5715 0
8683 5722 -478 0
5723 8683 -479 0
-480 8683 5724 0
8684 -487 5731 0
8684 5732 -488 0
8684 -489 5733 0
8685 -8674 0
8686 -8685 0
-8675 8687 -8685 0
-8687 8688 0
-8687 -8676 0
-8675 8686 0
8689 -8686 0
-8676 8688 -8686 0
-8688 8690 0
-8688 -8677 0
-8676 8689 0
8691 -8689 0
-8677 8690 -8689 0
-8690 8692 0
-8690 -8678 0
-8677 8691 0
8693 -8691 0
-8678 8692 -8691 0
-8692 8694 0
-8679 -8692 0
-8678 8693 0
8695 -8693 0
-8679 8694 -8693 0
-8694 8696 0
-8680 -8694 0
-8679 8695 0
8697 -8695 0
-8680 8696 -8695 0
-8696 8698 0
-8681 -8696 0
-8680 8697 0
8699 -8697 0
-8681 8698 -8697 0
-8698 8700 0
-8698 -8682 0
-8681 8699 0
8701 -8699 0
8700 -8682 -8699 0
-8700 8702 0
-8700 -8683 0
8701 -8682 0
8702 -8683 -8701 0
-8702 -8684 0
8703 -399 5762 0
-408 8704 5771 0
-417 5780 8705 0
-426 5789 8706 0
-435 5798 8707 0
5806 -443 8708 0
-444 5807 8708 0
-453 5816 8709 0
-462 5825 8710 0
8711 -471 5834 0
5835 -472 8711 0
5836 -473 8711 0
5837 -474 8711 0
5838 -475 8711 0
5839 -476 8711 0
5840 -477 8711 0
8712 -479 5842 0
-8703 8714 0
-8714 8715 0
-8704 8715 0
-8715 8718 0
-8705 8718 0
-8718 8720 0
-8706 8720 0
-8720 8722 0
-8707 -8720 8721 0
-8721 -8708 0
-8707 8722 0
-8722 8724 0
-8708 8724 0
-8724 8726 0
-8709 8726 0
-8726 8728 0
-8710 8728 0
-8711 -8728 8729 0
-8729 -8712 0
8732 -397 0
8732 -398 0
-406 8733 0
-407 8733 0
-415 8734 0
-416 8734 0
-424 8735 0
-425 8735 0
-433 8736 0
-434 8736 0
-442 8737 0
-443 8737 0
-451 8738 0
-452 8738 0
-460 8739 0
-461 8739 0
-469 8740 0
8740 -470 0
8741 -478 0
8741 -479 0
-487 8742 0
8742 -488 0
8743 -8732 0
8744 -8743 0
-8733 8745 -8743 0
-8745 8746 0
-8745 -8734 8747 0
-8747 8748 0
-8747 -8735 0
-8733 8744 0
8749 -8744 0
-8734 8746 -8744 0
-8746 8750 0
-8746 -8735 8748 0
-8748 8751 0
-8748 -8736 0
-8734 8749 0
8752 -8749 0
-8735 8750 -8749 0
-8750 8753 0
-8750 -8736 8751 0
-8751 8754 0
-8751 -8737 0
-8735 8752 0
8755 -8752 0
-8736 8753 -8752 0
-8753 8756 0
-8753 -8737 8754 0
-8754 8757 0
-8754 -8738 0
-8736 8755 0
8758 -8755 0
-8737 8756 -8755 0
-8756 8759 0
-8756 -8738 8757 0
-8757 8760 0
-8757 -8739 0
-8737 8758 0
8761 -8758 0
-8738 8759 -8758 0
-8759 8762 0
-8759 -8739 8760 0
-8760 8763 0
-8760 -8740 0
-8738 8761 0
8764 -8761 0
-8739 8762 -8761 0
-8762 8765 0
-8762 8763 -8740 0
-8763 8766 0
-8763 -8741 0
-8739 8764 0
8765 -8740 -8764 0
-8765 -8741 8766 0
-8766 -8742 0
8802 -397 0
-406 8803 0
-415 8804 0
-424 8805 0
-433 8806 0
-442 8807 0
-451 8808 0
-460 8809 0
-469 8810 0
8811 -478 0
8812 -487 0
8813 -8802 0
8814 -8813 0
-8803 8815 -8813 0
-8815 8816 0
-8815 -8804 0
-8803 8814 0
8817 -8814 0
-8804 8816 -8814 0
-8816 8818 0
-8805 -8816 0
-8804 8817 0
8819 -8817 0
-8805 8818 -8817 0
-8818 8820 0
-8805 8819 0
8821 -8819 0
-8806 8820 -8819 0
-8820 8822 0
-8806 8821 0
8823 -8821 0
-8807 8822 -8821 0
-8822 8824 0
-8807 8823 0
8825 -8823 0
-8808 8824 -8823 0
-8824 8826 0
-8808 8825 0
8827 -8825 0
-8809 8826 -8825 0
-8826 8828 0
-8826 -8810 0
-8809 8827 0
8829 -8827 0
-8810 8828 -8827 0
-8828 8830 0
-8828 -8811 0
-8810 8829 0
8830 -8811 -8829 0
-8830 -8812 0
-39 -9 0
-40 -9 0
-41 -9 0
-42 -9 0
-43 -9 0
-44 -9 0
-16 -37 0
-17 -37 0
-18 -37 0
-19 -37 0
-20 -37 0
-21 -37 0
-22 -37 0
-22 -45 0
-23 -37 0
-23 -45 0
-24 -37 0
-24 -45 0
-25 -37 0
-25 -45 0
-26 -37 0
-26 -45 0
-37 -27 0
-45 -27 0
-37 -28 0
-45 -28 0
-29 -37 0
-29 -45 0
-30 -37 0
-30 -45 0
-31 -37 0
-31 -45 0
-32 -37 0
-32 -45 0
-33 -37 0
-33 -45 0
-34 -37 0
-34 -45 0
-35 -37 0
-35 -45 0
-36 -37 0
-36 -45 0
-52 -73 0
-53 -73 0
-54 -73 0
-55 -73 0
-56 -73 0
-57 -73 0
-58 -73 0
-58 -81 0
-59 -73 0
-59 -81 0
-60 -73 0
-60 -81 0
-61 -73 0
-61 -81 0
-62 -73 0
-62 -81 0
-63 -73 0
-63 -81 0
-64 -73 0
-64 -81 0
-65 -73 0
-65 -81 0
-66 -73 0
-66 -81 0
-67 -73 0
-67 -81 0
-68 -73 0
-68 -81 0
-69 -73 0
-69 -81 0
-70 -73 0
-70 -81 0
-71 -73 0
-71 -81 0
-72 -73 0
-72 -81 0
-111 -81 0
-112 -81 0
-113 -81 0
-114 -81 0
-115 -81 0
-116 -81 0
-88 -109 0
-89 -109 0
-90 -109 0
-91 -109 0
-92 -109 0
-93 -109 0
-94 -109 0
-94 -117 0
-95 -109 0
-95 -117 0
-96 -109 0
-96 -117 0
-97 -109 0
-97 -117 0
-98 -109 0
-98 -117 0
-99 -109 0
-99 -117 0
-100 -109 0
-100 -117 0
-101 -109 0
-101 -117 0
-102 -109 0
-102 -117 0
-103 -109 0
-103 -117 0
-104 -109 0
-104 -117 0
-105 -109 0
-105 -117 0
-106 -109 0
-106 -117 0
-107 -109 0
-107 -117 0
-108 -109 0
-108 -117 0
-124 -145 0
-125 -145 0
-126 -145 0
-127 -145 0
-128 -145 0
-129 -145 0
-130 -145 0
-130 -153 0
-131 -145 0
-131 -153 0
-132 -145 0
-132 -153 0
-133 -145 0
-133 -153 0
-134 -145 0
-134 -153 0
-135 -145 0
-135 -153 0
-136 -145 0
-136 -153 0
-137 -145 0
-137 -153 0
-138 -145 0
-138 -153 0
-139 -145 0
-139 -153 0
-140 -145 0
-140 -153 0
-141 -145 0
-141 -153 0
-142 -145 0
-142 -153 0
-143 -145 0
-143 -153 0
-144 -145 0
-144 -153 0
-160 -181 0
-161 -181 0
-162 -181 0
-163 -181 0
-164 -181 0
-165 -181 0
-166 -181 0
-167 -181 0
-168 -181 0
-169 -181 0
-170 -181 0
-171 -181 0
-172 -181 0
-173 -181 0
-174 -181 0
-175 -181 0
-176 -181 0
-177 -181 0
-178 -181 0
-179 -181 0
-180 -181 0
-196 -217 0
-197 -217 0
-198 -217 0
-199 -217 0
-200 -217 0
-201 -217 0
-202 -217 0
-202 -225 0
-203 -217 0
-203 -225 0
-204 -217 0
-204 -225 0
-205 -217 0
-205 -225 0
-206 -217 0
-206 -225 0
-207 -217 0
-207 -225 0
-208 -217 0
-208 -225 0
-209 -217 0
-209 -225 0
-210 -217 0
-210 -225 0
-211 -217 0
-211 -225 0
-212 -217 0
-212 -225 0
-213 -217 0
-213 -225 0
-214 -217 0
-214 -225 0
-215 -217 0
-215 -225 0
-216 -217 0
-216 -225 0
-232 -253 0
-233 -253 0
-234 -253 0
-235 -253 0
-236 -253 0
-237 -253 0
-238 -253 0
-238 -261 0
-239 -253 0
-239 -261 0
-240 -253 0
-240 -261 0
-241 -253 0
-241 -261 0
-242 -253 0
-242 -261 0
-243 -253 0
-243 -261 0
-244 -253 0
-244 -261 0
-245 -253 0
-245 -261 0
-246 -253 0
-246 -261 0
-247 -253 0
-247 -261 0
-248 -253 0
-248 -261 0
-249 -253 0
-249 -261 0
-250 -253 0
-250 -261 0
-251 -253 0
-251 -261 0
-252 -253 0
-252 -261 0
-268 -289 0
-269 -289 0
-270 -289 0
-271 -289 0
-272 -289 0
-273 -289 0
-274 -289 0
-274 -297 0
-275 -289 0
-275 -297 0
-276 -289 0
-276 -297 0
-277 -289 0
-277 -297 0
-278 -289 0
-278 -297 0
-279 -289 0
-279 -297 0
-280 -289 0
-280 -297 0
-281 -289 0
-281 -297 0
-282 -289 0
-282 -297 0
-283 -289 0
-283 -297 0
-284 -289 0
-284 -297 0
-285 -289 0
-285 -297 0
-286 -289 0
-286 -297 0
-287 -289 0
-287 -297 0
-288 -289 0
-288 -297 0
-304 -325 0
-305 -325 0
-306 -325 0
-307 -325 0
-308 -325 0
-309 -325 0
-310 -325 0
-310 -333 0
-311 -325 0
-311 -333 0
-312 -325 0
-312 -333 0
-313 -325 0
-313 -333 0
-314 -325 0
-314 -333 0
-315 -325 0
-315 -333 0
-316 -325 0
-316 -333 0
-317 -325 0
-317 -333 0
-318 -325 0
-318 -333 0
-319 -325 0
-319 -333 0
-320 -325 0
-320 -333 0
-321 -325 0
-321 -333 0
-322 -325 0
-322 -333 0
-323 -325 0
-323 -333 0
-324 -325 0
-324 -333 0
