p cnf 9683 2874
16 1 6 9 5 21 26 17 15 10 11 12 13 14 2 4 7 8 18 19 20 3 22 23 24 25 27 28 29 30 31 32 33 34 35 36 0
397 -1 0
397 -2 0
397 -3 0
397 -4 0
397 -5 0
397 -6 0
397 -7 0
397 -8 0
2 1 -397 8 5 3 4 6 7 0
398 -1 0
398 -9 0
398 -10 0
398 -11 0
398 -12 0
398 -13 0
398 -14 0
398 -15 0
-398 1 14 15 9 10 11 12 13 0
399 -16 0
-399 20 16 21 2 9 17 18 19 0
400 -3 0
400 -16 0
-400 16 3 10 22 26 23 24 25 0
-401 4 27 11 17 22 28 29 30 0
-402 12 27 5 18 23 31 32 33 0
-403 13 28 6 19 24 31 34 35 0
-404 14 29 7 20 25 32 34 36 0
-405 15 21 8 30 26 33 35 36 0
63 64 58 39 59 52 38 43 44 41 37 46 47 48 49 42 40 50 51 45 53 54 55 60 61 62 56 57 65 66 67 68 69 70 71 72 0
-37 531 0
-531 532 0
-38 -531 0
-532 533 0
-532 -39 0
-533 534 0
-40 -533 0
-534 535 0
-41 -534 0
-535 536 0
-536 537 0
-537 538 0
-538 539 0
-539 540 0
-540 541 0
-541 542 0
-542 543 0
-543 544 0
-544 545 0
-545 -52 0
-37 406 0
-38 406 0
-39 406 0
-40 406 0
-41 406 0
-42 406 0
-43 406 0
-44 406 0
-406 39 41 37 38 40 42 43 44 0
-37 407 0
-45 407 0
-46 407 0
-47 407 0
-48 407 0
-49 407 0
-50 407 0
-51 407 0
-407 48 45 37 47 46 49 50 51 0
-38 408 0
-52 408 0
52 53 -408 38 45 57 54 55 56 0
-39 409 0
-46 409 0
409 -52 0
-58 409 0
-59 409 0
-60 409 0
-61 409 0
-62 409 0
62 -409 39 52 46 58 59 60 61 0
-410 63 40 53 47 58 66 64 65 0
-411 69 41 48 54 59 63 67 68 0
-412 71 42 49 60 64 67 55 70 0
-413 72 43 50 61 68 65 70 56 0
-414 66 62 44 51 57 69 71 72 0
99 100 88 77 78 73 74 79 80 82 75 94 83 84 85 81 86 95 87 76 91 89 90 96 97 98 92 93 101 102 103 104 105 106 107 108 0
-73 566 0
-566 567 0
-567 568 0
-75 -567 0
-568 569 0
-76 -568 0
-569 570 0
-570 571 0
-571 572 0
-572 573 0
-573 574 0
-574 575 0
-575 576 0
-576 577 0
-577 578 0
-578 579 0
-579 580 0
581 -580 0
-580 -88 0
582 -581 0
583 -582 0
584 -583 0
585 -584 0
586 -585 0
587 -586 0
-94 -586 0
588 -587 0
-95 -587 0
589 -588 0
-96 -588 0
590 -589 0
-97 -589 0
-98 -590 0
-73 415 0
-74 415 0
-75 415 0
-76 415 0
-77 415 0
-78 415 0
-79 415 0
-80 415 0
-415 80 74 79 73 78 77 76 75 0
-73 416 0
-81 416 0
-82 416 0
-83 416 0
-84 416 0
-85 416 0
-86 416 0
-87 416 0
-416 86 81 73 85 82 87 84 83 0
-74 417 0
-81 417 0
-88 417 0
93 -417 74 88 81 90 89 92 91 0
-75 418 0
-82 418 0
96 -418 82 88 75 95 94 98 97 0
419 -76 0
-419 101 76 83 89 94 100 99 102 0
420 -77 0
-420 103 77 84 90 95 99 104 105 0
421 -78 0
-421 103 78 85 91 96 100 106 107 0
422 -79 0
-422 104 79 86 92 97 101 106 108 0
423 -80 0
-423 102 80 87 93 98 105 107 108 0
109 116 136 135 114 118 117 120 119 113 111 112 121 122 123 115 110 124 125 126 127 128 129 132 133 134 130 131 137 138 139 140 141 142 143 144 0
-109 601 0
-601 602 0
-602 603 0
-111 -602 0
-603 604 0
-604 605 0
-605 606 0
-606 607 0
-607 608 0
-608 609 0
-609 610 0
-610 611 0
-611 612 0
-612 613 0
-613 614 0
-614 615 0
-615 616 0
-615 -124 0
617 -616 0
618 -617 0
619 -618 0
620 -619 0
621 -620 0
622 -621 0
-130 -621 0
623 -622 0
-131 -622 0
624 -623 0
-132 -623 0
625 -624 0
-133 -624 0
-625 -134 0
-109 424 0
-110 424 0
-111 424 0
-112 424 0
-113 424 0
-114 424 0
-115 424 0
-116 424 0
-424 111 110 109 113 112 114 115 116 0
-109 425 0
-117 425 0
-118 425 0
-119 425 0
-120 425 0
-121 425 0
-122 425 0
-123 425 0
-425 123 118 109 121 119 117 120 122 0
-117 426 0
-124 426 0
124 129 -426 117 110 126 125 128 127 0
-111 427 0
-118 427 0
-124 427 0
-130 427 0
-131 427 0
-132 427 0
-133 427 0
-134 427 0
134 111 -427 118 124 133 130 131 132 0
171 172 160 146 162 161 151 150 166 154 155 156 157 158 159 152 147 149 163 164 165 169 167 168 153 170 145 148 173 174 175 176 177 178 179 180 0
-145 636 0
-636 637 0
-146 -636 0
-637 638 0
-147 -637 0
-638 639 0
-639 640 0
-640 641 0
-641 642 0
-642 643 0
-643 644 0
-153 -643 0
-153 644 0
-644 645 0
-154 645 0
-645 646 0
-155 646 0
-646 647 0
-156 647 0
-647 648 0
-157 648 0
-648 649 0
-158 649 0
-649 650 0
-159 650 0
-650 651 0
-650 -160 0
652 -651 0
-161 -651 0
653 -652 0
-162 -652 0
654 -653 0
-163 -653 0
655 -654 0
-164 -654 0
656 -655 0
-165 -655 0
657 -656 0
-166 -656 0
658 -657 0
-167 -657 0
659 -658 0
-168 -658 0
660 -659 0
-659 -169 0
-170 -660 0
-145 433 0
-146 433 0
-147 433 0
-148 433 0
-149 433 0
-150 433 0
-151 433 0
-152 433 0
-433 148 146 145 151 150 152 149 147 0
-145 434 0
-153 434 0
-154 434 0
-155 434 0
-156 434 0
-157 434 0
-158 434 0
-159 434 0
-434 145 155 153 159 158 156 157 154 0
-146 435 0
-160 435 0
160 161 -435 146 153 165 162 164 163 0
-147 436 0
-154 436 0
436 -160 0
-166 436 0
-167 436 0
-168 436 0
-169 436 0
-170 436 0
169 147 -436 154 160 168 166 170 167 0
437 -148 0
437 -166 0
438 -149 0
438 -167 0
439 -150 0
439 -168 0
440 -151 0
440 -169 0
441 -152 0
441 -170 0
207 208 190 189 182 191 187 188 185 183 181 192 193 194 195 196 197 184 202 198 199 186 203 204 205 206 200 201 209 210 211 212 213 214 215 216 0
-181 671 0
-671 672 0
-182 -671 0
-182 672 0
-672 673 0
-183 -672 0
-183 673 0
-673 674 0
-184 674 0
-674 675 0
-185 675 0
-675 676 0
-186 676 0
-676 677 0
-187 677 0
-677 678 0
-188 678 0
-678 679 0
-678 -189 0
-679 680 0
-190 -679 0
-680 681 0
-191 -680 0
-681 682 0
-192 -681 0
-682 683 0
-193 -682 0
-683 684 0
-194 -683 0
-684 685 0
-195 -684 0
-685 686 0
-685 -196 0
-686 687 0
-197 -686 0
688 -687 0
-687 -198 0
689 -688 0
-199 -688 0
690 -689 0
-200 -689 0
691 -690 0
-201 -690 0
692 -691 0
-202 -691 0
693 -692 0
-203 -692 0
694 -693 0
-204 -693 0
695 -694 0
-205 -694 0
-206 -695 0
-181 442 0
-182 442 0
-183 442 0
-184 442 0
-185 442 0
-186 442 0
-187 442 0
-188 442 0
-442 181 182 183 187 185 186 184 188 0
-181 443 0
-189 443 0
-190 443 0
-191 443 0
-192 443 0
-193 443 0
-194 443 0
-195 443 0
-443 195 189 181 190 194 193 192 191 0
-189 444 0
-196 444 0
182 -444 189 198 197 196 201 199 200 0
-183 445 0
-190 445 0
-196 445 0
-202 445 0
-203 445 0
-204 445 0
-205 445 0
-206 445 0
204 -445 183 196 190 202 206 203 205 0
243 244 222 223 219 217 227 232 225 220 226 228 229 230 231 224 218 221 233 234 235 238 239 240 241 242 236 237 245 246 247 248 249 250 251 252 0
-217 706 0
-706 707 0
-218 -706 0
-707 708 0
-707 -219 0
-219 708 0
-708 709 0
-709 710 0
-710 711 0
-711 712 0
-712 713 0
-713 714 0
-713 -225 0
-714 715 0
-714 -226 0
-715 716 0
-715 -227 0
-716 717 0
-228 -716 0
-717 718 0
-229 -717 0
-718 719 0
-718 -230 0
-719 720 0
-231 -719 0
-720 721 0
-720 -232 0
-721 722 0
-233 -721 0
-722 723 0
-234 -722 0
-723 724 0
-235 -723 0
-724 725 0
-236 -724 0
-725 726 0
-237 -725 0
727 -726 0
-726 -238 0
728 -727 0
-239 -727 0
729 -728 0
-240 -728 0
730 -729 0
-241 -729 0
-242 -730 0
-217 451 0
-218 451 0
-219 451 0
-220 451 0
-221 451 0
-222 451 0
-223 451 0
-224 451 0
-451 220 219 217 218 221 222 223 224 0
-217 452 0
-225 452 0
-226 452 0
-227 452 0
-228 452 0
-229 452 0
-230 452 0
-231 452 0
-452 231 225 226 217 230 227 228 229 0
-232 453 0
233 -453 218 225 232 237 234 235 236 0
-219 454 0
-232 454 0
-238 454 0
-239 454 0
-240 454 0
-241 454 0
-242 454 0
238 -454 226 219 232 242 239 240 241 0
455 -238 0
456 -239 0
457 -240 0
458 -241 0
459 -242 0
279 280 269 270 253 258 260 268 261 266 256 264 265 257 267 254 255 259 271 272 273 262 263 276 277 278 274 275 281 282 283 284 285 286 287 288 0
-253 741 0
-741 742 0
-254 -741 0
-742 743 0
-255 -742 0
-743 744 0
-744 745 0
-745 746 0
-746 747 0
-747 748 0
-748 749 0
-748 -261 0
-749 750 0
-750 751 0
-751 752 0
-752 753 0
-753 754 0
-754 755 0
-755 756 0
-755 -268 0
757 -756 0
-269 -756 0
-757 758 0
-270 -757 0
-758 759 0
-271 -758 0
-759 760 0
-272 -759 0
-760 -273 0
-253 460 0
-254 460 0
-255 460 0
-256 460 0
-257 460 0
-258 460 0
-259 460 0
-260 460 0
-460 255 254 253 256 257 258 259 260 0
-253 461 0
-261 461 0
-262 461 0
-263 461 0
-264 461 0
-265 461 0
-266 461 0
-267 461 0
-461 253 262 261 266 263 265 264 267 0
-261 462 0
-268 462 0
-269 462 0
-270 462 0
-271 462 0
-272 462 0
-273 462 0
269 -462 261 254 273 272 270 268 271 0
-255 463 0
-268 463 0
-274 463 0
-275 463 0
-276 463 0
-277 463 0
-278 463 0
262 -463 268 255 277 275 274 276 278 0
303 302 306 297 298 289 290 304 291 305 294 295 299 300 301 296 293 292 307 308 309 310 311 312 313 314 315 316 317 318 319 320 321 322 323 324 0
-289 776 0
-776 777 0
-776 -290 0
-290 777 0
778 -777 0
-777 -291 0
779 -778 0
780 -779 0
781 -780 0
782 -781 0
783 -782 0
784 -783 0
785 -784 0
-298 -784 0
786 -785 0
787 -786 0
788 -787 0
789 -788 0
790 -789 0
791 -790 0
-304 -790 0
792 -791 0
-305 -791 0
793 -792 0
-306 -792 0
794 -793 0
-307 -793 0
795 -794 0
-308 -794 0
796 -795 0
-309 -795 0
-310 -796 0
-289 469 0
469 -290 0
469 -291 0
-292 469 0
-293 469 0
-294 469 0
-295 469 0
-296 469 0
293 -469 291 290 292 289 294 295 296 0
-289 470 0
-297 470 0
-298 470 0
-299 470 0
-300 470 0
-301 470 0
-302 470 0
-303 470 0
-470 303 297 289 299 300 298 302 301 0
-297 471 0
-304 471 0
-305 471 0
-306 471 0
-307 471 0
-308 471 0
-309 471 0
-471 309 290 297 304 308 307 306 305 0
-291 472 0
-298 472 0
-304 472 0
-310 472 0
-311 472 0
-312 472 0
-313 472 0
-314 472 0
291 298 -472 313 304 310 311 312 314 0
346 340 325 333 326 327 341 330 329 334 332 336 335 338 337 331 339 328 343 344 345 342 347 348 349 350 351 352 353 354 355 356 357 358 359 360 0
-325 811 0
-811 812 0
-811 -326 0
-326 812 0
-812 813 0
-327 -812 0
-813 814 0
-814 815 0
-815 816 0
-816 817 0
-817 818 0
-818 819 0
-819 820 0
-820 821 0
-335 -820 0
-821 822 0
-336 -821 0
823 -822 0
-822 -337 0
824 -823 0
-338 -823 0
825 -824 0
-339 -824 0
826 -825 0
-340 -825 0
827 -826 0
-341 -826 0
828 -827 0
-342 -827 0
829 -828 0
-343 -828 0
830 -829 0
-344 -829 0
831 -830 0
-345 -830 0
832 -831 0
-346 -831 0
833 -832 0
-347 -832 0
-348 -833 0
478 -325 0
478 -326 0
-327 478 0
-328 478 0
-329 478 0
-330 478 0
-331 478 0
-332 478 0
327 -478 325 326 328 329 330 331 332 0
-325 479 0
479 -333 0
-334 479 0
-335 479 0
-336 479 0
-337 479 0
-338 479 0
-339 479 0
337 338 325 -479 333 334 335 336 339 0
-340 480 0
-480 345 333 326 340 343 342 341 344 0
-327 481 0
-340 481 0
-346 481 0
-347 481 0
-348 481 0
-349 481 0
-350 481 0
-481 350 327 334 340 346 347 348 349 0
846 -361 0
847 -846 0
-362 -846 0
-363 -847 0
-362 487 0
-363 487 0
-361 488 0
-369 488 0
-370 488 0
371 372 -488 361 369 374 373 370 375 0
-376 489 0
377 376 369 362 -489 378 379 380 381 0
385 363 -490 376 370 383 382 384 386 0
-1119 0
1121 0
-1122 0
-1 -1227 1119 0
1227 -16 1122 -1121 0
2428 0
-2429 0
2431 0
2536 -1 2429 -2428 0
-3 -2536 -2431 0
-2437 -2536 -397 -2428 0
2438 -398 -2536 2429 0
-2446 406 2437 0
2447 407 -2438 0
-2455 2446 415 0
2456 -2447 416 0
-2464 2455 424 0
2465 -2456 425 0
-2473 2464 433 0
2474 -2465 434 0
-2482 2473 442 0
3978 0
3987 400 -3978 0
3996 409 -3987 0
4005 -3996 418 0
4014 427 -4005 0
4023 -4014 436 0
4032 -4023 445 0
4041 -4032 454 0
4050 -4041 463 0
4059 -4050 472 0
5284 0
-5383 0
5285 0
5384 0
5286 0
5287 0
5386 0
5288 0
5290 0
5291 0
5292 0
-5392 -1 -5285 0
-5392 -2 -5286 0
-5392 -4 -5288 0
-5392 -6 -5290 0
-5392 -7 -5291 0
-5392 -8 -5292 0
-5392 -16 -5287 0
397 5293 -5284 0
5293 5392 -5284 0
5294 398 -5285 0
400 5296 -5287 0
5296 5392 -5287 0
-5393 -37 -5294 0
-5393 -39 -5296 0
5302 406 -5293 0
5302 5393 -5293 0
5303 407 -5294 0
5305 409 -5296 0
-5394 -73 -5303 0
-75 -5394 -5305 0
-5394 -88 -5305 0
5311 -5302 415 0
5394 5311 -5302 0
5312 -5303 416 0
5314 -5305 418 0
5394 5314 -5305 0
-5395 -109 -5312 0
-111 -5395 -5314 0
5320 -5311 424 0
5395 5320 -5311 0
5321 425 -5312 0
5321 5395 -5312 0
5323 427 -5314 0
-5396 -145 -5321 0
5329 -5320 433 0
5329 -5320 5396 0
5330 -5321 434 0
5321 -5330 434 0
5332 -5323 436 0
-5332 5323 436 0
5338 -5329 442 0
5339 -5330 443 0
5330 -5339 443 0
5341 -5332 445 0
5332 -5341 445 0
5347 -5338 451 0
5348 -5339 452 0
5339 -5348 452 0
5350 -5341 454 0
5341 -5350 454 0
5356 -5347 460 0
5357 -5348 461 0
5348 -5357 461 0
5359 -5350 463 0
5350 -5359 463 0
5365 -5356 469 0
5400 5365 -5356 0
5366 -5357 470 0
5357 -5366 470 0
5359 472 -5368 0
-472 -5359 -5368 -5400 0
-5366 -5401 -325 0
-5401 5366 -333 0
-334 -5401 5366 0
-335 -5401 5366 0
-336 -5401 5366 0
-5401 5366 -337 0
-338 -5401 5366 0
-339 -5401 5366 0
-5365 478 5374 0
5401 -5365 5374 0
5401 -5366 5375 0
5366 5401 -5375 0
-5375 -5366 -479 -5401 0
5368 5401 -5377 0
487 -5374 5383 0
488 5375 -5384 0
-5375 -5402 -488 -5384 0
5377 490 -5386 0
5402 5377 -5386 0
5998 0
-6097 0
-5999 0
-6098 0
6000 0
6099 0
-6001 0
6100 0
6002 0
6003 0
6004 0
6005 0
6006 0
6106 -1 5999 -5998 0
-2 -6106 -6000 0
6106 -3 6001 -5998 0
-4 -6106 -6002 0
-5 -6106 -6003 0
-6 -6106 -6004 0
-7 -6106 -6005 0
-8 -6106 -6006 0
-9 -6106 5999 0
-10 -6106 5999 0
-11 -6106 5999 0
-12 -6106 5999 0
-13 -6106 5999 0
-14 -6106 5999 0
-15 -6106 5999 0
6106 -16 6001 -6000 0
-17 -6106 -6002 0
-18 -6106 -6003 0
-19 -6106 -6004 0
-20 -6106 -6005 0
-21 -6106 -6006 0
-22 -6106 -6002 0
-23 -6106 -6003 0
-24 -6106 -6004 0
-25 -6106 -6005 0
-26 -6106 -6006 0
-27 -6106 -6003 0
-28 -6106 -6004 0
-29 -6106 -6005 0
-30 -6106 -6006 0
-31 -6106 -6004 0
-32 -6106 -6005 0
-33 -6106 -6006 0
-34 -6106 -6005 0
-35 -6106 -6006 0
-36 -6106 -6006 0
397 6007 -5998 0
6106 6007 -5998 0
-6007 -397 -6106 -5998 0
-6008 398 5999 0
6106 -6008 5999 0
6008 -398 -6106 5999 0
6009 399 -6000 0
6106 6009 -6000 0
-6009 -399 -6106 -6000 0
-6010 400 6001 0
6106 -6010 6001 0
6011 401 -6002 0
6106 6011 -6002 0
6012 402 -6003 0
6106 6012 -6003 0
6013 403 -6004 0
6106 6013 -6004 0
6014 404 -6005 0
6106 6014 -6005 0
6015 405 -6006 0
6106 6015 -6006 0
-37 -6107 6007 0
-37 -6107 -6008 0
-37 6107 -6007 6008 0
-38 -6107 6007 0
-38 -6107 -6009 0
-39 -6107 6007 0
-39 6107 -6007 6010 0
-40 -6107 -6011 0
-41 -6107 -6012 0
-42 -6107 -6013 0
-43 -6107 -6014 0
-44 -6107 -6015 0
-45 -6107 6008 0
-45 -6107 -6009 0
-46 -6107 6008 0
-47 -6107 6008 0
-47 -6107 -6011 0
-6107 -48 6008 0
-6107 -48 -6012 0
-49 -6107 6008 0
-49 -6107 -6013 0
-50 -6107 6008 0
-50 -6107 -6014 0
-51 -6107 6008 0
-51 -6107 -6015 0
-53 -6107 -6011 0
-54 -6107 -6012 0
-55 -6107 -6013 0
-56 -6107 -6014 0
-57 -6107 -6015 0
-58 -6107 6010 0
-59 -6107 6010 0
-59 -6107 -6012 0
-60 -6107 6010 0
-60 -6107 -6013 0
-61 -6107 6010 0
-61 -6107 -6014 0
-62 -6107 6010 0
-63 -6107 -6012 0
-64 -6107 -6013 0
-65 -6107 -6014 0
-66 -6107 -6015 0
-67 -6107 -6013 0
-68 -6107 -6014 0
-69 -6107 -6015 0
-70 -6107 -6014 0
-71 -6107 -6015 0
-72 -6107 -6015 0
6016 406 -6007 0
-6016 406 6007 0
6016 6107 -6007 0
6107 -6016 6007 0
6016 -6107 6007 -406 0
-406 -6016 -6007 -6107 0
6017 407 -6008 0
-6017 407 6008 0
6017 6107 -6008 0
-6017 6107 6008 0
-6107 -407 6017 6008 0
6018 408 -6009 0
-6018 408 6009 0
6018 6107 -6009 0
-6107 -6018 -408 -6009 0
-6019 409 6010 0
-6019 6107 6010 0
6020 410 -6011 0
6020 6107 -6011 0
6021 411 -6012 0
6021 6107 -6012 0
6022 412 -6013 0
6022 6107 -6013 0
6023 413 -6014 0
6023 6107 -6014 0
6024 414 -6015 0
6024 6107 -6015 0
6016 -73 -6108 0
-73 -6016 6108 6017 0
-74 6016 -6108 0
-74 -6018 -6108 0
-75 6016 -6108 0
-76 6016 -6108 0
-77 6016 -6108 0
-77 -6021 -6108 0
-78 6016 -6108 0
-78 -6022 -6108 0
-79 6016 -6108 0
-79 -6023 -6108 0
-80 6016 -6108 0
-80 -6024 -6108 0
-81 -6108 6017 0
-6018 -81 -6108 0
-82 -6108 6017 0
-83 -6108 6017 0
-83 -6020 -6108 0
-84 -6108 6017 0
-84 -6021 -6108 0
-6108 -85 6017 0
-6022 -6108 -85 0
-86 -6108 6017 0
-86 -6023 -6108 0
-87 -6108 6017 0
-87 -6024 -6108 0
6018 -6108 -88 0
-89 -6020 -6108 0
-90 -6021 -6108 0
-91 -6022 -6108 0
-92 -6023 -6108 0
-93 -6024 -6108 0
-94 -6108 6019 0
-95 -6108 6019 0
-96 -6108 6019 0
-97 -6108 6019 0
-98 -6108 6019 0
-99 -6021 -6108 0
-100 -6022 -6108 0
-101 -6023 -6108 0
-102 -6024 -6108 0
-103 -6022 -6108 0
-104 -6023 -6108 0
-105 -6024 -6108 0
-106 -6023 -6108 0
-107 -6024 -6108 0
-108 -6024 -6108 0
6025 -6016 415 0
6016 -6025 415 0
6025 6108 -6016 0
6016 -6025 6108 0
6025 6016 -415 -6108 0
-415 -6025 -6108 -6016 0
6026 -6017 416 0
-6026 6017 416 0
6108 -6017 6026 0
6108 -6026 6017 0
-6108 -416 6017 6026 0
-6108 -6017 -416 -6026 0
6027 -6018 417 0
6018 417 -6027 0
-6018 -6027 -417 -6108 0
-6028 6019 418 0
6108 -6028 6019 0
6029 419 -6020 0
6030 420 -6021 0
6031 421 -6022 0
6032 422 -6023 0
6033 423 -6024 0
-6109 -109 6025 0
-6109 -109 -6026 0
-109 -6025 6109 6026 0
-110 6025 -6109 0
-110 6027 -6025 6109 0
-111 6025 -6109 0
-112 6025 -6109 0
-113 6025 -6109 0
-114 6025 -6109 0
-115 6025 -6109 0
-116 6025 -6109 0
-117 -6109 6026 0
-118 -6109 6026 0
-118 -6109 -6028 0
-119 -6109 6026 0
-120 -6109 6026 0
-121 -6109 6026 0
-122 -6109 6026 0
-123 -6109 6026 0
6027 -6109 -124 0
-130 -6109 6028 0
-130 -6029 -6109 0
-131 -6109 6028 0
-131 -6030 -6109 0
-132 -6109 6028 0
-132 -6031 -6109 0
-133 -6109 6028 0
-133 -6032 -6109 0
-6109 -134 6028 0
-6033 -6109 -134 0
6034 -6025 424 0
6025 -6034 424 0
6034 -6025 6109 0
6025 -6034 6109 0
6034 -424 6025 -6109 0
-424 -6034 -6109 -6025 0
6035 -6026 425 0
-6035 425 6026 0
-6026 6035 6109 0
-6035 6026 6109 0
-6109 -425 6035 6026 0
-6035 -6026 -6109 -425 0
-6036 6027 426 0
-6109 -6036 -426 -6027 0
-6037 427 6028 0
-6028 6037 6109 0
-6037 6109 6028 0
6034 -145 -6110 0
-145 -6110 -6035 0
-145 -6034 6110 6035 0
-146 6034 -6110 0
-147 6034 -6110 0
-148 6034 -6110 0
-149 6034 -6110 0
-150 6034 -6110 0
-151 6034 -6110 0
-152 6034 -6110 0
-153 -6110 6035 0
-154 -6110 6035 0
-155 -6110 6035 0
-156 -6110 6035 0
-157 -6110 6035 0
-6110 -158 6035 0
-159 -6110 6035 0
6036 -6110 -160 0
-6110 -6037 -160 0
-166 -6110 6037 0
-6038 -166 -6110 0
-167 -6110 6037 0
-6039 -167 -6110 0
-168 -6110 6037 0
-6040 -168 -6110 0
-6110 -169 6037 0
-6041 -6110 -169 0
-170 -6110 6037 0
-6042 -170 -6110 0
6043 -6034 433 0
6034 -6043 433 0
6043 -6034 6110 0
6034 -6043 6110 0
-433 6034 6043 -6110 0
-6034 -433 -6043 -6110 0
6044 -6035 434 0
-6044 6035 434 0
-6044 6110 6035 0
-6110 -434 6044 6035 0
-6044 -6035 -434 -6110 0
-6045 6036 435 0
-6045 -6110 -6036 -435 0
-6046 6037 436 0
6110 -6037 6046 0
-6046 6110 6037 0
-6110 -6037 -436 -6046 0
6043 -181 -6111 0
-6111 -181 -6044 0
6111 -181 -6043 6044 0
-182 6043 -6111 0
-183 6043 -6111 0
-183 -6111 -6046 0
-184 6043 -6111 0
-185 6043 -6111 0
-186 6043 -6111 0
-187 6043 -6111 0
-188 6043 -6111 0
-6111 -189 6044 0
-190 -6111 6044 0
-190 -6046 -6111 0
-191 -6111 6044 0
-192 -6111 6044 0
-193 -6111 6044 0
-194 -6111 6044 0
-195 -6111 6044 0
6045 -6111 -196 0
-197 6045 -6111 0
6045 -6111 -198 0
-199 6045 -6111 0
-200 6045 -6111 0
-201 6045 -6111 0
-202 -6111 6046 0
-203 -6111 6046 0
-204 -6111 6046 0
-205 -6111 6046 0
-206 -6111 6046 0
6052 -6043 442 0
6043 -6052 442 0
6111 6052 -6043 0
6111 6043 -6052 0
-442 6052 -6111 6043 0
-6043 -442 -6111 -6052 0
-6044 6053 443 0
-6053 6044 443 0
6111 -6044 6053 0
6111 -6053 6044 0
-6111 -443 6053 6044 0
-6044 -6053 -443 -6111 0
6045 -6054 444 0
-6045 -6054 -6111 -444 0
-6055 6046 445 0
6111 -6046 6055 0
6111 -6055 6046 0
-6111 -6046 -445 -6055 0
-217 6052 -6112 0
6112 -217 -6052 6053 0
-218 6052 -6112 0
-219 6052 -6112 0
-219 -6112 -6055 0
-220 6052 -6112 0
-221 6052 -6112 0
-222 6052 -6112 0
-223 6052 -6112 0
-224 6052 -6112 0
-6112 -225 6053 0
-226 -6112 6053 0
6112 -226 -6053 6055 0
-227 -6112 6053 0
-228 -6112 6053 0
-229 -6112 6053 0
-6112 -230 6053 0
-231 -6112 6053 0
6054 -6112 -232 0
-6112 -6055 -232 0
-233 6054 -6112 0
-234 6054 -6112 0
-235 6054 -6112 0
-236 6054 -6112 0
-237 6054 -6112 0
-6112 -238 6055 0
-6056 -6112 -238 0
-239 -6112 6055 0
-239 -6057 -6112 0
-240 -6112 6055 0
-240 -6058 -6112 0
-241 -6112 6055 0
-6059 -241 -6112 0
-242 -6112 6055 0
-242 -6060 -6112 0
6061 -6052 451 0
6052 -6061 451 0
6061 6112 -6052 0
6112 6052 -6061 0
6061 6052 -451 -6112 0
-6052 -451 -6061 -6112 0
-6053 6062 452 0
-6062 6053 452 0
6112 -6053 6062 0
6112 -6062 6053 0
-6112 -452 6062 6053 0
-6053 -6062 -452 -6112 0
6054 -6063 453 0
-6063 -6112 -453 -6054 0
6064 -6055 454 0
-6064 6055 454 0
6112 -6055 6064 0
6112 -6064 6055 0
-6112 -454 6064 6055 0
-6112 -6064 -454 -6055 0
-253 -6113 6061 0
-253 -6113 -6062 0
6113 -253 6062 -6061 0
-254 6061 -6113 0
-255 6061 -6113 0
-256 6061 -6113 0
-257 6061 -6113 0
-258 6061 -6113 0
-259 6061 -6113 0
-260 6061 -6113 0
-6113 -261 6062 0
-6063 -6113 -261 0
-6113 -262 6062 0
-263 -6113 6062 0
-264 -6113 6062 0
-265 -6113 6062 0
-266 -6113 6062 0
-267 -6113 6062 0
6063 -6113 -268 0
-274 -6113 6064 0
-275 -6113 6064 0
-276 -6113 6064 0
-277 -6113 6064 0
-278 -6113 6064 0
6070 -6061 460 0
6061 -6070 460 0
6113 6061 -6070 0
-460 -6061 -6070 -6113 0
-6062 6071 461 0
-6071 6062 461 0
6113 -6062 6071 0
6113 -6071 6062 0
6071 -461 6062 -6113 0
-6071 -6062 -461 -6113 0
6063 -6072 462 0
6063 -6072 6113 0
-6063 -6113 -462 -6072 0
-6073 6064 463 0
6113 -6073 6064 0
-6113 -463 6073 6064 0
6070 -6114 -289 0
6114 -289 -6070 6071 0
6070 -6114 -290 0
6070 -6114 -291 0
-292 6070 -6114 0
-293 6070 -6114 0
-294 6070 -6114 0
-295 6070 -6114 0
-296 6070 -6114 0
-6114 -297 6071 0
-298 -6114 6071 0
-299 -6114 6071 0
-300 -6114 6071 0
-301 -6114 6071 0
-302 -6114 6071 0
-6114 6071 -303 0
-304 6072 -6114 0
-6114 -310 6073 0
-311 -6114 6073 0
-312 -6114 6073 0
-313 -6114 6073 0
-314 -6114 6073 0
6079 -6070 469 0
-6079 6070 469 0
6070 -6079 6114 0
-6114 -6079 -469 -6070 0
6080 -6071 470 0
-6080 6071 470 0
6114 -6071 6080 0
6114 -6080 6071 0
-6114 6080 6071 -470 0
-6071 -6114 -470 -6080 0
6072 -6081 471 0
-6072 -6114 -471 -6081 0
-6082 472 6073 0
-6082 6114 6073 0
-6115 6079 -325 0
-6080 -6115 -325 0
-6115 6079 -326 0
-327 -6115 6079 0
-328 -6115 6079 0
-329 -6115 6079 0
-330 -6115 6079 0
-331 -6115 6079 0
-332 -6115 6079 0
-6115 6080 -333 0
-334 -6115 6080 0
-340 6081 -6115 0
-341 6081 -6115 0
-342 6081 -6115 0
-343 6081 -6115 0
-344 6081 -6115 0
-345 6081 -6115 0
-346 6082 -6115 0
-347 6082 -6115 0
-348 6082 -6115 0
-349 6082 -6115 0
-350 6082 -6115 0
478 -6079 6088 0
6079 478 -6088 0
6115 -6079 6088 0
-6079 -478 -6088 -6115 0
6089 -6080 479 0
6080 479 -6089 0
6115 -6080 6089 0
6115 6080 -6089 0
6089 6080 -479 -6115 0
6081 -6090 480 0
6081 6115 -6090 0
-6081 -6115 -480 -6090 0
-6091 481 6082 0
6115 6082 -6091 0
-361 -6089 -6116 0
-376 6090 -6116 0
-377 6090 -6116 0
-378 6090 -6116 0
-379 6090 -6116 0
-380 6090 -6116 0
-381 6090 -6116 0
-382 6091 -6116 0
-383 6091 -6116 0
-384 6091 -6116 0
-385 6091 -6116 0
-386 6091 -6116 0
487 -6088 6097 0
-6116 -487 6088 6097 0
-6089 488 6098 0
6116 -6089 6098 0
-488 -6116 6089 6098 0
6090 489 -6099 0
6116 6090 -6099 0
-6090 -489 -6116 -6099 0
6091 490 -6100 0
6091 6116 -6100 0
-6091 -6116 -490 -6100 0
6117 0
-6216 0
6118 0
6217 0
6119 0
6218 0
-6120 0
6219 0
6121 0
6122 0
6123 0
6124 0
6125 0
-6225 -1 -6118 0
-6225 -2 -6119 0
-6225 -5 -6122 0
-6225 -9 -6119 0
-16 6225 6120 -6119 0
-6225 -17 -6121 0
-6225 -18 -6122 0
-6225 -19 -6123 0
-6225 -20 -6124 0
-21 -6225 -6125 0
-6225 -22 -6121 0
-6225 -23 -6122 0
-6225 -24 -6123 0
-6225 -25 -6124 0
-6225 -26 -6125 0
-6225 -27 -6122 0
-6225 -28 -6123 0
-6225 -29 -6124 0
-6225 -30 -6125 0
-6225 -31 -6123 0
-6225 -32 -6124 0
-6225 -33 -6125 0
-6225 -34 -6124 0
-6225 -35 -6125 0
-6225 -36 -6125 0
397 6126 -6117 0
6126 6225 -6117 0
6127 398 -6118 0
6127 6225 -6118 0
6128 399 -6119 0
6128 6225 -6119 0
-6128 -6225 -399 -6119 0
-6129 400 6120 0
-6129 6225 6120 0
6129 -6225 -400 6120 0
-37 -6226 -6127 0
-6226 -52 6128 0
-58 -6226 6129 0
-59 -6226 6129 0
-60 -6226 6129 0
-61 -6226 6129 0
-62 -6226 6129 0
6135 406 -6126 0
6135 6226 -6126 0
6136 407 -6127 0
6137 408 -6128 0
-6137 408 6128 0
-6226 -408 -6128 -6137 0
-6138 409 6129 0
6226 -6138 6129 0
-74 -6137 -6227 0
-6138 -75 -6227 0
-6139 -76 -6227 0
-6140 -77 -6227 0
-6141 -78 -6227 0
-6142 -79 -6227 0
-6143 -80 -6227 0
6137 -88 -6227 0
-94 -6227 6138 0
-95 -6227 6138 0
-96 -6227 6138 0
-97 -6227 6138 0
-98 -6227 6138 0
6144 -6135 415 0
6144 -6135 6227 0
6145 -6136 416 0
6146 -6137 417 0
6137 417 -6146 0
6227 6137 -6146 0
-6137 -6227 -417 -6146 0
-6147 418 6138 0
6227 -6147 6138 0
-418 -6138 -6147 -6227 0
-109 -6228 -6145 0
6146 -124 -6228 0
-130 -6228 6147 0
-131 -6228 6147 0
-132 -6228 6147 0
-133 -6228 6147 0
-134 -6228 6147 0
6153 -6144 424 0
6153 -6144 6228 0
6154 425 -6145 0
6154 -6145 6228 0
6146 426 -6155 0
-6228 -6155 -426 -6146 0
-6156 427 6147 0
-6156 6228 6147 0
-145 -6154 -6229 0
-146 -6229 -6155 0
-147 -6156 -6229 0
-6157 -148 -6229 0
-6158 -149 -6229 0
-6159 -150 -6229 0
-6160 -151 -6229 0
-6161 -152 -6229 0
6155 -6229 -160 0
6229 -6155 -160 6156 0
-166 -6229 6156 0
-167 -6229 6156 0
-168 -6229 6156 0
-169 -6229 6156 0
-170 -6229 6156 0
6162 -6153 433 0
6162 -6153 6229 0
6163 -6154 434 0
6163 -6154 6229 0
6155 435 -6164 0
6155 6229 -6164 0
6155 -6229 6164 -435 0
-6164 -6229 -435 -6155 0
-6165 436 6156 0
-6165 6229 6156 0
-181 -6163 -6230 0
6163 -189 -6230 0
6164 -196 -6230 0
-197 6164 -6230 0
-198 6164 -6230 0
-199 6164 -6230 0
-200 6164 -6230 0
-201 6164 -6230 0
-202 -6230 6165 0
-203 -6230 6165 0
-204 -6230 6165 0
-205 -6230 6165 0
-206 -6230 6165 0
6171 -6162 442 0
6171 6230 -6162 0
6172 -6163 443 0
6230 6172 -6163 0
-443 -6163 -6230 -6172 0
6164 -6173 444 0
6230 6164 -6173 0
-6164 -444 -6230 -6173 0
-6174 6165 445 0
6230 -6174 6165 0
-217 -6172 -6231 0
-225 6172 -6231 0
6231 -226 6174 -6172 0
6173 -232 -6231 0
-233 6173 -6231 0
-234 6173 -6231 0
-235 6173 -6231 0
-236 6173 -6231 0
-237 6173 -6231 0
-238 -6231 6174 0
-239 -6231 6174 0
-240 -6231 6174 0
-241 -6231 6174 0
-242 -6231 6174 0
6180 -6171 451 0
6231 6180 -6171 0
6181 -6172 452 0
6172 -6181 452 0
6231 6181 -6172 0
-6172 -452 -6181 -6231 0
6173 -6182 453 0
6231 6173 -6182 0
-6173 -453 -6182 -6231 0
-6183 6174 454 0
6231 -6183 6174 0
-253 -6181 -6232 0
6181 -261 -6232 0
6232 -262 6183 -6181 0
6182 -268 -6232 0
-269 6182 -6232 0
-270 6182 -6232 0
-271 6182 -6232 0
-272 6182 -6232 0
-273 6182 -6232 0
-274 -6232 6183 0
-275 -6232 6183 0
-276 -6232 6183 0
-277 -6232 6183 0
-278 -6232 6183 0
6189 -6180 460 0
6232 6189 -6180 0
6190 -6181 461 0
6181 -6190 461 0
-6190 -461 -6181 -6232 0
6182 -6191 462 0
6232 6182 -6191 0
-6182 -462 -6232 -6191 0
-6192 6183 463 0
6232 -6192 6183 0
-289 -6190 -6233 0
6190 -297 -6233 0
-304 6191 -6233 0
-305 6191 -6233 0
-306 6191 -6233 0
-307 6191 -6233 0
-308 6191 -6233 0
-309 6191 -6233 0
6198 -6189 469 0
6233 6198 -6189 0
-6189 -6198 -6233 -469 0
6199 -6190 470 0
-6199 6190 470 0
6233 6199 -6190 0
-6199 -6190 -6233 -470 0
6191 -6200 471 0
6233 6191 -6200 0
-471 -6191 -6200 -6233 0
472 6192 -6201 0
6233 6192 -6201 0
-6192 -472 -6201 -6233 0
6198 -325 -6234 0
-325 -6199 -6234 0
-327 6201 -6198 6234 0
-333 6199 -6234 0
-334 6199 -6234 0
-334 -6234 -6201 0
-335 6199 -6234 0
-336 6199 -6234 0
6199 -6234 -337 0
-338 6199 -6234 0
-339 6199 -6234 0
-340 6200 -6234 0
-341 6200 -6234 0
-342 6200 -6234 0
-343 6200 -6234 0
-344 6200 -6234 0
-345 6200 -6234 0
-346 6201 -6234 0
-347 6201 -6234 0
-348 6201 -6234 0
-349 6201 -6234 0
-350 6201 -6234 0
478 -6198 6207 0
6198 -6207 478 0
6234 -6198 6207 0
6199 479 -6208 0
6234 -6199 6208 0
6234 6199 -6208 0
-6199 -479 -6208 -6234 0
6200 480 -6209 0
6234 6200 -6209 0
-6234 -480 -6200 -6209 0
481 6201 -6210 0
6234 6201 -6210 0
-369 6208 -6235 0
-370 6208 -6235 0
6208 -371 -6235 0
-372 6208 -6235 0
-373 -6235 6208 0
-374 6208 -6235 0
-375 -6235 6208 0
-376 6209 -6235 0
-377 6209 -6235 0
-378 6209 -6235 0
-379 6209 -6235 0
-380 6209 -6235 0
-381 6209 -6235 0
-382 6210 -6235 0
-383 6210 -6235 0
-384 6210 -6235 0
-385 6210 -6235 0
-386 6210 -6235 0
487 -6207 6216 0
6235 -6207 6216 0
-6235 6207 -487 6216 0
6208 488 -6217 0
6235 6208 -6217 0
-6208 -6235 -488 -6217 0
6209 489 -6218 0
6235 6209 -6218 0
-6209 -489 -6235 -6218 0
6210 490 -6219 0
6235 6210 -6219 0
6236 0
-6237 0
-6238 0
6337 0
6239 0
6240 0
6241 0
6242 0
6243 0
6244 0
6344 -1 6237 -6236 0
-6344 -3 -6239 0
-6344 -16 -6239 0
-17 -6344 -6240 0
-18 -6344 -6241 0
-19 -6344 -6242 0
-20 -6344 -6243 0
-21 -6344 -6244 0
-6246 398 6237 0
-6247 399 6238 0
-6247 6344 6238 0
6247 -399 -6344 6238 0
-52 -6345 6247 0
-53 -6345 6247 0
-54 -6345 6247 0
-55 -6345 6247 0
-56 -6345 6247 0
-57 -6345 6247 0
-6255 407 6246 0
408 -6256 6247 0
6345 -6256 6247 0
-88 -6346 6256 0
-89 -6346 6256 0
-90 -6346 6256 0
-91 -6346 6256 0
-92 -6346 6256 0
-93 -6346 6256 0
-6264 6255 416 0
417 6256 -6265 0
6346 -6265 6256 0
-124 -6347 6265 0
-125 -6347 6265 0
-126 -6347 6265 0
-127 -6347 6265 0
-128 -6347 6265 0
-129 -6347 6265 0
-6273 425 6264 0
426 6265 -6274 0
6347 -6274 6265 0
-160 -6348 6274 0
-161 -6348 6274 0
-162 -6348 6274 0
-163 -6348 6274 0
-164 -6348 6274 0
-165 -6348 6274 0
-6282 6273 434 0
6348 -6283 6274 0
-6291 6282 443 0
-6292 444 6283 0
-6300 6291 452 0
-6301 453 6292 0
-6309 6300 461 0
-6310 462 6301 0
-6318 6309 470 0
-6319 471 6310 0
-6328 6319 480 0
6328 489 -6337 0
-6355 0
6356 0
-6455 0
-6357 0
6358 0
6359 0
6360 0
6361 0
6362 0
6363 0
-6463 -1 -6356 0
-6463 -2 6355 0
-6463 -3 -6358 0
-6463 -4 -6359 0
-6463 -5 -6360 0
-6463 -6 -6361 0
-6463 -7 -6362 0
-6463 -8 -6363 0
-6463 -10 -6358 0
-6463 -11 -6359 0
-6463 -12 -6360 0
-6463 -13 -6361 0
-6463 -14 -6362 0
-6463 -15 -6363 0
-6463 -16 -6358 0
-6463 -17 -6359 0
-6463 -18 -6360 0
-6463 -19 -6361 0
-6463 -20 -6362 0
-21 -6463 6357 0
-6463 -22 -6359 0
-6463 -23 -6360 0
-6463 -24 -6361 0
-6463 -25 -6362 0
-6463 -26 -6363 0
-6463 -27 -6360 0
-6463 -28 -6361 0
-6463 -29 -6362 0
-6463 -30 -6363 0
-6463 -31 -6361 0
-6463 -32 -6362 0
-6463 -33 -6363 0
-6463 -34 -6362 0
-6463 -35 -6363 0
-6463 -36 -6363 0
-6364 397 6355 0
-6364 6463 6355 0
398 6365 -6356 0
6365 6463 -6356 0
-6365 -6463 -398 -6356 0
-6366 6463 6357 0
6367 400 -6358 0
6367 6463 -6358 0
401 6368 -6359 0
6368 6463 -6359 0
402 6369 -6360 0
6369 6463 -6360 0
403 6370 -6361 0
6370 6463 -6361 0
404 6371 -6362 0
6371 6463 -6362 0
405 6372 -6363 0
6372 6463 -6363 0
-6464 -37 -6365 0
-38 -6464 6364 0
-6464 -39 6364 0
-40 -6464 6364 0
-41 -6464 6364 0
-42 -6464 6364 0
-43 -6464 6364 0
-44 -6464 6364 0
-45 6464 -6365 6366 0
-46 -6464 6365 0
-46 -6464 -6367 0
-47 -6464 6365 0
-47 -6464 -6368 0
-6464 -48 6365 0
-6464 -48 -6369 0
-49 -6464 6365 0
-49 -6464 -6370 0
-50 -6464 6365 0
-50 -6464 -6371 0
-51 -6464 6365 0
-51 -6464 -6372 0
-6464 -52 -6367 0
-53 -6464 -6368 0
-54 -6464 -6369 0
-55 -6464 -6370 0
-56 -6464 -6371 0
-57 -6464 -6372 0
-58 -6464 -6368 0
-59 -6464 -6369 0
-60 -6464 -6370 0
-61 -6464 -6371 0
-62 -6464 -6372 0
-63 -6464 -6369 0
-64 -6464 -6370 0
-65 -6464 -6371 0
-66 -6464 -6372 0
-67 -6464 -6370 0
-68 -6464 -6371 0
-69 -6464 -6372 0
-70 -6464 -6371 0
-71 -6464 -6372 0
-72 -6464 -6372 0
6374 407 -6365 0
6374 6464 -6365 0
6376 409 -6367 0
6376 6464 -6367 0
6377 6464 -6368 0
6378 6464 -6369 0
6379 6464 -6370 0
6380 6464 -6371 0
6381 6464 -6372 0
-73 -6465 -6374 0
-82 -6465 -6376 0
-83 -6377 -6465 0
-84 -6378 -6465 0
-6379 -6465 -85 0
-86 -6380 -6465 0
-87 -6381 -6465 0
6383 -6374 416 0
6465 6383 -6374 0
6385 -6376 418 0
-6466 -109 -6383 0
-118 -6466 -6385 0
-6466 -124 -6385 0
6392 425 -6383 0
-6392 6383 425 0
6392 6466 -6383 0
6394 427 -6385 0
6394 6466 -6385 0
-6467 -145 -6392 0
6401 -6392 434 0
6401 6467 -6392 0
6403 -6394 436 0
-6468 -181 -6401 0
6410 -6401 443 0
6468 6410 -6401 0
6412 -6403 445 0
-6469 -217 -6410 0
-6469 -226 -6412 0
6419 -6410 452 0
6469 6419 -6410 0
6421 -6412 454 0
-253 -6470 -6419 0
6428 -6419 461 0
6470 6428 -6419 0
6430 -6421 463 0
-6471 -289 -6428 0
-6471 -298 -6430 0
6437 -6428 470 0
6471 6437 -6428 0
6439 -6430 472 0
-6472 -6437 -325 0
-327 -6472 -6439 0
-334 -6439 -6472 0
6446 -6437 479 0
6446 6472 -6437 0
-361 -6473 -6446 0
-6446 488 6455 0
-6446 6473 6455 0
6474 0
-6573 0
-6475 0
6574 0
6476 0
6477 0
6478 0
6479 0
6480 0
6481 0
6482 0
6582 -1 6475 -6474 0
-9 -6582 -6476 0
-10 -6582 -6477 0
-11 -6582 -6478 0
-12 -6582 -6479 0
-13 -6582 -6480 0
-14 -6582 -6481 0
-15 -6582 -6482 0
-6483 -6582 -397 -6474 0
-6484 398 6475 0
-6484 6582 6475 0
6484 -6582 -398 6475 0
6485 399 -6476 0
6486 400 -6477 0
6487 401 -6478 0
6488 402 -6479 0
6489 403 -6480 0
6490 404 -6481 0
6491 405 -6482 0
-38 -6583 6483 0
-39 -6583 6483 0
-40 -6583 6483 0
-41 -6583 6483 0
-42 -6583 6483 0
-43 -6583 6483 0
-44 -6583 6483 0
-45 -6583 6484 0
-45 -6583 -6485 0
-46 -6583 6484 0
-47 -6583 6484 0
-47 -6583 -6487 0
-48 -6583 6484 0
-48 -6583 -6488 0
-49 -6583 6484 0
-49 -6583 -6489 0
-50 -6583 6484 0
-50 -6583 -6490 0
-51 -6583 6484 0
-51 -6583 -6491 0
-6583 -52 -6486 0
-53 -6583 -6487 0
-54 -6583 -6488 0
-55 -6583 -6489 0
-56 -6583 -6490 0
-57 -6583 -6491 0
-58 -6583 -6487 0
-59 -6583 -6488 0
-60 -6583 -6489 0
-61 -6583 -6490 0
-62 -6583 -6491 0
-63 -6583 -6488 0
-64 -6583 -6489 0
-65 -6583 -6490 0
-66 -6583 -6491 0
-67 -6583 -6489 0
-68 -6583 -6490 0
-69 -6583 -6491 0
-70 -6583 -6490 0
-71 -6583 -6491 0
-72 -6583 -6491 0
-6492 406 6483 0
-6493 407 6484 0
6493 6583 -6484 0
-6493 6583 6484 0
6495 409 -6486 0
6495 6583 -6486 0
-81 -6584 6493 0
-81 -6584 -6494 0
-82 -6584 6493 0
-83 -6584 6493 0
-84 -6584 6493 0
-85 -6584 6493 0
-86 -6584 6493 0
-87 -6584 6493 0
6502 -6493 416 0
-6502 6493 416 0
6584 -6493 6502 0
6584 -6502 6493 0
6504 -6495 418 0
-117 -6585 6502 0
-118 -6585 6502 0
-118 -6585 -6504 0
-119 -6585 6502 0
-120 -6585 6502 0
-121 -6585 6502 0
-122 -6585 6502 0
-123 -6585 6502 0
-6585 -124 -6504 0
6511 -6502 425 0
-6511 425 6502 0
-6511 6585 6502 0
6513 427 -6504 0
-147 -6586 -6513 0
-153 -6586 6511 0
-154 -6586 6511 0
-155 -6586 6511 0
-156 -6586 6511 0
-157 -6586 6511 0
-158 -6586 6511 0
-159 -6586 6511 0
-6586 -6513 -160 0
-6520 6511 434 0
-6520 6586 6511 0
6522 -6513 436 0
-6587 -189 6520 0
-190 -6587 6520 0
-191 -6587 6520 0
-192 -6587 6520 0
-193 -6587 6520 0
-194 -6587 6520 0
-195 -6587 6520 0
-6529 6520 443 0
6587 -6529 6520 0
6531 -6522 445 0
-6588 -225 6529 0
-226 -6588 6529 0
-227 -6588 6529 0
-228 -6588 6529 0
-229 -6588 6529 0
-230 -6588 6529 0
-231 -6588 6529 0
-6538 6529 452 0
6588 -6538 6529 0
6540 -6531 454 0
-6589 -261 6538 0
-6589 -262 6538 0
-263 -6589 6538 0
-264 -6589 6538 0
-265 -6589 6538 0
-266 -6589 6538 0
-267 -6589 6538 0
-6547 6538 461 0
6589 -6547 6538 0
6549 -6540 463 0
-6590 -6547 -289 0
-6590 -297 6547 0
-298 -6590 6547 0
-299 -6590 6547 0
-300 -6590 6547 0
-301 -6590 6547 0
-302 -6590 6547 0
-6590 6547 -303 0
-6547 470 6556 0
6547 -6556 470 0
6590 -6547 6556 0
6590 6547 -6556 0
-6590 6547 6556 -470 0
6558 6590 -6549 0
-333 -6591 6556 0
-334 -6591 6556 0
-335 -6591 6556 0
-336 -6591 6556 0
-337 -6591 6556 0
-338 -6591 6556 0
-339 -6591 6556 0
-6555 6591 6564 0
6556 479 -6565 0
6591 6556 -6565 0
-479 -6556 -6591 -6565 0
-369 -6592 6565 0
-370 -6592 6565 0
-371 -6592 6565 0
-372 -6592 6565 0
-373 -6592 6565 0
-374 -6592 6565 0
-375 -6592 6565 0
487 -6564 6573 0
6565 488 -6574 0
6565 6592 -6574 0
9181 -400 0
9182 -409 0
-418 9183 0
9184 -426 0
9185 -435 0
-444 9186 0
9186 -445 0
-453 9187 0
9187 -454 0
-462 9188 0
9188 -463 0
9189 -469 0
9190 -479 0
9191 -488 0
9192 -9181 0
9193 -9192 0
9193 -9182 0
9204 -9193 0
9195 -9183 -9193 0
-9195 9197 -9184 0
-9197 9199 -9185 0
-9199 9207 0
9205 -9184 -9204 0
-9205 9206 -9185 0
-9206 9212 0
-9206 -9186 9207 0
-9207 9213 0
9210 -9184 0
9211 -9210 -9185 0
9217 -9211 0
-9186 9212 -9211 0
9218 -9212 0
-9212 -9187 9213 0
-9213 9219 0
9218 -9187 -9217 0
-9188 -9218 9219 0
-9219 9220 -9189 0
-9220 -9190 9221 0
-9221 -9191 0
9368 -398 5999 0
9368 -400 6001 0
-406 9369 6007 0
-407 9369 6008 0
9369 -408 6009 0
9369 -409 6010 0
-415 6016 9370 0
-416 6017 9370 0
6018 9370 -417 0
-418 6019 9370 0
-424 6025 9371 0
-425 6026 9371 0
6027 -426 9371 0
-427 6028 9371 0
-433 6034 9372 0
-434 6035 9372 0
6036 -435 9372 0
6037 -436 9372 0
6038 -437 9372 0
6039 -438 9372 0
6040 -439 9372 0
6041 -440 9372 0
6042 -441 9372 0
6043 -442 9373 0
-443 6044 9373 0
6045 -444 9373 0
-445 6046 9373 0
-451 6052 9374 0
-452 6053 9374 0
6054 -453 9374 0
-454 6055 9374 0
6056 -455 9374 0
6057 -456 9374 0
6058 -457 9374 0
6059 -458 9374 0
6060 -459 9374 0
-460 6061 9375 0
-461 6062 9375 0
6063 -462 9375 0
-463 6064 9375 0
6070 -469 9376 0
6071 -470 9376 0
6072 -471 9376 0
-472 6073 9376 0
6079 -478 9377 0
6080 9377 -479 0
6081 -480 9377 0
6082 -481 9377 0
-487 6088 9378 0
6089 9378 -488 0
9378 -489 6090 0
6091 9378 -490 0
9379 -9368 0
9380 -9379 0
9381 -9369 -9379 0
9382 -9381 0
-9370 -9381 0
-9369 9380 0
9383 -9380 0
-9370 9382 -9380 0
9384 -9382 0
-9371 -9382 0
-9370 9383 0
9385 -9383 0
9384 -9371 -9383 0
9386 -9384 0
-9372 -9384 0
9385 -9371 0
9387 -9385 0
-9372 9386 -9385 0
9388 -9386 0
-9373 -9386 0
9387 -9372 0
9389 -9387 0
-9373 9388 -9387 0
9390 -9388 0
-9374 -9388 0
-9373 9389 0
9391 -9389 0
-9374 9390 -9389 0
9392 -9390 0
-9375 -9390 0
-9374 9391 0
9393 -9391 0
-9375 9392 -9391 0
9394 -9392 0
-9376 -9392 0
9393 -9375 0
9395 -9393 0
-9376 9394 -9393 0
9396 -9394 0
-9377 -9394 0
9395 -9376 0
9396 -9377 -9395 0
-9378 -9396 0
9397 -400 6120 0
9398 -408 6128 0
9398 -409 6129 0
6137 9399 -417 0
-418 6138 9399 0
6139 -419 9399 0
6140 -420 9399 0
6141 -421 9399 0
6142 -422 9399 0
6143 -423 9399 0
6144 -424 9400 0
6146 9400 -426 0
9400 6147 -427 0
6153 -433 9401 0
6155 9401 -435 0
6156 9401 -436 0
6157 -437 9401 0
6158 -438 9401 0
6159 -439 9401 0
6160 -440 9401 0
6161 -441 9401 0
6162 -442 9402 0
-444 6164 9402 0
-445 6165 9402 0
6171 -451 9403 0
-452 6172 9403 0
-453 6173 9403 0
6174 -454 9403 0
6181 -461 9404 0
-462 6182 9404 0
6183 -463 9404 0
6190 -470 9405 0
-471 6191 9405 0
-472 6192 9405 0
6198 -478 9406 0
6199 9406 -479 0
6200 -480 9406 0
6201 -481 9406 0
9407 -489 6209 0
9408 -9397 0
9409 -9408 0
-9398 9410 -9408 0
-9410 9411 0
9409 -9398 0
9412 -9409 0
-9399 9411 -9409 0
-9411 9413 0
-9411 -9400 0
-9399 9412 0
9414 -9412 0
9413 -9400 -9412 0
-9413 9415 0
-9413 -9401 0
9414 -9400 0
9416 -9414 0
-9401 9415 -9414 0
-9415 9417 0
-9415 -9402 0
-9401 9416 0
9418 -9416 0
-9402 9417 -9416 0
-9417 9419 0
-9417 -9403 0
-9402 9418 0
9420 -9418 0
-9403 9419 -9418 0
-9419 9421 0
-9419 -9404 0
9420 -9403 0
9422 -9420 0
-9404 9421 -9420 0
-9421 9423 0
-9405 -9421 0
9422 -9404 0
-9405 9423 -9422 0
9425 -9423 0
-9406 -9423 0
-9407 -9425 0
9494 -399 6238 0
9495 -408 6247 0
9496 -417 6256 0
9497 -426 6265 0
9498 6274 -435 0
-444 9499 6283 0
-453 6292 9500 0
-462 6301 9501 0
-471 6310 9502 0
9503 6318 -479 0
-489 6328 9504 0
9505 -9494 0
9506 -9505 0
9506 -9495 0
9513 -9506 0
9513 -9496 0
9514 -9497 -9513 0
-9514 9515 -9498 0
9519 -9515 0
-9499 9516 -9515 0
-9516 9520 0
9523 -9519 0
-9500 9520 -9519 0
-9520 9524 0
9527 -9523 0
-9501 -9523 9524 0
-9524 9528 0
9531 -9527 0
-9502 -9527 9528 0
-9528 -9503 0
9532 -9531 -9503 0
-9504 -9532 0
9574 -397 0
9574 -398 0
-406 9575 0
-407 9575 0
-415 9576 0
-416 9576 0
-424 9577 0
-425 9577 0
-433 9578 0
-434 9578 0
-442 9579 0
-443 9579 0
-451 9580 0
-452 9580 0
-460 9581 0
-461 9581 0
9582 -469 0
-470 9582 0
9583 -478 0
9583 -479 0
9584 -487 0
9584 -488 0
9585 -9574 0
9586 -9585 0
-9575 9587 -9585 0
-9587 9588 0
-9587 -9576 9589 0
-9589 9590 0
-9589 -9577 0
-9575 9586 0
9591 -9586 0
-9576 9588 -9586 0
-9588 9592 0
-9588 -9577 9590 0
-9590 9593 0
-9590 -9578 0
-9576 9591 0
9594 -9591 0
-9577 9592 -9591 0
-9592 9595 0
-9592 -9578 9593 0
-9593 9596 0
-9593 -9579 0
-9577 9594 0
9597 -9594 0
-9578 9595 -9594 0
-9595 9598 0
-9595 -9579 9596 0
-9596 9599 0
-9596 -9580 0
-9578 9597 0
9600 -9597 0
-9579 9598 -9597 0
-9598 9601 0
-9598 -9580 9599 0
-9599 9602 0
-9599 -9581 0
-9579 9600 0
9603 -9600 0
-9580 9601 -9600 0
-9601 9604 0
-9601 -9581 9602 0
-9602 9605 0
-9602 -9582 0
-9580 9603 0
9606 -9603 0
-9581 9604 -9603 0
-9604 9607 0
-9604 -9582 9605 0
-9605 9608 0
-9605 -9583 0
-9581 9606 0
9607 -9582 -9606 0
-9607 -9583 9608 0
-9608 -9584 0
9609 -398 6475 0
9610 -406 6483 0
9610 -407 6484 0
9611 6492 -415 0
6494 9611 -417 0
-425 9612 6502 0
-434 9613 6511 0
9614 -443 6520 0
9615 -452 6529 0
9616 -461 6538 0
9617 6547 -470 0
6555 9618 -478 0
9618 6556 -479 0
9619 6565 -488 0
9620 -9609 0
9621 -9620 0
-9610 9622 -9620 0
-9622 9623 0
9621 -9610 0
-9611 9623 -9621 0
-9623 9625 0
-9612 -9623 0
-9625 9627 0
-9613 -9625 0
9626 -9612 0
9628 -9626 0
-9627 9629 0
-9614 -9627 0
9630 -9628 0
-9629 9631 0
-9615 -9629 0
9632 -9630 0
-9631 9633 0
-9616 -9631 0
-9616 -9632 9633 0
-9633 9635 0
-9633 -9617 0
-9635 9637 0
-9635 -9618 0
-9637 -9619 0
-39 -9 0
-40 -9 0
-41 -9 0
-42 -9 0
-43 -9 0
-44 -9 0
-37 -16 0
-40 -16 0
-41 -16 0
-42 -16 0
-43 -16 0
-44 -16 0
-17 -37 0
-18 -37 0
-19 -37 0
-20 -37 0
-37 -21 0
-22 -37 0
-22 -45 0
-23 -37 0
-23 -45 0
-24 -37 0
-24 -45 0
-25 -37 0
-25 -45 0
-26 -37 0
-26 -45 0
-27 -37 0
-28 -37 0
-29 -37 0
-30 -37 0
-31 -37 0
-32 -37 0
-33 -37 0
-34 -37 0
-35 -37 0
-36 -37 0
-45 -75 0
-45 -76 0
-45 -77 0
-45 -78 0
-45 -79 0
-45 -80 0
-73 -52 0
-53 -73 0
-54 -73 0
-55 -73 0
-56 -73 0
-57 -73 0
-58 -73 0
-59 -73 0
-60 -73 0
-61 -73 0
-62 -73 0
-63 -73 0
-64 -73 0
-65 -73 0
-66 -73 0
-67 -73 0
-68 -73 0
-69 -73 0
-70 -73 0
-71 -73 0
-72 -73 0
-109 -88 0
-112 -88 0
-113 -88 0
-114 -88 0
-115 -88 0
-116 -88 0
-119 -88 0
-120 -88 0
-121 -88 0
-122 -88 0
-123 -88 0
-89 -109 0
-90 -109 0
-91 -109 0
-92 -109 0
-93 -109 0
-94 -109 0
-95 -109 0
-96 -109 0
-97 -109 0
-98 -109 0
-99 -109 0
-100 -109 0
-101 -109 0
-102 -109 0
-103 -109 0
-104 -109 0
-105 -109 0
-106 -109 0
-107 -109 0
-108 -109 0
-145 -124 0
-125 -145 0
-125 -147 0
-125 -154 0
-126 -145 0
-126 -147 0
-126 -154 0
-127 -145 0
-127 -147 0
-127 -154 0
-128 -145 0
-128 -147 0
-128 -154 0
-129 -145 0
-129 -147 0
-129 -154 0
-130 -145 0
-131 -145 0
-132 -145 0
-133 -145 0
-145 -134 0
-135 -145 0
-135 -147 0
-135 -154 0
-136 -145 0
-136 -147 0
-136 -154 0
-137 -145 0
-137 -147 0
-137 -154 0
-138 -145 0
-138 -147 0
-138 -154 0
-139 -145 0
-139 -147 0
-139 -154 0
-140 -145 0
-140 -147 0
-140 -154 0
-141 -145 0
-141 -147 0
-141 -154 0
-142 -145 0
-142 -147 0
-142 -154 0
-143 -145 0
-143 -147 0
-143 -154 0
-144 -145 0
-144 -147 0
-144 -154 0
-181 -160 0
-191 -160 0
-192 -160 0
-193 -160 0
-194 -160 0
-195 -160 0
-161 -181 0
-161 -183 0
-161 -190 0
-162 -181 0
-162 -183 0
-162 -190 0
-163 -181 0
-163 -183 0
-163 -190 0
-164 -181 0
-164 -183 0
-164 -190 0
-165 -181 0
-165 -183 0
-165 -190 0
-166 -181 0
-167 -181 0
-168 -181 0
-181 -169 0
-170 -181 0
-171 -181 0
-171 -183 0
-171 -190 0
-172 -181 0
-172 -183 0
-172 -190 0
-173 -181 0
-173 -183 0
-173 -190 0
-174 -181 0
-174 -183 0
-174 -190 0
-175 -181 0
-175 -183 0
-175 -190 0
-176 -181 0
-176 -183 0
-176 -190 0
-177 -181 0
-177 -183 0
-177 -190 0
-178 -181 0
-178 -183 0
-178 -190 0
-179 -181 0
-179 -183 0
-179 -190 0
-180 -181 0
-180 -183 0
-180 -190 0
-219 -189 0
-191 -219 0
-192 -219 0
-193 -219 0
-194 -219 0
-219 -195 0
-217 -196 0
-197 -217 0
-197 -219 0
-197 -226 0
-217 -198 0
-219 -198 0
-226 -198 0
-199 -217 0
-199 -219 0
-199 -226 0
-200 -217 0
-200 -219 0
-200 -226 0
-201 -217 0
-201 -219 0
-201 -226 0
-202 -217 0
-203 -217 0
-204 -217 0
-205 -217 0
-206 -217 0
-207 -217 0
-207 -219 0
-207 -226 0
-208 -217 0
-208 -219 0
-208 -226 0
-209 -217 0
-209 -219 0
-209 -226 0
-210 -217 0
-210 -219 0
-210 -226 0
-211 -217 0
-211 -219 0
-211 -226 0
-212 -217 0
-212 -219 0
-212 -226 0
-213 -217 0
-213 -219 0
-213 -226 0
-214 -217 0
-214 -219 0
-214 -226 0
-215 -217 0
-215 -219 0
-215 -226 0
-216 -217 0
-216 -219 0
-216 -226 0
-253 -232 0
-233 -253 0
-233 -255 0
-233 -262 0
-234 -253 0
-234 -255 0
-234 -262 0
-235 -253 0
-235 -255 0
-235 -262 0
-236 -253 0
-236 -255 0
-236 -262 0
-237 -253 0
-237 -255 0
-237 -262 0
-253 -238 0
-239 -253 0
-240 -253 0
-241 -253 0
-242 -253 0
-243 -253 0
-243 -255 0
-243 -262 0
-244 -253 0
-244 -255 0
-244 -262 0
-245 -253 0
-245 -255 0
-245 -262 0
-246 -253 0
-246 -255 0
-246 -262 0
-247 -253 0
-247 -255 0
-247 -262 0
-248 -253 0
-248 -255 0
-248 -262 0
-249 -253 0
-249 -255 0
-249 -262 0
-250 -253 0
-250 -255 0
-250 -262 0
-251 -253 0
-251 -255 0
-251 -262 0
-252 -253 0
-252 -255 0
-252 -262 0
-262 -290 0
-263 -290 0
-264 -290 0
-265 -290 0
-266 -290 0
-267 -290 0
-289 -268 0
-269 -289 0
-269 -291 0
-269 -298 0
-270 -289 0
-270 -291 0
-270 -298 0
-271 -289 0
-271 -291 0
-271 -298 0
-272 -289 0
-272 -291 0
-272 -298 0
-289 -273 0
-273 -291 0
-298 -273 0
-274 -289 0
-274 -290 0
-275 -289 0
-275 -290 0
-276 -289 0
-276 -290 0
-277 -289 0
-277 -290 0
-278 -289 0
-278 -290 0
-279 -289 0
-279 -290 0
-279 -291 0
-279 -298 0
-280 -289 0
-280 -290 0
-280 -291 0
-280 -298 0
-281 -289 0
-281 -290 0
-281 -291 0
-281 -298 0
-282 -289 0
-282 -290 0
-282 -291 0
-282 -298 0
-283 -289 0
-283 -290 0
-283 -291 0
-283 -298 0
-284 -289 0
-284 -290 0
-284 -291 0
-284 -298 0
-285 -289 0
-285 -290 0
-285 -291 0
-285 -298 0
-286 -289 0
-286 -290 0
-286 -291 0
-286 -298 0
-287 -289 0
-287 -290 0
-287 -291 0
-287 -298 0
-288 -289 0
-288 -290 0
-288 -291 0
-288 -298 0
-298 -326 0
-299 -326 0
-300 -326 0
-301 -326 0
-302 -326 0
-326 -303 0
-304 -325 0
-305 -325 0
-305 -327 0
-306 -325 0
-306 -327 0
-307 -325 0
-307 -327 0
-308 -325 0
-308 -327 0
-309 -325 0
-309 -327 0
-310 -325 0
-310 -326 0
-311 -325 0
-311 -326 0
-312 -325 0
-312 -326 0
-313 -325 0
-313 -326 0
-314 -325 0
-314 -326 0
-315 -325 0
-315 -326 0
-315 -327 0
-316 -325 0
-316 -326 0
-316 -327 0
-317 -325 0
-317 -326 0
-317 -327 0
-318 -325 0
-318 -326 0
-318 -327 0
-319 -325 0
-319 -326 0
-319 -327 0
-320 -325 0
-320 -326 0
-320 -327 0
-321 -325 0
-321 -326 0
-321 -327 0
-322 -325 0
-322 -326 0
-322 -327 0
-323 -325 0
-323 -326 0
-323 -327 0
-324 -325 0
-324 -326 0
-324 -327 0
-340 -361 0
-341 -361 0
-341 -363 0
-342 -361 0
-342 -363 0
-343 -361 0
-343 -363 0
-344 -361 0
-344 -363 0
-345 -361 0
-345 -363 0
-346 -361 0
-347 -361 0
-348 -361 0
-349 -361 0
-350 -361 0
-351 -361 0
-351 -363 0
-352 -361 0
-352 -363 0
-353 -361 0
-353 -363 0
-354 -361 0
-354 -363 0
-355 -361 0
-355 -363 0
-356 -361 0
-356 -363 0
-357 -361 0
-357 -363 0
-358 -361 0
-358 -363 0
-359 -361 0
-359 -363 0
-360 -361 0
-360 -363 0
