p cnf 9007 2363
8 36 9 2 14 1 6 7 5 15 35 17 11 12 13 16 3 18 19 20 21 4 10 24 22 25 26 27 28 29 30 31 32 33 34 23 0
496 -1 0
-2 -496 0
397 -1 0
-2 397 0
-3 397 0
-4 397 0
-5 397 0
-6 397 0
-7 397 0
-8 397 0
8 1 -397 2 3 4 5 6 7 0
398 -1 0
398 -9 0
398 -10 0
398 -11 0
398 -12 0
398 -13 0
398 -14 0
398 -15 0
15 1 -398 9 14 10 11 12 13 0
399 -2 0
399 -9 0
399 -16 0
399 -17 0
399 -18 0
399 -19 0
399 -20 0
399 -21 0
16 -399 17 2 18 9 19 20 21 0
26 -400 10 3 16 22 24 23 25 0
-401 30 11 4 22 17 27 28 29 0
-402 18 12 33 23 31 5 27 32 0
-403 35 13 6 19 24 31 28 34 0
-404 34 36 7 32 20 29 14 25 0
-405 8 15 36 21 30 33 35 26 0
59 58 38 54 55 45 41 42 39 46 47 37 44 50 51 40 43 48 49 56 57 52 53 60 61 62 63 64 65 66 67 68 69 70 71 72 0
531 -37 0
-38 -531 0
-37 406 0
-38 406 0
-39 406 0
-40 406 0
-41 406 0
-42 406 0
-43 406 0
-44 406 0
-406 38 37 39 40 41 42 43 44 0
-45 407 0
-46 407 0
-47 407 0
-48 407 0
-49 407 0
-50 407 0
-51 407 0
50 -407 37 49 45 47 48 46 51 0
-38 408 0
-45 408 0
-52 408 0
-53 408 0
-54 408 0
-55 408 0
-56 408 0
-57 408 0
56 -408 38 45 55 52 53 57 54 0
95 94 80 83 73 84 90 91 74 77 78 81 85 86 87 76 75 79 82 92 93 88 89 96 97 98 99 100 101 102 103 104 105 106 107 108 0
566 -73 0
-566 567 0
-74 -566 0
-567 568 0
-568 569 0
-569 570 0
-570 571 0
-571 572 0
-572 573 0
-573 -81 0
-73 415 0
-74 415 0
-75 415 0
-76 415 0
-77 415 0
-78 415 0
-79 415 0
-80 415 0
-415 76 73 74 75 77 78 79 80 0
-73 416 0
-81 416 0
-82 416 0
-83 416 0
-84 416 0
-85 416 0
-86 416 0
-87 416 0
87 -416 73 86 81 82 85 83 84 0
-74 417 0
-81 417 0
-88 417 0
-89 417 0
-90 417 0
-91 417 0
-92 417 0
-93 417 0
89 -417 74 81 88 90 91 92 93 0
130 131 109 116 118 120 117 128 110 112 113 129 121 122 123 114 115 124 125 126 127 119 111 132 133 134 135 136 137 138 139 140 141 142 143 144 0
601 -109 0
602 -601 0
-110 -601 0
603 -602 0
604 -603 0
605 -604 0
606 -605 0
607 -606 0
608 -607 0
609 -608 0
610 -609 0
611 -610 0
612 -611 0
613 -612 0
614 -613 0
615 -614 0
616 -615 0
-124 -615 0
617 -616 0
-125 -616 0
618 -617 0
-126 -617 0
619 -618 0
-127 -618 0
620 -619 0
-128 -619 0
-129 -620 0
-109 424 0
-110 424 0
-111 424 0
-112 424 0
-113 424 0
-114 424 0
-115 424 0
-116 424 0
-117 425 0
-118 425 0
-119 425 0
-120 425 0
-121 425 0
-122 425 0
-123 425 0
119 -425 109 117 118 122 121 120 123 0
-110 426 0
-117 426 0
-124 426 0
-125 426 0
-126 426 0
-127 426 0
-128 426 0
-129 426 0
129 -426 110 117 124 125 126 127 128 0
167 166 154 155 151 152 162 163 149 150 153 156 157 158 159 145 146 147 148 164 165 160 161 168 169 170 171 172 173 174 175 176 177 178 179 180 0
636 -145 0
-636 637 0
-146 -636 0
-146 637 0
-637 638 0
-147 638 0
-638 639 0
-148 639 0
-639 640 0
-149 640 0
-640 641 0
-150 641 0
-641 642 0
-151 642 0
-642 643 0
-152 643 0
-643 644 0
-643 -153 0
-644 645 0
-154 -644 0
-645 646 0
-155 -645 0
-646 647 0
-156 -646 0
648 -647 0
-647 -157 0
649 -648 0
-158 -648 0
-159 -649 0
-145 433 0
-146 433 0
-147 433 0
-148 433 0
-149 433 0
-150 433 0
-151 433 0
-152 433 0
-433 145 146 149 147 148 150 151 152 0
-145 434 0
-153 434 0
-154 434 0
-155 434 0
-156 434 0
-157 434 0
-158 434 0
-159 434 0
158 -434 145 153 157 154 155 156 159 0
-146 435 0
-153 435 0
-160 435 0
-161 435 0
-162 435 0
-163 435 0
-164 435 0
-165 435 0
162 -435 153 146 161 160 163 164 165 0
203 202 190 191 189 198 181 188 184 185 187 192 193 194 195 182 183 186 199 200 201 196 197 204 205 206 207 208 209 210 211 212 213 214 215 216 0
671 -181 0
672 -671 0
-182 -671 0
-672 673 0
-673 674 0
-674 675 0
-675 676 0
-676 677 0
-677 678 0
679 -678 0
-678 -189 0
680 -679 0
681 -680 0
682 -681 0
683 -682 0
684 -683 0
685 -684 0
686 -685 0
-196 -685 0
687 -686 0
-197 -686 0
688 -687 0
-198 -687 0
689 -688 0
-199 -688 0
690 -689 0
-200 -689 0
-201 -690 0
-181 442 0
-182 442 0
-183 442 0
-184 442 0
-185 442 0
-186 442 0
-187 442 0
-188 442 0
-181 443 0
-189 443 0
-190 443 0
-191 443 0
-192 443 0
-193 443 0
-194 443 0
-195 443 0
191 -443 190 189 181 192 193 194 195 0
-182 444 0
-189 444 0
-196 444 0
-197 444 0
-198 444 0
-199 444 0
-200 444 0
-201 444 0
200 -444 189 182 197 196 199 198 201 0
238 239 227 230 234 224 225 237 220 219 221 222 217 223 231 218 235 228 229 236 226 232 233 240 241 242 243 244 245 246 247 248 249 250 251 252 0
706 -217 0
-706 707 0
-218 -706 0
-218 707 0
-707 708 0
-219 708 0
-708 709 0
-220 709 0
-709 710 0
-221 710 0
-710 711 0
-222 711 0
-711 712 0
-223 712 0
-712 713 0
-224 713 0
-713 714 0
-713 -225 0
715 -714 0
-714 -226 0
716 -715 0
-227 -715 0
717 -716 0
-228 -716 0
718 -717 0
-229 -717 0
719 -718 0
-230 -718 0
-231 -719 0
-217 451 0
-218 451 0
-219 451 0
-220 451 0
-221 451 0
-222 451 0
-223 451 0
-224 451 0
-451 219 217 218 220 221 222 223 224 0
-217 452 0
-225 452 0
-226 452 0
-227 452 0
-228 452 0
-229 452 0
-230 452 0
-231 452 0
227 -452 217 225 226 230 229 228 231 0
-218 453 0
-225 453 0
-232 453 0
-233 453 0
-234 453 0
-235 453 0
-236 453 0
-237 453 0
236 -453 225 218 232 237 235 234 233 0
255 259 271 270 274 256 257 260 258 275 263 264 265 266 267 253 254 261 262 272 273 268 269 276 277 278 279 280 281 282 283 284 285 286 287 288 0
741 -253 0
-254 -741 0
-253 460 0
-254 460 0
-255 460 0
-256 460 0
-257 460 0
-258 460 0
-259 460 0
-260 460 0
-460 255 253 254 256 257 258 259 260 0
-253 461 0
-261 461 0
-262 461 0
-263 461 0
-264 461 0
-265 461 0
-266 461 0
-267 461 0
263 -461 262 261 253 266 265 264 267 0
-254 462 0
-261 462 0
-268 462 0
-269 462 0
-270 462 0
-271 462 0
-272 462 0
-273 462 0
271 -462 261 254 268 269 270 272 273 0
311 310 289 300 297 293 294 295 290 296 292 304 298 301 302 291 303 305 299 306 307 308 309 312 313 314 315 316 317 318 319 320 321 322 323 324 0
776 -289 0
-776 777 0
-290 -776 0
-290 777 0
-777 778 0
-291 778 0
-778 779 0
-292 779 0
-779 780 0
-293 780 0
-780 781 0
-294 781 0
-781 782 0
-295 782 0
-782 783 0
-296 783 0
-783 784 0
-783 -297 0
-784 785 0
-785 786 0
-786 787 0
-787 788 0
-788 789 0
790 -789 0
791 -790 0
-304 -790 0
792 -791 0
-305 -791 0
793 -792 0
-306 -792 0
794 -793 0
-307 -793 0
795 -794 0
-308 -794 0
-309 -795 0
-289 469 0
-290 469 0
-291 469 0
-292 469 0
-293 469 0
-294 469 0
-295 469 0
-296 469 0
-469 292 290 289 291 293 294 295 296 0
-289 470 0
470 -297 0
470 -298 0
470 -299 0
470 -300 0
470 -301 0
470 -302 0
470 -303 0
297 303 289 -470 302 298 301 300 299 0
-290 471 0
471 -297 0
-304 471 0
-305 471 0
-306 471 0
-307 471 0
-308 471 0
-309 471 0
297 290 309 -471 304 305 306 307 308 0
472 -298 0
473 -299 0
474 -300 0
475 -301 0
476 -302 0
477 -303 0
360 359 341 340 328 332 329 330 347 346 333 336 337 338 339 325 331 342 343 344 345 326 327 348 349 350 351 352 353 354 355 356 357 335 334 358 0
811 -325 0
812 -811 0
-326 -811 0
813 -812 0
814 -813 0
815 -814 0
816 -815 0
817 -816 0
818 -817 0
819 -818 0
820 -819 0
821 -820 0
822 -821 0
823 -822 0
824 -823 0
825 -824 0
826 -825 0
-340 -825 0
827 -826 0
-341 -826 0
828 -827 0
-342 -827 0
829 -828 0
-343 -828 0
830 -829 0
-344 -829 0
-345 -830 0
478 -325 0
-326 478 0
-327 478 0
-328 478 0
-329 478 0
-330 478 0
-331 478 0
-332 478 0
-325 479 0
-333 479 0
-334 479 0
-335 479 0
-336 479 0
-337 479 0
-338 479 0
-339 479 0
325 -479 336 334 333 335 337 338 339 0
-333 480 0
-340 480 0
-341 480 0
-342 480 0
-343 480 0
-344 480 0
-345 480 0
-480 345 333 326 340 341 342 343 344 0
846 -361 0
847 -846 0
-362 -846 0
848 -847 0
849 -848 0
850 -849 0
851 -850 0
852 -851 0
853 -852 0
854 -853 0
-369 -853 0
855 -854 0
856 -855 0
857 -856 0
858 -857 0
859 -858 0
860 -859 0
861 -860 0
-376 -860 0
862 -861 0
-377 -861 0
863 -862 0
-378 -862 0
864 -863 0
-379 -863 0
865 -864 0
-380 -864 0
-381 -865 0
-361 487 0
-362 487 0
-369 488 0
375 374 -488 361 369 370 371 372 373 0
381 369 -489 378 362 376 379 377 380 0
-1695 0
1623 -1614 416 0
1632 -1623 425 0
1641 -1632 434 0
1650 -1641 443 0
1659 -1650 452 0
1668 -1659 461 0
1677 470 -1668 0
-1677 1686 479 0
488 -1686 1695 0
-2171 0
488 -2162 2171 0
-2428 0
2430 0
-2529 0
-2431 0
-2433 0
-2436 0
-1 -2536 2428 0
2536 -16 2431 -2430 0
-18 2536 2433 -2430 0
-21 2536 2436 -2430 0
-2437 397 2428 0
-2437 2536 2428 0
399 2439 -2430 0
2439 2536 -2430 0
-2446 406 2437 0
2448 408 -2439 0
-2455 2446 415 0
2457 -2448 417 0
-2464 2455 424 0
2466 426 -2457 0
-2473 2464 433 0
2475 435 -2466 0
-2482 2473 442 0
2484 -2475 444 0
-2542 -217 2482 0
-2491 2542 2482 0
2493 453 -2484 0
2493 2542 -2484 0
-2500 2491 460 0
2502 -2493 462 0
-2509 2500 469 0
2511 471 -2502 0
-2518 478 2509 0
489 -2520 2529 0
-2785 0
-2884 0
2786 0
-2885 0
2787 0
-2886 0
2788 0
2789 0
2791 0
2792 0
-2893 -9 -2787 0
-2893 -10 -2788 0
-2893 -11 -2789 0
-13 -2893 -2791 0
-2893 -14 -2792 0
397 -2794 2785 0
398 2795 -2786 0
2893 2795 -2786 0
399 2796 -2787 0
-2803 406 2794 0
2804 407 -2795 0
2805 408 -2796 0
-2812 2803 415 0
2813 -2804 416 0
2814 -2805 417 0
-2821 2812 424 0
2822 -2813 425 0
2823 426 -2814 0
-2821 2830 433 0
-2830 2821 433 0
2831 -2822 434 0
2832 435 -2823 0
-2898 -181 -2831 0
-2830 2898 -181 2831 0
-2839 2830 442 0
2840 -2831 443 0
2898 2840 -2831 0
-2898 -443 2840 2831 0
2841 -2832 444 0
-2848 2839 451 0
2849 -2840 452 0
2850 453 -2841 0
-2857 2848 460 0
2858 -2849 461 0
2859 -2850 462 0
-2857 2866 469 0
-2866 2857 469 0
2867 470 -2858 0
2868 471 -2859 0
-2902 -333 -2868 0
-2866 478 2875 0
-2902 2875 -478 2866 0
-2867 479 2876 0
-2867 2876 2902 0
-2868 2877 480 0
-2868 2877 2902 0
-2903 -2876 -361 0
-2903 -369 -2877 0
487 -2875 2884 0
2903 -2875 2884 0
-2876 488 2885 0
-2876 2903 2885 0
-488 -2903 2876 2885 0
2903 -2877 2886 0
-3480 0
-3471 488 3480 0
4094 0
-4193 0
4095 0
-4194 0
4195 0
-4202 -1 -4095 0
397 4103 -4094 0
4103 4202 -4094 0
398 4104 -4095 0
4104 4202 -4095 0
4112 406 -4103 0
4113 407 -4104 0
-4204 -73 -4113 0
4204 4113 -73 -4112 0
4121 -4112 415 0
4122 -4113 416 0
4204 4122 -4113 0
-4204 4113 -416 4122 0
-4205 -109 -4122 0
4205 4122 -109 -4121 0
4130 -4121 424 0
4131 -4122 425 0
4205 4131 -4122 0
-4205 4122 -425 4131 0
-4206 -145 -4131 0
4139 -4130 433 0
4206 4139 -4130 0
4140 -4131 434 0
-4206 4131 -434 4140 0
-4207 -181 -4140 0
4148 -4139 442 0
4207 4148 -4139 0
4149 -4140 443 0
-4207 4140 -443 4149 0
-4208 -217 -4149 0
4157 -4148 451 0
4208 4157 -4148 0
4158 -4149 452 0
4149 4158 -452 -4208 0
-4209 -253 -4158 0
4209 4158 -253 -4157 0
4166 -4157 460 0
4167 -4158 461 0
4209 4167 -4158 0
-4209 4158 -461 4167 0
-4210 -289 -4167 0
4167 4210 -4166 -289 0
4175 -4166 469 0
4210 4175 -4166 0
-4210 -469 -4175 -4166 0
4176 470 -4167 0
4210 4176 -4167 0
4167 -4210 -470 4176 0
-4176 -4211 -325 0
4176 4211 -325 -4175 0
478 -4175 4184 0
4211 -4175 4184 0
-4176 479 4185 0
-4176 4211 4185 0
4176 -479 4185 -4211 0
-361 -4185 -4212 0
-376 4186 -4212 0
-377 4186 -4212 0
-378 4186 -4212 0
-379 4186 -4212 0
-380 4186 -4212 0
-381 4186 -4212 0
-4184 487 4193 0
4212 -4184 4193 0
-4212 -487 4184 4193 0
-4185 488 4194 0
4212 -4185 4194 0
-488 -4212 4185 4194 0
489 4186 -4195 0
4212 4186 -4195 0
-4186 -489 -4212 -4195 0
5046 0
-5145 0
5047 0
5146 0
5048 0
5147 0
-5051 0
-5154 -1 -5047 0
-5154 -2 -5048 0
-5154 -9 -5048 0
-12 5154 5051 -5047 0
5055 397 -5046 0
5055 5154 -5046 0
398 5056 -5047 0
5056 5154 -5047 0
-5056 -5154 -398 -5047 0
399 5057 -5048 0
5057 5154 -5048 0
-5155 -37 -5056 0
-5155 -38 -5057 0
5064 406 -5055 0
5155 5064 -5055 0
5065 407 -5056 0
5066 408 -5057 0
5073 -5064 415 0
5074 -5065 416 0
5075 -5066 417 0
5082 -5073 424 0
5083 -5074 425 0
5084 426 -5075 0
5091 -5082 433 0
5092 -5083 434 0
5093 435 -5084 0
5100 -5091 442 0
5101 -5092 443 0
5102 -5093 444 0
5109 -5100 451 0
5110 -5101 452 0
5111 453 -5102 0
5118 -5109 460 0
-5110 5119 461 0
5120 -5111 462 0
5127 -5118 469 0
5162 5128 -5119 0
-471 -5120 -5162 -5129 0
-5128 -325 -5163 0
5128 5163 -5127 -325 0
478 -5127 5136 0
5163 -5127 5136 0
5137 5163 -5128 0
5137 5128 -5163 -479 0
5129 -5138 480 0
-5136 487 5145 0
5164 -5136 5145 0
-5137 -5164 -488 -5146 0
5164 5138 -5147 0
5641 0
-5740 0
-5642 0
-5741 0
5643 0
5749 -1 5642 -5641 0
-5749 -2 -5643 0
5650 397 -5641 0
5749 5650 -5641 0
-5650 -5749 -397 -5641 0
5651 -5749 -398 5642 0
399 5652 -5643 0
5659 406 -5650 0
5668 -5659 415 0
5677 -5668 424 0
-5669 5678 425 0
5686 -5677 433 0
-5678 5687 434 0
-5687 -5754 -181 0
5695 -5686 442 0
5754 5695 -5686 0
-5687 5696 443 0
-5754 -443 5687 5696 0
5704 -5695 451 0
-5696 5705 452 0
-5705 -5756 -253 0
5713 -5704 460 0
5756 5713 -5704 0
-5705 5714 461 0
-5756 5705 -461 5714 0
5722 -5713 469 0
-5714 5723 470 0
5731 478 -5722 0
-5723 479 5732 0
-5759 -361 -5732 0
487 -5731 5740 0
-5731 5759 5740 0
-5732 488 5741 0
-488 -5759 5732 5741 0
-5760 0
-5859 0
5761 0
-5860 0
-5762 0
5861 0
5763 0
5764 0
5765 0
5766 0
5767 0
5768 0
-5868 -1 5760 0
-5868 -2 5760 0
-3 -5868 5760 0
-4 -5868 5760 0
-5 -5868 5760 0
-6 -5868 5760 0
-7 -5868 5760 0
-8 -5868 5760 0
5868 -9 5762 -5761 0
-5868 -10 -5763 0
-5868 -11 -5764 0
-12 -5868 -5765 0
-13 -5868 -5766 0
-5868 -14 -5767 0
-15 -5868 -5768 0
-5868 -16 -5763 0
-17 -5868 -5764 0
-5868 -18 -5765 0
-19 -5868 -5766 0
-20 -5868 -5767 0
-21 -5868 -5768 0
-22 -5868 -5764 0
-23 -5868 -5765 0
-24 -5868 -5766 0
-25 -5868 -5767 0
-26 -5868 -5768 0
-27 -5868 -5765 0
-28 -5868 -5766 0
-29 -5868 -5767 0
-30 -5868 -5768 0
-31 -5868 -5766 0
-32 -5868 -5767 0
-33 -5868 -5768 0
-34 -5868 -5767 0
-35 -5868 -5768 0
-36 -5868 -5768 0
-5769 397 5760 0
-5769 5868 5760 0
-397 -5868 5769 5760 0
5770 398 -5761 0
5770 5868 -5761 0
-398 -5868 -5770 -5761 0
-5771 399 5762 0
-5771 5868 5762 0
-5869 -37 5769 0
-38 -5869 5769 0
5869 -45 -5770 5771 0
-5778 406 5769 0
-5778 5869 5769 0
5779 407 -5770 0
-5779 407 5770 0
5869 5779 -5770 0
-5780 408 5771 0
-5870 -73 5778 0
-5870 -74 5778 0
-5787 5778 415 0
-5787 5870 5778 0
5788 -5779 416 0
-5788 5779 416 0
-5789 5780 417 0
-5789 5780 5870 0
-5871 -109 5787 0
-5871 -109 -5788 0
-5871 -110 5787 0
-5796 5787 424 0
-5796 5871 5787 0
5797 -5788 425 0
5797 -5788 5871 0
-5798 426 5789 0
-5872 -145 5796 0
-5872 -145 -5797 0
-5796 5805 433 0
-5805 5796 433 0
5872 -5796 5805 0
-5805 5872 5796 0
5806 -5797 434 0
-5807 435 5798 0
-5807 5872 5798 0
-5873 -181 5805 0
-5873 -181 -5806 0
-5873 -182 5805 0
-5805 5814 442 0
-5814 5805 442 0
5873 -5805 5814 0
-5814 5873 5805 0
5815 -5806 443 0
-5816 5807 444 0
-5816 5873 5807 0
-5874 -217 5814 0
-5874 -217 -5815 0
-5874 -218 5814 0
-232 -5874 5816 0
-233 -5874 5816 0
-234 -5874 5816 0
-235 -5874 5816 0
-5874 -236 5816 0
-237 -5874 5816 0
-5814 5823 451 0
-5823 5814 451 0
-5814 5823 5874 0
-5823 5874 5814 0
-5874 -451 5823 5814 0
5824 -5815 452 0
-5825 453 5816 0
-5825 5874 5816 0
-5875 -253 5823 0
-5875 -253 -5824 0
-5875 -254 5823 0
-255 -5875 5823 0
-256 -5875 5823 0
-257 -5875 5823 0
-258 -5875 5823 0
-259 -5875 5823 0
-260 -5875 5823 0
-268 -5875 5825 0
-269 -5875 5825 0
-270 -5875 5825 0
-271 -5875 5825 0
-272 -5875 5825 0
-273 -5875 5825 0
-5823 5832 460 0
-5832 5823 460 0
5875 -5823 5832 0
-5832 5875 5823 0
-5875 -460 5832 5823 0
5833 -5824 461 0
5824 -5833 461 0
-5834 5825 462 0
-5834 5875 5825 0
-5875 -5825 -462 -5834 0
-5876 -289 -5833 0
-5876 -290 5832 0
-304 -5876 5834 0
-305 -5876 5834 0
-306 -5876 5834 0
-307 -5876 5834 0
-308 -5876 5834 0
-309 -5876 5834 0
-5832 5841 469 0
-5841 5832 469 0
5876 -5832 5841 0
-5841 5876 5832 0
-5876 -469 5841 5832 0
5842 470 -5833 0
5833 -5842 470 0
-5843 471 5834 0
-5843 5876 5834 0
-5876 -5834 -471 -5843 0
-5842 -5877 -325 0
-5877 -326 5841 0
-5843 -5877 -326 0
-333 5842 -5877 0
-340 5843 -5877 0
-341 5843 -5877 0
-342 5843 -5877 0
-343 5843 -5877 0
-344 5843 -5877 0
-345 5843 -5877 0
-5841 478 5850 0
478 5841 -5850 0
5877 -5841 5850 0
-5877 5850 5841 -478 0
-5842 5851 479 0
5843 -5852 480 0
5843 -5852 5877 0
-5851 -5878 -361 0
-362 -5852 -5878 0
-376 5852 -5878 0
-377 5852 -5878 0
-378 5852 -5878 0
-379 5852 -5878 0
-380 5852 -5878 0
-381 5852 -5878 0
487 -5850 5859 0
5878 -5850 5859 0
-487 -5878 5850 5859 0
-5851 488 5860 0
5878 -5851 5860 0
-488 -5878 5851 5860 0
489 5852 -5861 0
5852 5878 -5861 0
5879 0
-5978 0
5880 0
5979 0
-5881 0
5980 0
5882 0
5883 0
5884 0
5885 0
5886 0
5887 0
-5987 -1 -5880 0
-2 5987 5881 -5879 0
-5987 -3 -5882 0
-5987 -4 -5883 0
-5987 -5 -5884 0
-5987 -6 -5885 0
-5987 -7 -5886 0
-5987 -8 -5887 0
-9 5987 5881 -5880 0
-5987 -10 -5882 0
-5987 -11 -5883 0
-5987 -12 -5884 0
-5987 -13 -5885 0
-5987 -14 -5886 0
-5987 -15 -5887 0
-5987 -16 -5882 0
-5987 -17 -5883 0
-5987 -18 -5884 0
-5987 -19 -5885 0
-5987 -20 -5886 0
-5987 -21 -5887 0
-5987 -22 -5883 0
-5987 -23 -5884 0
-5987 -24 -5885 0
-5987 -25 -5886 0
-5987 -26 -5887 0
-5987 -27 -5884 0
-5987 -28 -5885 0
-5987 -29 -5886 0
-5987 -30 -5887 0
-5987 -31 -5885 0
-5987 -32 -5886 0
-5987 -33 -5887 0
-5987 -34 -5886 0
-5987 -35 -5887 0
-5987 -36 -5887 0
5888 397 -5879 0
5888 5987 -5879 0
-397 -5987 -5888 -5879 0
5889 398 -5880 0
5889 5987 -5880 0
-398 -5987 -5889 -5880 0
-5890 399 5881 0
-5890 5987 5881 0
5890 -5987 -399 5881 0
5891 400 -5882 0
5891 5987 -5882 0
5892 401 -5883 0
5892 5987 -5883 0
5893 402 -5884 0
5893 5987 -5884 0
5894 403 -5885 0
5894 5987 -5885 0
5895 404 -5886 0
5895 5987 -5886 0
5896 405 -5887 0
5896 5987 -5887 0
-37 -5988 -5889 0
-38 -5988 -5890 0
5988 -38 5890 -5888 0
-39 -5988 -5891 0
-40 -5988 -5892 0
-41 -5988 -5893 0
-42 -5988 -5894 0
-43 -5988 -5895 0
-44 -5988 -5896 0
-45 -5988 -5890 0
5988 -45 5890 -5889 0
-46 -5988 -5891 0
-47 -5988 -5892 0
-48 -5988 -5893 0
-5988 -49 -5894 0
-50 -5988 -5895 0
-51 -5988 -5896 0
-52 -5988 5890 0
-52 -5988 -5891 0
-53 -5988 5890 0
-53 -5988 -5892 0
-54 -5988 5890 0
-54 -5988 -5893 0
-55 -5988 5890 0
-55 -5988 -5894 0
-56 -5988 5890 0
-56 -5988 -5895 0
-57 -5988 5890 0
-57 -5988 -5896 0
-58 -5988 -5892 0
-59 -5988 -5893 0
-60 -5988 -5894 0
-61 -5988 -5895 0
-62 -5988 -5896 0
-63 -5988 -5893 0
-64 -5988 -5894 0
-65 -5988 -5895 0
-66 -5988 -5896 0
-67 -5988 -5894 0
-68 -5988 -5895 0
-69 -5988 -5896 0
-70 -5988 -5895 0
-71 -5988 -5896 0
-72 -5988 -5896 0
5897 406 -5888 0
-5897 406 5888 0
5988 5897 -5888 0
-406 -5897 -5988 -5888 0
5898 407 -5889 0
-5898 407 5889 0
5988 5898 -5889 0
-5988 -407 -5898 -5889 0
408 5899 -5890 0
-5899 408 5890 0
5988 5899 -5890 0
5988 -5899 5890 0
-5988 -408 5899 5890 0
5900 5988 -5891 0
5901 5988 -5892 0
5902 5988 -5893 0
5903 5988 -5894 0
5904 5988 -5895 0
5905 5988 -5896 0
-73 -5898 -5989 0
5989 -73 5898 -5897 0
-75 -5900 -5989 0
-76 -5901 -5989 0
-77 -5902 -5989 0
-78 -5903 -5989 0
-79 -5904 -5989 0
-80 -5905 -5989 0
5898 -81 -5989 0
5989 -81 5899 -5898 0
-82 -5900 -5989 0
-83 -5901 -5989 0
-84 -5902 -5989 0
-85 -5903 -5989 0
-86 -5904 -5989 0
-5905 -87 -5989 0
-88 -5989 5899 0
-89 -5989 5899 0
-90 -5989 5899 0
-91 -5989 5899 0
-92 -5989 5899 0
-93 -5989 5899 0
-94 -5901 -5989 0
-95 -5902 -5989 0
-96 -5903 -5989 0
-97 -5904 -5989 0
-98 -5905 -5989 0
-99 -5902 -5989 0
-100 -5903 -5989 0
-101 -5904 -5989 0
-102 -5905 -5989 0
-103 -5903 -5989 0
-104 -5904 -5989 0
-105 -5905 -5989 0
-106 -5904 -5989 0
-107 -5905 -5989 0
-108 -5905 -5989 0
5906 -5897 415 0
5897 -5906 415 0
5989 5906 -5897 0
-415 -5906 -5989 -5897 0
5907 -5898 416 0
5898 -5907 416 0
5989 5907 -5898 0
-416 -5898 -5989 -5907 0
-5908 417 5899 0
5989 -5908 5899 0
-417 -5989 5908 5899 0
5906 -109 -5990 0
-109 -5907 -5990 0
-5990 -110 5906 0
5990 -110 5908 -5906 0
5907 -117 -5990 0
-118 5907 -5990 0
-119 5907 -5990 0
-120 5907 -5990 0
-121 5907 -5990 0
-122 5907 -5990 0
-123 5907 -5990 0
-124 -5990 5908 0
-125 -5990 5908 0
-126 -5990 5908 0
-127 -5990 5908 0
-128 -5990 5908 0
-129 -5990 5908 0
5915 -5906 424 0
5906 -5915 424 0
5990 5915 -5906 0
5990 5906 -5915 0
-424 -5915 -5990 -5906 0
5916 -5907 425 0
5907 -5916 425 0
5990 5916 -5907 0
5990 5907 -5916 0
-425 -5916 -5990 -5907 0
-5917 426 5908 0
5990 -5917 5908 0
-426 -5990 5917 5908 0
5915 -145 -5991 0
5915 -146 -5991 0
5916 -153 -5991 0
-153 -5991 -5917 0
5991 -153 5917 -5916 0
-160 -5991 5917 0
-161 -5991 5917 0
-162 -5991 5917 0
-163 -5991 5917 0
-164 -5991 5917 0
-165 -5991 5917 0
5924 -5915 433 0
5915 -5924 433 0
5991 5924 -5915 0
-433 -5924 -5991 -5915 0
5925 -5916 434 0
5916 -5925 434 0
5991 5925 -5916 0
5991 5916 -5925 0
-5991 -434 -5916 -5925 0
-5926 435 5917 0
5991 -5926 5917 0
-181 -5925 -5992 0
5992 -181 5925 -5924 0
5924 -182 -5992 0
5925 -189 -5992 0
-190 5925 -5992 0
-191 5925 -5992 0
-192 5925 -5992 0
-193 5925 -5992 0
-194 5925 -5992 0
-195 5925 -5992 0
-196 -5992 5926 0
-197 -5992 5926 0
-198 -5992 5926 0
-199 -5992 5926 0
-200 -5992 5926 0
-201 -5992 5926 0
5933 -5924 442 0
5924 -5933 442 0
5992 5933 -5924 0
-442 -5933 -5992 -5924 0
5934 -5925 443 0
5925 -5934 443 0
5992 5925 -5934 0
-443 -5934 -5992 -5925 0
-5935 444 5926 0
5992 -5935 5926 0
5933 -217 -5993 0
-217 -5934 -5993 0
5933 -218 -5993 0
5934 -225 -5993 0
-226 5934 -5993 0
-227 5934 -5993 0
-228 5934 -5993 0
-229 5934 -5993 0
-230 5934 -5993 0
-231 5934 -5993 0
-232 -5993 5935 0
-233 -5993 5935 0
-234 -5993 5935 0
-235 -5993 5935 0
-236 -5993 5935 0
-237 -5993 5935 0
5942 -5933 451 0
5933 -5942 451 0
5993 5942 -5933 0
5933 -451 -5993 5942 0
-451 -5942 -5993 -5933 0
5943 -5934 452 0
5934 -5943 452 0
5993 5934 -5943 0
-452 5934 -5993 5943 0
-452 -5943 -5993 -5934 0
-5944 453 5935 0
5993 -5944 5935 0
-253 5942 -5994 0
-253 -5943 -5994 0
5943 -261 -5994 0
-262 5943 -5994 0
-263 5943 -5994 0
-264 5943 -5994 0
-265 5943 -5994 0
-266 5943 -5994 0
-267 5943 -5994 0
-268 -5994 5944 0
-269 -5994 5944 0
-270 -5994 5944 0
-271 -5994 5944 0
-272 -5994 5944 0
-273 -5994 5944 0
5951 -5942 460 0
5942 -5951 460 0
5951 5994 -5942 0
-460 -5951 -5994 -5942 0
5952 -5943 461 0
5943 461 -5952 0
5994 5943 -5952 0
-461 -5943 -5994 -5952 0
-5953 462 5944 0
5994 -5953 5944 0
5951 -289 -5995 0
-289 -5952 -5995 0
-290 -5953 -5995 0
5952 -297 -5995 0
-297 -5953 -5995 0
5952 -298 -5995 0
-5954 -298 -5995 0
5952 -299 -5995 0
-5955 -299 -5995 0
5952 -300 -5995 0
-5956 -300 -5995 0
5952 -301 -5995 0
-5957 -301 -5995 0
5952 -302 -5995 0
-5958 -302 -5995 0
5952 -303 -5995 0
-5959 -303 -5995 0
-304 5953 -5995 0
-305 5953 -5995 0
-306 5953 -5995 0
-307 5953 -5995 0
-308 5953 -5995 0
-309 5953 -5995 0
5960 -5951 469 0
5951 -5960 469 0
5960 5995 -5951 0
-469 -5951 -5995 -5960 0
470 5961 -5952 0
-5961 5952 470 0
5995 5961 -5952 0
5995 5952 -5961 0
-5961 -470 -5995 -5952 0
471 5953 -5962 0
5995 5953 -5962 0
-5961 -5996 -325 0
-333 -5996 5961 0
-334 -5996 5961 0
-335 -5996 5961 0
-336 -5996 5961 0
-337 -5996 5961 0
-338 -5996 5961 0
-339 -5996 5961 0
-340 5962 -5996 0
-341 5962 -5996 0
-342 5962 -5996 0
-343 5962 -5996 0
-344 5962 -5996 0
-345 5962 -5996 0
478 -5960 5969 0
5960 478 -5969 0
5996 -5960 5969 0
5960 -5996 5969 -478 0
479 5961 -5970 0
5996 5961 -5970 0
5970 -479 5961 -5996 0
-5961 -479 -5970 -5996 0
5962 -5971 480 0
5996 5962 -5971 0
-369 5970 -5997 0
-370 5970 -5997 0
-371 5970 -5997 0
-372 5970 -5997 0
-373 5970 -5997 0
-374 5970 -5997 0
5970 -5997 -375 0
-376 -5997 5971 0
-377 -5997 5971 0
-378 -5997 5971 0
-379 -5997 5971 0
-380 -5997 5971 0
-381 -5997 5971 0
-5969 487 5978 0
5997 -5969 5978 0
5970 488 -5979 0
5997 5970 -5979 0
-5970 -5997 -488 -5979 0
5971 489 -5980 0
5997 5971 -5980 0
5998 0
-6097 0
-5999 0
6098 0
6000 0
6001 0
6002 0
6003 0
6004 0
6005 0
6006 0
6106 -1 5999 -5998 0
-6106 -9 -6000 0
-10 -6106 -6001 0
-11 -6106 -6002 0
-6106 -12 -6003 0
-13 -6106 -6004 0
-14 -6106 -6005 0
-15 -6106 -6006 0
-17 -6106 -6002 0
-19 -6106 -6004 0
-20 -6106 -6005 0
6007 397 -5998 0
-6007 -6106 -397 -5998 0
-6008 398 5999 0
-6008 6106 5999 0
6008 -6106 -398 5999 0
-45 -6107 6008 0
-46 -6107 6008 0
-47 -6107 6008 0
-48 -6107 6008 0
-49 -6107 6008 0
-50 -6107 6008 0
-51 -6107 6008 0
6016 406 -6007 0
-6016 406 6007 0
6017 407 -6008 0
-6017 407 6008 0
6107 -6017 6008 0
6108 -73 -6016 6017 0
-6108 -81 6017 0
-82 -6108 6017 0
-83 -6108 6017 0
-84 -6108 6017 0
-85 -6108 6017 0
-86 -6108 6017 0
-87 -6108 6017 0
6025 -6016 415 0
6016 -6025 415 0
-6017 6026 416 0
-6026 6017 416 0
-6026 6108 6017 0
-6108 -416 6026 6017 0
-6109 -117 6026 0
-118 -6109 6026 0
-119 -6109 6026 0
-120 -6109 6026 0
-121 -6109 6026 0
-122 -6109 6026 0
-123 -6109 6026 0
6034 -6025 424 0
6025 -6034 424 0
-6026 6035 425 0
-6035 6026 425 0
6109 -6035 6026 0
-6110 -153 6035 0
-154 -6110 6035 0
-155 -6110 6035 0
-156 -6110 6035 0
-157 -6110 6035 0
-158 -6110 6035 0
-159 -6110 6035 0
6043 -6034 433 0
6034 -6043 433 0
6044 -6035 434 0
-6044 6035 434 0
6110 -6044 6035 0
-6111 -181 6043 0
-6111 -189 6044 0
-190 -6111 6044 0
-191 -6111 6044 0
-192 -6111 6044 0
-193 -6111 6044 0
-194 -6111 6044 0
-195 -6111 6044 0
6052 -6043 442 0
6043 -6052 442 0
-6044 6053 443 0
-6053 6044 443 0
6111 -6053 6044 0
-6112 -225 6053 0
-226 -6112 6053 0
-227 -6112 6053 0
-228 -6112 6053 0
-229 -6112 6053 0
-230 -6112 6053 0
-231 -6112 6053 0
6061 -6052 451 0
6052 -6061 451 0
6062 -6053 452 0
-6062 6053 452 0
6112 -6062 6053 0
6061 -253 -6113 0
-6113 -261 6062 0
-262 -6113 6062 0
-263 -6113 6062 0
-264 -6113 6062 0
-265 -6113 6062 0
-266 -6113 6062 0
-267 -6113 6062 0
6070 -6061 460 0
6061 -6070 460 0
-6062 6071 461 0
-6071 6062 461 0
6113 -6071 6062 0
6070 -289 -6114 0
-6114 6071 -297 0
-6114 6071 -298 0
-6114 6071 -299 0
-6114 6071 -300 0
-6114 6071 -301 0
-6114 6071 -302 0
-6114 6071 -303 0
6079 -6070 469 0
-6071 470 6080 0
470 6071 -6080 0
6114 -6080 6071 0
-333 6080 -6115 0
-334 6080 -6115 0
-335 6080 -6115 0
-336 6080 -6115 0
-337 6080 -6115 0
-338 6080 -6115 0
-339 6080 -6115 0
478 -6079 6088 0
6079 -478 -6115 6088 0
-6088 -478 -6115 -6079 0
479 -6089 6080 0
6115 6080 -6089 0
-369 -6116 6089 0
-370 -6116 6089 0
-371 -6116 6089 0
-372 -6116 6089 0
-373 -6116 6089 0
-374 -6116 6089 0
-375 -6116 6089 0
487 -6088 6097 0
6116 -6088 6097 0
-6116 -487 6088 6097 0
6089 488 -6098 0
6089 6116 -6098 0
-6089 -6116 -488 -6098 0
8840 -397 5760 0
8840 -399 5762 0
8841 -406 5769 0
8841 -407 5770 0
8841 -408 5771 0
8842 -415 5778 0
8842 -417 5780 0
8843 -424 5787 0
8843 5788 -425 0
8843 -426 5789 0
8844 -433 5796 0
5797 8844 -434 0
8844 -435 5798 0
8845 -442 5805 0
5806 8845 -443 0
8845 -444 5807 0
8846 -451 5814 0
5815 8846 -452 0
8846 -453 5816 0
8847 -460 5823 0
5824 8847 -461 0
8847 -462 5825 0
8848 -469 5832 0
5833 8848 -470 0
8848 -471 5834 0
8849 5841 -478 0
5842 8849 -479 0
5843 8849 -480 0
8850 5850 -487 0
5851 8850 -488 0
8850 -489 5852 0
8851 -8840 0
8852 -8851 0
-8841 8853 -8851 0
-8853 8854 0
-8853 -8842 0
8852 -8841 0
8855 -8852 0
-8842 8854 -8852 0
-8854 8856 0
-8854 -8843 0
8855 -8842 0
8857 -8855 0
-8843 8856 -8855 0
-8856 8858 0
-8856 -8844 0
8857 -8843 0
8859 -8857 0
-8844 8858 -8857 0
-8858 8860 0
-8858 -8845 0
8859 -8844 0
8861 -8859 0
-8845 8860 -8859 0
-8860 8862 0
-8860 -8846 0
8861 -8845 0
8863 -8861 0
-8846 8862 -8861 0
-8862 8864 0
-8862 -8847 0
-8846 8863 0
8865 -8863 0
-8847 8864 -8863 0
-8864 8866 0
-8864 -8848 0
8865 -8847 0
8867 -8865 0
8866 -8848 -8865 0
8868 -8866 0
-8866 -8849 0
8868 -8849 -8867 0
-8850 -8868 0
8869 -399 5881 0
-407 8870 5889 0
-408 8870 5890 0
5897 -415 8871 0
5898 -416 8871 0
-417 5899 8871 0
5906 -424 8872 0
-425 5907 8872 0
-426 5908 8872 0
5915 -433 8873 0
-434 5916 8873 0
-435 5917 8873 0
5924 -442 8874 0
-443 5925 8874 0
-444 5926 8874 0
5933 -451 8875 0
-452 5934 8875 0
-453 5935 8875 0
5942 -460 8876 0
-461 5943 8876 0
-462 5944 8876 0
5951 -469 8877 0
5952 8877 -470 0
8877 -471 5953 0
5954 -472 8877 0
5955 -473 8877 0
5956 -474 8877 0
5957 -475 8877 0
5958 -476 8877 0
5959 -477 8877 0
5960 8878 -478 0
8878 -479 5961 0
5962 8878 -480 0
8879 5969 -487 0
8879 5970 -488 0
8879 -489 5971 0
8880 -8869 0
8881 -8880 0
-8870 8882 -8880 0
-8882 8883 0
-8871 -8882 0
-8870 8881 0
8884 -8881 0
-8871 8883 -8881 0
-8883 8885 0
-8872 -8883 0
-8871 8884 0
8886 -8884 0
-8872 8885 -8884 0
-8885 8887 0
-8885 -8873 0
-8872 8886 0
8888 -8886 0
-8873 8887 -8886 0
-8887 8889 0
-8874 -8887 0
-8873 8888 0
8890 -8888 0
-8874 8889 -8888 0
-8889 8891 0
-8889 -8875 0
-8874 8890 0
8892 -8890 0
-8875 8891 -8890 0
-8891 8893 0
-8891 -8876 0
-8875 8892 0
8894 -8892 0
-8876 8893 -8892 0
-8893 8895 0
-8893 -8877 0
-8876 8894 0
8896 -8894 0
-8877 8895 -8894 0
-8895 8897 0
-8895 -8878 0
8896 -8877 0
-8878 8897 -8896 0
-8897 -8879 0
8898 -397 0
8898 -398 0
-406 8899 0
-407 8899 0
-415 8900 0
-416 8900 0
-424 8901 0
-425 8901 0
-433 8902 0
-434 8902 0
-442 8903 0
-443 8903 0
-451 8904 0
-452 8904 0
-460 8905 0
-461 8905 0
-469 8906 0
8906 -470 0
8907 -478 0
8907 -479 0
8908 -487 0
8908 -488 0
8909 -8898 0
8910 -8909 0
-8899 8911 -8909 0
-8911 8912 0
-8911 -8900 8913 0
-8913 8914 0
-8913 -8901 0
-8899 8910 0
8915 -8910 0
-8900 8912 -8910 0
-8912 8916 0
-8912 -8901 8914 0
-8914 8917 0
-8914 -8902 0
-8900 8915 0
8918 -8915 0
-8901 8916 -8915 0
-8916 8919 0
-8916 -8902 8917 0
-8917 8920 0
-8917 -8903 0
-8901 8918 0
8921 -8918 0
-8902 8919 -8918 0
-8919 8922 0
-8919 -8903 8920 0
-8920 8923 0
-8920 -8904 0
-8902 8921 0
8924 -8921 0
-8903 8922 -8921 0
-8922 8925 0
-8922 -8904 8923 0
-8923 8926 0
-8923 -8905 0
-8903 8924 0
8927 -8924 0
-8904 8925 -8924 0
-8925 8928 0
-8925 -8905 8926 0
-8926 8929 0
-8926 -8906 0
-8904 8927 0
8930 -8927 0
-8905 8928 -8927 0
-8928 8931 0
-8928 8929 -8906 0
-8929 8932 0
-8929 -8907 0
-8905 8930 0
8931 -8906 -8930 0
-8931 -8907 8932 0
-8932 -8908 0
8968 -397 0
-406 8969 0
-415 8970 0
-424 8971 0
-433 8972 0
-442 8973 0
-451 8974 0
-460 8975 0
-469 8976 0
8977 -478 0
8978 -487 0
8979 -8968 0
8980 -8979 0
-8969 8981 -8979 0
-8981 8982 0
-8981 -8970 0
-8969 8980 0
8983 -8980 0
-8970 8982 -8980 0
-8982 8984 0
-8982 -8971 0
-8970 8983 0
8985 -8983 0
-8971 8984 -8983 0
-8984 8986 0
-8984 -8972 0
-8971 8985 0
8987 -8985 0
-8972 8986 -8985 0
-8986 8988 0
-8986 -8973 0
-8972 8987 0
8989 -8987 0
-8973 8988 -8987 0
-8988 8990 0
-8988 -8974 0
-8973 8989 0
8991 -8989 0
-8974 8990 -8989 0
-8990 8992 0
-8990 -8975 0
-8974 8991 0
8993 -8991 0
-8975 8992 -8991 0
-8992 8994 0
-8992 -8976 0
-8975 8993 0
8995 -8993 0
-8976 8994 -8993 0
-8994 8996 0
-8994 -8977 0
-8976 8995 0
8996 -8977 -8995 0
-8996 -8978 0
-39 -9 0
-40 -9 0
-41 -9 0
-42 -9 0
-43 -9 0
-44 -9 0
-38 -10 0
-38 -11 0
-12 -38 0
-38 -13 0
-38 -14 0
-38 -15 0
-37 -16 0
-17 -37 0
-37 -18 0
-19 -37 0
-20 -37 0
-21 -37 0
-22 -37 0
-22 -38 0
-22 -45 0
-23 -37 0
-23 -38 0
-23 -45 0
-24 -37 0
-24 -38 0
-24 -45 0
-25 -37 0
-25 -38 0
-25 -45 0
-26 -37 0
-26 -38 0
-26 -45 0
-27 -37 0
-27 -38 0
-27 -45 0
-28 -37 0
-28 -38 0
-28 -45 0
-29 -37 0
-29 -38 0
-29 -45 0
-30 -37 0
-30 -38 0
-30 -45 0
-31 -37 0
-31 -38 0
-31 -45 0
-32 -37 0
-32 -38 0
-32 -45 0
-33 -37 0
-33 -38 0
-33 -45 0
-34 -37 0
-34 -38 0
-34 -45 0
-35 -37 0
-35 -38 0
-35 -45 0
-36 -37 0
-36 -38 0
-36 -45 0
-46 -74 0
-47 -74 0
-48 -74 0
-74 -49 0
-50 -74 0
-51 -74 0
-52 -73 0
-53 -73 0
-54 -73 0
-55 -73 0
-56 -73 0
-57 -73 0
-58 -73 0
-58 -74 0
-58 -81 0
-59 -73 0
-59 -74 0
-59 -81 0
-60 -73 0
-60 -74 0
-60 -81 0
-61 -73 0
-61 -74 0
-61 -81 0
-62 -73 0
-62 -74 0
-62 -81 0
-63 -73 0
-63 -74 0
-63 -81 0
-64 -73 0
-64 -74 0
-64 -81 0
-65 -73 0
-65 -74 0
-65 -81 0
-66 -73 0
-66 -74 0
-66 -81 0
-67 -73 0
-67 -74 0
-67 -81 0
-68 -73 0
-68 -74 0
-68 -81 0
-69 -73 0
-69 -74 0
-69 -81 0
-70 -73 0
-70 -74 0
-70 -81 0
-71 -73 0
-71 -74 0
-71 -81 0
-72 -73 0
-72 -74 0
-72 -81 0
-82 -110 0
-83 -110 0
-84 -110 0
-85 -110 0
-86 -110 0
-110 -87 0
-88 -109 0
-89 -109 0
-90 -109 0
-91 -109 0
-92 -109 0
-93 -109 0
-94 -109 0
-94 -110 0
-94 -117 0
-95 -109 0
-95 -110 0
-95 -117 0
-96 -109 0
-96 -110 0
-96 -117 0
-97 -109 0
-97 -110 0
-97 -117 0
-98 -109 0
-98 -110 0
-98 -117 0
-99 -109 0
-99 -110 0
-99 -117 0
-100 -109 0
-100 -110 0
-100 -117 0
-101 -109 0
-101 -110 0
-101 -117 0
-102 -109 0
-102 -110 0
-102 -117 0
-103 -109 0
-103 -110 0
-103 -117 0
-104 -109 0
-104 -110 0
-104 -117 0
-105 -109 0
-105 -110 0
-105 -117 0
-106 -109 0
-106 -110 0
-106 -117 0
-107 -109 0
-107 -110 0
-107 -117 0
-108 -109 0
-108 -110 0
-108 -117 0
-146 -118 0
-119 -146 0
-120 -146 0
-121 -146 0
-122 -146 0
-123 -146 0
-124 -145 0
-125 -145 0
-126 -145 0
-127 -145 0
-128 -145 0
-129 -145 0
-130 -145 0
-130 -146 0
-130 -153 0
-131 -145 0
-131 -146 0
-131 -153 0
-132 -145 0
-132 -146 0
-132 -153 0
-133 -145 0
-133 -146 0
-133 -153 0
-134 -145 0
-134 -146 0
-134 -153 0
-135 -145 0
-135 -146 0
-135 -153 0
-136 -145 0
-136 -146 0
-136 -153 0
-137 -145 0
-137 -146 0
-137 -153 0
-138 -145 0
-138 -146 0
-138 -153 0
-139 -145 0
-139 -146 0
-139 -153 0
-140 -145 0
-140 -146 0
-140 -153 0
-141 -145 0
-141 -146 0
-141 -153 0
-142 -145 0
-142 -146 0
-142 -153 0
-143 -145 0
-143 -146 0
-143 -153 0
-144 -145 0
-144 -146 0
-144 -153 0
-154 -182 0
-155 -182 0
-156 -182 0
-182 -157 0
-158 -182 0
-159 -182 0
-160 -181 0
-161 -181 0
-181 -162 0
-163 -181 0
-164 -181 0
-165 -181 0
-166 -181 0
-166 -182 0
-166 -189 0
-167 -181 0
-167 -182 0
-167 -189 0
-168 -181 0
-168 -182 0
-168 -189 0
-169 -181 0
-169 -182 0
-169 -189 0
-170 -181 0
-170 -182 0
-170 -189 0
-171 -181 0
-171 -182 0
-171 -189 0
-172 -181 0
-172 -182 0
-172 -189 0
-173 -181 0
-173 -182 0
-173 -189 0
-174 -181 0
-174 -182 0
-174 -189 0
-175 -181 0
-175 -182 0
-175 -189 0
-176 -181 0
-176 -182 0
-176 -189 0
-177 -181 0
-177 -182 0
-177 -189 0
-178 -181 0
-178 -182 0
-178 -189 0
-179 -181 0
-179 -182 0
-179 -189 0
-180 -181 0
-180 -182 0
-180 -189 0
-218 -190 0
-191 -218 0
-192 -218 0
-193 -218 0
-194 -218 0
-195 -218 0
-196 -217 0
-197 -217 0
-198 -217 0
-199 -217 0
-200 -217 0
-201 -217 0
-202 -217 0
-202 -218 0
-202 -225 0
-203 -217 0
-203 -218 0
-203 -225 0
-204 -217 0
-204 -218 0
-204 -225 0
-205 -217 0
-205 -218 0
-205 -225 0
-206 -217 0
-206 -218 0
-206 -225 0
-207 -217 0
-207 -218 0
-207 -225 0
-208 -217 0
-208 -218 0
-208 -225 0
-209 -217 0
-209 -218 0
-209 -225 0
-210 -217 0
-210 -218 0
-210 -225 0
-211 -217 0
-211 -218 0
-211 -225 0
-212 -217 0
-212 -218 0
-212 -225 0
-213 -217 0
-213 -218 0
-213 -225 0
-214 -217 0
-214 -218 0
-214 -225 0
-215 -217 0
-215 -218 0
-215 -225 0
-216 -217 0
-216 -218 0
-216 -225 0
-232 -253 0
-233 -253 0
-234 -253 0
-235 -253 0
-253 -236 0
-237 -253 0
-238 -253 0
-238 -254 0
-238 -261 0
-239 -253 0
-239 -254 0
-239 -261 0
-240 -253 0
-240 -254 0
-240 -261 0
-241 -253 0
-241 -254 0
-241 -261 0
-242 -253 0
-242 -254 0
-242 -261 0
-243 -253 0
-243 -254 0
-243 -261 0
-244 -253 0
-244 -254 0
-244 -261 0
-245 -253 0
-245 -254 0
-245 -261 0
-246 -253 0
-246 -254 0
-246 -261 0
-247 -253 0
-247 -254 0
-247 -261 0
-248 -253 0
-248 -254 0
-248 -261 0
-249 -253 0
-249 -254 0
-249 -261 0
-250 -253 0
-250 -254 0
-250 -261 0
-251 -253 0
-251 -254 0
-251 -261 0
-252 -253 0
-252 -254 0
-252 -261 0
-290 -262 0
-263 -290 0
-264 -290 0
-265 -290 0
-266 -290 0
-267 -290 0
-268 -289 0
-269 -289 0
-270 -289 0
-271 -289 0
-272 -289 0
-273 -289 0
-274 -289 0
-274 -290 0
-274 -297 0
-275 -289 0
-275 -290 0
-275 -297 0
-276 -289 0
-276 -290 0
-276 -297 0
-277 -289 0
-277 -290 0
-277 -297 0
-278 -289 0
-278 -290 0
-278 -297 0
-279 -289 0
-279 -290 0
-279 -297 0
-280 -289 0
-280 -290 0
-280 -297 0
-281 -289 0
-281 -290 0
-281 -297 0
-282 -289 0
-282 -290 0
-282 -297 0
-283 -289 0
-283 -290 0
-283 -297 0
-284 -289 0
-284 -290 0
-284 -297 0
-285 -289 0
-285 -290 0
-285 -297 0
-286 -289 0
-286 -290 0
-286 -297 0
-287 -289 0
-287 -290 0
-287 -297 0
-288 -289 0
-288 -290 0
-288 -297 0
-326 -298 0
-326 -299 0
-326 -300 0
-326 -301 0
-326 -302 0
-326 -303 0
-304 -325 0
-305 -325 0
-306 -325 0
-307 -325 0
-308 -325 0
-309 -325 0
-310 -325 0
-310 -326 0
-310 -333 0
-311 -325 0
-311 -326 0
-311 -333 0
-312 -325 0
-312 -326 0
-312 -333 0
-313 -325 0
-313 -326 0
-313 -333 0
-314 -325 0
-314 -326 0
-314 -333 0
-315 -325 0
-315 -326 0
-315 -333 0
-316 -325 0
-316 -326 0
-316 -333 0
-317 -325 0
-317 -326 0
-317 -333 0
-318 -325 0
-318 -326 0
-318 -333 0
-319 -325 0
-319 -326 0
-319 -333 0
-320 -325 0
-320 -326 0
-320 -333 0
-321 -325 0
-321 -326 0
-321 -333 0
-322 -325 0
-322 -326 0
-322 -333 0
-323 -325 0
-323 -326 0
-323 -333 0
-324 -325 0
-324 -326 0
-324 -333 0
-362 -334 0
-335 -362 0
-336 -362 0
-337 -362 0
-338 -362 0
-339 -362 0
-340 -361 0
-341 -361 0
-342 -361 0
-343 -361 0
-344 -361 0
-345 -361 0
-346 -361 0
-346 -362 0
-347 -361 0
-347 -362 0
-348 -361 0
-348 -362 0
-349 -361 0
-349 -362 0
-350 -361 0
-350 -362 0
-351 -361 0
-351 -362 0
-352 -361 0
-352 -362 0
-353 -361 0
-353 -362 0
-354 -361 0
-354 -362 0
-355 -361 0
-355 -362 0
-356 -361 0
-356 -362 0
-357 -361 0
-357 -362 0
-358 -361 0
-358 -362 0
-359 -361 0
-359 -362 0
-360 -361 0
-360 -362 0
