p cnf 9684 526
30 26 10 4 5 6 7 8 2 3 11 12 13 14 15 1 9 16 17 18 19 20 21 22 23 24 27 28 29 25 31 32 33 34 35 36 0
-1 397 0
397 -2 0
397 -3 0
397 -4 0
397 -5 0
397 -6 0
397 -7 0
397 -8 0
398 -9 0
398 -10 0
398 -11 0
398 -12 0
398 -13 0
398 -14 0
398 -15 0
-37 406 0
46 45 37 -407 47 48 49 50 51 0
88 89 75 76 77 78 79 80 73 74 83 84 85 86 87 81 82 90 91 92 93 94 95 96 97 98 99 100 101 102 103 104 105 106 107 108 0
-73 415 0
-74 415 0
-75 415 0
-76 415 0
-77 415 0
-78 415 0
-79 415 0
-80 415 0
-73 416 0
-81 416 0
-82 416 0
-83 416 0
-84 416 0
-85 416 0
-86 416 0
-87 416 0
82 -416 73 81 83 84 85 86 87 0
-109 424 0
118 117 109 -425 119 120 121 122 123 0
-145 433 0
153 -434 145 154 155 156 157 158 159 0
-181 442 0
189 190 181 -443 191 192 193 194 195 0
232 233 219 220 221 222 223 224 217 218 227 228 229 230 231 225 226 234 235 236 237 238 239 240 241 242 243 244 245 246 247 248 249 250 251 252 0
-217 451 0
-218 451 0
-219 451 0
-220 451 0
-221 451 0
-222 451 0
-223 451 0
-224 451 0
-225 452 0
-226 452 0
-227 452 0
-228 452 0
-229 452 0
-230 452 0
-231 452 0
226 -452 217 225 227 228 229 230 231 0
269 268 263 264 257 258 259 260 253 254 255 256 265 266 267 261 262 270 271 272 273 274 275 276 277 278 279 280 281 282 283 284 285 286 287 288 0
-253 460 0
-254 460 0
-255 460 0
-256 460 0
-257 460 0
-258 460 0
-259 460 0
-260 460 0
-261 461 0
-262 461 0
-263 461 0
-264 461 0
-265 461 0
-266 461 0
-267 461 0
262 261 253 -461 263 264 265 266 267 0
305 304 291 292 293 294 295 296 289 290 299 300 301 302 303 297 298 306 307 308 309 310 311 312 313 314 315 316 317 318 319 320 321 322 323 324 0
-289 469 0
-290 469 0
-291 469 0
-292 469 0
-293 469 0
-294 469 0
-295 469 0
-296 469 0
-289 470 0
-297 470 0
-298 470 0
-299 470 0
-300 470 0
-301 470 0
-302 470 0
-303 470 0
298 297 289 -470 299 300 301 302 303 0
-325 478 0
333 334 325 -479 335 336 337 338 339 0
-361 487 0
361 370 369 -488 371 372 373 374 375 0
5284 0
-5383 0
-5384 0
397 5293 -5284 0
-5393 -37 -5294 0
5302 -5293 406 0
5393 5302 -5293 0
-5393 5303 -407 5294 0
-5394 -5303 -73 0
5311 -5302 415 0
5394 5311 -5302 0
-5303 5312 416 0
-5394 5303 -416 5312 0
-5312 -5395 -109 0
5320 -5311 424 0
5395 5320 -5311 0
-5312 5321 425 0
5312 5321 -425 -5395 0
-5321 -5396 -145 0
5329 -5320 433 0
5396 5329 -5320 0
-5321 5330 434 0
5330 5321 -434 -5396 0
-5397 -181 -5330 0
5338 -5329 442 0
5397 5338 -5329 0
5339 -5330 443 0
5330 5339 -443 -5397 0
-5339 -5398 -217 0
5347 -5338 451 0
5398 5347 -5338 0
-5339 5348 452 0
5339 5348 -452 -5398 0
-5399 -253 -5348 0
5356 -5347 460 0
5399 5356 -5347 0
-5348 5357 461 0
5348 5357 -461 -5399 0
-5357 -5400 -289 0
5365 -5356 469 0
5400 5365 -5356 0
-5357 5366 470 0
-5400 5357 -470 5366 0
-5366 -5401 -325 0
5374 -5365 478 0
5401 5374 -5365 0
-5366 479 5375 0
5366 -479 5375 -5401 0
-361 -5402 -5375 0
-5374 487 5383 0
-5374 5402 5383 0
488 -5375 5384 0
-488 -5402 5375 5384 0
6236 0
-6335 0
6237 0
-1 -6344 -6237 0
397 6245 -6236 0
6344 6245 -6236 0
398 6246 -6237 0
-6345 -37 -6246 0
6254 -6245 406 0
6254 6345 -6245 0
-6246 6255 407 0
-6346 -73 -6255 0
6263 -6254 415 0
6263 6346 -6254 0
-6255 6264 416 0
6272 -6263 424 0
-6264 6273 425 0
-6273 -6348 -145 0
6281 -6272 433 0
6348 6281 -6272 0
6282 -6273 434 0
-181 -6349 -6282 0
6290 -6281 442 0
6349 6290 -6281 0
6291 -6282 443 0
-6350 -217 -6291 0
6299 -6290 451 0
6350 6299 -6290 0
6308 -6299 460 0
6317 -6308 469 0
6326 -6317 478 0
487 -6326 6335 0
-6475 0
6574 0
6476 0
6477 0
6478 0
6479 0
6480 0
6481 0
6482 0
-6582 -2 -6476 0
-6582 -3 -6477 0
-6582 -4 -6478 0
-6582 -5 -6479 0
-6582 -6 -6480 0
-6582 -7 -6481 0
-6582 -8 -6482 0
-6582 -9 -6476 0
-6582 -10 -6477 0
-6582 -11 -6478 0
-6582 -12 -6479 0
-6582 -13 -6480 0
-6582 -14 -6481 0
-6582 -15 -6482 0
-6582 -16 -6477 0
-6582 -17 -6478 0
-6582 -18 -6479 0
-6582 -19 -6480 0
-6582 -20 -6481 0
-6582 -21 -6482 0
-6582 -22 -6478 0
-6582 -23 -6479 0
-6582 -24 -6480 0
-6582 -25 -6481 0
-6582 -26 -6482 0
-6582 -27 -6479 0
-6582 -28 -6480 0
-6582 -29 -6481 0
-6582 -30 -6482 0
-6582 -31 -6480 0
-6582 -32 -6481 0
-6582 -33 -6482 0
-6582 -34 -6481 0
-6582 -35 -6482 0
-6582 -36 -6482 0
-6484 6582 6475 0
-45 -6583 6484 0
-46 -6583 6484 0
-47 -6583 6484 0
-48 -6583 6484 0
-49 -6583 6484 0
-50 -6583 6484 0
-51 -6583 6484 0
-6493 407 6484 0
6583 -6493 6484 0
-81 -6584 6493 0
-82 -6584 6493 0
-83 -6584 6493 0
-84 -6584 6493 0
-85 -6584 6493 0
-86 -6584 6493 0
-87 -6584 6493 0
6493 -6502 416 0
6584 6493 -6502 0
-117 -6585 6502 0
-118 -6585 6502 0
-119 -6585 6502 0
-120 -6585 6502 0
-121 -6585 6502 0
-122 -6585 6502 0
-123 -6585 6502 0
6502 -6511 425 0
6585 6502 -6511 0
-153 -6586 6511 0
-154 -6586 6511 0
-155 -6586 6511 0
-156 -6586 6511 0
-157 -6586 6511 0
-158 -6586 6511 0
-159 -6586 6511 0
6511 -6520 434 0
6586 6511 -6520 0
-189 -6587 6520 0
-190 -6587 6520 0
-191 -6587 6520 0
-192 -6587 6520 0
-193 -6587 6520 0
-194 -6587 6520 0
-195 -6587 6520 0
6520 -6529 443 0
6587 6520 -6529 0
-225 -6588 6529 0
-226 -6588 6529 0
-227 -6588 6529 0
-228 -6588 6529 0
-229 -6588 6529 0
-230 -6588 6529 0
-231 -6588 6529 0
6529 452 -6538 0
6588 6529 -6538 0
-261 -6589 6538 0
-262 -6589 6538 0
-263 -6589 6538 0
-264 -6589 6538 0
-265 -6589 6538 0
-266 -6589 6538 0
-267 -6589 6538 0
461 -6547 6538 0
6589 -6547 6538 0
-297 -6590 6547 0
-298 -6590 6547 0
-299 -6590 6547 0
-300 -6590 6547 0
-301 -6590 6547 0
-302 -6590 6547 0
-303 -6590 6547 0
470 -6556 6547 0
6590 -6556 6547 0
-333 -6591 6556 0
-334 -6591 6556 0
-335 -6591 6556 0
-336 -6591 6556 0
-337 -6591 6556 0
-338 -6591 6556 0
-339 -6591 6556 0
479 -6565 6556 0
6591 6556 -6565 0
-369 -6592 6565 0
-370 -6592 6565 0
-371 -6592 6565 0
-372 -6592 6565 0
-373 -6592 6565 0
-374 -6592 6565 0
-375 -6592 6565 0
6565 488 -6574 0
6565 6592 -6574 0
-397 9589 0
9589 -398 0
-406 9590 0
-407 9590 0
-415 9591 0
-416 9591 0
-424 9592 0
-425 9592 0
-433 9593 0
-434 9593 0
-442 9594 0
-443 9594 0
-451 9595 0
-452 9595 0
-460 9596 0
9596 -461 0
-469 9597 0
9597 -470 0
-478 9598 0
9598 -479 0
9599 -488 0
9600 -9589 0
9601 -9600 0
-9590 -9600 9602 0
-9602 9603 0
-9602 -9591 0
-9590 9601 0
9604 -9601 0
-9591 -9601 9603 0
-9603 9605 0
-9603 -9592 0
-9591 9604 0
9606 -9604 0
-9592 -9604 9605 0
-9605 9607 0
-9605 -9593 0
-9592 9606 0
9608 -9606 0
-9593 -9606 9607 0
-9607 9609 0
-9607 -9594 0
-9593 9608 0
9610 -9608 0
-9594 -9608 9609 0
-9609 9611 0
-9609 -9595 0
-9594 9610 0
9612 -9610 0
-9595 -9610 9611 0
-9611 9613 0
-9611 -9596 0
-9595 9612 0
9614 -9612 0
-9596 -9612 9613 0
-9613 9615 0
-9613 -9597 0
9614 -9596 0
-9614 -9597 9615 0
-9615 9617 0
-9615 -9598 0
9616 -9597 0
-9616 -9598 9617 0
-9617 -9599 0
-397 9653 0
-406 9654 0
-415 9655 0
-424 9656 0
-433 9657 0
-442 9658 0
-451 9659 0
-460 9660 0
-469 9661 0
-478 9662 0
9663 -487 0
-9653 9664 0
-9664 9665 0
-9654 -9664 0
-9654 9665 0
-9665 9666 0
-9665 -9655 0
-9655 9666 0
-9666 9667 0
-9666 -9656 0
-9656 9667 0
-9667 9668 0
-9667 -9657 0
-9657 9668 0
-9668 9669 0
-9658 -9668 0
-9658 9669 0
-9669 9670 0
-9659 -9669 0
-9659 9670 0
-9670 9671 0
-9660 -9670 0
-9660 9671 0
-9671 9672 0
-9661 -9671 0
-9661 9672 0
-9672 9673 0
-9662 -9672 0
-9662 9673 0
-9673 -9663 0
-16 -37 0
-17 -37 0
-18 -37 0
-19 -37 0
-20 -37 0
-21 -37 0
-22 -37 0
-23 -37 0
-24 -37 0
-25 -37 0
-26 -37 0
-27 -37 0
-28 -37 0
-29 -37 0
-37 -30 0
-31 -37 0
-32 -37 0
-33 -37 0
-34 -37 0
-35 -37 0
-36 -37 0
-88 -109 0
-89 -109 0
-90 -109 0
-91 -109 0
-92 -109 0
-93 -109 0
-94 -109 0
-95 -109 0
-96 -109 0
-97 -109 0
-98 -109 0
-99 -109 0
-100 -109 0
-101 -109 0
-102 -109 0
-103 -109 0
-104 -109 0
-105 -109 0
-106 -109 0
-107 -109 0
-108 -109 0
-232 -253 0
-233 -253 0
-234 -253 0
-235 -253 0
-236 -253 0
-237 -253 0
-238 -253 0
-239 -253 0
-240 -253 0
-241 -253 0
-242 -253 0
-243 -253 0
-244 -253 0
-245 -253 0
-246 -253 0
-247 -253 0
-248 -253 0
-249 -253 0
-250 -253 0
-251 -253 0
-252 -253 0
-268 -289 0
-269 -289 0
-270 -289 0
-271 -289 0
-272 -289 0
-273 -289 0
-274 -289 0
-275 -289 0
-276 -289 0
-277 -289 0
-278 -289 0
-279 -289 0
-280 -289 0
-281 -289 0
-282 -289 0
-283 -289 0
-284 -289 0
-285 -289 0
-286 -289 0
-287 -289 0
-288 -289 0
-304 -325 0
-305 -325 0
-306 -325 0
-307 -325 0
-308 -325 0
-309 -325 0
-310 -325 0
-311 -325 0
-312 -325 0
-313 -325 0
-314 -325 0
-315 -325 0
-316 -325 0
-317 -325 0
-318 -325 0
-319 -325 0
-320 -325 0
-321 -325 0
-322 -325 0
-323 -325 0
-324 -325 0
