p cnf 9514 2049
10 16 7 20 8 4 5 14 1 2 3 6 17 18 15 11 9 13 19 12 21 22 23 24 25 26 27 28 29 30 31 32 33 34 35 36 0
397 -1 0
397 -2 0
397 -3 0
397 -4 0
397 -5 0
397 -6 0
397 -7 0
397 -8 0
-397 8 2 1 3 4 5 6 7 0
398 -9 0
398 -10 0
398 -11 0
398 -12 0
398 -13 0
398 -14 0
398 -15 0
-398 15 1 14 10 9 12 11 13 0
399 -16 0
-399 16 2 17 20 18 19 9 21 0
400 -10 0
-16 400 0
400 -22 0
400 -23 0
400 -24 0
400 -25 0
400 -26 0
-400 10 3 22 16 23 24 25 26 0
-401 28 11 4 17 22 27 29 30 0
-402 31 12 5 18 23 27 32 33 0
-403 35 6 31 24 19 28 34 13 0
-404 32 7 29 14 25 20 34 36 0
-405 15 8 30 21 26 35 33 36 0
64 51 46 50 41 42 43 44 39 38 52 37 40 45 49 63 53 54 55 56 57 58 59 60 61 62 48 47 65 66 67 68 69 70 71 72 0
-37 531 0
-531 532 0
-532 533 0
-533 534 0
-534 535 0
-535 536 0
-536 537 0
-537 538 0
-538 539 0
-539 540 0
-540 541 0
-541 542 0
-542 543 0
-543 544 0
-544 545 0
546 -545 0
547 -546 0
548 -547 0
549 -548 0
550 -549 0
551 -550 0
552 -551 0
-58 -551 0
553 -552 0
-59 -552 0
554 -553 0
-60 -553 0
555 -554 0
-61 -554 0
-62 -555 0
-37 406 0
-38 406 0
-39 406 0
-40 406 0
-41 406 0
-42 406 0
-43 406 0
-44 406 0
-406 38 37 39 40 41 42 43 44 0
-45 407 0
-46 407 0
-47 407 0
-48 407 0
-49 407 0
-50 407 0
-51 407 0
-407 37 46 45 47 48 49 50 51 0
-52 408 0
-46 409 0
-52 409 0
-58 409 0
-59 409 0
-60 409 0
-61 409 0
-62 409 0
62 -409 39 52 46 59 58 61 60 0
87 73 82 88 89 86 77 78 75 74 80 76 79 90 84 81 83 85 91 92 93 94 95 96 97 98 99 100 101 102 103 104 105 106 107 108 0
-73 566 0
-566 567 0
-567 568 0
-568 569 0
-569 570 0
-570 571 0
-571 572 0
-572 573 0
-573 574 0
-574 575 0
-575 576 0
-576 577 0
-577 578 0
-578 579 0
-579 580 0
581 -580 0
582 -581 0
583 -582 0
584 -583 0
585 -584 0
586 -585 0
587 -586 0
-94 -586 0
588 -587 0
-95 -587 0
589 -588 0
-96 -588 0
590 -589 0
-97 -589 0
-98 -590 0
-73 415 0
-74 415 0
-75 415 0
-76 415 0
-77 415 0
-78 415 0
-79 415 0
-80 415 0
-415 74 75 73 76 77 78 79 80 0
-73 416 0
-81 416 0
416 -82 0
-83 416 0
-84 416 0
-85 416 0
-86 416 0
-87 416 0
-416 83 82 81 73 84 85 86 87 0
-81 417 0
-88 417 0
-82 418 0
94 -418 82 88 75 98 95 96 97 0
122 117 118 125 113 114 115 116 111 110 109 112 124 127 123 120 119 121 126 128 129 130 131 132 133 134 135 136 137 138 139 140 141 142 143 144 0
-109 601 0
-601 602 0
-602 603 0
-603 604 0
-604 605 0
-605 606 0
-606 607 0
-607 608 0
-608 609 0
-117 609 0
-609 610 0
-118 -609 0
-610 611 0
-611 612 0
-612 613 0
-613 614 0
-614 615 0
616 -615 0
617 -616 0
618 -617 0
619 -618 0
620 -619 0
621 -620 0
622 -621 0
-130 -621 0
623 -622 0
-131 -622 0
624 -623 0
-132 -623 0
625 -624 0
-133 -624 0
-134 -625 0
-109 424 0
-110 424 0
-111 424 0
-112 424 0
-113 424 0
-114 424 0
-115 424 0
-116 424 0
-424 110 109 111 112 113 114 115 116 0
-117 425 0
-118 425 0
-119 425 0
-120 425 0
-121 425 0
-122 425 0
-123 425 0
-425 119 118 117 109 120 121 122 123 0
-117 426 0
-124 426 0
127 -426 110 117 124 125 126 129 128 0
-118 427 0
-124 427 0
-130 427 0
-131 427 0
-132 427 0
-133 427 0
-134 427 0
134 -427 124 111 118 130 131 132 133 0
145 155 162 161 154 149 150 151 148 147 146 152 157 158 159 153 160 156 163 164 165 166 167 168 169 170 171 172 173 174 175 176 177 178 179 180 0
-145 636 0
-636 637 0
-146 637 0
-637 638 0
-147 638 0
-638 639 0
-148 639 0
-639 640 0
-149 640 0
-640 641 0
-150 641 0
-641 642 0
-151 642 0
-642 643 0
-152 643 0
-643 644 0
-153 644 0
-644 645 0
645 -154 0
-645 646 0
-155 646 0
-646 647 0
-156 647 0
-647 648 0
-157 648 0
-648 649 0
-158 649 0
-649 650 0
-159 650 0
651 -650 0
-650 -160 0
652 -651 0
653 -652 0
654 -653 0
655 -654 0
656 -655 0
657 -656 0
-166 -656 0
658 -657 0
-167 -657 0
659 -658 0
-168 -658 0
660 -659 0
-169 -659 0
-170 -660 0
-145 433 0
-146 433 0
-147 433 0
-148 433 0
-149 433 0
-150 433 0
-151 433 0
-152 433 0
-433 146 145 152 151 147 148 149 150 0
-153 434 0
-154 434 0
-155 434 0
-156 434 0
-157 434 0
-158 434 0
-159 434 0
-434 145 154 156 157 153 155 158 159 0
-160 435 0
-154 436 0
-160 436 0
-166 436 0
-167 436 0
-168 436 0
-169 436 0
-170 436 0
166 -436 160 154 147 170 168 167 169 0
198 197 193 188 181 184 185 186 187 182 183 195 190 196 202 189 191 192 194 199 200 201 203 204 205 206 207 208 209 210 211 212 213 214 215 216 0
-181 671 0
-671 672 0
-672 673 0
-183 -672 0
-673 674 0
-674 675 0
-675 676 0
-676 677 0
-677 678 0
-678 679 0
-189 679 0
-679 680 0
-190 -679 0
-680 681 0
-681 682 0
-682 683 0
-683 684 0
-684 685 0
686 -685 0
687 -686 0
688 -687 0
689 -688 0
690 -689 0
691 -690 0
692 -691 0
-202 -691 0
693 -692 0
-203 -692 0
694 -693 0
-204 -693 0
695 -694 0
-205 -694 0
-206 -695 0
-181 442 0
-182 442 0
-183 442 0
-184 442 0
-185 442 0
-186 442 0
-187 442 0
-188 442 0
-442 184 183 181 182 185 186 187 188 0
-181 443 0
-189 443 0
-190 443 0
-191 443 0
-192 443 0
-193 443 0
-194 443 0
-195 443 0
-443 191 190 181 189 192 193 194 195 0
444 -196 0
201 182 -444 189 196 197 198 200 199 0
-190 445 0
-196 445 0
-202 445 0
-203 445 0
-204 445 0
-205 445 0
-206 445 0
202 -445 190 183 196 206 203 205 204 0
233 217 232 219 226 224 220 222 223 218 221 228 234 230 231 225 227 229 235 236 237 238 239 240 241 242 243 244 245 246 247 248 249 250 251 252 0
-217 706 0
-706 707 0
-707 708 0
-708 709 0
-709 710 0
-710 711 0
-711 712 0
-712 713 0
-713 714 0
-225 714 0
-714 715 0
-226 -714 0
-715 716 0
-716 717 0
-717 718 0
-718 719 0
-719 720 0
721 -720 0
722 -721 0
723 -722 0
724 -723 0
725 -724 0
726 -725 0
727 -726 0
-238 -726 0
728 -727 0
-239 -727 0
729 -728 0
-240 -728 0
730 -729 0
-241 -729 0
-242 -730 0
-217 451 0
-218 451 0
-219 451 0
-220 451 0
-221 451 0
-222 451 0
-223 451 0
-224 451 0
-451 220 219 217 218 221 222 223 224 0
-225 452 0
-226 452 0
-227 452 0
-228 452 0
-229 452 0
-230 452 0
-231 452 0
-452 227 225 226 217 228 229 230 231 0
453 -232 0
-453 225 232 218 237 234 233 236 235 0
242 -454 226 232 219 241 239 238 240 0
258 259 269 268 255 256 257 260 253 254 262 261 263 270 265 264 266 267 271 272 273 274 275 276 277 278 279 280 281 282 283 284 285 286 287 288 0
741 -253 0
742 -741 0
-255 -742 0
749 -261 0
-749 750 0
-749 -262 0
-750 751 0
-751 752 0
-752 753 0
-753 754 0
-754 755 0
756 -755 0
757 -756 0
758 -757 0
759 -758 0
760 -759 0
761 -760 0
762 -761 0
-274 -761 0
763 -762 0
-275 -762 0
764 -763 0
-276 -763 0
765 -764 0
-277 -764 0
-278 -765 0
-253 460 0
-254 460 0
-255 460 0
-256 460 0
-257 460 0
-258 460 0
-259 460 0
-260 460 0
-460 253 255 254 256 257 258 259 260 0
-261 461 0
-262 461 0
-263 461 0
-264 461 0
-265 461 0
-266 461 0
-267 461 0
-461 253 262 264 263 261 265 266 267 0
462 -268 0
-462 261 269 268 254 270 271 272 273 0
-255 463 0
-262 463 0
-268 463 0
-274 463 0
-275 463 0
-276 463 0
-277 463 0
-278 463 0
-463 262 278 255 268 274 275 276 277 0
292 291 300 297 293 294 295 296 289 290 305 304 303 298 301 302 299 306 307 308 309 310 311 312 313 314 315 316 317 318 319 320 321 322 323 324 0
-297 784 0
-784 785 0
-784 -298 0
-785 786 0
-786 787 0
-787 788 0
-788 789 0
790 -789 0
791 -790 0
792 -791 0
793 -792 0
794 -793 0
795 -794 0
796 -795 0
797 -796 0
-310 -796 0
798 -797 0
-311 -797 0
799 -798 0
-312 -798 0
800 -799 0
-313 -799 0
-314 -800 0
-289 469 0
-290 469 0
-291 469 0
-292 469 0
-293 469 0
-294 469 0
-295 469 0
-296 469 0
-469 292 291 289 290 293 294 295 296 0
-289 470 0
470 -297 0
470 -298 0
470 -299 0
-300 470 0
-301 470 0
-302 470 0
470 -303 0
303 297 289 -470 298 300 301 302 299 0
471 -297 0
-304 471 0
-471 290 297 305 304 306 307 308 309 0
472 -298 0
-304 472 0
-310 472 0
-311 472 0
-312 472 0
-313 472 0
-314 472 0
-472 291 298 304 313 314 310 311 312 0
473 -299 0
477 -303 0
341 325 338 327 329 330 331 332 340 326 328 339 335 336 337 333 334 342 343 344 345 346 347 348 349 350 351 352 353 354 355 356 357 358 359 360 0
811 -325 0
812 -811 0
-326 -811 0
813 -812 0
-327 -812 0
814 -813 0
815 -814 0
816 -815 0
817 -816 0
818 -817 0
819 -818 0
-333 819 0
820 -819 0
-819 -334 0
821 -820 0
822 -821 0
823 -822 0
824 -823 0
825 -824 0
826 -825 0
-340 -825 0
827 -826 0
-341 -826 0
828 -827 0
-342 -827 0
829 -828 0
-343 -828 0
830 -829 0
-344 -829 0
831 -830 0
-345 -830 0
832 -831 0
-346 -831 0
833 -832 0
-347 -832 0
834 -833 0
-348 -833 0
835 -834 0
-349 -834 0
-350 -835 0
478 -325 0
-326 478 0
-327 478 0
-328 478 0
-329 478 0
-330 478 0
-331 478 0
-332 478 0
325 -478 327 326 328 329 330 331 332 0
-325 479 0
-333 479 0
-334 479 0
-335 479 0
-336 479 0
-337 479 0
-338 479 0
-339 479 0
325 -479 335 333 334 336 337 338 339 0
-340 480 0
-480 345 333 326 340 341 342 343 344 0
-481 350 334 327 340 346 347 348 349 0
-369 854 0
-854 -370 0
487 -361 0
-363 487 0
-361 488 0
371 372 -488 361 369 370 373 374 375 0
-489 377 362 369 376 378 379 380 381 0
382 383 370 376 -490 363 384 385 386 0
4094 0
-4193 0
4095 0
-4194 0
4096 0
-4097 0
4098 0
4099 0
4101 0
4102 0
-4202 -1 -4095 0
-4202 -9 -4096 0
-4202 -11 -4098 0
-4202 -12 -4099 0
-4202 -14 -4101 0
-15 -4202 -4102 0
397 4103 -4094 0
4202 4103 -4094 0
398 4104 -4095 0
4202 4104 -4095 0
400 -4106 4097 0
-4203 -37 -4104 0
4112 406 -4103 0
4203 4112 -4103 0
4113 407 -4104 0
-4115 409 4106 0
-73 -4204 -4113 0
4121 415 -4112 0
4204 4121 -4112 0
4122 -4113 416 0
4122 4113 -416 -4204 0
-4124 4115 418 0
-109 -4205 -4122 0
4130 424 -4121 0
4205 4130 -4121 0
4131 -4122 425 0
4131 4122 -425 -4205 0
-4133 427 4124 0
-4206 -145 -4131 0
4139 433 -4130 0
4206 4139 -4130 0
4140 -4131 434 0
4131 -4206 -434 4140 0
-4142 436 4133 0
-4207 -181 -4140 0
4148 442 -4139 0
4207 4148 -4139 0
4149 -4140 443 0
4140 -4207 -443 4149 0
-4151 445 4142 0
-4208 -217 -4149 0
4157 451 -4148 0
4208 4157 -4148 0
4158 -4149 452 0
-4208 4149 -452 4158 0
-4160 4151 454 0
-4209 -253 -4158 0
4166 -4157 460 0
4209 4166 -4157 0
4167 -4158 461 0
-4209 4158 -461 4167 0
-4169 463 4160 0
-4210 -289 -4167 0
-310 -4210 4169 0
-311 -4210 4169 0
-312 -4210 4169 0
-313 -4210 4169 0
-314 -4210 4169 0
4175 -4166 469 0
4210 4175 -4166 0
-4167 470 4176 0
-4210 4167 -470 4176 0
-4176 -325 -4211 0
478 4184 -4175 0
4211 4184 -4175 0
-4176 479 4185 0
4176 -4211 4185 -479 0
-361 -4212 -4185 0
487 -4184 4193 0
4212 -4184 4193 0
488 -4185 4194 0
4212 -4185 4194 0
-488 -4212 4185 4194 0
-4332 0
-4333 0
-4432 0
4335 0
-4434 0
397 -4341 4332 0
398 -4342 4333 0
400 4344 -4335 0
-4441 -37 4341 0
-4350 406 4341 0
-4351 407 4342 0
4353 409 -4344 0
4353 4441 -4344 0
-4442 -73 4350 0
-4359 415 4350 0
-4360 4351 416 0
4362 418 -4353 0
4362 4442 -4353 0
-4443 -109 4359 0
-4368 424 4359 0
-4369 4360 425 0
4371 427 -4362 0
4371 4443 -4362 0
-4444 -145 4368 0
-4377 433 4368 0
-4378 4369 434 0
4380 436 -4371 0
4380 4444 -4371 0
-4445 -181 4377 0
-4386 442 4377 0
-4387 4378 443 0
4389 445 -4380 0
4389 4445 -4380 0
-4446 -217 4386 0
-4395 451 4386 0
-4396 4387 452 0
4398 -4389 454 0
4398 4446 -4389 0
-4447 -253 4395 0
-4404 4395 460 0
-4405 4396 461 0
463 -4398 4407 0
4447 -4398 4407 0
-4448 -289 4404 0
-4448 -299 4405 0
-4448 4405 -303 0
-4413 4404 469 0
-4414 4448 4405 0
472 -4407 4416 0
-4407 4416 4448 0
-4449 4413 -325 0
-4423 4414 4449 0
481 -4416 4425 0
-4416 4425 4449 0
-370 -4425 -4450 0
-376 -4425 -4450 0
-488 -4450 4423 4432 0
4450 -4425 4434 0
5403 0
-5502 0
5404 0
5405 0
5406 0
5407 0
5409 0
5410 0
5411 0
-5511 -9 -5405 0
-5511 -10 -5406 0
-5511 -11 -5407 0
-5511 -13 -5409 0
-5511 -14 -5410 0
-15 -5511 -5411 0
397 5412 -5403 0
5511 5413 -5404 0
-5512 -37 -5413 0
5421 406 -5412 0
5421 5512 -5412 0
5422 407 -5413 0
-5513 -73 -5422 0
5430 415 -5421 0
5430 5513 -5421 0
5439 424 -5430 0
5448 433 -5439 0
-5516 -181 -5449 0
5457 442 -5448 0
5516 5457 -5448 0
5466 451 -5457 0
5475 -5466 460 0
5484 -5475 469 0
5493 478 -5484 0
487 -5493 5502 0
-5879 0
-5978 0
5880 0
-5979 0
5881 0
5980 0
-5882 0
5981 0
5883 0
5884 0
5885 0
5886 0
5887 0
-5987 -1 5879 0
-5987 -2 5879 0
-5987 -3 5879 0
-5987 -4 5879 0
-5987 -5 5879 0
-5987 -6 5879 0
-5987 -7 5879 0
-5987 -8 5879 0
-5987 -9 -5881 0
-5987 -11 -5883 0
-5987 -12 -5884 0
-5987 -13 -5885 0
-5987 -14 -5886 0
-15 -5987 -5887 0
-16 5987 5882 -5881 0
-17 -5987 -5883 0
-18 -5987 -5884 0
-19 -5987 -5885 0
-20 -5987 -5886 0
-21 -5987 -5887 0
-22 -5987 -5883 0
-23 -5987 -5884 0
-24 -5987 -5885 0
-25 -5987 -5886 0
-26 -5987 -5887 0
-27 -5987 -5884 0
-28 -5987 -5885 0
-29 -5987 -5886 0
-30 -5987 -5887 0
-31 -5987 -5885 0
-32 -5987 -5886 0
-33 -5987 -5887 0
-34 -5987 -5886 0
-35 -5987 -5887 0
-36 -5987 -5887 0
-5888 397 5879 0
-5888 5987 5879 0
-397 5888 -5987 5879 0
5889 5987 -5880 0
-5889 -398 -5987 -5880 0
399 5890 -5881 0
5890 5987 -5881 0
-5890 -399 -5987 -5881 0
-5891 400 5882 0
5987 -5891 5882 0
5892 401 -5883 0
5987 5892 -5883 0
5893 402 -5884 0
5987 5893 -5884 0
5894 403 -5885 0
5987 5894 -5885 0
5895 404 -5886 0
5987 5895 -5886 0
405 5896 -5887 0
5987 5896 -5887 0
-37 -5988 5888 0
-38 -5988 5888 0
-39 -5988 5888 0
-40 -5988 5888 0
-41 -5988 5888 0
-42 -5988 5888 0
-43 -5988 5888 0
-44 -5988 5888 0
-45 -5988 -5890 0
-46 5988 -5889 5891 0
-47 -5988 -5892 0
-48 -5988 -5893 0
-49 -5988 -5894 0
-50 -5988 -5895 0
-5988 -51 -5896 0
5988 5891 -5890 -52 0
-53 -5988 -5892 0
-54 -5988 -5893 0
-55 -5988 -5894 0
-56 -5988 -5895 0
-57 -5988 -5896 0
-58 -5988 5891 0
-59 -5988 5891 0
-60 -5988 5891 0
-61 -5988 5891 0
-62 -5988 5891 0
-63 -5988 -5893 0
-64 -5988 -5894 0
-65 -5988 -5895 0
-66 -5988 -5896 0
-67 -5988 -5894 0
-68 -5988 -5895 0
-69 -5988 -5896 0
-70 -5988 -5895 0
-71 -5988 -5896 0
-72 -5988 -5896 0
-5897 406 5888 0
5988 -5897 5888 0
-5988 -406 5888 5897 0
-5898 407 5889 0
5898 5988 -5889 0
5988 -5898 5889 0
-5988 -407 -5898 -5889 0
-5899 408 5890 0
5988 5899 -5890 0
-5899 5988 5890 0
-5899 -5988 -408 -5890 0
-5900 409 5891 0
5988 -5900 5891 0
-5988 -5900 -5891 -409 0
5901 5988 -5892 0
5902 5988 -5893 0
5903 5988 -5894 0
5904 5988 -5895 0
5905 5988 -5896 0
-5989 -73 5897 0
-74 -5989 5897 0
-75 -5989 5897 0
-76 -5989 5897 0
-77 -5989 5897 0
-78 -5989 5897 0
-79 -5989 5897 0
-80 -5989 5897 0
-81 -5989 -5899 0
5989 -82 5900 -5898 0
-83 -5989 -5901 0
-84 -5989 -5902 0
-85 -5989 -5903 0
-86 -5989 -5904 0
-87 -5989 -5905 0
-5989 -5900 -88 0
-5899 5989 -88 5900 0
-89 -5989 -5901 0
-90 -5989 -5902 0
-91 -5989 -5903 0
-92 -5989 -5904 0
-93 -5989 -5905 0
-94 -5989 -5901 0
-95 -5989 -5902 0
-96 -5989 -5903 0
-97 -5989 -5904 0
-98 -5989 -5905 0
-99 -5989 -5902 0
-100 -5989 -5903 0
-101 -5989 -5904 0
-102 -5989 -5905 0
-103 -5989 -5903 0
-104 -5989 -5904 0
-105 -5989 -5905 0
-106 -5989 -5904 0
-107 -5989 -5905 0
-108 -5989 -5905 0
-5906 415 5897 0
5989 -5906 5897 0
-5989 -415 5906 5897 0
-5907 5898 416 0
-5907 5898 5989 0
-5989 -416 -5907 -5898 0
-5908 417 5899 0
5989 -5908 5899 0
-5989 -5899 -417 -5908 0
-5909 5900 418 0
-5909 5989 5900 0
-109 -5990 5906 0
-110 -5990 5906 0
-111 -5990 5906 0
-112 -5990 5906 0
-113 -5990 5906 0
-114 -5990 5906 0
-115 -5990 5906 0
-116 -5990 5906 0
-118 5907 -5990 0
-5990 -124 5908 0
-125 -5990 5908 0
-126 -5990 5908 0
-127 -5990 5908 0
-128 -5990 5908 0
-129 -5990 5908 0
-130 -5990 5909 0
-131 -5990 5909 0
-132 -5990 5909 0
-133 -5990 5909 0
-134 -5990 5909 0
-5915 424 5906 0
5990 -5915 5906 0
-424 -5990 5915 5906 0
5907 -5916 425 0
5907 5990 -5916 0
-5990 -425 -5907 -5916 0
-5917 426 5908 0
5990 -5917 5908 0
-5917 -5990 -426 -5908 0
-5918 427 5909 0
5990 -5918 5909 0
-5991 -145 5915 0
-146 -5991 5915 0
-147 -5991 5915 0
-148 -5991 5915 0
-149 -5991 5915 0
-150 -5991 5915 0
-151 -5991 5915 0
-152 -5991 5915 0
5916 -154 -5991 0
-5991 -160 5917 0
-5917 5991 -160 5918 0
-166 -5991 5918 0
-167 -5991 5918 0
-168 -5991 5918 0
-169 -5991 5918 0
-170 -5991 5918 0
-5924 5915 433 0
-5924 5991 5915 0
-5991 -433 5915 5924 0
5916 -5925 434 0
5916 5991 -5925 0
-5991 -434 -5925 -5916 0
-5926 5917 435 0
-5926 5917 5991 0
-5917 -5926 -435 -5991 0
-5927 436 5918 0
-5927 5991 5918 0
-181 -5992 5924 0
-5925 -181 -5992 0
-182 -5992 5924 0
-183 -5992 5924 0
-184 -5992 5924 0
-185 -5992 5924 0
-186 -5992 5924 0
-187 -5992 5924 0
-188 -5992 5924 0
-190 5925 -5992 0
-5992 5926 -196 0
-5926 5992 -196 5927 0
-197 -5992 5926 0
-198 -5992 5926 0
-199 -5992 5926 0
-200 -5992 5926 0
-201 -5992 5926 0
-202 -5992 5927 0
-203 -5992 5927 0
-204 -5992 5927 0
-205 -5992 5927 0
-206 -5992 5927 0
-5933 442 5924 0
-5924 5992 5933 0
5992 -5933 5924 0
-5992 -442 5924 5933 0
-5934 5925 443 0
-5934 5925 5992 0
-5992 -443 -5925 -5934 0
-5935 444 5926 0
-5935 5992 5926 0
-5926 -5992 -444 -5935 0
-5936 445 5927 0
5992 -5936 5927 0
-217 -5993 5933 0
-218 -5993 5933 0
-219 -5993 5933 0
-220 -5993 5933 0
-221 -5993 5933 0
-222 -5993 5933 0
-223 -5993 5933 0
-224 -5993 5933 0
-226 5934 -5993 0
5935 -5993 -232 0
5993 -232 5936 -5935 0
-233 5935 -5993 0
-234 5935 -5993 0
-235 5935 -5993 0
-236 5935 -5993 0
-237 5935 -5993 0
-238 -5993 5936 0
-239 -5993 5936 0
-240 -5993 5936 0
-241 -5993 5936 0
-242 -5993 5936 0
-5933 5942 451 0
-5942 451 5933 0
5993 -5942 5933 0
-5993 -451 5933 5942 0
-5943 5934 452 0
-5943 5934 5993 0
-5993 -452 -5943 -5934 0
-5944 5935 453 0
-5944 5993 5935 0
-5944 -5993 -453 -5935 0
-5945 454 5936 0
5993 -5945 5936 0
-253 -5994 5942 0
-254 -5994 5942 0
-255 -5994 5942 0
-256 -5994 5942 0
-257 -5994 5942 0
-258 -5994 5942 0
-259 -5994 5942 0
-260 -5994 5942 0
-261 -5944 -5994 0
-262 5943 -5994 0
5944 -5994 -268 0
5994 -5944 5945 -268 0
-269 5944 -5994 0
-270 5944 -5994 0
-271 5944 -5994 0
-272 5944 -5994 0
-273 5944 -5994 0
-274 -5994 5945 0
-275 -5994 5945 0
-276 -5994 5945 0
-277 -5994 5945 0
-278 -5994 5945 0
-5942 5951 460 0
-5951 5942 460 0
5994 -5951 5942 0
-460 5951 5942 -5994 0
5943 -5952 461 0
5994 5943 -5952 0
-5994 -461 -5952 -5943 0
-5944 5953 462 0
-5953 5944 462 0
5994 -5944 5953 0
5994 -5953 5944 0
-5944 -5994 -462 -5953 0
-5954 463 5945 0
5994 -5954 5945 0
-289 -5995 5951 0
-290 -5995 5951 0
-291 -5995 5951 0
-292 -5995 5951 0
-293 -5995 5951 0
-294 -5995 5951 0
-295 -5995 5951 0
-296 -5995 5951 0
5952 -5995 -298 0
-304 5953 -5995 0
-304 -5953 5954 5995 0
-305 5953 -5995 0
-306 5953 -5995 0
-307 5953 -5995 0
-308 5953 -5995 0
-309 5953 -5995 0
-310 -5995 5954 0
-311 -5995 5954 0
-312 -5995 5954 0
-313 -5995 5954 0
-314 -5995 5954 0
-5951 5960 469 0
-5960 5951 469 0
5995 -5960 5951 0
-469 5951 5960 -5995 0
5952 -5961 470 0
5995 5952 -5961 0
-5961 -5995 -5952 -470 0
5953 -5962 471 0
5995 5953 -5962 0
-5953 -5995 -471 -5962 0
-5963 472 5954 0
5995 -5963 5954 0
-5996 5960 -325 0
-5961 -5996 -325 0
-326 -5996 5960 0
-327 -5996 5960 0
-328 -5996 5960 0
-329 -5996 5960 0
-330 -5996 5960 0
-331 -5996 5960 0
-332 -5996 5960 0
-334 5961 -5996 0
-340 5962 -5996 0
-341 5962 -5996 0
-342 5962 -5996 0
-343 5962 -5996 0
-344 5962 -5996 0
-345 5962 -5996 0
-346 -5996 5963 0
-347 -5996 5963 0
-348 -5996 5963 0
-349 -5996 5963 0
-350 -5996 5963 0
-5960 5969 478 0
478 5960 -5969 0
5996 -5960 5969 0
5996 5960 -5969 0
5961 -5970 479 0
5962 480 -5971 0
5962 5996 -5971 0
-480 -5996 -5962 -5971 0
5963 -5972 481 0
5963 -5972 5996 0
-361 5969 -5997 0
-5970 -361 -5997 0
-362 5969 -5997 0
-363 5969 -5997 0
-376 5971 -5997 0
-377 5971 -5997 0
-378 5971 -5997 0
-379 5971 -5997 0
-380 5971 -5997 0
-381 5971 -5997 0
-382 5972 -5997 0
-383 5972 -5997 0
-384 5972 -5997 0
-385 5972 -5997 0
-386 5972 -5997 0
487 -5969 5978 0
-5997 -487 5969 5978 0
5997 -5970 5979 0
-488 -5997 5970 5979 0
5971 489 -5980 0
5997 5971 -5980 0
5972 490 -5981 0
5997 5972 -5981 0
5998 0
-6097 0
5999 0
6098 0
6000 0
6099 0
-6001 0
6100 0
6002 0
6003 0
6004 0
6005 0
6006 0
6106 -16 6001 -6000 0
-6106 -17 -6002 0
-6106 -18 -6003 0
-6106 -19 -6004 0
-6106 -20 -6005 0
-6106 -21 -6006 0
-6106 -22 -6002 0
-6106 -23 -6003 0
-6106 -24 -6004 0
-6106 -25 -6005 0
-6106 -26 -6006 0
-6106 -27 -6003 0
-6106 -28 -6004 0
-6106 -29 -6005 0
-6106 -30 -6006 0
-6106 -31 -6004 0
-6106 -32 -6005 0
-6106 -33 -6006 0
-6106 -34 -6005 0
-6106 -35 -6006 0
-6106 -36 -6006 0
6007 397 -5998 0
398 6008 -5999 0
-6106 -6009 -399 -6000 0
-6010 400 6001 0
-6010 6106 6001 0
-52 -6107 6009 0
-58 -6107 6010 0
-59 -6107 6010 0
-60 -6107 6010 0
-61 -6107 6010 0
-62 -6107 6010 0
6016 406 -6007 0
6017 407 -6008 0
-6018 408 6009 0
-6018 -6009 -408 -6107 0
-6019 409 6010 0
6107 -6019 6010 0
-73 -6017 -6108 0
-88 -6108 6018 0
-94 -6108 6019 0
-95 -6108 6019 0
-96 -6108 6019 0
-97 -6108 6019 0
-98 -6108 6019 0
6025 415 -6016 0
6108 6025 -6016 0
6026 -6017 416 0
6026 6017 -416 -6108 0
-6027 417 6018 0
-6018 -6108 -6027 -417 0
-6028 418 6019 0
6108 -6028 6019 0
-118 -6026 6028 6109 0
-124 -6109 6027 0
-130 -6109 6028 0
-131 -6109 6028 0
-132 -6109 6028 0
-133 -6109 6028 0
-134 -6109 6028 0
6034 -6025 424 0
6035 -6026 425 0
-425 -6035 -6109 -6026 0
-6036 426 6027 0
-6027 -426 -6036 -6109 0
-6037 427 6028 0
6109 -6037 6028 0
-160 -6110 6036 0
-166 -6110 6037 0
-167 -6110 6037 0
-168 -6110 6037 0
-169 -6110 6037 0
-170 -6110 6037 0
6043 433 -6034 0
6044 -6035 434 0
6035 -6044 434 0
435 6036 -6045 0
-435 -6036 -6045 -6110 0
-6046 436 6037 0
6110 -6046 6037 0
-181 -6044 -6111 0
6045 -196 -6111 0
-202 -6111 6046 0
-203 -6111 6046 0
-204 -6111 6046 0
-205 -6111 6046 0
-206 -6111 6046 0
6052 442 -6043 0
6111 6052 -6043 0
6053 -6044 443 0
6044 -6053 443 0
6053 6044 -443 -6111 0
444 6045 -6054 0
-6045 -444 -6054 -6111 0
-6055 445 6046 0
6111 -6055 6046 0
6112 -226 -6053 6055 0
6054 -232 -6112 0
-238 -6112 6055 0
-239 -6112 6055 0
-240 -6112 6055 0
-241 -6112 6055 0
-242 -6112 6055 0
6061 451 -6052 0
-6053 6062 452 0
6053 452 -6062 0
-452 -6053 -6112 -6062 0
453 6054 -6063 0
-6054 -453 -6063 -6112 0
-6064 454 6055 0
6112 -6064 6055 0
-261 -6113 6062 0
-262 -6113 6062 0
6113 -262 6064 -6062 0
-263 -6113 6062 0
-264 -6113 6062 0
-265 -6113 6062 0
-266 -6113 6062 0
-267 -6113 6062 0
-274 -6113 6064 0
-275 -6113 6064 0
-276 -6113 6064 0
-277 -6113 6064 0
-278 -6113 6064 0
6070 -6061 460 0
6113 6070 -6061 0
-6062 6071 461 0
6062 461 -6071 0
6113 6062 -6071 0
-6113 -461 -6062 -6071 0
-6072 6063 462 0
-6073 463 6064 0
6113 -6073 6064 0
-289 -6071 -6114 0
6071 -297 -6114 0
-6072 -297 -6114 0
6071 -6114 -298 0
-6073 -298 -6114 0
6114 -6071 6073 -298 0
6071 -299 -6114 0
-6074 -299 -6114 0
-300 6071 -6114 0
-301 6071 -6114 0
-302 6071 -6114 0
6071 -6114 -303 0
-6078 -6114 -303 0
6079 -6070 469 0
6114 6079 -6070 0
470 6080 -6071 0
470 -6080 6071 0
6114 6080 -6071 0
6114 6071 -6080 0
6071 6080 -6114 -470 0
-6080 -6071 -6114 -470 0
471 6072 -6081 0
472 -6082 6073 0
-6080 -325 -6115 0
6115 -334 -6080 6082 0
6088 478 -6079 0
6115 -6079 6088 0
479 -6089 6080 0
6089 -479 6080 -6115 0
-6080 -6089 -6115 -479 0
6081 480 -6090 0
6082 481 -6091 0
-369 -6116 6089 0
-370 -6116 6089 0
-6116 6089 -371 0
-372 -6116 6089 0
-373 -6116 6089 0
-374 -6116 6089 0
-375 -6116 6089 0
487 -6088 6097 0
6116 -6088 6097 0
6089 488 -6098 0
6089 6116 -6098 0
-6089 -6116 -488 -6098 0
6116 6090 -6099 0
6116 6091 -6100 0
6117 0
-6216 0
-6217 0
6120 0
6126 397 -6117 0
6129 400 -6120 0
6135 406 -6126 0
6138 409 -6129 0
-6136 -6227 -73 0
6144 415 -6135 0
6144 6227 -6135 0
6145 -416 6136 -6227 0
6147 418 -6138 0
-6228 -109 -6145 0
6153 424 -6144 0
6153 6228 -6144 0
-6145 6154 425 0
6154 -425 6145 -6228 0
6156 427 -6147 0
-6229 -6154 -145 0
-6229 -154 -6156 0
6162 433 -6153 0
6162 6229 -6153 0
-6154 6163 434 0
-6154 6163 6229 0
-6229 -434 6163 6154 0
6165 436 -6156 0
-6230 -190 -6165 0
6171 442 -6162 0
-6163 6172 443 0
6230 -6163 6172 0
6174 445 -6165 0
-6231 -226 -6174 0
6180 451 -6171 0
-6172 6181 452 0
-6172 6231 6181 0
6183 -6174 454 0
6189 -6180 460 0
-6181 6190 461 0
6192 463 -6183 0
6198 -6189 469 0
-6190 470 6199 0
6207 478 -6198 0
-6199 6208 479 0
487 -6207 6216 0
488 -6208 6217 0
6355 0
-6454 0
-6356 0
6455 0
6357 0
6358 0
6359 0
6360 0
6361 0
6362 0
6363 0
-6463 -9 -6357 0
-6463 -10 -6358 0
-6463 -11 -6359 0
-6463 -12 -6360 0
-6463 -13 -6361 0
-6463 -14 -6362 0
-6463 -15 -6363 0
6364 397 -6355 0
398 -6365 6356 0
-6365 6463 6356 0
6367 400 -6358 0
-39 -6464 -6367 0
-45 -6464 6365 0
-6464 -46 6365 0
-47 -6464 6365 0
-48 -6464 6365 0
-49 -6464 6365 0
-50 -6464 6365 0
-6464 -51 6365 0
6373 406 -6364 0
-6374 407 6365 0
-6374 6464 6365 0
6376 409 -6367 0
-75 -6465 -6376 0
-81 -6465 6374 0
-6465 -82 6374 0
-83 -6465 6374 0
-84 -6465 6374 0
-85 -6465 6374 0
-86 -6465 6374 0
-87 -6465 6374 0
6382 415 -6373 0
-6383 6374 416 0
-6383 6374 6465 0
6385 418 -6376 0
-6465 -418 -6385 -6376 0
-111 -6466 -6385 0
-117 -6466 6383 0
-118 -6466 6383 0
6385 -118 -6383 6466 0
-119 -6466 6383 0
-120 -6466 6383 0
-121 -6466 6383 0
-122 -6466 6383 0
-123 -6466 6383 0
-6466 -124 -6385 0
6391 424 -6382 0
-6392 6383 425 0
-6392 6383 6466 0
-6466 -6383 -425 -6392 0
6394 427 -6385 0
-147 -6467 -6394 0
-153 -6467 6392 0
-154 -6467 6392 0
-155 -6467 6392 0
-156 -6467 6392 0
-157 -6467 6392 0
-158 -6467 6392 0
-159 -6467 6392 0
6400 433 -6391 0
-6401 6392 434 0
-6401 6392 6467 0
6403 436 -6394 0
6394 -6403 436 0
-6467 -436 -6403 -6394 0
-189 -6468 6401 0
-190 -6468 6401 0
6468 -190 -6401 6403 0
-191 -6468 6401 0
-192 -6468 6401 0
-193 -6468 6401 0
-194 -6468 6401 0
-195 -6468 6401 0
-6468 -196 -6403 0
6409 442 -6400 0
6468 6409 -6400 0
-6410 6401 443 0
6468 -6410 6401 0
-6468 -6401 -443 -6410 0
6412 445 -6403 0
-6468 -445 -6412 -6403 0
-219 -6469 -6412 0
-225 -6469 6410 0
-226 -6469 6410 0
-226 -6469 -6412 0
-227 -6469 6410 0
-228 -6469 6410 0
-229 -6469 6410 0
-230 -6469 6410 0
-231 -6469 6410 0
6418 451 -6409 0
-6419 6410 452 0
6469 -6419 6410 0
6421 -6412 454 0
6412 -6421 454 0
-261 -6470 6419 0
-262 -6470 6419 0
6421 6470 -262 -6419 0
-263 -6470 6419 0
-6470 -264 6419 0
-265 -6470 6419 0
-266 -6470 6419 0
-267 -6470 6419 0
6427 -6418 460 0
-6428 6419 461 0
-6428 6419 6470 0
-6419 -6470 -461 -6428 0
6430 463 -6421 0
-291 -6430 -6471 0
-297 -6471 6428 0
-298 -6471 6428 0
-299 -6471 6428 0
-300 -6471 6428 0
-301 -6471 6428 0
-302 -6471 6428 0
-303 -6471 6428 0
6436 -6427 469 0
470 6428 -6437 0
6471 -6437 6428 0
-333 6437 -6472 0
-334 6437 -6472 0
-335 6437 -6472 0
-336 6437 -6472 0
-337 6437 -6472 0
-338 6437 -6472 0
-339 6437 -6472 0
478 -6436 6445 0
479 6437 -6446 0
6472 -6446 6437 0
-369 -6473 6446 0
-370 -6473 6446 0
-371 -6473 6446 0
-372 -6473 6446 0
-373 -6473 6446 0
-374 -6473 6446 0
-375 -6473 6446 0
487 -6445 6454 0
6446 488 -6455 0
6446 6473 -6455 0
9199 -397 5879 0
-400 9199 5882 0
-406 9200 5888 0
9200 -407 5889 0
9200 -408 5890 0
9200 -409 5891 0
-415 5897 9201 0
5898 -416 9201 0
-417 5899 9201 0
-418 5900 9201 0
-424 5906 9202 0
5907 -425 9202 0
-426 5908 9202 0
-427 9202 5909 0
-433 5915 9203 0
5916 -434 9203 0
5917 -435 9203 0
-436 9203 5918 0
-442 5924 9204 0
5925 -443 9204 0
5926 9204 -444 0
9204 -445 5927 0
9205 -451 5933 0
5934 9205 -452 0
5935 9205 -453 0
9205 -454 5936 0
-460 9206 5942 0
5943 9206 -461 0
5944 9206 -462 0
9206 -463 5945 0
-469 9207 5951 0
5952 9207 -470 0
5953 9207 -471 0
9207 -472 5954 0
9208 5960 -478 0
5961 9208 -479 0
-480 5962 9208 0
-481 9208 5963 0
9209 -487 5969 0
9209 5970 -488 0
-489 9209 5971 0
9209 -490 5972 0
9210 -9199 0
9211 -9210 0
-9200 -9210 9212 0
-9212 9213 0
-9201 -9212 0
9211 -9200 0
9214 -9211 0
-9201 -9211 9213 0
-9213 9215 0
-9213 -9202 0
9214 -9201 0
9216 -9214 0
-9202 -9214 9215 0
-9215 9217 0
-9215 -9203 0
9216 -9202 0
9218 -9216 0
-9203 -9216 9217 0
-9217 9219 0
-9217 -9204 0
9218 -9203 0
9220 -9218 0
-9204 -9218 9219 0
-9219 9221 0
-9219 -9205 0
-9204 9220 0
9222 -9220 0
-9205 -9220 9221 0
-9221 9223 0
-9221 -9206 0
-9205 9222 0
9224 -9222 0
-9206 -9222 9223 0
-9223 9225 0
-9207 -9223 0
9224 -9206 0
9226 -9224 0
-9207 -9224 9225 0
-9225 9227 0
-9225 -9208 0
-9207 9226 0
-9208 -9226 9227 0
-9227 -9209 0
9228 -400 6001 0
-408 6009 9229 0
-409 6010 9229 0
-417 6018 9230 0
-418 6019 9230 0
-426 6027 9231 0
-427 6028 9231 0
-435 6036 9232 0
-436 6037 9232 0
6045 -444 9233 0
-445 6046 9233 0
6054 -453 9234 0
-454 6055 9234 0
-462 6063 9235 0
-463 6064 9235 0
6072 -471 9236 0
9236 -472 6073 0
9236 6074 -473 0
9236 6078 -477 0
9237 -479 6080 0
-9228 9239 0
-9239 9240 0
-9229 -9239 9241 0
-9241 9242 0
-9229 9240 0
-9240 9243 0
-9230 -9240 9242 0
-9242 9244 0
-9230 9243 0
-9243 9245 0
-9231 -9243 9244 0
-9244 9246 0
-9231 9245 0
-9245 9247 0
-9232 -9245 9246 0
-9246 9248 0
-9232 9247 0
-9247 9249 0
-9247 -9233 9248 0
-9248 9250 0
-9233 9249 0
-9249 9251 0
-9249 -9234 9250 0
-9250 9252 0
-9234 9251 0
-9251 9253 0
-9251 -9235 9252 0
-9252 9254 0
-9235 9253 0
-9253 -9236 9254 0
-9254 -9237 0
9405 -398 0
-407 9406 0
-416 9407 0
-424 9408 0
-425 9408 0
-433 9409 0
-434 9409 0
-442 9410 0
-443 9410 0
-451 9411 0
-452 9411 0
-460 9412 0
9412 -461 0
9413 -469 0
9413 -470 0
9414 -479 0
9415 -487 0
9415 -488 0
9416 -9405 0
9417 -9416 0
-9406 9418 -9416 0
-9418 9419 0
-9418 -9407 9420 0
-9420 9421 0
-9406 9417 0
9422 -9417 0
-9407 9419 -9417 0
-9419 9423 0
-9419 -9408 9421 0
-9421 9424 0
-9421 -9409 0
-9407 9422 0
9425 -9422 0
-9408 9423 -9422 0
-9423 9426 0
-9423 -9409 9424 0
-9424 9427 0
-9424 -9410 0
-9408 9425 0
9428 -9425 0
-9409 9426 -9425 0
-9426 9429 0
-9426 -9410 9427 0
-9427 9430 0
-9427 -9411 0
-9409 9428 0
9431 -9428 0
-9410 9429 -9428 0
-9429 9432 0
-9429 -9411 9430 0
-9430 9433 0
-9430 -9412 0
-9410 9431 0
9434 -9431 0
-9411 9432 -9431 0
-9432 9435 0
-9433 9436 0
-9433 -9413 0
-9411 9434 0
9437 -9434 0
-9412 9435 -9434 0
-9435 9438 0
-9435 9436 -9413 0
-9436 9439 0
-9436 -9414 0
-9412 9437 0
9438 -9413 -9437 0
-9438 -9414 9439 0
-9439 -9415 0
9475 -397 0
-406 9476 0
-415 9477 0
-424 9478 0
-433 9479 0
-442 9480 0
-451 9481 0
-460 9482 0
-469 9483 0
9484 -478 0
9485 -487 0
-9475 9486 0
-9486 9487 0
-9476 9487 0
-9487 9490 0
-9477 9490 0
-9490 9492 0
-9478 9492 0
-9492 9494 0
-9479 9494 0
-9494 9496 0
-9494 -9480 9495 0
-9495 9497 0
-9495 -9481 0
-9480 9496 0
-9496 9498 0
-9497 9499 0
-9497 -9482 0
-9481 9498 0
-9498 9500 0
-9499 9501 0
-9483 -9499 0
-9482 9500 0
-9500 9502 0
-9483 -9500 9501 0
-9501 9503 0
-9501 -9484 0
-9483 9502 0
-9502 9503 -9484 0
-9503 -9485 0
-37 -16 0
-17 -37 0
-18 -37 0
-19 -37 0
-20 -37 0
-21 -37 0
-22 -37 0
-23 -37 0
-24 -37 0
-25 -37 0
-26 -37 0
-27 -37 0
-28 -37 0
-29 -37 0
-30 -37 0
-31 -37 0
-32 -37 0
-33 -37 0
-34 -37 0
-35 -37 0
-36 -37 0
-53 -82 0
-54 -82 0
-55 -82 0
-56 -82 0
-57 -82 0
-63 -82 0
-64 -82 0
-65 -82 0
-66 -82 0
-67 -82 0
-68 -82 0
-69 -82 0
-70 -82 0
-71 -82 0
-72 -82 0
-109 -88 0
-89 -109 0
-90 -109 0
-91 -109 0
-92 -109 0
-93 -109 0
-94 -109 0
-94 -117 0
-95 -109 0
-95 -117 0
-96 -109 0
-96 -117 0
-97 -109 0
-97 -117 0
-98 -109 0
-98 -117 0
-99 -109 0
-100 -109 0
-101 -109 0
-102 -109 0
-103 -109 0
-104 -109 0
-105 -109 0
-106 -109 0
-107 -109 0
-108 -109 0
-145 -124 0
-125 -145 0
-126 -145 0
-127 -145 0
-128 -145 0
-129 -145 0
-130 -145 0
-131 -145 0
-132 -145 0
-133 -145 0
-134 -145 0
-135 -145 0
-136 -145 0
-137 -145 0
-138 -145 0
-139 -145 0
-140 -145 0
-141 -145 0
-142 -145 0
-143 -145 0
-144 -145 0
-181 -160 0
-161 -181 0
-161 -190 0
-162 -181 0
-162 -190 0
-163 -181 0
-163 -190 0
-164 -181 0
-164 -190 0
-165 -181 0
-165 -190 0
-166 -181 0
-167 -181 0
-168 -181 0
-169 -181 0
-170 -181 0
-171 -181 0
-171 -190 0
-172 -181 0
-172 -190 0
-173 -181 0
-173 -190 0
-174 -181 0
-174 -190 0
-175 -181 0
-175 -190 0
-176 -181 0
-176 -190 0
-177 -181 0
-177 -190 0
-178 -181 0
-178 -190 0
-179 -181 0
-179 -190 0
-180 -181 0
-180 -190 0
-217 -196 0
-197 -217 0
-197 -226 0
-198 -217 0
-198 -226 0
-199 -217 0
-199 -226 0
-200 -217 0
-200 -226 0
-201 -217 0
-201 -226 0
-202 -217 0
-203 -217 0
-204 -217 0
-205 -217 0
-206 -217 0
-207 -217 0
-207 -226 0
-208 -217 0
-208 -226 0
-209 -217 0
-209 -226 0
-210 -217 0
-210 -226 0
-211 -217 0
-211 -226 0
-212 -217 0
-212 -226 0
-213 -217 0
-213 -226 0
-214 -217 0
-214 -226 0
-215 -217 0
-215 -226 0
-216 -217 0
-216 -226 0
-253 -232 0
-233 -253 0
-234 -253 0
-235 -253 0
-236 -253 0
-237 -253 0
-238 -253 0
-239 -253 0
-240 -253 0
-241 -253 0
-242 -253 0
-243 -253 0
-244 -253 0
-245 -253 0
-246 -253 0
-247 -253 0
-248 -253 0
-249 -253 0
-250 -253 0
-251 -253 0
-252 -253 0
-300 -268 0
-301 -268 0
-302 -268 0
-269 -298 0
-270 -298 0
-271 -298 0
-272 -298 0
-273 -298 0
-279 -298 0
-280 -298 0
-281 -298 0
-282 -298 0
-283 -298 0
-284 -298 0
-285 -298 0
-286 -298 0
-287 -298 0
-288 -298 0
-304 -325 0
-305 -325 0
-305 -334 0
-306 -325 0
-306 -334 0
-307 -325 0
-307 -334 0
-308 -325 0
-308 -334 0
-309 -325 0
-309 -334 0
-310 -325 0
-311 -325 0
-312 -325 0
-313 -325 0
-314 -325 0
-315 -325 0
-315 -334 0
-316 -325 0
-316 -334 0
-317 -325 0
-317 -334 0
-318 -325 0
-318 -334 0
-319 -325 0
-319 -334 0
-320 -325 0
-320 -334 0
-321 -325 0
-321 -334 0
-322 -325 0
-322 -334 0
-323 -325 0
-323 -334 0
-324 -325 0
-324 -334 0
-340 -361 0
-341 -361 0
-342 -361 0
-343 -361 0
-344 -361 0
-345 -361 0
-346 -361 0
-347 -361 0
-348 -361 0
-349 -361 0
-350 -361 0
-351 -361 0
-352 -361 0
-353 -361 0
-354 -361 0
-355 -361 0
-356 -361 0
-357 -361 0
-358 -361 0
-359 -361 0
-360 -361 0
