p cnf 9173 668
17 16 3 4 5 6 7 8 9 10 11 12 13 14 15 1 2 18 19 20 21 22 23 24 25 26 27 28 29 30 31 32 33 34 35 36 0
397 -1 0
-2 397 0
-3 397 0
-4 397 0
-5 397 0
-6 397 0
-7 397 0
-8 397 0
398 -9 0
398 -10 0
398 -11 0
398 -12 0
398 -13 0
398 -14 0
398 -15 0
1 9 -398 10 11 12 13 14 15 0
52 53 39 40 41 42 43 44 45 46 47 48 49 50 51 37 38 54 55 56 57 58 59 60 61 62 63 64 65 66 67 68 69 70 71 72 0
-38 406 0
-39 406 0
-40 406 0
-41 406 0
-42 406 0
-43 406 0
-44 406 0
-37 407 0
-45 407 0
-46 407 0
-47 407 0
-48 407 0
-49 407 0
-50 407 0
-51 407 0
-407 45 37 46 47 48 49 50 51 0
89 88 75 76 77 78 79 80 81 82 83 84 85 86 87 73 74 90 91 92 93 94 95 96 97 98 99 100 101 102 103 104 105 106 107 108 0
-74 415 0
-75 415 0
-76 415 0
-77 415 0
-78 415 0
-79 415 0
-80 415 0
-73 416 0
-81 416 0
-82 416 0
-83 416 0
-84 416 0
-85 416 0
-86 416 0
-87 416 0
81 -416 73 82 83 84 85 86 87 0
124 125 111 112 113 114 115 116 117 118 119 120 121 122 123 109 110 126 127 128 129 130 131 132 133 134 135 136 137 138 139 140 141 142 143 144 0
-110 424 0
-111 424 0
-112 424 0
-113 424 0
-114 424 0
-115 424 0
-116 424 0
-117 425 0
-118 425 0
-119 425 0
-120 425 0
-121 425 0
-122 425 0
-123 425 0
109 -425 117 118 119 120 121 122 123 0
160 161 147 148 149 150 151 152 153 154 155 156 157 158 159 145 146 162 163 164 165 166 167 168 169 170 171 172 173 174 175 176 177 178 179 180 0
-145 433 0
-146 433 0
-147 433 0
-148 433 0
-149 433 0
-150 433 0
-151 433 0
-152 433 0
-153 434 0
-154 434 0
-155 434 0
-156 434 0
-157 434 0
-158 434 0
-159 434 0
153 -434 145 154 155 156 157 158 159 0
196 197 183 184 185 186 187 188 189 190 191 192 193 194 195 181 182 198 199 200 201 202 203 204 205 206 207 208 209 210 211 212 213 214 215 216 0
-181 442 0
-182 442 0
-183 442 0
-184 442 0
-185 442 0
-186 442 0
-187 442 0
-188 442 0
-189 443 0
-190 443 0
-191 443 0
-192 443 0
-193 443 0
-194 443 0
-195 443 0
190 -443 181 189 191 192 193 194 195 0
232 233 219 220 221 222 223 224 225 226 227 228 229 230 231 217 218 234 235 236 237 238 239 240 241 242 243 244 245 246 247 248 249 250 251 252 0
-218 451 0
-219 451 0
-220 451 0
-221 451 0
-222 451 0
-223 451 0
-224 451 0
-217 452 0
-225 452 0
-226 452 0
-227 452 0
-228 452 0
-229 452 0
-230 452 0
-231 452 0
225 -452 217 226 227 228 229 230 231 0
269 268 255 256 257 258 259 260 261 262 263 264 265 266 267 253 254 270 271 272 273 274 275 276 277 278 279 280 281 282 283 284 285 286 287 288 0
-254 460 0
-255 460 0
-256 460 0
-257 460 0
-258 460 0
-259 460 0
-260 460 0
-253 461 0
-261 461 0
-262 461 0
-263 461 0
-264 461 0
-265 461 0
-266 461 0
-267 461 0
261 -461 253 262 263 264 265 266 267 0
304 305 291 292 293 294 295 296 297 298 299 300 301 302 303 289 290 306 307 308 309 310 311 312 313 314 315 316 317 318 319 320 321 322 323 324 0
-290 469 0
-291 469 0
-292 469 0
-293 469 0
-294 469 0
-295 469 0
-296 469 0
-289 470 0
-297 470 0
-298 470 0
-299 470 0
-300 470 0
-301 470 0
-302 470 0
-303 470 0
297 -470 289 298 299 300 301 302 303 0
333 -479 325 334 335 336 337 338 339 0
369 370 -488 361 371 372 373 374 375 0
2428 0
-2429 0
-2528 0
397 2437 -2428 0
398 -2438 2429 0
2446 -2437 406 0
-2447 407 2438 0
2455 -2446 415 0
-2456 2447 416 0
2464 -2455 424 0
-2465 2456 425 0
-2483 2492 452 0
-2492 2501 461 0
-2501 2510 470 0
-2510 2519 479 0
488 -2519 2528 0
5166 0
-5265 0
-5273 -1 -5166 0
398 5175 -5166 0
5273 5175 -5166 0
-5274 -37 -5175 0
5184 407 -5175 0
5184 5274 -5175 0
-5275 -73 -5184 0
5193 -5184 416 0
5193 5275 -5184 0
-5276 -109 -5193 0
5202 -5193 425 0
5202 5276 -5193 0
-5277 -145 -5202 0
5211 -5202 434 0
5211 5277 -5202 0
-5278 -181 -5211 0
5220 -5211 443 0
5220 5278 -5211 0
-5279 -217 -5220 0
5229 -5220 452 0
5229 5279 -5220 0
-5280 -253 -5229 0
5238 461 -5229 0
5238 5280 -5229 0
-5281 -289 -5238 0
5247 -5238 470 0
5247 5281 -5238 0
-5282 -325 -5247 0
5256 -5247 479 0
5282 5256 -5247 0
-5283 -361 -5256 0
488 -5256 5265 0
5283 -5256 5265 0
5879 0
-5978 0
5880 0
-5987 -1 -5880 0
397 5888 -5879 0
5987 5888 -5879 0
398 5889 -5880 0
5897 -5888 406 0
5898 -5889 407 0
5906 -5897 415 0
5907 -5898 416 0
5915 -5906 424 0
5916 -5907 425 0
-5991 -145 -5916 0
5924 -5915 433 0
5924 5991 -5915 0
5933 -5924 442 0
5942 -5933 451 0
5951 -5942 460 0
5960 -5951 469 0
5969 -5960 478 0
487 -5969 5978 0
6117 0
-6216 0
-6118 0
6217 0
6119 0
6120 0
6121 0
6122 0
6123 0
6124 0
6125 0
-6225 -9 -6119 0
-6225 -10 -6120 0
-6225 -11 -6121 0
-6225 -12 -6122 0
-6225 -13 -6123 0
-6225 -14 -6124 0
-6225 -15 -6125 0
-6225 -6126 -397 -6117 0
398 -6127 6118 0
-6127 6225 6118 0
-45 -6226 6127 0
-46 -6226 6127 0
-47 -6226 6127 0
-48 -6226 6127 0
-49 -6226 6127 0
-50 -6226 6127 0
-51 -6226 6127 0
6126 -6135 406 0
-6127 6136 407 0
-6136 6127 407 0
6226 -6136 6127 0
-81 -6227 6136 0
-82 -6227 6136 0
-83 -6227 6136 0
-84 -6227 6136 0
-85 -6227 6136 0
-86 -6227 6136 0
-87 -6227 6136 0
6135 -6144 415 0
-6136 6145 416 0
-6145 6136 416 0
6227 -6145 6136 0
-117 -6228 6145 0
-118 -6228 6145 0
-119 -6228 6145 0
-120 -6228 6145 0
-121 -6228 6145 0
-122 -6228 6145 0
-123 -6228 6145 0
6144 -6153 424 0
-6145 6154 425 0
-6154 6145 425 0
6228 -6154 6145 0
-153 -6229 6154 0
-154 -6229 6154 0
-155 -6229 6154 0
-156 -6229 6154 0
-157 -6229 6154 0
-158 -6229 6154 0
-159 -6229 6154 0
6153 -6162 433 0
-6154 6163 434 0
-6163 6154 434 0
6229 -6163 6154 0
-189 -6230 6163 0
-190 -6230 6163 0
-191 -6230 6163 0
-192 -6230 6163 0
-193 -6230 6163 0
-194 -6230 6163 0
-195 -6230 6163 0
6162 -6171 442 0
6230 6171 -6162 0
-6163 6172 443 0
-6172 6163 443 0
6230 -6172 6163 0
-443 -6163 -6230 -6172 0
-225 -6231 6172 0
-226 -6231 6172 0
-227 -6231 6172 0
-228 -6231 6172 0
-229 -6231 6172 0
-230 -6231 6172 0
-231 -6231 6172 0
6180 -6171 451 0
6171 -6180 451 0
-6172 452 6181 0
6172 -6181 452 0
6231 -6181 6172 0
-261 -6232 6181 0
-262 -6232 6181 0
-263 -6232 6181 0
-264 -6232 6181 0
-265 -6232 6181 0
-266 -6232 6181 0
-267 -6232 6181 0
-6180 6189 460 0
6180 -6189 460 0
6190 461 -6181 0
-6190 461 6181 0
-6190 6232 6181 0
-297 -6233 6190 0
-298 -6233 6190 0
-299 -6233 6190 0
-300 -6233 6190 0
-301 -6233 6190 0
-302 -6233 6190 0
-303 -6233 6190 0
-6189 6198 469 0
-6198 6189 469 0
-6190 470 6199 0
-6199 470 6190 0
6233 -6199 6190 0
-333 -6234 6199 0
-334 -6234 6199 0
-335 -6234 6199 0
-336 -6234 6199 0
-337 -6234 6199 0
-338 -6234 6199 0
-339 -6234 6199 0
-6198 6207 478 0
6198 478 -6207 0
-6198 6234 6207 0
-6208 479 6199 0
6234 -6208 6199 0
-6234 -479 -6199 -6208 0
-369 -6235 6208 0
-370 -6235 6208 0
-371 -6235 6208 0
-372 -6235 6208 0
-373 -6235 6208 0
-374 -6235 6208 0
-375 -6235 6208 0
487 -6207 6216 0
488 6208 -6217 0
6208 6235 -6217 0
-397 9078 0
9078 -398 0
-406 9079 0
-407 9079 0
-415 9080 0
-416 9080 0
-424 9081 0
-425 9081 0
-433 9082 0
-434 9082 0
-442 9083 0
-443 9083 0
-451 9084 0
-452 9084 0
-460 9085 0
9085 -461 0
-469 9086 0
-470 9086 0
-478 9087 0
-479 9087 0
-487 9088 0
-488 9088 0
9089 -9078 0
9090 -9089 0
-9079 9091 -9089 0
-9091 9092 0
-9091 -9080 0
-9079 9090 0
9093 -9090 0
-9080 9092 -9090 0
-9092 9094 0
-9092 -9081 0
-9080 9093 0
9095 -9093 0
-9081 9094 -9093 0
-9094 9096 0
-9094 -9082 0
-9081 9095 0
9097 -9095 0
-9082 9096 -9095 0
-9096 9098 0
-9096 -9083 0
-9082 9097 0
9099 -9097 0
-9083 9098 -9097 0
-9098 9100 0
-9084 -9098 0
-9083 9099 0
9101 -9099 0
-9084 9100 -9099 0
-9100 9102 0
-9100 -9085 0
-9084 9101 0
9103 -9101 0
9102 -9085 -9101 0
-9102 9104 0
-9102 -9086 0
9103 -9085 0
9105 -9103 0
-9086 9104 -9103 0
-9104 9106 0
-9104 -9087 0
-9086 9105 0
9106 -9087 -9105 0
-9088 -9106 0
9107 -398 6118 0
6126 -406 9108 0
-407 6127 9108 0
6135 -415 9109 0
-416 6136 9109 0
6144 -424 9110 0
-425 6145 9110 0
6153 -433 9111 0
-434 6154 9111 0
6162 -442 9112 0
-443 6163 9112 0
6171 -451 9113 0
-452 6172 9113 0
6180 -460 9114 0
9114 6181 -461 0
6189 -469 9115 0
-470 6190 9115 0
-478 6198 9116 0
-479 6199 9116 0
6207 -487 9117 0
-488 6208 9117 0
-9107 9118 0
-9118 9119 0
-9108 -9118 0
-9108 9119 0
-9119 9120 0
-9119 -9109 0
-9109 9120 0
-9120 9121 0
-9110 -9120 0
-9110 9121 0
-9121 9122 0
-9111 -9121 0
-9111 9122 0
-9122 9123 0
-9112 -9122 0
-9112 9123 0
-9123 9124 0
-9113 -9123 0
-9113 9124 0
9125 -9124 0
-9124 -9114 0
9125 -9114 0
9126 -9125 0
-9115 -9125 0
-9115 9126 0
9127 -9126 0
-9116 -9126 0
-9116 9127 0
-9117 -9127 0
-16 -37 0
-17 -37 0
-18 -37 0
-19 -37 0
-20 -37 0
-21 -37 0
-22 -37 0
-23 -37 0
-24 -37 0
-25 -37 0
-26 -37 0
-27 -37 0
-28 -37 0
-29 -37 0
-30 -37 0
-31 -37 0
-32 -37 0
-33 -37 0
-34 -37 0
-35 -37 0
-36 -37 0
-52 -73 0
-53 -73 0
-54 -73 0
-55 -73 0
-56 -73 0
-57 -73 0
-58 -73 0
-59 -73 0
-60 -73 0
-61 -73 0
-62 -73 0
-63 -73 0
-64 -73 0
-65 -73 0
-66 -73 0
-67 -73 0
-68 -73 0
-69 -73 0
-70 -73 0
-71 -73 0
-72 -73 0
-88 -109 0
-89 -109 0
-90 -109 0
-91 -109 0
-92 -109 0
-93 -109 0
-94 -109 0
-95 -109 0
-96 -109 0
-97 -109 0
-98 -109 0
-99 -109 0
-100 -109 0
-101 -109 0
-102 -109 0
-103 -109 0
-104 -109 0
-105 -109 0
-106 -109 0
-107 -109 0
-108 -109 0
-124 -145 0
-125 -145 0
-126 -145 0
-127 -145 0
-128 -145 0
-129 -145 0
-130 -145 0
-131 -145 0
-132 -145 0
-133 -145 0
-134 -145 0
-135 -145 0
-136 -145 0
-137 -145 0
-138 -145 0
-139 -145 0
-140 -145 0
-141 -145 0
-142 -145 0
-143 -145 0
-144 -145 0
-160 -181 0
-161 -181 0
-162 -181 0
-163 -181 0
-164 -181 0
-165 -181 0
-166 -181 0
-167 -181 0
-168 -181 0
-169 -181 0
-170 -181 0
-171 -181 0
-172 -181 0
-173 -181 0
-174 -181 0
-175 -181 0
-176 -181 0
-177 -181 0
-178 -181 0
-179 -181 0
-180 -181 0
-196 -217 0
-197 -217 0
-198 -217 0
-199 -217 0
-200 -217 0
-201 -217 0
-202 -217 0
-203 -217 0
-204 -217 0
-205 -217 0
-206 -217 0
-207 -217 0
-208 -217 0
-209 -217 0
-210 -217 0
-211 -217 0
-212 -217 0
-213 -217 0
-214 -217 0
-215 -217 0
-216 -217 0
-232 -253 0
-233 -253 0
-234 -253 0
-235 -253 0
-236 -253 0
-237 -253 0
-238 -253 0
-239 -253 0
-240 -253 0
-241 -253 0
-242 -253 0
-243 -253 0
-244 -253 0
-245 -253 0
-246 -253 0
-247 -253 0
-248 -253 0
-249 -253 0
-250 -253 0
-251 -253 0
-252 -253 0
-268 -289 0
-269 -289 0
-270 -289 0
-271 -289 0
-272 -289 0
-273 -289 0
-274 -289 0
-275 -289 0
-276 -289 0
-277 -289 0
-278 -289 0
-279 -289 0
-280 -289 0
-281 -289 0
-282 -289 0
-283 -289 0
-284 -289 0
-285 -289 0
-286 -289 0
-287 -289 0
-288 -289 0
-304 -325 0
-305 -325 0
-306 -325 0
-307 -325 0
-308 -325 0
-309 -325 0
-310 -325 0
-311 -325 0
-312 -325 0
-313 -325 0
-314 -325 0
-315 -325 0
-316 -325 0
-317 -325 0
-318 -325 0
-319 -325 0
-320 -325 0
-321 -325 0
-322 -325 0
-323 -325 0
-324 -325 0
