p cnf 9137 1780
26 27 29 28 9 35 34 8 4 10 11 12 13 14 15 16 17 18 19 20 21 22 23 24 25 7 1 2 5 36 6 30 31 32 33 3 0
-397 7 8 1 2 3 4 5 6 0
-398 14 15 1 9 10 11 12 13 0
-399 20 21 2 9 16 17 18 19 0
-400 26 3 10 16 22 23 24 25 0
401 -27 0
401 -28 0
401 -29 0
401 -30 0
30 -401 22 28 27 11 4 17 29 0
402 -27 0
403 -28 0
404 -29 0
405 -8 0
405 -15 0
405 -21 0
405 -26 0
-30 405 0
405 -36 0
-405 26 30 21 8 15 33 35 36 0
42 38 68 64 72 65 40 44 66 71 63 43 47 45 51 46 48 49 53 50 57 52 54 58 55 62 56 59 39 37 60 61 67 41 69 70 0
557 -63 0
558 -557 0
-558 -65 0
-406 37 40 44 38 39 41 42 43 0
-407 37 47 51 45 46 48 49 50 0
-408 38 53 45 57 52 54 55 56 0
-409 39 58 62 46 52 59 60 61 0
-40 410 0
-47 410 0
-53 410 0
-58 410 0
-63 410 0
-64 410 0
-65 410 0
-66 410 0
-410 64 63 65 66 40 58 47 53 0
411 -63 0
-67 411 0
-68 411 0
-411 59 68 63 69 41 54 67 48 0
412 -64 0
-67 412 0
-70 412 0
-412 60 64 67 55 49 71 42 70 0
-65 413 0
56 -413 72 65 61 43 50 70 68 0
-44 414 0
-51 414 0
-57 414 0
-62 414 0
-66 414 0
-69 414 0
-71 414 0
-72 414 0
72 -414 44 57 62 66 69 71 51 0
96 77 97 101 100 78 73 80 74 81 83 82 84 75 87 85 89 86 88 90 93 94 91 92 95 98 76 79 99 102 103 104 105 106 107 108 0
-76 419 0
-83 419 0
-89 419 0
-94 419 0
-99 419 0
-100 419 0
-101 419 0
100 -419 101 89 94 83 76 99 102 0
-99 420 0
421 -100 0
-79 422 0
-86 422 0
-92 422 0
-97 422 0
-101 422 0
-104 422 0
-106 422 0
-108 422 0
86 -422 101 92 97 108 104 106 79 0
-80 423 0
-87 423 0
-93 423 0
-98 423 0
-102 423 0
-105 423 0
-107 423 0
-108 423 0
-423 102 108 107 105 87 93 98 80 0
114 111 115 137 135 112 113 116 117 118 119 120 121 122 123 124 125 126 127 128 129 130 131 132 133 134 109 136 110 138 139 140 141 142 143 144 0
-118 425 0
-119 425 0
-120 425 0
-121 425 0
-122 425 0
-123 425 0
-425 121 122 118 117 109 120 123 119 0
-112 428 0
-119 428 0
-125 428 0
-130 428 0
-135 428 0
-136 428 0
-137 428 0
-138 428 0
-428 119 137 125 130 136 112 135 138 0
429 -135 0
430 -136 0
-115 431 0
-122 431 0
-128 431 0
-133 431 0
-137 431 0
-140 431 0
-142 431 0
-144 431 0
-431 122 144 137 128 133 140 142 115 0
-116 432 0
-123 432 0
-129 432 0
-134 432 0
-138 432 0
-141 432 0
-143 432 0
-144 432 0
-432 123 134 129 141 138 116 143 144 0
147 180 149 148 155 150 151 152 153 154 145 156 157 158 159 160 161 162 163 164 165 166 167 168 169 170 171 172 173 174 175 176 177 178 179 146 0
-148 639 0
-639 640 0
-640 641 0
-641 642 0
-642 643 0
-643 644 0
-644 645 0
-645 646 0
-155 646 0
-646 647 0
-647 648 0
-648 649 0
-649 650 0
-650 651 0
-651 652 0
-161 652 0
-652 653 0
-653 654 0
-654 655 0
-655 656 0
-656 657 0
-166 657 0
-657 658 0
-658 659 0
-659 660 0
-660 661 0
-661 662 0
-171 662 0
-662 663 0
-172 663 0
-663 664 0
-173 664 0
-664 665 0
-174 665 0
-665 666 0
-666 667 0
-667 668 0
-668 669 0
-669 670 0
-670 -180 0
-173 437 0
-437 148 173 171 166 155 172 161 174 0
438 -171 0
439 -172 0
-151 440 0
-158 440 0
-164 440 0
-169 440 0
-173 440 0
-176 440 0
-178 440 0
440 -180 0
151 180 173 169 -440 164 176 178 158 0
-152 441 0
-159 441 0
-165 441 0
-170 441 0
-174 441 0
-177 441 0
-179 441 0
441 -180 0
165 180 -441 152 170 174 177 179 159 0
212 209 187 194 184 186 182 181 189 190 183 192 193 188 195 196 197 198 199 200 201 202 203 204 185 191 207 208 206 210 211 205 213 214 215 216 0
445 -205 0
-446 209 207 208 202 191 197 184 210 0
447 -207 0
447 -212 0
-208 448 0
448 -214 0
-448 214 193 199 204 208 211 186 215 0
-187 449 0
-194 449 0
-200 449 0
449 -205 0
-209 449 0
449 -212 0
449 -214 0
-216 449 0
209 212 194 200 216 -449 205 214 187 0
-188 450 0
-195 450 0
-201 450 0
-206 450 0
-210 450 0
-213 450 0
-215 450 0
-216 450 0
-450 206 188 201 195 210 213 215 216 0
219 221 230 223 220 222 218 224 225 226 227 228 229 217 231 232 233 234 235 236 237 238 239 240 241 242 243 244 245 246 247 248 249 250 251 252 0
-220 455 0
-227 455 0
-233 455 0
-238 455 0
455 -244 0
-245 455 0
-455 245 243 244 238 220 227 233 246 0
456 -243 0
457 -244 0
-223 458 0
-230 458 0
-236 458 0
-241 458 0
-245 458 0
-248 458 0
-250 458 0
-252 458 0
248 -458 236 230 241 245 252 250 223 0
-224 459 0
-231 459 0
-237 459 0
-242 459 0
-246 459 0
-249 459 0
-251 459 0
-252 459 0
231 -459 224 237 242 246 249 251 252 0
263 257 259 266 256 258 253 260 261 262 255 264 265 254 267 268 269 270 271 272 273 274 275 276 277 278 279 280 281 282 283 284 285 286 287 288 0
-281 464 0
-464 282 281 279 280 274 269 263 256 0
465 -279 0
466 -280 0
-259 467 0
-266 467 0
-272 467 0
-277 467 0
-281 467 0
-284 467 0
-286 467 0
-288 467 0
-467 288 284 272 277 281 266 286 259 0
-260 468 0
-267 468 0
-273 468 0
-278 468 0
-282 468 0
-285 468 0
-287 468 0
-288 468 0
-468 285 273 260 278 267 282 287 288 0
299 292 295 302 293 294 290 296 297 298 291 300 301 289 303 304 305 306 307 308 309 310 311 312 313 314 315 316 317 318 319 320 321 322 323 324 0
-292 473 0
-299 473 0
-305 473 0
-310 473 0
-315 473 0
-317 473 0
316 -473 317 299 305 310 315 292 318 0
474 -315 0
-316 475 0
-475 316 322 307 312 301 319 294 323 0
-295 476 0
-302 476 0
-308 476 0
-313 476 0
-317 476 0
-320 476 0
-322 476 0
-324 476 0
324 -476 308 302 313 317 320 322 295 0
-296 477 0
-303 477 0
-309 477 0
-314 477 0
-318 477 0
-321 477 0
-323 477 0
-324 477 0
303 -477 296 309 314 318 321 323 324 0
325 328 353 331 327 330 329 332 333 334 335 336 337 360 339 340 341 342 343 344 345 346 347 348 349 350 351 352 338 354 355 356 357 358 359 326 0
-328 814 0
-814 815 0
-815 816 0
-816 817 0
-817 818 0
-818 819 0
-819 820 0
-820 821 0
-335 821 0
-821 822 0
-822 823 0
-823 824 0
-824 825 0
-825 826 0
-826 827 0
-341 827 0
-827 828 0
-828 829 0
-829 830 0
-830 831 0
-831 832 0
-346 832 0
-832 833 0
-833 834 0
-834 835 0
-835 836 0
-836 837 0
837 -351 0
838 -837 0
838 -352 0
839 -838 0
840 -839 0
-354 840 0
841 -840 0
842 -841 0
-842 843 0
-843 844 0
-844 845 0
-845 -360 0
-482 351 353 328 341 352 346 335 354 0
483 -351 0
484 -352 0
-331 485 0
-338 485 0
-344 485 0
-349 485 0
-353 485 0
-356 485 0
-358 485 0
-360 485 0
-485 338 360 353 349 344 356 358 331 0
-332 486 0
-339 486 0
-345 486 0
-350 486 0
-354 486 0
-357 486 0
-359 486 0
486 -360 0
345 -486 360 332 350 354 357 359 339 0
849 -364 0
-849 850 0
-365 850 0
-850 851 0
-851 852 0
-852 853 0
-853 854 0
-854 855 0
-855 856 0
-371 856 0
-856 857 0
-372 857 0
-857 858 0
-858 859 0
-859 860 0
-860 861 0
-861 862 0
-377 862 0
-862 863 0
-378 863 0
-863 864 0
-864 865 0
-865 866 0
-866 867 0
-382 867 0
-867 868 0
869 -868 0
870 -869 0
871 -870 0
872 -871 0
-387 872 0
873 -872 0
-388 873 0
874 -873 0
875 -874 0
-390 875 0
876 -875 0
-391 876 0
-876 877 0
-877 878 0
-393 878 0
-878 879 0
-879 880 0
-880 -396 0
364 377 389 388 387 371 -491 382 390 0
492 -383 0
391 383 365 -492 372 378 392 387 393 0
394 -494 396 380 374 385 392 389 367 0
-396 495 0
-881 0
-882 0
-883 0
-884 0
885 0
-886 0
-887 0
-888 0
-987 0
-889 0
988 0
-989 -1 881 0
-989 -2 881 0
-989 -3 881 0
-989 -4 881 0
-989 -5 881 0
-989 -6 881 0
-989 -7 881 0
-989 -8 881 0
-989 -9 882 0
-989 -10 882 0
-989 -11 882 0
-989 -12 882 0
-989 -13 882 0
-989 -14 882 0
-989 -15 882 0
-989 -16 883 0
-989 -17 883 0
-989 -18 883 0
-989 -19 883 0
-989 -20 883 0
-989 -21 883 0
-989 -22 884 0
-989 -23 884 0
-989 -24 884 0
-989 -25 884 0
-989 -26 884 0
989 -27 886 -885 0
-28 989 887 -885 0
-29 989 888 -885 0
-30 989 889 -885 0
-31 -989 886 0
-32 -989 886 0
-33 -989 886 0
-34 -989 887 0
-35 -989 887 0
-36 -989 888 0
-890 397 881 0
-890 989 881 0
-891 398 882 0
-891 989 882 0
-892 399 883 0
-892 989 883 0
-893 400 884 0
-893 989 884 0
401 894 -885 0
894 989 -885 0
-894 -401 -989 -885 0
-895 989 886 0
-896 989 887 0
-897 404 888 0
-897 989 888 0
-898 405 889 0
-898 989 889 0
898 -405 -989 889 0
-37 -990 890 0
-38 -990 890 0
-39 -990 890 0
-40 -990 890 0
-41 -990 890 0
-42 -990 890 0
-43 -990 890 0
-44 -990 890 0
-45 -990 891 0
-46 -990 891 0
-47 -990 891 0
-48 -990 891 0
-49 -990 891 0
-50 -990 891 0
-51 -990 891 0
-52 -990 892 0
-53 -990 892 0
-54 -990 892 0
-55 -990 892 0
-56 -990 892 0
-57 -990 892 0
-58 -990 893 0
-59 -990 893 0
-60 -990 893 0
-61 -990 893 0
-62 -990 893 0
-63 -990 894 0
-63 990 -894 895 0
-64 990 -894 896 0
-65 -990 894 0
-65 990 -894 897 0
-66 990 898 -894 0
-67 -990 895 0
-68 -990 895 0
-69 -990 895 0
-70 -990 896 0
-71 -990 896 0
-72 -990 897 0
-899 990 890 0
-900 990 891 0
-901 990 892 0
-902 990 893 0
903 410 -894 0
-904 990 895 0
-905 990 896 0
-906 413 897 0
-906 990 897 0
907 414 -898 0
-907 414 898 0
990 907 -898 0
990 -907 898 0
-990 -414 907 898 0
-73 -991 899 0
-74 -991 899 0
-75 -991 899 0
-77 -991 899 0
-78 -991 899 0
-79 899 -991 0
-80 -991 -907 0
-81 -991 900 0
-82 -991 900 0
-84 -991 900 0
-85 -991 900 0
-86 900 -991 0
-87 -991 -907 0
-88 -991 901 0
-90 -991 901 0
-91 -991 901 0
-92 901 -991 0
-93 -991 -907 0
-95 -991 902 0
-96 -991 902 0
-97 902 -991 0
-98 -991 -907 0
-99 991 904 -903 0
-100 991 905 -903 0
-102 -991 -907 0
-103 -991 904 0
-104 904 -991 0
-105 -991 -907 0
-106 905 -991 0
-107 -991 -907 0
906 -108 -991 0
-908 991 899 0
-909 991 900 0
-910 991 901 0
-911 991 902 0
912 419 -903 0
912 991 -903 0
-913 991 904 0
-914 991 905 0
-915 906 422 0
991 -915 906 0
-907 916 423 0
-916 907 423 0
991 -907 916 0
991 -916 907 0
-991 -423 916 907 0
-109 -992 908 0
-110 -992 908 0
-111 -992 908 0
-113 -992 908 0
-114 -992 908 0
-115 -992 908 0
-116 -992 908 0
-117 -992 909 0
-118 -992 909 0
-120 -992 909 0
-121 -992 909 0
-992 909 -122 0
-123 -992 909 0
-124 -992 910 0
-126 -992 910 0
-127 -992 910 0
-128 -992 910 0
-129 -992 910 0
-131 -992 911 0
-132 -992 911 0
-133 -992 911 0
-992 -134 911 0
-139 -992 913 0
-140 -992 913 0
-141 -992 913 0
-142 -992 914 0
-143 -992 914 0
-992 -144 915 0
921 -912 428 0
-924 915 431 0
992 -924 915 0
-916 925 432 0
-925 916 432 0
992 -925 916 0
924 -993 -180 0
930 -921 437 0
-933 924 440 0
925 441 -934 0
993 925 -934 0
-994 933 -216 0
939 -930 446 0
-942 933 449 0
-933 -942 -449 -994 0
934 -943 450 0
994 934 -943 0
-220 -939 -995 0
-227 -939 -995 0
-233 -939 -995 0
-238 -939 -995 0
-939 -245 942 995 0
-995 -252 942 0
948 -939 455 0
-951 942 458 0
-995 942 -458 951 0
-951 -942 -458 -995 0
943 -952 459 0
995 943 -952 0
-256 -996 -948 0
-263 -996 -948 0
-269 -996 -948 0
-274 -996 -948 0
-281 -948 951 996 0
-996 -288 951 0
957 -948 464 0
-951 960 467 0
-996 -467 951 960 0
-951 -960 -467 -996 0
952 -961 468 0
996 952 -961 0
-292 -997 -957 0
-299 -997 -957 0
-305 -997 -957 0
-310 -997 -957 0
-317 960 -957 997 0
-997 -324 960 0
966 -957 473 0
-960 969 476 0
-997 -476 969 960 0
-969 -960 -997 -476 0
961 -970 477 0
997 961 -970 0
-966 -353 969 998 0
-969 978 485 0
-998 -485 969 978 0
970 -979 486 0
494 -978 987 0
495 979 -988 0
-1000 0
-1001 0
-1002 0
-1003 0
-1004 0
-1005 0
-1104 0
-1006 0
1007 0
-1106 0
-1008 0
1107 0
-1108 -1 1000 0
-1108 -2 1000 0
-1108 -3 1000 0
-1108 -4 1000 0
-1108 -5 1000 0
-1108 -6 1000 0
-1108 -7 1000 0
-1108 -8 1000 0
-1108 -9 1001 0
-1108 -10 1001 0
-1108 -11 1001 0
-1108 -12 1001 0
-1108 -13 1001 0
-1108 -14 1001 0
-1108 -15 1001 0
-1108 -16 1002 0
-1108 -17 1002 0
-1108 -18 1002 0
-1108 -19 1002 0
-1108 -20 1002 0
-1108 -21 1002 0
-1108 -22 1003 0
-1108 -23 1003 0
-1108 -24 1003 0
-1108 -25 1003 0
-1108 -26 1003 0
-1108 -27 1004 0
-1108 -28 1004 0
-1108 -29 1004 0
-1108 -30 1004 0
-1108 -31 1005 0
-1108 -32 1005 0
-1108 -33 1005 0
-1108 -34 1006 0
-35 -1108 1006 0
-1009 1108 1000 0
-1010 1108 1001 0
-1011 1108 1002 0
-1012 1108 1003 0
-1013 401 1004 0
-1013 1108 1004 0
-1014 1108 1005 0
-1015 1108 1006 0
1016 1108 -1007 0
-1017 405 1008 0
-1017 1108 1008 0
-40 -1109 1009 0
-43 -1109 -1016 0
-47 -1109 1010 0
-50 -1109 -1016 0
-53 -1109 1011 0
-56 -1109 -1016 0
-58 -1109 1012 0
-61 -1109 -1016 0
-63 -1109 1013 0
-64 -1109 1013 0
-1109 -65 -1016 0
-66 -1109 1013 0
-67 -1109 1014 0
-68 -1109 1014 0
-68 -1109 -1016 0
-69 -1109 1014 0
-70 -1109 1015 0
-70 -1109 -1016 0
-71 -1109 1015 0
-1022 410 1013 0
1025 413 -1016 0
1109 1025 -1016 0
-1026 414 1017 0
1109 -1026 1017 0
-1109 -414 1026 1017 0
-79 -1110 -1025 0
-86 -1110 -1025 0
-92 -1110 -1025 0
-97 -1110 -1025 0
-1110 -101 -1025 0
-104 -1110 -1025 0
-106 -1110 -1025 0
-1031 419 1022 0
-1025 1034 422 0
1110 -1025 1034 0
1035 -1026 423 0
-1035 1026 423 0
-115 -1111 -1034 0
-122 -1111 -1034 0
-128 -1111 -1034 0
-133 -1111 -1034 0
-1111 -137 1031 0
-1111 -137 -1034 0
-138 1031 -1111 0
-140 -1111 -1034 0
-142 -1111 -1034 0
-1040 1031 428 0
-1040 1111 1031 0
1043 -1034 431 0
1111 1043 -1034 0
1044 -1035 432 0
-1044 1035 432 0
-1044 1111 1035 0
-151 -1112 -1043 0
-158 -1112 -1043 0
-164 -1112 -1043 0
-169 -1112 -1043 0
-173 -1112 -1043 0
-176 -1112 -1043 0
-178 -1112 -1043 0
-1049 1040 437 0
440 1052 -1043 0
1112 1052 -1043 0
1053 -1044 441 0
1044 441 -1053 0
1112 1044 -1053 0
-187 -1113 -1052 0
-194 -1113 -1052 0
-200 -1113 -1052 0
-1113 -1052 -205 0
-209 -1113 -1052 0
-1113 -1052 -212 0
-1113 -1052 -214 0
-1058 1049 446 0
-446 1058 -1113 1049 0
-1052 1061 449 0
1113 -1052 1061 0
1053 -1062 450 0
-223 -1114 -1061 0
-230 -1114 -1061 0
-236 -1114 -1061 0
-241 -1114 -1061 0
1058 -1114 -243 0
1058 -1114 -244 0
-1114 -1061 -245 0
-1058 1114 1061 -245 0
-246 1058 -1114 0
-1114 -1061 -248 0
-250 -1114 -1061 0
-1067 1058 455 0
-1061 1070 458 0
1114 -1061 1070 0
-1114 1061 -458 1070 0
1062 -1071 459 0
1114 1062 -1071 0
-259 -1115 -1070 0
-266 -1115 -1070 0
-272 -1115 -1070 0
-277 -1115 -1070 0
-279 1067 -1115 0
-280 1067 -1115 0
-281 -1115 1067 0
-281 -1115 -1070 0
-282 1067 -1115 0
-284 -1115 -1070 0
-286 -1115 -1070 0
-1076 1067 464 0
-1070 1079 467 0
1115 -1070 1079 0
1071 -1080 468 0
-295 -1116 -1079 0
-302 -1116 -1079 0
-308 -1116 -1079 0
-313 -1116 -1079 0
1076 -315 -1116 0
-316 1076 -1116 0
-317 -1116 -1079 0
-318 1076 -1116 0
-320 -1116 -1079 0
-322 -1116 -1079 0
-1079 1088 476 0
1116 -1079 1088 0
1080 -1089 477 0
-331 -1117 -1088 0
-338 -1117 -1088 0
-344 -1117 -1088 0
-349 -1117 -1088 0
-353 -1117 -1088 0
-356 -1117 -1088 0
-358 -1117 -1088 0
-1088 1097 485 0
1117 -1088 1097 0
1089 -1098 486 0
-367 -1097 -1118 0
-374 -1097 -1118 0
-380 -1097 -1118 0
-1095 -383 -1118 0
-385 -1097 -1118 0
-389 -1097 -1118 0
-392 -1097 -1118 0
-394 -1097 -1118 0
-1118 -492 1095 1104 0
494 -1097 1106 0
-1097 1118 1106 0
495 1098 -1107 0
-1123 0
1126 0
1225 0
-1127 0
1226 0
401 -1132 1123 0
404 1135 -1126 0
-1136 405 1127 0
-1141 410 1132 0
1144 -1135 413 0
-1145 414 1136 0
-1150 419 1141 0
1153 -1144 422 0
-1154 1145 423 0
-1230 -137 1150 0
-1159 1150 428 0
1162 -1153 431 0
1162 -1153 1230 0
-1163 1154 432 0
-1231 -173 1159 0
1171 -1162 440 0
1171 -1162 1231 0
1163 441 -1172 0
1180 -1171 449 0
1172 -1181 450 0
-1180 1189 458 0
1181 -1190 459 0
1198 -1189 467 0
1190 -1199 468 0
1198 -1235 -324 0
1207 -1198 476 0
-1235 -476 -1207 -1198 0
1199 -1208 477 0
1235 1199 -1208 0
1207 -1236 -360 0
1207 -1216 485 0
-1236 -485 -1207 -1216 0
1208 -1217 486 0
1236 1208 -1217 0
-1237 -396 1216 0
494 1216 -1225 0
-1216 -1237 -494 -1225 0
495 1217 -1226 0
1217 1237 -1226 0
-1242 0
-1245 0
1344 0
1246 0
1345 0
401 -1251 1242 0
404 -1254 1245 0
1255 405 -1246 0
-1260 410 1251 0
-1263 1254 413 0
1264 414 -1255 0
-1269 419 1260 0
-1272 1263 422 0
1273 -1264 423 0
-1349 -137 1269 0
-1278 1269 428 0
-1281 1272 431 0
-1281 1272 1349 0
1282 -1273 432 0
-1350 -173 1278 0
-1290 1281 440 0
-1290 1281 1350 0
1291 -1282 441 0
1290 -1299 449 0
1351 1290 -1299 0
1300 -1291 450 0
-1351 -1291 -450 -1300 0
1299 -1308 458 0
1352 1299 -1308 0
1300 -1309 459 0
-1352 -459 -1300 -1309 0
1308 -1317 467 0
1309 -1318 468 0
1317 -1326 476 0
1318 -1327 477 0
1326 -1335 485 0
1327 -1336 486 0
-1356 1335 -396 0
1335 1356 -1344 0
-1335 -1356 -494 -1344 0
1356 1336 -1345 0
-1357 0
-1358 0
-1359 0
-1360 0
1361 0
-1460 0
-1362 0
-1461 0
-1363 0
-1462 0
-1364 0
1463 0
1365 0
1464 0
-1 -1465 1357 0
-2 -1465 1357 0
-3 -1465 1357 0
-4 -1465 1357 0
-5 -1465 1357 0
-6 -1465 1357 0
-7 -1465 1357 0
-8 -1465 1357 0
-9 -1465 1358 0
-10 -1465 1358 0
-11 -1465 1358 0
-12 -1465 1358 0
-13 -1465 1358 0
-14 -1465 1358 0
-15 -1465 1358 0
-16 -1465 1359 0
-17 -1465 1359 0
-18 -1465 1359 0
-19 -1465 1359 0
-20 -1465 1359 0
-21 -1465 1359 0
-22 -1465 1360 0
-23 -1465 1360 0
-24 -1465 1360 0
-25 -1465 1360 0
-1465 -26 1360 0
-27 1465 1362 -1361 0
-28 1465 1363 -1361 0
-29 1465 1364 -1361 0
-30 -1465 -1365 0
-31 -1465 1362 0
-32 -1465 1362 0
-33 -1465 1362 0
-34 -1465 1363 0
-35 -1465 1363 0
-36 -1465 -1365 0
-1366 397 1357 0
-1366 1465 1357 0
-1367 398 1358 0
-1367 1465 1358 0
-1368 399 1359 0
-1368 1465 1359 0
-1369 400 1360 0
-1369 1465 1360 0
1370 401 -1361 0
1370 1465 -1361 0
-401 -1465 -1370 -1361 0
-1371 1465 1362 0
-402 -1465 1371 1362 0
-1372 1465 1363 0
-403 -1465 1372 1363 0
-1373 1465 1364 0
-404 -1465 1373 1364 0
1374 405 -1365 0
1374 1465 -1365 0
-1374 -1465 -405 -1365 0
-37 -1466 1366 0
-38 -1466 1366 0
-39 -1466 1366 0
-40 -1466 1366 0
-40 -1466 -1370 0
-41 -1466 1366 0
-42 -1466 1366 0
-43 -1466 1366 0
-44 -1466 -1374 0
-45 -1466 1367 0
-46 -1466 1367 0
-47 -1466 1367 0
-47 -1466 -1370 0
-48 -1466 1367 0
-49 -1466 1367 0
-50 -1466 1367 0
-51 -1466 -1374 0
-52 -1466 1368 0
-53 -1466 1368 0
-53 -1466 -1370 0
-54 -1466 1368 0
-55 -1466 1368 0
-56 -1466 1368 0
-57 -1466 -1374 0
-58 -1466 1369 0
-58 -1466 -1370 0
-59 -1466 1369 0
-60 -1466 1369 0
-61 -1466 1369 0
-62 -1466 -1374 0
-63 -1466 -1371 0
-63 1466 1371 -1370 0
-64 1466 1372 -1370 0
-65 -1466 1370 0
-65 -1466 -1373 0
-65 1466 1373 -1370 0
-66 -1466 -1374 0
-67 -1466 1371 0
-68 -1466 1371 0
-69 -1466 -1374 0
-70 -1466 1372 0
-71 -1466 -1374 0
-72 -1466 -1374 0
-1375 406 1366 0
-1375 1466 1366 0
-1376 407 1367 0
-1376 1466 1367 0
-1377 408 1368 0
-1377 1466 1368 0
-1378 409 1369 0
-1378 1466 1369 0
1379 410 -1370 0
1466 1379 -1370 0
1466 -1379 1370 0
-410 -1466 -1379 -1370 0
1380 411 -1371 0
411 -1380 1371 0
1380 1466 -1371 0
-1380 1466 1371 0
1380 -411 -1466 1371 0
412 1381 -1372 0
412 -1381 1372 0
-1381 1466 1372 0
1381 -1466 1372 -412 0
-412 -1381 -1372 -1466 0
1382 413 -1373 0
1382 1466 -1373 0
1466 -1382 1373 0
-413 -1466 1373 1382 0
1383 414 -1374 0
1466 1383 -1374 0
-414 -1383 -1466 -1374 0
-76 -1379 -1467 0
-80 -1383 -1467 0
-83 -1379 -1467 0
-87 -1383 -1467 0
-89 -1379 -1467 0
-93 -1383 -1467 0
-94 -1467 -1379 0
-98 -1383 -1467 0
-99 -1380 -1467 0
-99 1380 1467 -1379 0
-1381 -100 -1467 0
1381 -100 1467 -1379 0
-101 -1467 -1382 0
-101 1382 1467 -1379 0
-102 -1383 -1467 0
-105 -1383 -1467 0
-107 -1383 -1467 0
-1467 -108 -1383 0
419 -1379 1388 0
1467 -1379 1388 0
420 -1380 1389 0
-1380 1389 1467 0
-420 1380 -1467 1389 0
421 -1381 1390 0
-1381 1390 1467 0
1381 -421 -1467 1390 0
1391 -1382 422 0
1467 -1382 1391 0
-1467 -422 1391 1382 0
1392 -1383 423 0
1383 423 -1392 0
1392 1467 -1383 0
-423 -1383 -1467 -1392 0
-112 -1468 -1388 0
-116 -1468 -1392 0
-119 -1468 -1388 0
-123 -1468 -1392 0
-125 -1468 -1388 0
-129 -1468 -1392 0
-130 -1468 -1388 0
-134 -1468 -1392 0
-1389 -135 -1468 0
-1390 -136 -1468 0
-137 -1391 -1468 0
-138 -1468 -1392 0
-141 -1468 -1392 0
-143 -1468 -1392 0
-144 -1468 -1392 0
-1388 1397 428 0
-1388 1397 1468 0
1397 -1468 1388 -428 0
429 -1389 1398 0
-1389 1398 1468 0
1389 -429 -1468 1398 0
430 -1390 1399 0
-1390 1399 1468 0
1390 -430 -1468 1399 0
-1391 1400 431 0
-1391 1468 1400 0
-1468 -431 1400 1391 0
-1392 1401 432 0
1392 -1401 432 0
1468 -1392 1401 0
-1468 -432 -1401 -1392 0
-148 -1469 -1397 0
-152 -1469 -1401 0
-155 -1469 -1397 0
-159 -1469 -1401 0
-161 -1469 -1397 0
-165 -1469 -1401 0
-166 -1469 -1397 0
-170 -1469 -1401 0
-1398 -171 -1469 0
-1399 -172 -1469 0
-1400 -173 -1469 0
-174 -1469 -1401 0
-177 -1469 -1401 0
-179 -1469 -1401 0
-1469 -180 1400 0
-1469 -1401 -180 0
-1397 1406 437 0
-1397 1406 1469 0
438 -1398 1407 0
-1398 1407 1469 0
-438 1398 -1469 1407 0
439 -1399 1408 0
-1399 1408 1469 0
-439 1399 -1469 1408 0
-1400 440 1409 0
-1400 1409 1469 0
-1469 1409 -440 1400 0
441 1410 -1401 0
1410 1469 -1401 0
1469 1401 -1410 0
-1469 -1401 -441 -1410 0
-184 -1470 -1406 0
-186 -1408 -1470 0
-188 -1470 -1410 0
-191 -1470 -1406 0
-193 -1408 -1470 0
-195 -1470 -1410 0
-197 -1470 -1406 0
-199 -1408 -1470 0
-201 -1470 -1410 0
-202 -1470 -1406 0
-204 -1408 -1470 0
1405 -205 -1470 0
-206 -1470 -1410 0
-207 -1407 -1470 0
-208 -1408 -1470 0
-209 -1470 1406 0
-209 -1409 -1470 0
-210 -1470 -1410 0
-211 -1408 -1470 0
1407 -212 -1470 0
-213 -1470 -1410 0
1408 -214 -1470 0
-1409 -214 -1470 0
-215 -1470 -1410 0
-216 -1470 -1410 0
1415 446 -1406 0
1470 1415 -1406 0
447 -1407 1416 0
-1407 1470 1416 0
1416 1407 -1470 -447 0
-1408 1417 448 0
-1408 1417 1470 0
1417 1408 -1470 -448 0
-1409 449 1418 0
1470 -1409 1418 0
1470 -1418 1409 0
1418 -449 -1470 1409 0
1419 450 -1410 0
1470 1419 -1410 0
-450 -1470 -1410 -1419 0
-220 -1471 -1415 0
-224 -1471 -1419 0
-227 -1415 -1471 0
-231 -1471 -1419 0
-233 -1415 -1471 0
-237 -1471 -1419 0
-238 -1415 -1471 0
-242 -1471 -1419 0
-243 -1471 -1416 0
-244 -1417 -1471 0
-245 -1418 -1471 0
1418 -245 -1415 1471 0
-246 -1471 -1419 0
-248 1416 -1471 0
-249 -1471 -1419 0
-251 -1471 -1419 0
-252 -1471 -1419 0
455 -1415 1424 0
1471 -1415 1424 0
456 -1416 1425 0
1471 1425 -1416 0
-456 1416 1425 -1471 0
457 1426 -1417 0
1426 1471 -1417 0
1417 -457 -1471 1426 0
1427 458 -1418 0
458 1418 -1427 0
1471 1427 -1418 0
1471 1418 -1427 0
1427 -458 -1471 1418 0
1428 459 -1419 0
1471 1428 -1419 0
-459 -1471 -1419 -1428 0
-256 -1472 -1424 0
-259 -1472 -1427 0
-260 -1472 -1428 0
-263 -1472 -1424 0
-266 -1472 -1427 0
-267 -1472 -1428 0
-269 -1472 -1424 0
-272 -1472 -1427 0
-273 -1472 -1428 0
-274 -1472 -1424 0
-277 -1472 -1427 0
-278 -1472 -1428 0
-279 -1472 -1425 0
-280 -1426 -1472 0
-281 -1472 -1427 0
-282 -1472 -1428 0
-284 -1472 -1427 0
-285 -1472 -1428 0
-286 -1472 -1427 0
-287 -1472 -1428 0
-1472 -288 -1428 0
1433 -1424 464 0
1433 -1424 1472 0
1434 465 -1425 0
1434 1472 -1425 0
1434 -1472 1425 -465 0
-1426 1435 466 0
-1426 1435 1472 0
-466 -1472 1426 1435 0
1436 -1427 467 0
1436 1472 -1427 0
1427 1472 -1436 0
1436 -1472 -467 1427 0
1437 -1428 468 0
1437 1472 -1428 0
-1472 -468 -1428 -1437 0
-292 -1433 -1473 0
-294 -1435 -1473 0
-295 -1473 -1436 0
-296 -1473 -1437 0
-299 -1433 -1473 0
-301 -1435 -1473 0
-1473 -302 -1436 0
-303 -1473 -1437 0
-305 -1433 -1473 0
-307 -1435 -1473 0
-308 -1473 -1436 0
-309 -1473 -1437 0
-310 -1433 -1473 0
-312 -1435 -1473 0
-313 -1473 -1436 0
-314 -1473 -1437 0
-1434 -315 -1473 0
-316 -1435 -1473 0
-317 -1473 -1436 0
-318 -1473 -1437 0
-319 -1435 -1473 0
-320 -1473 -1436 0
-321 -1473 -1437 0
-322 -1473 -1436 0
-323 -1473 -1437 0
-1473 -324 -1437 0
1442 -1433 473 0
1473 1442 -1433 0
474 -1434 1443 0
1473 1443 -1434 0
1443 1434 -1473 -474 0
-1435 1444 475 0
1473 -1435 1444 0
-475 1435 -1473 1444 0
1445 -1436 476 0
1436 -1445 476 0
1473 1445 -1436 0
-1473 1445 -476 1436 0
1446 -1437 477 0
1473 1446 -1437 0
-1446 -477 -1437 -1473 0
-328 -1442 -1474 0
-332 -1474 -1446 0
-335 -1442 -1474 0
-339 -1474 -1446 0
-341 -1442 -1474 0
-345 -1474 -1446 0
-346 -1442 -1474 0
-350 -1474 -1446 0
-351 -1443 -1474 0
-352 -1444 -1474 0
-353 -1474 -1445 0
-354 -1474 -1446 0
-357 -1474 -1446 0
-359 -1474 -1446 0
-360 -1474 -1446 0
482 -1442 1451 0
1474 -1442 1451 0
483 -1443 1452 0
1474 -1443 1452 0
-483 1443 -1474 1452 0
484 -1444 1453 0
-1444 1474 1453 0
-484 1444 -1474 1453 0
485 -1445 1454 0
1445 -1454 485 0
1474 -1445 1454 0
1445 -1474 1454 -485 0
486 -1446 1455 0
1474 -1446 1455 0
-486 -1474 -1446 -1455 0
-1451 -364 -1475 0
-371 -1451 -1475 0
-377 -1451 -1475 0
-382 -1451 -1475 0
-396 -1475 1454 0
-1475 -396 -1455 0
-1451 491 1460 0
1475 -1451 1460 0
492 -1452 1461 0
1475 -1452 1461 0
-1453 493 1462 0
1475 -1453 1462 0
1454 494 -1463 0
1475 1454 -1463 0
495 1455 -1464 0
-1455 -1475 -495 -1464 0
1702 0
1621 -1630 423 0
1630 -1639 432 0
1639 441 -1648 0
1648 -1657 450 0
1657 -1666 459 0
1666 -1675 468 0
1675 -1684 477 0
1684 -1693 486 0
495 1693 -1702 0
-5169 0
5268 0
5271 0
5173 0
-5178 401 5169 0
5182 405 -5173 0
-5187 410 5178 0
5191 414 -5182 0
-5196 5187 419 0
5200 -5191 423 0
-5205 5196 428 0
5209 -5200 432 0
-5214 5205 437 0
5218 -5209 441 0
-5278 -5218 -216 0
-5223 5214 446 0
-5223 5278 5214 0
5227 -5218 450 0
-243 -5279 5223 0
-245 -5279 5223 0
-5227 -252 -5279 0
455 -5232 5223 0
5279 -5232 5223 0
5236 -5227 459 0
-5280 -5236 -288 0
-5241 5232 464 0
-5241 5232 5280 0
5245 -5236 468 0
-5281 -315 5241 0
-316 -5281 5241 0
-317 -5281 5241 0
-5245 -324 -5281 0
473 5241 -5250 0
5281 -5250 5241 0
5253 -5282 -360 0
482 5250 -5259 0
5282 5250 -5259 0
-5282 -5253 -485 -5262 0
-387 5259 -5283 0
-388 5259 -5283 0
-389 5259 -5283 0
-390 5259 -5283 0
491 5259 -5268 0
5259 5283 -5268 0
-5259 -5283 -491 -5268 0
5283 5262 -5271 0
6237 -405 0
6238 -414 0
6239 -423 0
6240 -432 0
6243 -459 0
6248 -6237 0
6249 -6248 0
-6238 6250 -6248 0
-6250 6251 0
6252 -6249 0
-6239 6251 -6249 0
-6251 6253 0
6252 -6239 0
6253 -6240 -6252 0
-6253 6255 0
-6255 6257 0
-6257 -6243 0
6305 -401 -1361 0
6305 -405 -1365 0
-410 6306 -1370 0
-411 6306 -1371 0
-412 6306 -1372 0
-413 6306 -1373 0
-414 6306 -1374 0
-419 -1379 6307 0
-420 -1380 6307 0
-1381 -421 6307 0
-422 -1382 6307 0
-423 -1383 6307 0
-428 -1388 6308 0
-1389 -429 6308 0
-430 -1390 6308 0
-1391 -431 6308 0
6308 -1392 -432 0
-437 -1397 6309 0
-1398 -438 6309 0
-439 -1399 6309 0
-1400 -440 6309 0
-1401 -441 6309 0
-1405 -445 6310 0
-446 6310 -1406 0
-1407 -447 6310 0
-1408 -448 6310 0
-1409 -449 6310 0
-450 -1410 6310 0
-455 -1415 6311 0
-456 -1416 6311 0
-457 -1417 6311 0
-458 -1418 6311 0
-459 -1419 6311 0
-464 -1424 6312 0
-465 -1425 6312 0
-466 -1426 6312 0
-467 -1427 6312 0
-468 -1428 6312 0
-1433 -473 6313 0
-474 -1434 6313 0
-475 -1435 6313 0
-476 -1436 6313 0
-477 -1437 6313 0
-482 -1442 6314 0
-483 -1443 6314 0
-484 -1444 6314 0
-485 -1445 6314 0
-486 -1446 6314 0
-1451 -491 6315 0
-492 6315 -1452 0
-493 6315 -1453 0
-494 -1454 6315 0
-495 -1455 6315 0
6316 -6305 0
6317 -6316 0
-6306 6318 -6316 0
-6318 6319 0
-6307 -6318 0
-6306 6317 0
6320 -6317 0
-6307 6319 -6317 0
-6319 6321 0
-6319 -6308 0
-6307 6320 0
6322 -6320 0
-6308 6321 -6320 0
-6321 6323 0
-6321 -6309 0
6322 -6308 0
6324 -6322 0
6323 -6309 -6322 0
6325 -6323 0
-6310 -6323 0
6324 -6309 0
6326 -6324 0
-6310 6325 -6324 0
6327 -6325 0
-6311 -6325 0
-6310 6326 0
6328 -6326 0
-6311 6327 -6326 0
6329 -6327 0
-6312 -6327 0
6328 -6311 0
6330 -6328 0
-6312 6329 -6328 0
6331 -6329 0
-6313 -6329 0
6330 -6312 0
6332 -6330 0
-6313 6331 -6330 0
6333 -6331 0
-6314 -6331 0
6332 -6313 0
-6314 6333 -6332 0
-6315 -6333 0
7072 -404 0
7072 -405 0
-413 7073 0
7073 -414 0
-422 7074 0
-423 7074 0
7075 -431 0
7075 -432 0
7076 -440 0
-441 7076 0
7077 -449 0
-450 7077 0
7078 -458 0
-459 7078 0
-467 7079 0
-468 7079 0
-476 7080 0
-477 7080 0
-485 7081 0
-486 7081 0
-494 7082 0
-495 7082 0
7083 -7072 0
7084 -7083 0
7084 -7073 0
7089 -7084 0
-7074 7089 0
7092 -7089 0
7090 -7075 -7089 0
-7090 7093 0
7092 -7075 0
7095 -7092 0
7093 -7076 -7092 0
7096 -7093 0
-7093 7094 -7077 0
7097 -7094 0
-7094 -7078 0
7095 -7076 0
7098 -7095 0
7096 -7077 -7095 0
7099 -7096 0
7097 -7096 -7078 0
7100 -7097 0
-7079 -7097 0
7098 -7077 0
7101 -7098 0
7099 -7078 -7098 0
7102 -7099 0
-7079 7100 -7099 0
7103 -7100 0
-7080 -7100 0
7101 -7078 0
-7079 7102 -7101 0
7105 -7102 0
-7080 7103 -7102 0
7106 -7103 0
-7081 -7103 0
7104 -7079 0
7105 -7080 -7104 0
-7081 7106 -7105 0
-7082 -7106 0
-80 -63 0
-87 -63 0
-93 -63 0
-98 -63 0
-73 -72 0
-74 -72 0
-75 -72 0
-76 -72 0
-77 -72 0
-78 -72 0
-81 -72 0
-82 -72 0
-83 -72 0
-84 -72 0
-85 -72 0
-88 -72 0
-89 -72 0
-90 -72 0
-91 -72 0
-94 -72 0
-95 -72 0
-96 -72 0
-72 -99 0
-72 -100 0
-103 -72 0
-109 -108 0
-110 -108 0
-111 -108 0
-112 -108 0
-113 -108 0
-114 -108 0
-117 -108 0
-118 -108 0
-119 -108 0
-120 -108 0
-121 -108 0
-124 -108 0
-125 -108 0
-126 -108 0
-127 -108 0
-130 -108 0
-131 -108 0
-132 -108 0
-108 -135 0
-108 -136 0
-139 -108 0
-145 -144 0
-146 -144 0
-147 -144 0
-148 -144 0
-149 -144 0
-150 -144 0
-153 -144 0
-154 -144 0
-155 -144 0
-156 -144 0
-157 -144 0
-160 -144 0
-161 -144 0
-162 -144 0
-163 -144 0
-166 -144 0
-167 -144 0
-168 -144 0
-144 -171 0
-144 -172 0
-175 -144 0
-181 -180 0
-182 -180 0
-183 -180 0
-184 -180 0
-185 -180 0
-186 -180 0
-189 -180 0
-190 -180 0
-191 -180 0
-192 -180 0
-193 -180 0
-196 -180 0
-197 -180 0
-198 -180 0
-199 -180 0
-202 -180 0
-203 -180 0
-204 -180 0
-207 -180 0
-208 -180 0
-211 -180 0
-217 -216 0
-218 -216 0
-219 -216 0
-220 -216 0
-221 -216 0
-222 -216 0
-225 -216 0
-226 -216 0
-227 -216 0
-228 -216 0
-229 -216 0
-232 -216 0
-233 -216 0
-234 -216 0
-235 -216 0
-238 -216 0
-239 -216 0
-240 -216 0
-216 -243 0
-216 -244 0
-247 -216 0
-253 -252 0
-254 -252 0
-255 -252 0
-256 -252 0
-257 -252 0
-258 -252 0
-261 -252 0
-262 -252 0
-263 -252 0
-264 -252 0
-265 -252 0
-268 -252 0
-269 -252 0
-270 -252 0
-271 -252 0
-274 -252 0
-275 -252 0
-276 -252 0
-279 -252 0
-280 -252 0
-283 -252 0
-289 -288 0
-290 -288 0
-291 -288 0
-292 -288 0
-293 -288 0
-294 -288 0
-297 -288 0
-298 -288 0
-299 -288 0
-300 -288 0
-301 -288 0
-304 -288 0
-305 -288 0
-306 -288 0
-307 -288 0
-310 -288 0
-311 -288 0
-312 -288 0
-315 -288 0
-316 -288 0
-319 -288 0
-325 -324 0
-326 -324 0
-327 -324 0
-328 -324 0
-329 -324 0
-330 -324 0
-333 -324 0
-334 -324 0
-335 -324 0
-336 -324 0
-337 -324 0
-340 -324 0
-341 -324 0
-342 -324 0
-343 -324 0
-346 -324 0
-347 -324 0
-348 -324 0
-351 -324 0
-352 -324 0
-355 -324 0
-360 -364 0
-371 -360 0
-377 -360 0
-382 -360 0
-387 -360 0
-388 -360 0
