p cnf 8683 1856
22 23 1 2 14 15 6 3 7 8 9 10 11 12 13 16 17 18 19 20 21 4 5 24 25 26 27 28 29 30 31 32 33 34 35 36 0
496 -1 0
-496 -2 0
397 -1 0
397 -2 0
397 -3 0
397 -4 0
397 -5 0
397 -6 0
397 -7 0
397 -8 0
5 1 -397 2 3 4 6 7 8 0
398 -1 0
398 -9 0
398 -10 0
398 -11 0
398 -12 0
398 -13 0
398 -14 0
398 -15 0
10 -398 9 1 11 12 13 14 15 0
399 -2 0
2 16 -399 9 17 18 19 20 21 0
-400 3 22 10 16 23 24 25 26 0
-401 4 22 11 17 27 28 29 30 0
-402 5 23 12 18 27 31 32 33 0
-403 6 24 13 19 28 31 34 35 0
-404 7 25 14 20 29 32 34 36 0
-405 8 26 15 21 30 33 35 36 0
63 58 37 38 52 53 39 40 45 50 51 46 47 48 49 41 42 54 55 56 57 43 44 60 61 62 59 64 65 66 67 68 69 70 71 72 0
531 -37 0
-38 -531 0
406 -37 0
406 -38 0
-39 406 0
-40 406 0
-41 406 0
-42 406 0
-43 406 0
-44 406 0
42 -406 37 38 39 40 41 43 44 0
-37 407 0
-45 407 0
-46 407 0
-47 407 0
-48 407 0
-49 407 0
-50 407 0
-51 407 0
45 46 -407 47 37 48 49 50 51 0
-38 408 0
408 -45 0
-52 408 0
-53 408 0
-54 408 0
-55 408 0
-56 408 0
-57 408 0
52 38 -408 45 53 54 55 56 57 0
-413 72 43 56 50 65 68 70 61 0
77 95 73 94 78 81 89 88 74 75 76 84 85 86 87 82 83 90 91 92 93 79 80 96 97 98 99 100 101 102 103 104 105 106 107 108 0
-73 566 0
567 -566 0
-566 -74 0
568 -567 0
-75 -567 0
569 -568 0
-76 -568 0
570 -569 0
-77 -569 0
571 -570 0
-78 -570 0
572 -571 0
-79 -571 0
573 -572 0
-80 -572 0
574 -573 0
575 -574 0
576 -575 0
577 -576 0
578 -577 0
579 -578 0
580 -579 0
581 -580 0
-88 -580 0
582 -581 0
-89 -581 0
583 -582 0
-90 -582 0
584 -583 0
-91 -583 0
585 -584 0
-92 -584 0
586 -585 0
-93 -585 0
587 -586 0
-94 -586 0
588 -587 0
-95 -587 0
589 -588 0
-96 -588 0
590 -589 0
-97 -589 0
591 -590 0
-98 -590 0
592 -591 0
-99 -591 0
593 -592 0
-100 -592 0
594 -593 0
-101 -593 0
595 -594 0
-102 -594 0
596 -595 0
-103 -595 0
597 -596 0
-104 -596 0
598 -597 0
-105 -597 0
599 -598 0
-106 -598 0
600 -599 0
-107 -599 0
-108 -600 0
-73 415 0
415 -74 0
-75 415 0
-76 415 0
-77 415 0
-78 415 0
-79 415 0
-80 415 0
80 -415 74 73 79 75 76 77 78 0
-73 416 0
-81 416 0
-82 416 0
-83 416 0
-84 416 0
-85 416 0
-86 416 0
-87 416 0
82 -416 73 81 83 84 85 86 87 0
-74 417 0
-417 74 81 92 88 89 90 91 93 0
-418 75 98 88 82 94 95 96 97 0
-419 76 102 89 83 94 99 100 101 0
-420 77 105 90 84 95 99 103 104 0
-421 78 107 91 85 96 100 103 106 0
-422 79 108 92 86 97 101 104 106 0
-423 80 108 93 87 98 102 105 107 0
128 129 131 130 113 114 115 116 117 109 110 120 121 122 123 118 119 124 125 126 127 111 112 132 133 134 135 136 137 138 139 140 141 142 143 144 0
601 -109 0
-601 -110 0
424 -109 0
424 -110 0
-111 424 0
-112 424 0
-113 424 0
-114 424 0
-115 424 0
-116 424 0
111 -424 109 110 112 113 114 115 116 0
-109 425 0
-117 425 0
-118 425 0
-119 425 0
-120 425 0
-121 425 0
-122 425 0
-123 425 0
120 121 -425 109 117 118 119 122 123 0
-124 426 0
-125 426 0
-126 426 0
-127 426 0
-128 426 0
-129 426 0
-426 110 117 124 125 126 127 128 129 0
150 151 166 167 165 164 145 152 153 146 147 156 157 158 159 154 155 148 149 160 161 162 163 168 169 170 171 172 173 174 175 176 177 178 179 180 0
-145 636 0
-636 637 0
-636 -146 0
-637 638 0
-638 639 0
-639 640 0
-640 641 0
-641 642 0
-642 643 0
-643 -153 0
-145 433 0
433 -146 0
-147 433 0
-148 433 0
-149 433 0
-150 433 0
-151 433 0
-152 433 0
148 -433 146 145 147 149 150 151 152 0
-145 434 0
-153 434 0
-154 434 0
-155 434 0
-156 434 0
-157 434 0
-158 434 0
-159 434 0
153 154 -434 155 145 156 157 158 159 0
-146 435 0
-160 435 0
-161 435 0
-162 435 0
-163 435 0
-164 435 0
-165 435 0
160 -435 146 153 161 162 163 164 165 0
186 187 198 199 203 202 189 188 181 182 191 192 193 194 195 185 190 183 184 200 201 196 197 204 205 206 207 208 209 210 211 212 213 214 215 216 0
-181 671 0
-671 -182 0
-181 442 0
-182 442 0
-183 442 0
-184 442 0
-185 442 0
-186 442 0
-187 442 0
-188 442 0
186 183 -442 182 184 185 181 187 188 0
-181 443 0
-189 443 0
-190 443 0
-191 443 0
-192 443 0
-193 443 0
-194 443 0
-195 443 0
195 194 -443 181 189 190 191 192 193 0
-182 444 0
-189 444 0
-196 444 0
-197 444 0
-198 444 0
-199 444 0
-200 444 0
-201 444 0
196 -444 189 182 197 198 199 200 201 0
239 238 218 220 221 222 223 224 217 219 227 228 229 230 231 225 226 234 235 236 237 232 233 240 241 242 243 244 245 246 247 248 249 250 251 252 0
-217 706 0
-706 707 0
-706 -218 0
-707 708 0
-708 709 0
-709 710 0
-710 711 0
-711 712 0
-712 713 0
-713 -225 0
-217 451 0
-218 451 0
-219 451 0
-220 451 0
-221 451 0
-222 451 0
-223 451 0
-224 451 0
220 -451 218 217 219 221 222 223 224 0
-217 452 0
-225 452 0
-226 452 0
-227 452 0
-228 452 0
-229 452 0
-230 452 0
-231 452 0
226 -452 217 225 231 228 227 230 229 0
-218 453 0
-232 453 0
-233 453 0
-234 453 0
-235 453 0
-236 453 0
-237 453 0
232 -453 218 225 233 234 235 236 237 0
253 257 268 269 255 258 259 260 256 254 275 274 265 266 267 261 262 270 271 272 273 263 264 276 277 278 279 280 281 282 283 284 285 286 287 288 0
741 -253 0
-254 -741 0
-255 743 0
-743 744 0
-256 744 0
-744 745 0
-257 745 0
-745 746 0
-258 746 0
-746 747 0
-259 747 0
-747 748 0
-260 748 0
-748 749 0
-749 750 0
-262 -749 0
-750 751 0
-750 -263 0
-751 752 0
-264 -751 0
-752 753 0
-265 -752 0
754 -753 0
-753 -266 0
-267 -754 0
460 -253 0
-254 460 0
-255 460 0
-256 460 0
-257 460 0
-258 460 0
-259 460 0
-260 460 0
-460 259 253 254 255 257 258 256 260 0
-253 461 0
-261 461 0
-262 461 0
-263 461 0
-264 461 0
-265 461 0
-266 461 0
-267 461 0
264 -461 253 263 261 262 266 267 265 0
-254 462 0
-261 462 0
-268 462 0
-269 462 0
-270 462 0
-271 462 0
-272 462 0
-273 462 0
268 269 254 261 -462 270 271 272 273 0
293 294 298 299 311 310 295 296 289 290 305 304 301 302 303 297 300 306 307 308 309 291 292 312 313 314 315 316 317 318 319 320 321 322 323 324 0
776 -289 0
777 -776 0
-290 -776 0
778 -777 0
779 -778 0
780 -779 0
781 -780 0
782 -781 0
783 -782 0
784 -783 0
785 -784 0
786 -785 0
787 -786 0
788 -787 0
789 -788 0
790 -789 0
791 -790 0
-304 -790 0
792 -791 0
-305 -791 0
793 -792 0
-306 -792 0
794 -793 0
-307 -793 0
795 -794 0
-308 -794 0
-309 -795 0
469 -289 0
469 -290 0
-291 469 0
-292 469 0
-293 469 0
-294 469 0
-295 469 0
-296 469 0
470 -289 0
-297 470 0
-298 470 0
-299 470 0
-300 470 0
-301 470 0
-302 470 0
-303 470 0
298 -470 289 297 299 300 301 302 303 0
-297 471 0
-304 471 0
-305 471 0
-306 471 0
-307 471 0
-308 471 0
-309 471 0
-471 290 309 297 304 305 306 307 308 0
329 347 325 330 335 336 331 332 346 326 327 328 337 338 339 333 334 340 341 342 343 344 345 348 349 350 351 352 353 354 355 356 357 358 359 360 0
811 -325 0
812 -811 0
-811 -326 0
813 -812 0
814 -813 0
815 -814 0
816 -815 0
817 -816 0
818 -817 0
819 -818 0
-333 -818 0
820 -819 0
821 -820 0
822 -821 0
823 -822 0
824 -823 0
825 -824 0
826 -825 0
-340 -825 0
827 -826 0
-341 -826 0
828 -827 0
-342 -827 0
829 -828 0
-343 -828 0
830 -829 0
-344 -829 0
-345 -830 0
478 -325 0
478 -326 0
-327 478 0
-328 478 0
-329 478 0
-330 478 0
-331 478 0
-332 478 0
327 -478 325 326 328 329 330 331 332 0
479 -325 0
-333 479 0
-334 479 0
-335 479 0
-336 479 0
-337 479 0
-338 479 0
-339 479 0
334 335 -479 325 333 336 337 338 339 0
-340 480 0
-341 480 0
-342 480 0
-343 480 0
-344 480 0
-345 480 0
326 -480 345 333 340 341 342 343 344 0
846 -361 0
-362 -846 0
-362 487 0
363 -487 361 362 364 365 366 367 368 0
-361 488 0
-369 488 0
369 370 -488 361 371 372 373 374 375 0
377 369 362 376 -489 378 379 380 381 0
-2071 0
-2072 0
-2171 0
2073 0
-2172 0
-1 -2179 2071 0
2179 -2081 2072 0
399 2082 -2073 0
-2090 2081 407 0
2091 408 -2082 0
-2099 2090 416 0
2100 -2091 417 0
-2108 2099 425 0
2109 426 -2100 0
-2117 2108 434 0
2118 435 -2109 0
-2126 2117 443 0
2127 -2118 444 0
-2135 2126 452 0
2136 453 -2127 0
-2144 2135 461 0
2145 -2136 462 0
-2153 2144 470 0
2154 471 -2145 0
-2188 2162 -479 2153 0
2163 2188 -2154 0
488 -2162 2171 0
489 -2163 2172 0
2428 0
-2527 0
-2429 0
-2528 0
2430 0
-1 2536 2429 -2428 0
-2536 -2 -2430 0
2536 2437 -2428 0
-398 -2536 2438 2429 0
2446 406 -2437 0
2447 -2438 407 0
2455 -2446 415 0
2456 -2447 416 0
2464 -2455 424 0
2465 -2456 425 0
2473 -2464 433 0
2474 -2465 434 0
2482 -2473 442 0
2483 -2474 443 0
2491 -2482 451 0
2492 -2483 452 0
-2491 2500 460 0
2501 -2492 461 0
-2500 2509 469 0
-2501 2510 470 0
-2509 478 2518 0
-2510 2519 479 0
487 -2518 2527 0
488 -2519 2528 0
4927 0
-5026 0
4928 0
5027 0
4929 0
5028 0
-1 -5035 -4928 0
5035 4936 -4927 0
5035 4937 -4928 0
5035 4938 -4929 0
4945 406 -4936 0
4946 -4937 407 0
4947 -4938 408 0
4954 -4945 415 0
4955 -4946 416 0
4956 -4947 417 0
4963 -4954 424 0
4964 -4955 425 0
4965 -4956 426 0
4972 -4963 433 0
4973 -4964 434 0
4974 -4965 435 0
4981 -4972 442 0
4982 -4973 443 0
4983 -4974 444 0
4990 -4981 451 0
4991 -4982 452 0
4992 -4983 453 0
-4990 4999 460 0
5000 -4991 461 0
5001 -4992 462 0
-4999 469 5008 0
5009 -5000 470 0
5010 -5001 471 0
-5044 -5010 -326 0
-5044 -5010 -333 0
-5008 478 5017 0
-5008 5044 5017 0
5044 -5009 5018 0
-5044 -5009 -479 -5018 0
5019 -5010 5044 0
-5045 5018 -369 0
-370 -5045 5018 0
-371 -5045 5018 0
-372 -5045 5018 0
-373 -5045 5018 0
-374 -5045 5018 0
-375 -5045 5018 0
487 -5017 5026 0
5045 -5017 5026 0
488 5018 -5027 0
5045 5018 -5027 0
-5045 -5018 -488 -5027 0
-5045 -5019 -489 -5028 0
-5403 0
-5502 0
5404 0
-5503 0
5405 0
-5511 -1 -5404 0
-5511 -2 -5405 0
5511 -5412 5403 0
398 5413 -5404 0
5511 5413 -5404 0
399 5414 -5405 0
-5512 -37 -5413 0
-5421 406 5412 0
5422 407 -5413 0
5422 5512 -5413 0
5423 408 -5414 0
5423 5512 -5414 0
-5513 -73 -5422 0
-81 -5513 -5423 0
-5430 5421 415 0
5431 -5422 416 0
5513 5431 -5422 0
5432 -5423 417 0
-5514 -109 -5431 0
-5514 -110 -5432 0
-5514 -117 -5432 0
-5439 5430 424 0
5440 425 -5431 0
5440 5514 -5431 0
5441 426 -5432 0
-5515 -145 -5440 0
-5515 -5441 -153 0
-5448 5439 433 0
5449 -5440 434 0
5449 5515 -5440 0
5450 435 -5441 0
-5516 -181 -5449 0
-5516 -182 -5450 0
-5516 -189 -5450 0
-5457 5448 442 0
5458 -5449 443 0
5458 5516 -5449 0
5459 -5450 444 0
5459 5516 -5450 0
-217 -5517 -5458 0
-5517 -225 -5459 0
-5466 5457 451 0
-5517 5466 -451 5457 0
5467 -5458 452 0
5517 5467 -5458 0
5468 453 -5459 0
5468 5517 -5459 0
-253 -5518 -5467 0
5466 -254 -5518 0
-254 -5518 -5468 0
-255 5466 -5518 0
-256 5466 -5518 0
-257 5466 -5518 0
-258 5466 -5518 0
-259 5466 -5518 0
-260 5466 -5518 0
-261 -5518 -5468 0
-5466 5475 460 0
-5475 5466 460 0
5476 -5467 461 0
5518 5476 -5467 0
5477 -5468 462 0
-5519 -5476 -289 0
-297 -5477 -5519 0
-5475 5484 469 0
-5484 5475 469 0
5485 -5476 470 0
5519 5485 -5476 0
5486 5519 -5477 0
-5520 -5485 -325 0
-5486 -333 -5520 0
-5484 478 5493 0
5484 -5520 -478 5493 0
479 -5485 5494 0
5520 -5485 5494 0
-5521 -5494 -361 0
487 -5493 5502 0
-5494 488 5503 0
-5494 5521 5503 0
5522 0
-5621 0
-5523 0
-5622 0
-5524 0
5623 0
5525 0
5526 0
5527 0
5528 0
5529 0
5530 0
5630 -1 5523 -5522 0
-5630 -3 -5525 0
-5630 -4 -5526 0
-5630 -5 -5527 0
-5630 -6 -5528 0
-5630 -7 -5529 0
-5630 -8 -5530 0
-5630 -9 5523 0
-5630 -10 5523 0
-5630 -11 5523 0
-5630 -12 5523 0
-5630 -13 5523 0
-5630 -14 5523 0
-5630 -15 5523 0
-5630 -16 -5525 0
-5630 -17 -5526 0
-5630 -18 -5527 0
-5630 -19 -5528 0
-5630 -20 -5529 0
-5630 -21 -5530 0
-5630 -22 -5526 0
-5630 -23 -5527 0
-5630 -24 -5528 0
-5630 -25 -5529 0
-5630 -26 -5530 0
-5630 -27 -5527 0
-5630 -28 -5528 0
-5630 -29 -5529 0
-5630 -30 -5530 0
-5630 -31 -5528 0
-5630 -32 -5529 0
-5630 -33 -5530 0
-5630 -34 -5529 0
-5630 -35 -5530 0
-5630 -36 -5530 0
5531 397 -5522 0
5630 5531 -5522 0
-5531 -5630 -397 -5522 0
-5532 398 5523 0
5630 -5532 5523 0
-398 5532 -5630 5523 0
399 -5533 5524 0
-5533 5630 5524 0
-399 5533 -5630 5524 0
400 5534 -5525 0
5630 5534 -5525 0
401 5535 -5526 0
5630 5535 -5526 0
402 5536 -5527 0
5630 5536 -5527 0
403 5537 -5528 0
5630 5537 -5528 0
404 5538 -5529 0
5630 5538 -5529 0
405 5539 -5530 0
5630 5539 -5530 0
5531 -37 -5631 0
5631 -37 -5531 5532 0
-38 5531 -5631 0
-38 5631 -5531 5533 0
-39 5531 -5631 0
-39 -5534 -5631 0
-40 5531 -5631 0
-40 -5535 -5631 0
-41 5531 -5631 0
-41 -5536 -5631 0
-42 5531 -5631 0
-42 -5537 -5631 0
-43 5531 -5631 0
-43 -5538 -5631 0
-44 5531 -5631 0
-44 -5539 -5631 0
-5631 -45 5532 0
-46 -5631 5532 0
-46 -5631 -5534 0
-47 -5631 5532 0
-47 -5631 -5535 0
-48 -5631 5532 0
-48 -5631 -5536 0
-49 -5631 5532 0
-49 -5631 -5537 0
-50 -5631 5532 0
-50 -5631 -5538 0
-51 -5631 5532 0
-51 -5631 -5539 0
-52 -5631 5533 0
-52 -5534 -5631 0
-53 -5631 5533 0
-53 -5535 -5631 0
-54 -5631 5533 0
-54 -5536 -5631 0
-55 -5631 5533 0
-55 -5537 -5631 0
-56 -5631 5533 0
-56 -5538 -5631 0
-57 -5631 5533 0
-57 -5539 -5631 0
-58 -5535 -5631 0
-59 -5536 -5631 0
-60 -5537 -5631 0
-61 -5538 -5631 0
-62 -5539 -5631 0
-63 -5536 -5631 0
-64 -5537 -5631 0
-65 -5538 -5631 0
-66 -5539 -5631 0
-67 -5537 -5631 0
-68 -5538 -5631 0
-69 -5539 -5631 0
-70 -5538 -5631 0
-71 -5539 -5631 0
-72 -5539 -5631 0
5540 406 -5531 0
406 -5540 5531 0
5631 5540 -5531 0
5631 -5540 5531 0
-5540 -406 -5631 -5531 0
-5541 407 5532 0
5631 -5532 5541 0
5631 -5541 5532 0
5541 -407 5532 -5631 0
-5542 408 5533 0
5631 -5542 5533 0
5542 -5631 -408 5533 0
5543 5631 -5534 0
5544 5631 -5535 0
5545 5631 -5536 0
5546 5631 -5537 0
5547 413 -5538 0
5547 5631 -5538 0
5548 5631 -5539 0
-73 5540 -5632 0
5632 -73 -5540 5541 0
-74 -5632 5540 0
-75 -5632 5540 0
-75 -5543 -5632 0
-76 -5632 5540 0
-76 -5544 -5632 0
-77 -5632 5540 0
-77 -5545 -5632 0
-78 -5632 5540 0
-78 -5546 -5632 0
-79 -5632 5540 0
-79 -5547 -5632 0
-80 -5632 5540 0
-80 -5548 -5632 0
-81 -5632 5541 0
-82 -5632 5541 0
-83 -5632 5541 0
-84 -5632 5541 0
-85 -5632 5541 0
-86 -5632 5541 0
-87 -5632 5541 0
-88 -5632 5542 0
-89 -5632 5542 0
-90 -5632 5542 0
-91 -5632 5542 0
-92 -5632 5542 0
-92 -5547 -5632 0
-93 -5632 5542 0
-94 -5544 -5632 0
-95 -5545 -5632 0
-96 -5546 -5632 0
-97 -5547 -5632 0
-98 -5548 -5632 0
-99 -5545 -5632 0
-100 -5546 -5632 0
-101 -5547 -5632 0
-102 -5548 -5632 0
-103 -5546 -5632 0
-104 -5547 -5632 0
-105 -5548 -5632 0
-106 -5547 -5632 0
-107 -5548 -5632 0
-108 -5548 -5632 0
5549 415 -5540 0
415 -5549 5540 0
5632 -5540 5549 0
5632 -5549 5540 0
-5540 -415 -5549 -5632 0
-5541 5550 416 0
-5550 416 5541 0
5632 -5550 5541 0
5550 -5632 -416 5541 0
-5541 -5632 -416 -5550 0
-5551 417 5542 0
5632 -5551 5542 0
-417 5551 -5632 5542 0
5549 -109 -5633 0
5633 -109 5550 -5549 0
5549 -110 -5633 0
-111 5549 -5633 0
-112 5549 -5633 0
-113 5549 -5633 0
-114 5549 -5633 0
-115 5549 -5633 0
-116 5549 -5633 0
-117 -5633 5550 0
-118 -5633 5550 0
-119 -5633 5550 0
-5633 5550 -120 0
-121 -5633 5550 0
-122 -5633 5550 0
-123 -5633 5550 0
-124 -5633 5551 0
-125 -5633 5551 0
-126 -5633 5551 0
-127 -5633 5551 0
-128 -5633 5551 0
-129 -5633 5551 0
424 5549 -5558 0
5633 5549 -5558 0
-424 5549 -5633 5558 0
-5558 -5549 -5633 -424 0
5559 -5550 425 0
-5559 425 5550 0
5633 -5550 5559 0
5633 -5559 5550 0
5559 -5633 -425 5550 0
-5560 426 5551 0
5633 -5560 5551 0
-426 5560 -5633 5551 0
-145 5558 -5634 0
-145 -5634 -5559 0
-145 -5558 5634 5559 0
-146 5558 -5634 0
-147 5558 -5634 0
-148 5558 -5634 0
-149 5558 -5634 0
-150 5558 -5634 0
-151 5558 -5634 0
-152 5558 -5634 0
-5634 5559 -153 0
-154 -5634 5559 0
-155 -5634 5559 0
-156 -5634 5559 0
-157 -5634 5559 0
-158 -5634 5559 0
-159 -5634 5559 0
-160 -5634 5560 0
-161 -5634 5560 0
-162 -5634 5560 0
-163 -5634 5560 0
-164 -5634 5560 0
-165 -5634 5560 0
-5567 433 5558 0
-5567 5558 5634 0
-433 5567 5558 -5634 0
-5567 -5558 -433 -5634 0
-5559 5568 434 0
-5568 5559 434 0
5634 -5559 5568 0
5634 -5568 5559 0
-5634 5568 -434 5559 0
-5634 -5559 -434 -5568 0
-5569 435 5560 0
-5569 5634 5560 0
-435 5569 -5634 5560 0
-181 5567 -5635 0
5635 -181 5568 -5567 0
5567 -182 -5635 0
-182 5635 5569 -5567 0
-183 5567 -5635 0
-184 5567 -5635 0
-185 5567 -5635 0
-186 5567 -5635 0
-187 5567 -5635 0
-188 5567 -5635 0
-189 -5635 5568 0
-190 -5635 5568 0
-191 -5635 5568 0
-192 -5635 5568 0
-193 -5635 5568 0
-194 -5635 5568 0
-5635 5568 -195 0
-196 -5635 5569 0
-197 -5635 5569 0
-198 -5635 5569 0
-199 -5635 5569 0
-200 -5635 5569 0
-201 -5635 5569 0
5576 -5567 442 0
5567 442 -5576 0
5567 -5576 5635 0
5567 -442 -5635 5576 0
-5576 -442 -5635 -5567 0
5577 -5568 443 0
-5577 5568 443 0
5635 -5568 5577 0
5635 -5577 5568 0
-5635 5577 -443 5568 0
-5568 -5577 -443 -5635 0
-5578 444 5569 0
-5578 5635 5569 0
-217 5576 -5636 0
5636 -217 -5576 5577 0
5576 -218 -5636 0
-219 5576 -5636 0
-220 5576 -5636 0
-221 5576 -5636 0
-222 5576 -5636 0
-223 5576 -5636 0
-224 5576 -5636 0
-5636 -225 5577 0
-226 -5636 5577 0
-227 -5636 5577 0
-228 -5636 5577 0
-229 -5636 5577 0
-230 -5636 5577 0
-231 -5636 5577 0
-232 -5636 5578 0
-233 -5636 5578 0
-234 -5636 5578 0
-235 -5636 5578 0
-236 -5636 5578 0
-237 -5636 5578 0
5585 451 -5576 0
5576 451 -5585 0
5636 5576 -5585 0
5585 5576 -451 -5636 0
-5636 -451 -5585 -5576 0
5586 -5577 452 0
-5586 5577 452 0
5636 -5586 5577 0
-5636 -452 5577 5586 0
-5587 453 5578 0
5636 -5587 5578 0
-453 5587 -5636 5578 0
-5637 -253 5585 0
-5637 -253 -5586 0
-254 5585 -5637 0
-255 5585 -5637 0
-256 5585 -5637 0
-257 5585 -5637 0
-258 5585 -5637 0
-259 5585 -5637 0
-260 5585 -5637 0
-261 -5637 5586 0
-262 -5637 5586 0
-5637 -263 5586 0
-264 -5637 5586 0
-265 -5637 5586 0
-266 -5637 5586 0
-267 -5637 5586 0
-5637 5587 -268 0
-269 -5637 5587 0
-270 -5637 5587 0
-271 -5637 5587 0
-272 -5637 5587 0
-273 -5637 5587 0
5594 -5585 460 0
5585 -5594 460 0
-5594 -460 -5637 -5585 0
5595 -5586 461 0
-5595 5586 461 0
5637 -5586 5595 0
5637 -5595 5586 0
-5637 -461 5595 5586 0
-5596 462 5587 0
5637 -5596 5587 0
5594 -5638 -289 0
-5638 -5595 -289 0
5594 -290 -5638 0
-297 -5638 5595 0
-298 -5638 5595 0
-299 -5638 5595 0
-300 -5638 5595 0
-301 -5638 5595 0
-302 -5638 5595 0
-303 -5638 5595 0
-304 -5638 5596 0
-305 -5638 5596 0
-306 -5638 5596 0
-307 -5638 5596 0
-308 -5638 5596 0
-309 -5638 5596 0
5603 469 -5594 0
5594 469 -5603 0
5603 5594 -5638 -469 0
-5594 -5638 -5603 -469 0
-5595 470 5604 0
470 -5604 5595 0
5638 -5604 5595 0
-5605 471 5596 0
-5605 5638 5596 0
5603 -5639 -325 0
-5639 -5604 -325 0
5603 -326 -5639 0
-327 5603 -5639 0
-328 5603 -5639 0
-329 5603 -5639 0
-330 5603 -5639 0
-331 5603 -5639 0
-332 5603 -5639 0
-333 -5639 5604 0
-5639 5604 -334 0
-335 -5639 5604 0
-336 -5639 5604 0
-337 -5639 5604 0
-338 -5639 5604 0
-339 -5639 5604 0
-340 -5639 5605 0
-341 -5639 5605 0
-342 -5639 5605 0
-343 -5639 5605 0
-344 -5639 5605 0
-345 -5639 5605 0
-5603 478 5612 0
5603 478 -5612 0
5639 -5603 5612 0
5603 -478 -5639 5612 0
479 5613 -5604 0
479 5604 -5613 0
5639 -5604 5613 0
-5639 -5613 -5604 -479 0
480 5605 -5614 0
5639 5605 -5614 0
-361 5612 -5640 0
-5613 -361 -5640 0
-362 5612 -5640 0
-363 5612 -5640 0
-364 5612 -5640 0
-365 5612 -5640 0
-366 5612 -5640 0
-367 5612 -5640 0
-368 5612 -5640 0
-376 5614 -5640 0
-377 5614 -5640 0
-378 5614 -5640 0
-379 5614 -5640 0
-380 5614 -5640 0
-381 5614 -5640 0
487 -5612 5621 0
488 -5613 5622 0
5640 -5613 5622 0
5613 -5640 -488 5622 0
5614 489 -5623 0
5614 5640 -5623 0
5642 0
5741 0
-5643 0
5742 0
398 5651 -5642 0
399 -5652 5643 0
5660 407 -5651 0
-5661 408 5652 0
-5751 -73 -5660 0
5669 416 -5660 0
5669 5751 -5660 0
-5670 5661 417 0
5678 -5669 425 0
-5679 426 5670 0
5687 434 -5678 0
-5688 435 5679 0
-5754 -181 -5687 0
5696 -5687 443 0
5696 5754 -5687 0
-5697 5688 444 0
-5755 -217 -5696 0
5705 -5696 452 0
5755 5705 -5696 0
-5706 453 5697 0
-253 -5705 -5756 0
-268 -5756 5706 0
-269 -5756 5706 0
-270 -5756 5706 0
-271 -5756 5706 0
-272 -5756 5706 0
-273 -5756 5706 0
5714 -5705 461 0
5714 5756 -5705 0
462 5706 -5715 0
5756 -5715 5706 0
5723 -5714 470 0
-5724 471 5715 0
-5758 -5723 -325 0
-340 -5758 5724 0
-341 -5758 5724 0
-342 -5758 5724 0
-343 -5758 5724 0
-344 -5758 5724 0
-345 -5758 5724 0
479 -5723 5732 0
5758 -5723 5732 0
-5758 -479 -5732 -5723 0
480 5724 -5733 0
5758 5724 -5733 0
-376 -5759 5733 0
-377 -5759 5733 0
-378 -5759 5733 0
-379 -5759 5733 0
-380 -5759 5733 0
-381 -5759 5733 0
488 5732 -5741 0
-5759 -5732 -488 -5741 0
5733 489 -5742 0
5733 5759 -5742 0
-5859 0
-5761 0
5860 0
5762 0
5763 0
5764 0
5765 0
5766 0
5767 0
5768 0
-5868 -9 -5762 0
-5868 -10 -5763 0
-5868 -11 -5764 0
-5868 -12 -5765 0
-5868 -13 -5766 0
-5868 -14 -5767 0
-5868 -15 -5768 0
-5770 398 5761 0
-5770 5868 5761 0
399 5771 -5762 0
-45 -5869 5770 0
-46 -5869 5770 0
-47 -5869 5770 0
-48 -5869 5770 0
-49 -5869 5770 0
-50 -5869 5770 0
-51 -5869 5770 0
407 -5779 5770 0
5869 -5779 5770 0
5780 408 -5771 0
-81 -5870 5779 0
-82 -5870 5779 0
-83 -5870 5779 0
-84 -5870 5779 0
-85 -5870 5779 0
-86 -5870 5779 0
-87 -5870 5779 0
416 5779 -5788 0
5870 -5788 5779 0
-416 5788 -5870 5779 0
5789 -5780 417 0
5789 5870 -5780 0
-117 -5871 5788 0
-118 -5871 5788 0
-119 -5871 5788 0
-120 -5871 5788 0
-121 -5871 5788 0
-122 -5871 5788 0
-123 -5871 5788 0
425 -5797 5788 0
5871 -5797 5788 0
5798 426 -5789 0
-153 -5872 5797 0
-154 -5872 5797 0
-155 -5872 5797 0
-156 -5872 5797 0
-157 -5872 5797 0
-158 -5872 5797 0
-159 -5872 5797 0
434 -5806 5797 0
5872 -5806 5797 0
5807 435 -5798 0
-189 -5873 5806 0
-190 -5873 5806 0
-191 -5873 5806 0
-192 -5873 5806 0
-193 -5873 5806 0
-194 -5873 5806 0
-195 -5873 5806 0
-5815 443 5806 0
5873 -5815 5806 0
-225 -5874 5815 0
-226 -5874 5815 0
-227 -5874 5815 0
-228 -5874 5815 0
-229 -5874 5815 0
-230 -5874 5815 0
-231 -5874 5815 0
5824 -5815 452 0
-5824 452 5815 0
-5824 5874 5815 0
-5875 -253 -5824 0
-261 -5875 5824 0
-262 -5875 5824 0
-263 -5875 5824 0
-264 -5875 5824 0
-265 -5875 5824 0
-266 -5875 5824 0
-267 -5875 5824 0
-5824 461 5833 0
-5833 5824 461 0
5875 -5824 5833 0
5875 -5833 5824 0
-297 -5876 5833 0
-298 -5876 5833 0
-299 -5876 5833 0
-300 -5876 5833 0
-301 -5876 5833 0
-302 -5876 5833 0
-303 -5876 5833 0
470 5833 -5842 0
5876 -5842 5833 0
-5877 -325 -5842 0
-333 -5877 5842 0
-334 -5877 5842 0
-335 -5877 5842 0
-336 -5877 5842 0
-337 -5877 5842 0
-338 -5877 5842 0
-339 -5877 5842 0
5877 -5841 5850 0
479 5842 -5851 0
5877 5842 -5851 0
-369 -5878 5851 0
-370 -5878 5851 0
-371 -5878 5851 0
-372 -5878 5851 0
-373 -5878 5851 0
-374 5851 -5878 0
-375 5851 -5878 0
5878 -5850 5859 0
5851 488 -5860 0
5851 5878 -5860 0
-5851 -5878 -488 -5860 0
8516 -398 5523 0
8516 -399 5524 0
-406 5531 8517 0
8517 -407 5532 0
8517 -408 5533 0
-415 5540 8518 0
5541 8518 -416 0
-417 5542 8518 0
-424 5549 8519 0
5550 8519 -425 0
-426 5551 8519 0
-433 5558 8520 0
5559 8520 -434 0
-435 5560 8520 0
5567 -442 8521 0
5568 8521 -443 0
-444 5569 8521 0
5576 -451 8522 0
-452 5577 8522 0
-453 5578 8522 0
-460 5585 8523 0
-461 5586 8523 0
5587 8523 -462 0
5594 -469 8524 0
-470 5595 8524 0
-471 5596 8524 0
5603 -478 8525 0
8525 5604 -479 0
-480 8525 5605 0
8526 5612 -487 0
8526 5613 -488 0
-489 5614 8526 0
8527 -8516 0
-8527 8528 0
-8527 -8517 8529 0
-8529 8530 0
-8529 -8518 0
-8517 8528 0
-8528 8531 0
-8518 -8528 8530 0
-8530 8532 0
-8530 -8519 0
-8518 8531 0
-8531 8533 0
-8519 -8531 8532 0
-8532 8534 0
-8532 -8520 0
-8519 8533 0
-8533 8535 0
-8520 -8533 8534 0
-8534 8536 0
-8534 -8521 0
-8520 8535 0
-8535 8537 0
-8521 -8535 8536 0
-8536 8538 0
-8522 -8536 0
-8521 8537 0
-8537 8539 0
-8522 -8537 8538 0
-8538 8540 0
-8523 -8538 0
-8522 8539 0
-8539 8541 0
-8523 -8539 8540 0
-8540 8542 0
-8524 -8540 0
-8523 8541 0
-8541 8543 0
-8524 -8541 8542 0
-8542 8544 0
-8525 -8542 0
-8524 8543 0
-8543 -8525 8544 0
-8526 -8544 0
8574 -397 0
8574 -398 0
8575 -406 0
8575 -407 0
8576 -415 0
8576 -416 0
8577 -424 0
8577 -425 0
8578 -433 0
8578 -434 0
-442 8579 0
8579 -443 0
-451 8580 0
8580 -452 0
8581 -460 0
8581 -461 0
8582 -469 0
8582 -470 0
-478 8583 0
8583 -479 0
-487 8584 0
8584 -488 0
8585 -8574 0
8586 -8585 0
8587 -8585 -8575 0
-8587 8588 0
-8587 -8576 8589 0
-8589 8590 0
-8589 -8577 0
8586 -8575 0
8591 -8586 0
8588 -8576 -8586 0
-8588 8592 0
-8588 -8577 8590 0
-8590 8593 0
-8590 -8578 0
8591 -8576 0
8594 -8591 0
8592 -8591 -8577 0
-8592 8595 0
-8592 -8578 8593 0
-8593 8596 0
-8593 -8579 0
8594 -8577 0
8597 -8594 0
8595 -8578 -8594 0
-8595 8598 0
-8595 -8579 8596 0
-8596 8599 0
-8596 -8580 0
8597 -8578 0
8600 -8597 0
8598 -8597 -8579 0
-8598 8601 0
-8598 -8580 8599 0
-8599 8602 0
-8599 -8581 0
8600 -8579 0
8603 -8600 0
8601 -8580 -8600 0
-8601 8604 0
-8601 -8581 8602 0
-8602 8605 0
-8602 -8582 0
8603 -8580 0
8606 -8603 0
8604 -8581 -8603 0
8607 -8604 0
-8582 -8604 8605 0
-8605 8608 0
-8605 -8583 0
8606 -8581 0
8607 -8582 -8606 0
-8607 -8583 8608 0
-8608 -8584 0
8610 -407 5770 0
8611 -416 5779 0
8612 -425 5788 0
8613 -434 5797 0
8614 -443 5806 0
-452 5815 8615 0
-461 8616 5824 0
8617 -470 5833 0
5841 8618 -478 0
8618 5842 -479 0
8619 5850 -487 0
8621 -8610 0
8624 -8621 0
-8611 8624 0
8626 -8624 0
8626 -8612 0
8628 -8626 0
8628 -8613 0
8630 -8628 0
8630 -8614 0
8632 -8630 0
-8615 -8630 8631 0
-8631 8633 0
-8616 -8631 0
-8615 8632 0
8634 -8632 0
-8616 -8632 8633 0
-8633 8635 0
-8616 8634 0
8636 -8634 0
-8617 -8634 8635 0
-8635 -8618 0
-8617 8636 0
-8636 8637 -8618 0
-8637 -8619 0
-16 -37 0
-17 -37 0
-18 -37 0
-19 -37 0
-20 -37 0
-21 -37 0
-22 -37 0
-23 -37 0
-24 -37 0
-25 -37 0
-26 -37 0
-27 -37 0
-28 -37 0
-29 -37 0
-30 -37 0
-31 -37 0
-32 -37 0
-33 -37 0
-34 -37 0
-35 -37 0
-36 -37 0
-52 -73 0
-53 -73 0
-54 -73 0
-55 -73 0
-56 -73 0
-57 -73 0
-58 -73 0
-59 -73 0
-60 -73 0
-61 -73 0
-62 -73 0
-63 -73 0
-64 -73 0
-65 -73 0
-66 -73 0
-67 -73 0
-68 -73 0
-69 -73 0
-70 -73 0
-71 -73 0
-72 -73 0
-88 -109 0
-89 -109 0
-90 -109 0
-91 -109 0
-92 -109 0
-93 -109 0
-94 -109 0
-95 -109 0
-96 -109 0
-97 -109 0
-98 -109 0
-99 -109 0
-100 -109 0
-101 -109 0
-102 -109 0
-103 -109 0
-104 -109 0
-105 -109 0
-106 -109 0
-107 -109 0
-108 -109 0
-124 -145 0
-125 -145 0
-126 -145 0
-127 -145 0
-128 -145 0
-129 -145 0
-130 -145 0
-130 -153 0
-131 -145 0
-131 -153 0
-132 -145 0
-132 -153 0
-133 -145 0
-133 -153 0
-134 -145 0
-134 -153 0
-135 -145 0
-135 -153 0
-136 -145 0
-136 -153 0
-137 -145 0
-137 -153 0
-138 -145 0
-138 -153 0
-139 -145 0
-139 -153 0
-140 -145 0
-140 -153 0
-141 -145 0
-141 -153 0
-142 -145 0
-142 -153 0
-143 -145 0
-143 -153 0
-144 -145 0
-144 -153 0
-160 -181 0
-161 -181 0
-162 -181 0
-163 -181 0
-164 -181 0
-165 -181 0
-166 -181 0
-166 -182 0
-167 -181 0
-167 -182 0
-168 -181 0
-168 -182 0
-169 -181 0
-169 -182 0
-170 -181 0
-170 -182 0
-171 -181 0
-171 -182 0
-172 -181 0
-172 -182 0
-173 -181 0
-173 -182 0
-174 -181 0
-174 -182 0
-175 -181 0
-175 -182 0
-176 -181 0
-176 -182 0
-177 -181 0
-177 -182 0
-178 -181 0
-178 -182 0
-179 -181 0
-179 -182 0
-180 -181 0
-180 -182 0
-190 -218 0
-191 -218 0
-192 -218 0
-193 -218 0
-194 -218 0
-218 -195 0
-196 -217 0
-197 -217 0
-198 -217 0
-199 -217 0
-200 -217 0
-201 -217 0
-202 -217 0
-202 -218 0
-202 -225 0
-203 -217 0
-203 -218 0
-203 -225 0
-204 -217 0
-204 -218 0
-204 -225 0
-205 -217 0
-205 -218 0
-205 -225 0
-206 -217 0
-206 -218 0
-206 -225 0
-207 -217 0
-207 -218 0
-207 -225 0
-208 -217 0
-208 -218 0
-208 -225 0
-209 -217 0
-209 -218 0
-209 -225 0
-210 -217 0
-210 -218 0
-210 -225 0
-211 -217 0
-211 -218 0
-211 -225 0
-212 -217 0
-212 -218 0
-212 -225 0
-213 -217 0
-213 -218 0
-213 -225 0
-214 -217 0
-214 -218 0
-214 -225 0
-215 -217 0
-215 -218 0
-215 -225 0
-216 -217 0
-216 -218 0
-216 -225 0
-232 -253 0
-233 -253 0
-234 -253 0
-235 -253 0
-236 -253 0
-237 -253 0
-238 -253 0
-238 -254 0
-238 -261 0
-239 -253 0
-239 -254 0
-239 -261 0
-240 -253 0
-240 -254 0
-240 -261 0
-241 -253 0
-241 -254 0
-241 -261 0
-242 -253 0
-242 -254 0
-242 -261 0
-243 -253 0
-243 -254 0
-243 -261 0
-244 -253 0
-244 -254 0
-244 -261 0
-245 -253 0
-245 -254 0
-245 -261 0
-246 -253 0
-246 -254 0
-246 -261 0
-247 -253 0
-247 -254 0
-247 -261 0
-248 -253 0
-248 -254 0
-248 -261 0
-249 -253 0
-249 -254 0
-249 -261 0
-250 -253 0
-250 -254 0
-250 -261 0
-251 -253 0
-251 -254 0
-251 -261 0
-252 -253 0
-252 -254 0
-252 -261 0
-262 -290 0
-290 -263 0
-264 -290 0
-265 -290 0
-266 -290 0
-267 -290 0
-289 -268 0
-269 -289 0
-270 -289 0
-271 -289 0
-272 -289 0
-273 -289 0
-274 -289 0
-274 -290 0
-274 -297 0
-275 -289 0
-275 -290 0
-275 -297 0
-276 -289 0
-276 -290 0
-276 -297 0
-277 -289 0
-277 -290 0
-277 -297 0
-278 -289 0
-278 -290 0
-278 -297 0
-279 -289 0
-279 -290 0
-279 -297 0
-280 -289 0
-280 -290 0
-280 -297 0
-281 -289 0
-281 -290 0
-281 -297 0
-282 -289 0
-282 -290 0
-282 -297 0
-283 -289 0
-283 -290 0
-283 -297 0
-284 -289 0
-284 -290 0
-284 -297 0
-285 -289 0
-285 -290 0
-285 -297 0
-286 -289 0
-286 -290 0
-286 -297 0
-287 -289 0
-287 -290 0
-287 -297 0
-288 -289 0
-288 -290 0
-288 -297 0
-298 -326 0
-299 -326 0
-300 -326 0
-301 -326 0
-302 -326 0
-303 -326 0
-304 -325 0
-305 -325 0
-306 -325 0
-307 -325 0
-308 -325 0
-309 -325 0
-310 -325 0
-310 -326 0
-310 -333 0
-311 -325 0
-311 -326 0
-311 -333 0
-312 -325 0
-312 -326 0
-312 -333 0
-313 -325 0
-313 -326 0
-313 -333 0
-314 -325 0
-314 -326 0
-314 -333 0
-315 -325 0
-315 -326 0
-315 -333 0
-316 -325 0
-316 -326 0
-316 -333 0
-317 -325 0
-317 -326 0
-317 -333 0
-318 -325 0
-318 -326 0
-318 -333 0
-319 -325 0
-319 -326 0
-319 -333 0
-320 -325 0
-320 -326 0
-320 -333 0
-321 -325 0
-321 -326 0
-321 -333 0
-322 -325 0
-322 -326 0
-322 -333 0
-323 -325 0
-323 -326 0
-323 -333 0
-324 -325 0
-324 -326 0
-324 -333 0
-340 -361 0
-341 -361 0
-342 -361 0
-343 -361 0
-344 -361 0
-345 -361 0
-346 -361 0
-346 -369 0
-347 -361 0
-347 -369 0
-348 -361 0
-348 -369 0
-349 -361 0
-349 -369 0
-350 -361 0
-350 -369 0
-351 -361 0
-351 -369 0
-352 -361 0
-352 -369 0
-353 -361 0
-353 -369 0
-354 -361 0
-354 -369 0
-355 -361 0
-355 -369 0
-356 -361 0
-356 -369 0
-357 -361 0
-357 -369 0
-358 -361 0
-358 -369 0
-359 -361 0
-359 -369 0
-360 -361 0
-360 -369 0
