p cnf 9494 2542
397 -1 0
397 -2 0
397 -3 0
397 -4 0
397 -5 0
397 -6 0
397 -7 0
397 -8 0
-397 8 1 2 3 4 5 6 7 0
398 -9 0
398 -10 0
398 -11 0
398 -12 0
398 -13 0
398 -14 0
398 -15 0
10 -398 1 14 15 9 11 12 13 0
-16 399 0
-399 16 2 17 9 18 19 20 21 0
400 -3 0
400 -10 0
-16 400 0
10 -400 24 3 16 22 23 25 26 0
-401 4 22 11 17 30 27 28 29 0
-402 5 23 12 18 31 27 32 33 0
-403 6 24 13 19 28 31 34 35 0
-404 32 7 14 20 29 25 34 36 0
-405 8 15 33 21 30 26 35 36 0
37 40 46 58 41 42 43 44 52 38 53 45 47 48 49 39 50 51 54 55 56 57 59 60 61 62 63 64 65 66 67 68 69 70 71 72 0
-37 406 0
-38 406 0
-39 406 0
-40 406 0
-41 406 0
-42 406 0
-43 406 0
-44 406 0
-406 38 39 37 40 41 42 43 44 0
-46 407 0
-407 37 46 50 51 45 47 48 49 0
-52 408 0
-39 409 0
-46 409 0
-52 409 0
-58 409 0
-59 409 0
-60 409 0
-61 409 0
-62 409 0
58 -409 52 39 46 59 60 61 62 0
-410 63 47 40 58 53 66 64 65 0
-411 69 41 48 59 63 54 67 68 0
-412 64 49 42 71 60 67 55 70 0
-413 65 50 43 72 61 68 70 56 0
73 89 75 74 81 77 78 80 76 79 82 90 83 84 85 86 87 88 91 92 93 94 95 96 97 98 99 100 101 102 103 104 105 106 107 108 0
566 -73 0
567 -566 0
-567 -75 0
-73 415 0
-74 415 0
-75 415 0
-76 415 0
-77 415 0
-78 415 0
-79 415 0
-80 415 0
-415 73 75 74 76 77 78 79 80 0
-73 416 0
-81 416 0
-82 416 0
-83 416 0
-84 416 0
-85 416 0
-86 416 0
-87 416 0
-416 73 82 81 84 83 85 86 87 0
417 -88 0
-89 417 0
-90 417 0
-91 417 0
-92 417 0
-93 417 0
-75 418 0
-94 418 0
-95 418 0
-96 418 0
-97 418 0
-98 418 0
88 -418 94 95 75 82 96 97 98 0
423 -87 0
126 121 124 118 112 122 113 114 115 110 109 111 116 125 123 117 119 120 127 128 129 130 131 132 133 134 135 136 137 138 139 140 141 142 143 144 0
601 -109 0
602 -601 0
-110 -601 0
603 -602 0
-111 -602 0
604 -603 0
605 -604 0
606 -605 0
607 -606 0
608 -607 0
609 -608 0
610 -609 0
611 -610 0
612 -611 0
613 -612 0
614 -613 0
615 -614 0
616 -615 0
-615 -124 0
617 -616 0
-125 -616 0
618 -617 0
-126 -617 0
619 -618 0
-127 -618 0
620 -619 0
-128 -619 0
-129 -620 0
-109 424 0
-110 424 0
-111 424 0
-112 424 0
-113 424 0
-114 424 0
-115 424 0
-116 424 0
112 -424 109 111 110 113 114 115 116 0
-109 425 0
-117 425 0
-118 425 0
-119 425 0
-120 425 0
-121 425 0
-122 425 0
-123 425 0
119 -425 118 117 109 120 121 122 123 0
-124 426 0
-426 129 124 117 110 126 125 128 127 0
-111 427 0
-118 427 0
-124 427 0
-130 427 0
-131 427 0
-132 427 0
-133 427 0
-134 427 0
133 -427 124 111 118 132 130 131 134 0
428 -119 0
429 -120 0
430 -121 0
431 -122 0
432 -123 0
157 150 153 146 160 147 154 161 151 149 152 148 145 158 159 156 155 162 163 164 165 166 167 168 169 170 171 172 173 174 175 176 177 178 179 180 0
-145 636 0
-636 637 0
-146 -636 0
-637 638 0
-147 -637 0
-147 638 0
-638 639 0
-639 640 0
-640 641 0
-641 642 0
-642 643 0
-643 644 0
-643 -153 0
-644 645 0
-644 -154 0
-645 646 0
-155 -645 0
-646 647 0
-156 -646 0
-647 648 0
-157 -647 0
-648 649 0
-158 -648 0
-649 650 0
-159 -649 0
-650 651 0
-651 652 0
-161 -651 0
-652 653 0
-162 -652 0
-653 654 0
-163 -653 0
655 -654 0
-654 -164 0
656 -655 0
-165 -655 0
657 -656 0
-166 -656 0
658 -657 0
-167 -657 0
659 -658 0
-168 -658 0
660 -659 0
-169 -659 0
-170 -660 0
-145 433 0
-146 433 0
-147 433 0
-148 433 0
-149 433 0
-150 433 0
-151 433 0
-152 433 0
-433 148 147 146 145 149 150 151 152 0
-145 434 0
434 -153 0
-154 434 0
-155 434 0
-156 434 0
-157 434 0
-158 434 0
-159 434 0
156 -434 153 145 154 155 159 158 157 0
-153 435 0
-160 435 0
161 164 153 146 160 -435 165 162 163 0
-147 436 0
-154 436 0
-160 436 0
170 -436 160 147 154 166 167 169 168 0
437 -155 0
438 -156 0
439 -157 0
440 -158 0
441 -159 0
193 187 181 196 198 197 185 186 184 182 183 188 190 194 195 189 191 192 199 200 201 202 203 204 205 206 207 208 209 210 211 212 213 214 215 216 0
671 -181 0
-671 672 0
-182 -671 0
-672 673 0
-183 -672 0
-673 674 0
-674 675 0
-675 676 0
-676 677 0
-677 678 0
679 -678 0
680 -679 0
681 -680 0
682 -681 0
683 -682 0
684 -683 0
685 -684 0
686 -685 0
687 -686 0
688 -687 0
689 -688 0
690 -689 0
691 -690 0
692 -691 0
-202 -691 0
693 -692 0
-203 -692 0
694 -693 0
-204 -693 0
695 -694 0
-205 -694 0
-206 -695 0
-181 442 0
-182 442 0
-183 442 0
-184 442 0
-185 442 0
-186 442 0
-187 442 0
-188 442 0
-442 181 183 184 182 185 186 187 188 0
-181 443 0
443 -189 0
-190 443 0
-191 443 0
-192 443 0
-193 443 0
-194 443 0
-195 443 0
195 -443 190 181 194 189 191 192 193 0
-196 444 0
-444 189 196 182 197 198 199 200 201 0
-183 445 0
-445 183 196 190 202 206 203 204 205 0
221 230 217 218 232 233 226 224 223 219 222 229 220 228 231 225 227 234 235 236 237 238 239 240 241 242 243 244 245 246 247 248 249 250 251 252 0
-217 706 0
-706 707 0
-218 -706 0
-707 708 0
-219 -707 0
-708 709 0
-709 710 0
-710 711 0
-711 712 0
-712 713 0
-713 714 0
-714 715 0
-715 716 0
-716 717 0
-717 718 0
-718 719 0
-719 720 0
721 -720 0
-720 -232 0
722 -721 0
-233 -721 0
723 -722 0
-234 -722 0
724 -723 0
-235 -723 0
725 -724 0
-236 -724 0
726 -725 0
-237 -725 0
727 -726 0
-238 -726 0
728 -727 0
-239 -727 0
729 -728 0
-240 -728 0
730 -729 0
-241 -729 0
-242 -730 0
451 -217 0
-218 451 0
-219 451 0
-220 451 0
-221 451 0
-222 451 0
-223 451 0
-224 451 0
220 -451 217 218 219 221 222 223 224 0
-217 452 0
452 -225 0
452 -226 0
-227 452 0
-228 452 0
-229 452 0
-230 452 0
-231 452 0
228 -452 226 217 227 225 229 230 231 0
453 -232 0
-453 236 225 218 233 232 235 234 237 0
-232 454 0
-238 454 0
-239 454 0
-240 454 0
-241 454 0
-242 454 0
232 242 226 219 -454 241 238 239 240 0
264 255 268 269 257 253 265 260 259 254 256 258 262 266 267 261 263 270 271 272 273 274 275 276 277 278 279 280 281 282 283 284 285 286 287 288 0
-253 741 0
-741 742 0
-254 -741 0
-254 742 0
-742 743 0
-255 -742 0
-743 744 0
-256 -743 0
-744 745 0
-257 -744 0
-745 746 0
-258 -745 0
-746 747 0
-259 -746 0
-747 748 0
-260 -747 0
-748 749 0
-748 -261 0
-261 749 0
-749 750 0
-749 -262 0
-750 751 0
-751 752 0
-752 753 0
-753 754 0
-754 755 0
-755 756 0
-755 -268 0
-756 757 0
-269 -756 0
-757 758 0
-270 -757 0
-758 759 0
-271 -758 0
-759 760 0
-272 -759 0
-760 761 0
-273 -760 0
762 -761 0
-761 -274 0
763 -762 0
-275 -762 0
764 -763 0
-276 -763 0
765 -764 0
-277 -764 0
766 -765 0
-278 -765 0
767 -766 0
-279 -766 0
768 -767 0
-280 -767 0
769 -768 0
-281 -768 0
770 -769 0
-282 -769 0
771 -770 0
-283 -770 0
772 -771 0
-284 -771 0
773 -772 0
-285 -772 0
774 -773 0
-286 -773 0
775 -774 0
-287 -774 0
-288 -775 0
-253 460 0
-254 460 0
-255 460 0
-256 460 0
-257 460 0
-258 460 0
-259 460 0
-260 460 0
-460 256 255 253 254 257 258 259 260 0
461 -253 0
-261 461 0
461 -262 0
-263 461 0
-264 461 0
-265 461 0
-266 461 0
-267 461 0
-461 263 262 261 253 264 265 266 267 0
462 -268 0
261 254 268 -462 269 272 271 270 273 0
-262 463 0
-268 463 0
-274 463 0
-275 463 0
-276 463 0
-277 463 0
-278 463 0
-463 274 255 275 268 262 278 277 276 0
-464 263 256 281 269 274 280 279 282 0
-465 264 257 285 270 275 279 284 283 0
-466 265 258 286 271 276 280 283 287 0
-467 266 259 288 272 277 281 284 286 0
-468 267 260 287 273 278 282 285 288 0
308 309 300 291 302 294 295 296 310 298 293 297 292 305 303 290 299 306 307 316 315 301 311 312 313 314 304 318 317 289 319 320 321 322 323 324 0
-289 776 0
-776 777 0
-290 -776 0
-290 777 0
-777 778 0
-291 -777 0
-778 779 0
-292 779 0
-779 780 0
-293 780 0
-780 781 0
-294 781 0
-781 782 0
-295 782 0
-782 783 0
-296 783 0
-783 784 0
-784 785 0
-784 -298 0
786 -785 0
787 -786 0
788 -787 0
789 -788 0
790 -789 0
791 -790 0
-790 -304 0
792 -791 0
793 -792 0
794 -793 0
795 -794 0
796 -795 0
797 -796 0
-310 -796 0
798 -797 0
-311 -797 0
799 -798 0
-312 -798 0
800 -799 0
-313 -799 0
-314 -800 0
-289 469 0
-290 469 0
-291 469 0
-292 469 0
-293 469 0
-294 469 0
-295 469 0
-296 469 0
-469 291 289 290 292 293 294 295 296 0
470 -289 0
-297 470 0
470 -298 0
-299 470 0
-300 470 0
-301 470 0
-302 470 0
-303 470 0
299 300 -470 289 298 302 301 303 297 0
-297 471 0
471 -304 0
-305 471 0
-306 471 0
-307 471 0
471 -308 0
-309 471 0
-471 308 304 305 290 297 307 306 309 0
472 -298 0
-304 472 0
-310 472 0
-311 472 0
-312 472 0
-313 472 0
-314 472 0
-472 291 298 310 311 312 304 313 314 0
473 -305 0
473 -310 0
473 -315 0
473 -316 0
473 -317 0
473 -318 0
474 -306 0
474 -311 0
474 -315 0
474 -319 0
474 -320 0
474 -321 0
475 -307 0
475 -312 0
475 -316 0
475 -319 0
475 -322 0
-323 475 0
476 -308 0
476 -313 0
476 -317 0
476 -320 0
476 -322 0
476 -324 0
477 -309 0
477 -314 0
-318 477 0
477 -321 0
-323 477 0
-324 477 0
-477 309 296 314 303 323 324 318 321 0
325 356 326 329 327 330 332 331 328 349 335 336 337 338 339 333 334 340 343 341 345 346 342 348 344 350 351 352 353 354 355 347 357 358 359 360 0
811 -325 0
812 -811 0
-326 -811 0
812 -326 0
813 -812 0
-327 -812 0
814 -813 0
815 -814 0
-329 -814 0
-329 815 0
816 -815 0
-330 -815 0
816 -330 0
817 -816 0
-331 -816 0
818 -817 0
-332 -817 0
819 -818 0
820 -819 0
821 -820 0
-335 -820 0
822 -821 0
-336 -821 0
823 -822 0
-337 -822 0
824 -823 0
-338 -823 0
825 -824 0
-339 -824 0
826 -825 0
-340 -825 0
827 -826 0
-341 -826 0
828 -827 0
-342 -827 0
829 -828 0
-343 -828 0
830 -829 0
-344 -829 0
831 -830 0
-345 -830 0
832 -831 0
-346 -831 0
833 -832 0
-347 -832 0
834 -833 0
-348 -833 0
835 -834 0
-349 -834 0
-350 -835 0
478 -325 0
478 -326 0
478 -327 0
478 -328 0
478 -329 0
478 -330 0
478 -331 0
478 -332 0
325 -478 326 327 328 330 329 331 332 0
479 -325 0
-333 479 0
-334 479 0
-335 479 0
-336 479 0
-337 479 0
-338 479 0
-339 479 0
325 -479 334 339 333 338 336 337 335 0
480 -326 0
-333 480 0
480 -340 0
-341 480 0
-342 480 0
-343 480 0
-344 480 0
-345 480 0
-480 345 326 340 333 341 342 343 344 0
-327 481 0
481 -334 0
-347 481 0
-349 481 0
-481 350 334 327 340 346 347 348 349 0
482 -328 0
-335 482 0
-341 482 0
-346 482 0
-351 482 0
-353 482 0
483 -329 0
-336 483 0
-356 483 0
484 -330 0
484 -337 0
-343 484 0
-348 484 0
-352 484 0
-355 484 0
-358 484 0
485 -331 0
485 -338 0
486 -332 0
486 -339 0
-345 486 0
-350 486 0
-354 486 0
-357 486 0
-359 486 0
-360 486 0
846 -361 0
847 -846 0
-846 -362 0
847 -362 0
-363 -847 0
-361 487 0
-362 487 0
-363 487 0
-369 488 0
-370 488 0
369 370 361 -488 371 372 373 374 375 0
-376 489 0
369 362 -489 377 376 378 379 380 381 0
-376 490 0
382 376 -490 363 370 383 384 385 386 0
-2547 0
-2646 0
2550 0
-2649 0
397 -2556 2547 0
400 2559 -2550 0
-2565 406 2556 0
2568 409 -2559 0
-2574 415 2565 0
2577 418 -2568 0
-2583 2574 424 0
2586 427 -2577 0
-2592 2583 433 0
2595 -2586 436 0
-2601 442 2592 0
2604 445 -2595 0
-2610 2601 451 0
2613 -2604 454 0
-262 -2662 -2613 0
-268 -2662 -2613 0
-2619 2610 460 0
2622 -2613 463 0
2662 2622 -2613 0
-2663 -304 -2622 0
-2628 2619 469 0
2631 -2622 472 0
2631 2663 -2622 0
2628 -2664 2637 -478 0
-2631 2640 481 0
2664 -2631 2640 0
-2665 -363 -2640 0
487 -2637 2646 0
490 -2640 2649 0
2665 -2640 2649 0
-4094 0
-4193 0
-4097 0
4196 0
397 -4103 4094 0
400 -4106 4097 0
-4112 406 4103 0
-4115 409 4106 0
-4121 415 4112 0
-4124 418 4115 0
-4130 4121 424 0
-4133 427 4124 0
-4139 4130 433 0
-4142 4133 436 0
-4148 442 4139 0
-4151 445 4142 0
-4157 4148 451 0
-4160 4151 454 0
-274 -4209 4160 0
-275 -4209 4160 0
-276 -4209 4160 0
-277 -4209 4160 0
-278 -4209 4160 0
-4166 4157 460 0
4209 -4169 4160 0
-4175 4166 469 0
-4178 4169 472 0
-4211 4175 4184 -478 0
4178 4211 -4187 0
487 -4184 4193 0
490 4187 -4196 0
4213 0
-4312 0
4214 0
-4313 0
-4216 0
4218 0
-12 -4321 -4218 0
397 4222 -4213 0
4223 4321 -4214 0
400 -4225 4216 0
-4322 -37 -4223 0
4231 406 -4222 0
4322 4231 -4222 0
-4234 409 4225 0
4240 415 -4231 0
-4243 4234 418 0
4249 -4240 424 0
-4252 427 4243 0
-4325 -4250 -145 0
4258 -4249 433 0
4325 4258 -4249 0
4250 -4325 -434 4259 0
-4261 4252 436 0
4267 442 -4258 0
-4259 4268 443 0
-4270 445 4261 0
-4268 -4327 -217 0
4276 451 -4267 0
4327 4276 -4267 0
-4268 4277 452 0
4277 4268 -452 -4327 0
4277 4328 -253 -4276 0
4285 -4276 460 0
-4328 -460 -4285 -4276 0
-4277 461 4286 0
-4277 4328 4286 0
-4329 -289 -4286 0
4294 -4285 469 0
4285 -4294 469 0
4329 4294 -4285 0
-4286 4295 470 0
-4329 4295 -470 4286 0
-4295 -4330 -325 0
478 4303 -4294 0
4330 -4294 4303 0
-4295 4304 479 0
4304 4295 -479 -4330 0
-361 -4331 -4304 0
-4303 487 4312 0
4331 -4303 4312 0
488 -4304 4313 0
-488 -4331 4304 4313 0
5165 0
-5264 0
5166 0
5167 0
5168 0
5169 0
5171 0
5172 0
5173 0
-5273 -9 -5167 0
-5273 -10 -5168 0
-5273 -11 -5169 0
-5273 -13 -5171 0
-5273 -14 -5172 0
-5273 -15 -5173 0
-16 -5273 -5168 0
397 5174 -5165 0
398 5175 -5166 0
5273 5175 -5166 0
5273 5176 -5167 0
5273 5177 -5168 0
-5274 -37 -5175 0
-45 -5274 -5176 0
-5274 -46 -5177 0
5183 406 -5174 0
5274 5183 -5174 0
5184 407 -5175 0
5274 5184 -5175 0
-73 -5275 -5184 0
5192 415 -5183 0
5275 5192 -5183 0
5201 -5192 424 0
5210 -5201 433 0
5219 442 -5210 0
5228 -5219 451 0
5237 -5228 460 0
5246 -5237 469 0
478 5255 -5246 0
487 -5255 5264 0
5406 0
-5505 0
400 5415 -5406 0
5424 409 -5415 0
5433 418 -5424 0
5442 427 -5433 0
5451 -5442 436 0
5460 445 -5451 0
5469 -5460 454 0
5478 -5469 463 0
-5519 -304 -5478 0
5487 5519 -5478 0
-5487 5496 481 0
490 -5496 5505 0
-5879 0
-5978 0
5880 0
-5979 0
5881 0
5980 0
-5882 0
5981 0
5883 0
5982 0
5884 0
5983 0
5885 0
5984 0
5886 0
5887 0
5986 0
-5987 -1 5879 0
-5987 -2 5879 0
-5987 -3 5879 0
-5987 -4 5879 0
-5987 -5 5879 0
-5987 -6 5879 0
-5987 -7 5879 0
-5987 -8 5879 0
5987 -10 5882 -5880 0
-5987 -11 -5883 0
-12 -5987 -5884 0
-5987 -13 -5885 0
-5987 -14 -5886 0
-5987 -15 -5887 0
-16 5987 5882 -5881 0
-17 -5987 -5883 0
-18 -5987 -5884 0
-19 -5987 -5885 0
-20 -5987 -5886 0
-21 -5987 -5887 0
-22 -5987 -5883 0
-23 -5987 -5884 0
-24 -5987 -5885 0
-25 -5987 -5886 0
-26 -5987 -5887 0
-27 -5987 -5884 0
-28 -5987 -5885 0
-29 -5987 -5886 0
-30 -5987 -5887 0
-31 -5987 -5885 0
-32 -5987 -5886 0
-33 -5987 -5887 0
-34 -5987 -5886 0
-35 -5987 -5887 0
-36 -5987 -5887 0
-5888 397 5879 0
-5888 5987 5879 0
5888 -397 -5987 5879 0
-5889 -398 -5987 -5880 0
-5890 -399 -5987 -5881 0
-5891 400 5882 0
5987 -5891 5882 0
-5988 -37 5888 0
-38 -5988 5888 0
-39 -5988 5888 0
-40 -5988 5888 0
-41 -5988 5888 0
-42 -5988 5888 0
-43 -5988 5888 0
-44 -5988 5888 0
-5988 -46 5889 0
-58 -5988 5891 0
-59 -5988 5891 0
-60 -5988 5891 0
-61 -5988 5891 0
-62 -5988 5891 0
-5897 406 5888 0
-5897 5988 5888 0
-5988 -406 5897 5888 0
-5898 -5988 -407 -5889 0
-5900 409 5891 0
-5900 5988 5891 0
-73 -5989 5897 0
-74 -5989 5897 0
-75 -5989 5897 0
-76 -5989 5897 0
-77 -5989 5897 0
-78 -5989 5897 0
-79 -5989 5897 0
-80 -5989 5897 0
-5989 -82 5898 0
-5906 415 5897 0
5989 -5906 5897 0
-5989 -415 5897 5906 0
5989 5898 -5907 0
-5989 -416 -5907 -5898 0
-5909 418 5900 0
-5909 5989 5900 0
-5990 -109 5906 0
-110 -5990 5906 0
-111 -5990 5906 0
-111 -5909 -5990 0
-112 -5990 5906 0
-113 -5990 5906 0
-114 -5990 5906 0
-115 -5990 5906 0
-116 -5990 5906 0
5907 -5990 -118 0
-5906 424 5915 0
-5915 5906 424 0
5990 -5915 5906 0
-5990 -424 5906 5915 0
5907 -5916 425 0
5907 5990 -5916 0
-5990 -425 -5916 -5907 0
-5918 427 5909 0
-5909 5918 5990 0
-5918 5990 5909 0
-5991 -145 5915 0
-146 -5991 5915 0
-147 -5991 5915 0
-148 -5991 5915 0
-149 -5991 5915 0
-150 -5991 5915 0
-151 -5991 5915 0
-152 -5991 5915 0
5916 -5991 -154 0
-166 -5991 5918 0
-167 -5991 5918 0
-168 -5991 5918 0
-169 -5991 5918 0
-170 -5991 5918 0
-5915 433 5924 0
-5924 433 5915 0
-5924 5991 5915 0
-5991 -433 5924 5915 0
5916 -5925 434 0
5916 -5925 5991 0
-5991 -5925 -434 -5916 0
-5927 436 5918 0
-5927 5991 5918 0
-5992 -181 5924 0
-182 -5992 5924 0
-183 -5992 5924 0
-184 -5992 5924 0
-185 -5992 5924 0
-186 -5992 5924 0
-187 -5992 5924 0
-188 -5992 5924 0
5925 -190 -5992 0
-202 -5992 5927 0
-203 -5992 5927 0
-204 -5992 5927 0
-205 -5992 5927 0
-206 -5992 5927 0
-5924 5933 442 0
-5933 5924 442 0
-5924 5992 5933 0
-5933 5992 5924 0
-5992 -442 5924 5933 0
5925 -5934 443 0
5925 5992 -5934 0
-5992 -5934 -443 -5925 0
-5936 5927 445 0
-5936 5992 5927 0
-5993 5933 -217 0
-218 -5993 5933 0
-219 -5993 5933 0
-220 -5993 5933 0
-221 -5993 5933 0
-222 -5993 5933 0
-223 -5993 5933 0
-224 -5993 5933 0
-5993 5934 -226 0
-5933 451 5942 0
-5942 451 5933 0
-5942 5993 5933 0
5934 -5943 452 0
5934 5993 -5943 0
-5993 -5943 -452 -5934 0
-5945 454 5936 0
-5945 5993 5936 0
-253 5942 -5994 0
-253 -5943 -5994 0
-254 5942 -5994 0
-255 5942 -5994 0
-256 5942 -5994 0
-257 5942 -5994 0
-258 5942 -5994 0
-259 5942 -5994 0
-260 5942 -5994 0
5943 -262 -5994 0
5944 -268 -5994 0
-5994 -274 5945 0
-275 -5994 5945 0
-276 -5994 5945 0
-277 -5994 5945 0
-278 -5994 5945 0
-5942 5951 460 0
-5951 5942 460 0
5994 -5942 5951 0
-5951 5994 5942 0
-460 5951 -5994 5942 0
5943 -5952 461 0
5943 5994 -5952 0
-461 -5952 -5994 -5943 0
-5944 -5953 -462 -5994 0
-5954 5945 463 0
5994 -5954 5945 0
-289 -5995 5951 0
-289 -5952 -5995 0
-290 -5995 5951 0
-290 -5995 -5953 0
-291 -5995 5951 0
-292 -5995 5951 0
-293 -5995 5951 0
-294 -5995 5951 0
-295 -5995 5951 0
-296 -5995 5951 0
5952 -5995 -298 0
5953 -5995 -304 0
-5995 -310 5954 0
-5995 -311 5954 0
-5995 -312 5954 0
-5995 -313 5954 0
-5995 -314 5954 0
-5951 5960 469 0
-5960 5951 469 0
5995 -5951 5960 0
5995 -5960 5951 0
-469 5960 -5995 5951 0
5952 -5961 470 0
5952 -5961 5995 0
-5961 -5952 -5995 -470 0
5953 -5962 471 0
-5953 -5962 -471 -5995 0
-5963 5954 472 0
5995 -5963 5954 0
5960 -5996 -325 0
-5961 -5996 -325 0
5960 -326 -5996 0
5960 -327 -5996 0
5960 -328 -5996 0
5960 -329 -5996 0
5960 -330 -5996 0
5960 -331 -5996 0
5960 -332 -5996 0
5961 -333 -5996 0
-333 -5962 -5996 0
5961 -334 -5996 0
-5963 -5996 -334 0
-335 -5996 5961 0
-335 -5996 -5964 0
-336 -5996 5961 0
-336 -5996 -5965 0
-337 -5996 5961 0
-337 -5996 -5966 0
-338 -5996 5961 0
-5967 -338 -5996 0
5961 -339 -5996 0
-5968 -339 -5996 0
-5996 -5963 -340 0
-356 5965 -5996 0
478 -5969 5960 0
-5969 5960 5996 0
5960 -5996 5969 -478 0
-5961 5970 479 0
5961 -5970 479 0
-5961 5970 5996 0
5962 -5971 480 0
5962 -5971 5996 0
-5962 -5971 -480 -5996 0
5963 -5972 481 0
5996 5963 -5972 0
-5996 -5963 -481 -5972 0
-5964 -482 -5996 -5973 0
-5965 -5974 -5996 -483 0
-5966 -484 -5996 -5975 0
-5968 -486 -5996 -5977 0
487 -5969 5978 0
-5997 -487 5969 5978 0
5997 -5970 5979 0
5971 489 -5980 0
5997 5971 -5980 0
490 5972 -5981 0
5972 5997 -5981 0
-5972 -5997 -490 -5981 0
5997 5973 -5982 0
5997 5974 -5983 0
5997 5975 -5984 0
5997 5977 -5986 0
5998 0
-6097 0
5999 0
6098 0
6000 0
6099 0
-6001 0
6100 0
6002 0
6101 0
6003 0
6102 0
6004 0
6103 0
6005 0
6104 0
6006 0
6105 0
-6106 -1 -5999 0
-6106 -9 -6000 0
-6106 -11 -6002 0
-6106 -12 -6003 0
-6106 -13 -6004 0
-6106 -14 -6005 0
-6106 -15 -6006 0
-6106 -17 -6002 0
-6106 -18 -6003 0
-6106 -19 -6004 0
-6106 -20 -6005 0
-6106 -21 -6006 0
-6106 -22 -6002 0
-6106 -23 -6003 0
-6106 -24 -6004 0
-6106 -25 -6005 0
-6106 -26 -6006 0
397 6007 -5998 0
6007 6106 -5998 0
398 6008 -5999 0
6008 6106 -5999 0
-6106 -6008 -398 -5999 0
6009 399 -6000 0
6009 6106 -6000 0
-6106 -6009 -399 -6000 0
-6010 400 6001 0
-6010 6106 6001 0
6011 401 -6002 0
6012 402 -6003 0
6013 403 -6004 0
6014 404 -6005 0
405 6015 -6006 0
-37 -6107 -6008 0
-46 -6107 6008 0
-47 -6107 -6011 0
-48 -6107 -6012 0
-49 -6107 -6013 0
-50 -6107 -6014 0
-52 -6107 6009 0
-53 -6107 -6011 0
-54 -6107 -6012 0
-55 -6107 -6013 0
-56 -6107 -6014 0
-58 -6107 6010 0
-58 -6107 -6011 0
-59 -6107 6010 0
-59 -6107 -6012 0
-60 -6107 6010 0
-60 -6107 -6013 0
-61 -6107 6010 0
-61 -6107 -6014 0
-62 -6107 6010 0
-63 -6107 -6012 0
-64 -6107 -6013 0
-65 -6107 -6014 0
-66 -6107 -6015 0
-67 -6107 -6013 0
-68 -6107 -6014 0
-69 -6107 -6015 0
-70 -6107 -6014 0
-71 -6107 -6015 0
-72 -6107 -6015 0
6016 406 -6007 0
6107 6016 -6007 0
-406 -6016 -6107 -6007 0
6017 407 -6008 0
407 -6017 6008 0
-407 -6017 -6008 -6107 0
408 6009 -6018 0
-6107 -6018 -6009 -408 0
-6019 409 6010 0
6107 -6019 6010 0
6020 410 -6011 0
6020 6107 -6011 0
6021 411 -6012 0
6021 6107 -6012 0
6022 412 -6013 0
6022 6107 -6013 0
6023 413 -6014 0
6023 6107 -6014 0
6024 6107 -6015 0
-73 -6017 -6108 0
-74 -6018 -6108 0
-75 -6019 -6108 0
-76 -6020 -6108 0
-77 -6021 -6108 0
-78 -6022 -6108 0
-79 -6023 -6108 0
-80 -6024 -6108 0
-81 -6018 -6108 0
-82 -6108 6017 0
-82 -6019 -6108 0
-83 -6020 -6108 0
-84 -6021 -6108 0
-85 -6022 -6108 0
-86 -6023 -6108 0
-87 -6024 -6108 0
6018 -88 -6108 0
-94 -6108 6019 0
-95 -6108 6019 0
-96 -6108 6019 0
-97 -6108 6019 0
-98 -6108 6019 0
-99 -6021 -6108 0
-100 -6022 -6108 0
-101 -6023 -6108 0
-102 -6024 -6108 0
-103 -6022 -6108 0
-104 -6023 -6108 0
-105 -6024 -6108 0
-106 -6023 -6108 0
-107 -6024 -6108 0
-108 -6024 -6108 0
6025 415 -6016 0
6016 -6025 415 0
6108 6025 -6016 0
416 6026 -6017 0
6017 416 -6026 0
6108 6026 -6017 0
-416 -6026 -6108 -6017 0
-6027 417 6018 0
-6027 -6018 -6108 -417 0
-6028 418 6019 0
6108 -6028 6019 0
-418 -6019 -6028 -6108 0
-109 -6026 -6109 0
-117 -6027 -6109 0
6026 -118 -6109 0
-6029 -119 -6109 0
-6030 -120 -6109 0
-6031 -121 -6109 0
-6032 -122 -6109 0
-6033 -123 -6109 0
-124 -6109 6027 0
-130 -6109 6028 0
-131 -6109 6028 0
-132 -6109 6028 0
-133 -6109 6028 0
-134 -6109 6028 0
6034 424 -6025 0
6109 6034 -6025 0
425 6035 -6026 0
6026 425 -6035 0
6109 6035 -6026 0
6026 -425 6035 -6109 0
-425 -6026 -6109 -6035 0
-6036 426 6027 0
-426 -6027 -6109 -6036 0
-6037 427 6028 0
6109 -6037 6028 0
-6109 -6028 -427 -6037 0
-145 -6035 -6110 0
6035 -153 -6110 0
-153 -6036 -6110 0
6035 -154 -6110 0
-6038 -155 -6110 0
-6039 -156 -6110 0
-6040 -157 -6110 0
-6041 -158 -6110 0
-6042 -159 -6110 0
-160 -6110 6036 0
-161 -6110 6036 0
-162 -6110 6036 0
-163 -6110 6036 0
-164 -6110 6036 0
-165 -6110 6036 0
-166 -6110 6037 0
-167 -6110 6037 0
-168 -6110 6037 0
-169 -6110 6037 0
-170 -6110 6037 0
6043 -6034 433 0
6043 6110 -6034 0
6044 434 -6035 0
6035 434 -6044 0
6110 6044 -6035 0
6110 6035 -6044 0
-6035 -434 -6044 -6110 0
-6045 435 6036 0
6110 -6045 6036 0
-435 -6036 -6045 -6110 0
-6046 436 6037 0
6110 -6037 6046 0
6110 -6046 6037 0
-436 -6046 -6037 -6110 0
-181 -6044 -6111 0
-182 -6045 -6111 0
-183 -6111 -6046 0
6044 -189 -6111 0
-190 6044 -6111 0
-191 6044 -6111 0
-192 6044 -6111 0
-193 6044 -6111 0
-194 6044 -6111 0
-195 6044 -6111 0
-196 -6111 6045 0
-197 -6111 6045 0
-198 -6111 6045 0
-199 -6111 6045 0
-200 -6111 6045 0
-201 -6111 6045 0
-202 -6111 6046 0
-203 -6111 6046 0
-204 -6111 6046 0
-205 -6111 6046 0
-206 -6111 6046 0
6052 442 -6043 0
6111 6052 -6043 0
-442 -6043 -6111 -6052 0
6053 443 -6044 0
-6053 443 6044 0
6111 -6053 6044 0
-6053 -443 -6111 -6044 0
444 6045 -6054 0
6111 6045 -6054 0
-6045 -6111 -6054 -444 0
-6055 445 6046 0
6111 -6046 6055 0
6111 -6055 6046 0
-217 -6053 -6112 0
6052 -219 -6112 0
-225 6053 -6112 0
-225 -6054 -6112 0
-226 6053 -6112 0
-226 -6112 -6055 0
-227 6053 -6112 0
-6056 -227 -6112 0
-228 6053 -6112 0
-228 -6057 -6112 0
-229 6053 -6112 0
-229 -6058 -6112 0
-230 6053 -6112 0
-230 -6059 -6112 0
-231 6053 -6112 0
-231 -6060 -6112 0
6054 -232 -6112 0
-233 6054 -6112 0
-234 6054 -6112 0
-235 6054 -6112 0
-236 6054 -6112 0
-237 6054 -6112 0
-238 6055 -6112 0
-239 -6112 6055 0
-240 6055 -6112 0
-241 6055 -6112 0
-242 6055 -6112 0
6061 451 -6052 0
6112 6061 -6052 0
-6061 -6052 -6112 -451 0
-6053 6062 452 0
452 6053 -6062 0
6112 6062 -6053 0
6112 6053 -6062 0
-6053 -452 -6112 -6062 0
453 6054 -6063 0
6112 6054 -6063 0
-453 -6112 -6054 -6063 0
454 6055 -6064 0
6112 6055 -6064 0
455 6056 -6065 0
456 6057 -6066 0
457 6058 -6067 0
458 6059 -6068 0
459 6060 -6069 0
-253 6061 -6113 0
-253 -6062 -6113 0
-261 6062 -6113 0
-261 -6113 -6063 0
6062 -262 -6113 0
-262 6113 6064 -6062 0
-263 6062 -6113 0
-264 6062 -6113 0
-265 6062 -6113 0
-266 6062 -6113 0
-267 6062 -6113 0
-268 6063 -6113 0
-268 6113 -6063 6064 0
-269 -6113 6063 0
-270 -6113 6063 0
-271 6063 -6113 0
-272 6063 -6113 0
-273 -6113 6063 0
-274 6064 -6113 0
-275 6064 -6113 0
-276 6064 -6113 0
-277 6064 -6113 0
-278 6064 -6113 0
6070 -6061 460 0
6113 6070 -6061 0
-460 -6070 -6113 -6061 0
461 6062 -6071 0
6113 -6062 6071 0
6113 6062 -6071 0
-461 -6062 -6113 -6071 0
462 -6063 6072 0
462 6063 -6072 0
6113 6063 -6072 0
-462 -6072 -6063 -6113 0
6064 463 -6073 0
6113 6064 -6073 0
-463 6064 -6113 6073 0
6065 464 -6074 0
6066 465 -6075 0
6067 466 -6076 0
6068 467 -6077 0
6069 468 -6078 0
-289 -6071 -6114 0
-297 6071 -6114 0
-297 -6072 -6114 0
6071 -6114 -298 0
-6073 -298 -6114 0
-298 6114 6073 -6071 0
6071 -6114 -299 0
6074 -6071 -299 6114 0
-300 6071 -6114 0
-300 6075 -6071 6114 0
-301 6071 -6114 0
-301 6076 -6071 6114 0
-302 6071 -6114 0
-302 6077 -6071 6114 0
-303 6071 -6114 0
-303 6078 -6071 6114 0
6072 -304 -6114 0
-304 -6073 -6114 0
6114 -304 6073 -6072 0
-305 6072 -6114 0
-305 -6074 -6114 0
6074 -305 6114 -6072 0
-306 6072 -6114 0
-306 -6075 -6114 0
-307 6072 -6114 0
-307 -6076 -6114 0
-308 6072 -6114 0
-6077 -308 -6114 0
6077 6114 -308 -6072 0
-309 6072 -6114 0
-309 -6078 -6114 0
6078 -309 6114 -6072 0
-310 6073 -6114 0
-6074 -310 -6114 0
-311 6073 -6114 0
-6075 -311 -6114 0
-312 6073 -6114 0
-6076 -312 -6114 0
-313 6073 -6114 0
-6077 -313 -6114 0
-314 6073 -6114 0
-6078 -314 -6114 0
-315 -6075 -6114 0
-316 -6076 -6114 0
-317 -6077 -6114 0
-318 -6078 -6114 0
-319 -6076 -6114 0
-320 -6077 -6114 0
-321 -6078 -6114 0
-322 -6077 -6114 0
-323 -6078 -6114 0
-324 -6078 -6114 0
6079 -6070 469 0
6079 6114 -6070 0
-6071 470 6080 0
470 6071 -6080 0
6114 6080 -6071 0
6114 6071 -6080 0
-6080 -6071 -6114 -470 0
471 6072 -6081 0
6081 6114 -6072 0
6114 6072 -6081 0
-6081 -471 -6114 -6072 0
-6082 6073 472 0
6082 6114 -6073 0
-6082 6073 6114 0
6082 6073 -6114 -472 0
6074 -6083 473 0
-6074 6083 6114 0
-6084 6075 474 0
-6075 6084 6114 0
-6085 6076 475 0
6085 -6076 6114 0
-6086 6077 476 0
6086 6114 -6077 0
-6087 6078 477 0
6087 -6078 6114 0
6079 -325 -6115 0
-325 -6115 -6080 0
6115 -325 6080 -6079 0
-326 -6081 -6115 0
-327 -6082 -6115 0
-6083 -328 -6115 0
-6084 -329 -6115 0
-6085 -330 -6115 0
-6086 -331 -6115 0
-6087 -332 -6115 0
-333 -6115 6080 0
-334 -6115 6080 0
-335 -6115 6080 0
-336 -6115 6080 0
-337 -6115 6080 0
-338 -6115 6080 0
-339 -6115 6080 0
6081 -340 -6115 0
-341 6081 -6115 0
-342 6081 -6115 0
-343 6081 -6115 0
-344 6081 -6115 0
-345 6081 -6115 0
-346 6082 -6115 0
-347 6082 -6115 0
-348 6082 -6115 0
-349 6082 -6115 0
-350 6082 -6115 0
478 -6079 6088 0
6115 6088 -6079 0
-6079 -6115 -6088 -478 0
479 -6089 6080 0
6115 -6080 6089 0
6115 -6089 6080 0
-479 -6115 -6089 -6080 0
6081 -6090 480 0
6115 -6081 6090 0
6115 6081 -6090 0
-6081 -480 -6115 -6090 0
6082 -6091 481 0
6115 6082 -6091 0
-481 -6082 -6115 -6091 0
482 6083 -6092 0
483 6084 -6093 0
484 6085 -6094 0
6086 485 -6095 0
486 6087 -6096 0
-361 -6116 6088 0
-361 -6116 -6089 0
6089 -6116 -369 0
-370 6089 -6116 0
-371 6089 -6116 0
-372 6089 -6116 0
-373 6089 -6116 0
-374 6089 -6116 0
-375 6089 -6116 0
-376 6090 -6116 0
-377 6090 -6116 0
-378 6090 -6116 0
-379 6090 -6116 0
-380 6090 -6116 0
-381 6090 -6116 0
-382 6091 -6116 0
-383 6091 -6116 0
-384 6091 -6116 0
-385 6091 -6116 0
-386 6091 -6116 0
-6088 487 6097 0
6116 -6088 6097 0
488 6089 -6098 0
6089 6116 -6098 0
-6089 -6116 -488 -6098 0
6090 489 -6099 0
6116 6090 -6099 0
-6090 -489 -6116 -6099 0
6091 490 -6100 0
6116 6091 -6100 0
-6091 -490 -6116 -6100 0
6092 491 -6101 0
6093 492 -6102 0
6094 493 -6103 0
6095 494 -6104 0
6096 495 -6105 0
6117 0
-6216 0
-6217 0
6120 0
6126 397 -6117 0
6129 400 -6120 0
6135 406 -6126 0
6138 409 -6129 0
-6136 -6227 -73 0
6144 415 -6135 0
6144 6227 -6135 0
6145 -416 6136 -6227 0
6147 -6138 418 0
-6228 -6145 -109 0
6153 424 -6144 0
6228 6153 -6144 0
6154 -6145 425 0
-6228 6145 -425 6154 0
6156 427 -6147 0
6162 -6153 433 0
-6154 6163 434 0
6165 -6156 436 0
-6163 -6230 -181 0
6171 442 -6162 0
6230 6171 -6162 0
-6163 6172 443 0
6172 6163 -443 -6230 0
6174 445 -6165 0
6180 -6171 451 0
6181 -6172 452 0
-6181 -6232 -253 0
6189 -6180 460 0
6232 6189 -6180 0
-6181 461 6190 0
-6232 6190 -461 6181 0
-6233 -6190 -289 0
6198 -6189 469 0
6198 -6189 6233 0
-6190 6199 470 0
-6233 6190 -470 6199 0
478 6207 -6198 0
-6199 6208 479 0
487 -6207 6216 0
488 -6208 6217 0
6355 0
-6454 0
-6356 0
6455 0
6357 0
6358 0
6457 0
6359 0
6360 0
6361 0
6362 0
6363 0
-6463 -9 -6357 0
-10 -6463 6356 0
-6463 -11 -6359 0
-6463 -12 -6360 0
-6463 -13 -6361 0
-6463 -14 -6362 0
-6463 -15 -6363 0
6364 397 -6355 0
-6365 398 6356 0
-6365 6463 6356 0
6367 400 -6358 0
-45 -6464 6365 0
-6464 -46 6365 0
-47 -6464 6365 0
-48 -6464 6365 0
-49 -6464 6365 0
-50 -6464 6365 0
-51 -6464 6365 0
6373 406 -6364 0
-6374 407 6365 0
-6374 6464 6365 0
6376 409 -6367 0
-73 6465 6374 -6373 0
-75 -6465 -6376 0
-81 -6465 6374 0
-6465 -82 6374 0
-6465 -82 -6376 0
-83 -6465 6374 0
-84 -6465 6374 0
-85 -6465 6374 0
-86 -6465 6374 0
-87 -6465 6374 0
-6465 -88 -6376 0
6382 415 -6373 0
-6383 416 6374 0
6465 -6383 6374 0
6385 -6376 418 0
6382 -109 -6466 0
6466 -109 6383 -6382 0
-111 -6466 -6385 0
-117 -6466 6383 0
-6466 -118 6383 0
-6466 -118 -6385 0
-119 -6466 6383 0
-120 -6466 6383 0
-121 -6466 6383 0
-122 -6466 6383 0
-123 -6466 6383 0
-6466 -124 -6385 0
6391 424 -6382 0
-424 -6466 -6391 -6382 0
-6392 6383 425 0
6466 -6392 6383 0
6394 427 -6385 0
-6467 6392 -153 0
-6467 -154 6392 0
-155 -6467 6392 0
-156 -6467 6392 0
-157 -6467 6392 0
-158 -6467 6392 0
-159 -6467 6392 0
-6467 -160 -6394 0
6400 -6391 433 0
6391 433 -6400 0
-6401 6392 434 0
6467 -6401 6392 0
6403 -6394 436 0
6468 -181 6401 -6400 0
-6468 6401 -189 0
-190 -6468 6401 0
-191 -6468 6401 0
-192 -6468 6401 0
-193 -6468 6401 0
-194 -6468 6401 0
-195 -6468 6401 0
-6468 -196 -6403 0
6409 442 -6400 0
6400 -6409 442 0
-442 -6409 -6468 -6400 0
-6410 6401 443 0
6468 -6410 6401 0
6412 445 -6403 0
6409 -6469 -217 0
-6469 6410 -225 0
-6469 6410 -226 0
-227 -6469 6410 0
-228 -6469 6410 0
-229 -6469 6410 0
-230 -6469 6410 0
-231 -6469 6410 0
6418 451 -6409 0
6409 451 -6418 0
-6419 6410 452 0
6469 -6419 6410 0
6421 -6412 454 0
6418 -253 -6470 0
-6470 -261 6419 0
-6470 6419 -262 0
-263 -6470 6419 0
-264 -6470 6419 0
-265 -6470 6419 0
-266 -6470 6419 0
-267 -6470 6419 0
6427 -6418 460 0
6419 461 -6428 0
6470 6419 -6428 0
6430 -6421 463 0
-289 6428 6471 -6427 0
-297 -6471 6428 0
-298 -6471 6428 0
-299 -6471 6428 0
-300 -6471 6428 0
-301 -6471 6428 0
-302 -6471 6428 0
-303 -6471 6428 0
6436 -6427 469 0
6436 -6427 6471 0
6427 -6436 6471 0
470 -6437 6428 0
6471 -6437 6428 0
-6471 6437 6428 -470 0
-6471 -6428 -470 -6437 0
6439 -6430 472 0
6436 -6472 -325 0
-327 -6439 -6472 0
-333 6437 -6472 0
-334 6437 -6472 0
-334 -6439 -6472 0
-335 6437 -6472 0
-336 6437 -6472 0
-337 6437 -6472 0
-338 6437 -6472 0
-339 6437 -6472 0
-340 -6439 -6472 0
478 -6436 6445 0
6472 -6436 6445 0
6437 479 -6446 0
6472 6437 -6446 0
-6472 -479 -6437 -6446 0
-369 -6473 6446 0
-370 -6473 6446 0
-371 -6473 6446 0
-372 -6473 6446 0
-373 -6473 6446 0
-374 -6473 6446 0
-375 -6473 6446 0
487 -6445 6454 0
6446 488 -6455 0
6446 6473 -6455 0
-6473 -6446 -488 -6455 0
6473 6448 -6457 0
9179 -397 5879 0
-400 9179 5882 0
-406 9180 5888 0
-407 9180 5889 0
-408 5890 9180 0
5891 -409 9180 0
-415 9181 5897 0
9181 -418 5900 0
-424 5906 9182 0
5907 -425 9182 0
9182 -427 5909 0
-433 5915 9183 0
5916 9183 -434 0
9183 -436 5918 0
-442 5924 9184 0
5925 9184 -443 0
9184 -445 5927 0
5933 9185 -451 0
5934 9185 -452 0
9185 -454 5936 0
-460 5942 9186 0
5943 -461 9186 0
9186 -463 5945 0
-469 5951 9187 0
5952 9187 -470 0
5953 9187 -471 0
9187 5954 -472 0
9188 5960 -478 0
5961 9188 -479 0
9188 5962 -480 0
9188 5963 -481 0
5964 9188 -482 0
5965 9188 -483 0
5966 9188 -484 0
5967 9188 -485 0
5968 9188 -486 0
9189 -487 5969 0
5970 9189 -488 0
5971 9189 -489 0
5972 9189 -490 0
9190 -9179 0
9191 -9190 0
-9180 9192 -9190 0
-9192 9193 0
-9192 -9181 0
9191 -9180 0
9194 -9191 0
-9181 9193 -9191 0
-9193 9195 0
-9193 -9182 0
-9181 9194 0
9196 -9194 0
-9182 9195 -9194 0
-9195 9197 0
-9195 -9183 0
-9182 9196 0
9198 -9196 0
-9183 9197 -9196 0
-9197 9199 0
-9197 -9184 0
-9183 9198 0
9200 -9198 0
-9184 9199 -9198 0
-9199 9201 0
-9185 -9199 0
-9184 9200 0
9202 -9200 0
-9185 9201 -9200 0
-9201 9203 0
-9201 -9186 0
-9185 9202 0
9204 -9202 0
-9186 9203 -9202 0
-9203 9205 0
-9203 -9187 0
-9186 9204 0
9206 -9204 0
-9187 9205 -9204 0
-9205 9207 0
-9205 -9188 0
9206 -9187 0
9207 -9188 -9206 0
-9189 -9207 0
9208 -400 6001 0
-409 9209 6010 0
-416 6017 9210 0
-417 6018 9210 0
-418 6019 9210 0
6024 -423 9210 0
6025 -424 9211 0
-425 6026 9211 0
-426 6027 9211 0
-427 6028 9211 0
6029 -428 9211 0
6030 -429 9211 0
6031 -430 9211 0
6032 -431 9211 0
6033 -432 9211 0
6034 -433 9212 0
6035 -434 9212 0
-435 6036 9212 0
-436 6037 9212 0
6038 -437 9212 0
6039 -438 9212 0
6040 -439 9212 0
6041 -440 9212 0
6042 -441 9212 0
6043 -442 9213 0
-443 6044 9213 0
-444 6045 9213 0
-445 6046 9213 0
6052 -451 9214 0
-452 6053 9214 0
-453 6054 9214 0
-454 6055 9214 0
-455 6056 9214 0
-456 6057 9214 0
-457 6058 9214 0
-458 6059 9214 0
-459 6060 9214 0
-460 6061 9215 0
-461 6062 9215 0
-462 6063 9215 0
-463 6064 9215 0
6070 -469 9216 0
6071 9216 -470 0
-471 6072 9216 0
6073 -472 9216 0
6074 -473 9216 0
6075 -474 9216 0
6076 -475 9216 0
6077 -476 9216 0
6078 -477 9216 0
6079 -478 9217 0
-479 9217 6080 0
-480 6081 9217 0
-481 6082 9217 0
-482 6083 9217 0
-483 6084 9217 0
6085 -484 9217 0
6086 -485 9217 0
-486 6087 9217 0
-487 6088 9218 0
9218 6089 -488 0
-489 9218 6090 0
-490 9218 6091 0
-491 6092 9218 0
-492 6093 9218 0
-493 6094 9218 0
-494 6095 9218 0
-495 6096 9218 0
-9208 9219 0
-9219 9220 0
-9209 -9219 9221 0
-9221 9222 0
-9209 9220 0
-9220 9223 0
-9220 -9210 9222 0
-9222 9224 0
-9222 -9211 0
-9210 9223 0
-9223 9225 0
-9223 -9211 9224 0
-9224 9226 0
-9224 -9212 0
-9211 9225 0
-9225 9227 0
-9212 -9225 9226 0
-9226 9228 0
-9226 -9213 0
-9212 9227 0
-9227 9229 0
-9213 -9227 9228 0
-9228 9230 0
-9228 -9214 0
-9213 9229 0
-9229 9231 0
9230 -9229 -9214 0
9232 -9230 0
-9215 -9230 0
-9214 9231 0
9233 -9231 0
-9215 9232 -9231 0
9234 -9232 0
-9216 -9232 0
-9215 9233 0
9235 -9233 0
-9216 9234 -9233 0
9236 -9234 0
-9217 -9234 0
9235 -9216 0
9236 -9217 -9235 0
-9218 -9236 0
9385 -398 0
-407 9386 0
-416 9387 0
-425 9388 0
9389 -434 0
-442 9390 0
9390 -443 0
9391 -452 0
-460 9392 0
9392 -461 0
9393 -470 0
9394 -478 0
9394 -479 0
9395 -487 0
9395 -488 0
9396 -9385 0
9397 -9396 0
-9400 9401 0
-9386 9397 0
9402 -9397 0
-9399 9403 0
-9399 -9388 9401 0
-9401 9404 0
-9401 -9389 0
-9387 9402 0
9405 -9402 0
-9403 9406 0
-9403 -9389 9404 0
-9404 9407 0
-9404 -9390 0
-9388 9405 0
9408 -9405 0
-9406 9407 -9390 0
-9407 9410 0
-9407 -9391 0
9408 -9389 0
9411 -9408 0
-9410 -9392 0
9411 -9390 0
9414 -9411 0
9412 -9391 -9411 0
9414 -9391 0
9417 -9414 0
-9392 9415 -9414 0
-9415 9416 -9393 0
-9416 9419 0
-9416 -9394 0
-9392 9417 0
9418 -9393 -9417 0
-9418 -9394 9419 0
-9419 -9395 0
9455 -397 0
-406 9456 0
-415 9457 0
-424 9458 0
-433 9459 0
-442 9460 0
9461 -451 0
-460 9462 0
-469 9463 0
9464 -478 0
9465 -487 0
9466 -9455 0
9467 -9466 0
-9456 9468 -9466 0
-9468 9469 0
-9456 9467 0
9470 -9467 0
-9457 9469 -9467 0
-9469 9471 0
-9457 9470 0
9472 -9470 0
-9458 9471 -9470 0
-9471 9473 0
-9471 -9459 0
-9458 9472 0
9474 -9472 0
-9459 9473 -9472 0
-9473 9475 0
-9459 9474 0
9476 -9474 0
-9460 9475 -9474 0
-9475 9477 0
-9475 -9461 0
-9460 9476 0
9478 -9476 0
9477 -9461 -9476 0
-9477 9479 0
-9477 -9462 0
9478 -9461 0
9480 -9478 0
-9462 9479 -9478 0
-9479 9481 0
-9479 -9463 0
-9462 9480 0
9482 -9480 0
-9463 9481 -9480 0
-9481 9483 0
-9481 -9464 0
-9463 9482 0
9483 -9464 -9482 0
-9483 -9465 0
-16 -37 0
-47 -16 0
-48 -16 0
-49 -16 0
-50 -16 0
-51 -16 0
-45 -75 0
-47 -75 0
-48 -75 0
-49 -75 0
-50 -75 0
-75 -51 0
-73 -52 0
-53 -75 0
-54 -75 0
-55 -75 0
-56 -75 0
-57 -75 0
-63 -75 0
-64 -75 0
-65 -75 0
-66 -75 0
-67 -75 0
-68 -75 0
-69 -75 0
-70 -75 0
-71 -75 0
-72 -75 0
-109 -88 0
-89 -109 0
-90 -109 0
-91 -109 0
-92 -109 0
-93 -109 0
-94 -109 0
-95 -109 0
-96 -109 0
-97 -109 0
-98 -109 0
-99 -109 0
-100 -109 0
-101 -109 0
-102 -109 0
-103 -109 0
-104 -109 0
-105 -109 0
-106 -109 0
-107 -109 0
-108 -109 0
-117 -147 0
-119 -147 0
-120 -147 0
-121 -147 0
-122 -147 0
-123 -147 0
-145 -124 0
-125 -145 0
-125 -147 0
-126 -145 0
-126 -147 0
-127 -145 0
-127 -147 0
-128 -145 0
-128 -147 0
-129 -145 0
-129 -147 0
-130 -145 0
-131 -145 0
-145 -132 0
-133 -145 0
-134 -145 0
-135 -145 0
-135 -147 0
-136 -145 0
-136 -147 0
-137 -145 0
-137 -147 0
-138 -145 0
-138 -147 0
-139 -145 0
-139 -147 0
-140 -145 0
-140 -147 0
-141 -145 0
-141 -147 0
-142 -145 0
-142 -147 0
-143 -145 0
-143 -147 0
-144 -145 0
-144 -147 0
-181 -160 0
-161 -181 0
-162 -181 0
-163 -181 0
-181 -164 0
-165 -181 0
-166 -181 0
-167 -181 0
-168 -181 0
-169 -181 0
-170 -181 0
-171 -181 0
-172 -181 0
-173 -181 0
-174 -181 0
-175 -181 0
-176 -181 0
-177 -181 0
-178 -181 0
-179 -181 0
-180 -181 0
-217 -196 0
-197 -217 0
-198 -217 0
-199 -217 0
-200 -217 0
-201 -217 0
-202 -217 0
-203 -217 0
-204 -217 0
-205 -217 0
-206 -217 0
-207 -217 0
-208 -217 0
-209 -217 0
-210 -217 0
-211 -217 0
-212 -217 0
-213 -217 0
-214 -217 0
-215 -217 0
-216 -217 0
-253 -232 0
-233 -253 0
-233 -262 0
-234 -253 0
-234 -262 0
-235 -253 0
-235 -262 0
-236 -253 0
-236 -262 0
-237 -253 0
-237 -262 0
-238 -253 0
-239 -253 0
-240 -253 0
-241 -253 0
-242 -253 0
-243 -253 0
-243 -262 0
-244 -253 0
-244 -262 0
-245 -253 0
-245 -262 0
-246 -253 0
-246 -262 0
-247 -253 0
-247 -262 0
-248 -253 0
-248 -262 0
-249 -253 0
-249 -262 0
-250 -253 0
-250 -262 0
-251 -253 0
-251 -262 0
-252 -253 0
-252 -262 0
-289 -268 0
-269 -289 0
-269 -298 0
-270 -289 0
-270 -298 0
-271 -289 0
-271 -298 0
-272 -289 0
-272 -298 0
-273 -289 0
-273 -298 0
-289 -274 0
-275 -289 0
-276 -289 0
-277 -289 0
-278 -289 0
-279 -289 0
-279 -298 0
-280 -289 0
-280 -298 0
-281 -289 0
-281 -298 0
-282 -289 0
-282 -298 0
-283 -289 0
-283 -298 0
-284 -289 0
-284 -298 0
-285 -289 0
-285 -298 0
-286 -289 0
-286 -298 0
-287 -289 0
-287 -298 0
-288 -289 0
-288 -298 0
-297 -327 0
-297 -328 0
-297 -329 0
-297 -330 0
-297 -331 0
-297 -332 0
-326 -298 0
-328 -298 0
-329 -298 0
-330 -298 0
-331 -298 0
-332 -298 0
-326 -299 0
-327 -299 0
-329 -299 0
-330 -299 0
-331 -299 0
-332 -299 0
-300 -326 0
-300 -327 0
-300 -328 0
-300 -330 0
-300 -331 0
-300 -332 0
-301 -326 0
-301 -327 0
-301 -328 0
-301 -329 0
-301 -331 0
-301 -332 0
-302 -326 0
-302 -327 0
-302 -328 0
-302 -329 0
-302 -330 0
-302 -332 0
-303 -326 0
-303 -327 0
-303 -328 0
-303 -329 0
-303 -330 0
-303 -331 0
-304 -325 0
-328 -304 0
-329 -304 0
-330 -304 0
-331 -304 0
-332 -304 0
-305 -325 0
-305 -327 0
-329 -305 0
-330 -305 0
-331 -305 0
-332 -305 0
-306 -325 0
-306 -327 0
-328 -306 0
-330 -306 0
-331 -306 0
-332 -306 0
-334 -306 0
-307 -325 0
-307 -327 0
-328 -307 0
-329 -307 0
-331 -307 0
-332 -307 0
-334 -307 0
-308 -325 0
-308 -327 0
-328 -308 0
-329 -308 0
-330 -308 0
-332 -308 0
-309 -325 0
-309 -327 0
-328 -309 0
-329 -309 0
-330 -309 0
-331 -309 0
-310 -325 0
-326 -310 0
-329 -310 0
-330 -310 0
-331 -310 0
-332 -310 0
-311 -325 0
-326 -311 0
-328 -311 0
-330 -311 0
-331 -311 0
-332 -311 0
-312 -325 0
-326 -312 0
-328 -312 0
-329 -312 0
-331 -312 0
-332 -312 0
-313 -325 0
-326 -313 0
-328 -313 0
-329 -313 0
-330 -313 0
-332 -313 0
-314 -325 0
-326 -314 0
-328 -314 0
-329 -314 0
-330 -314 0
-331 -314 0
-315 -325 0
-315 -326 0
-315 -327 0
-330 -315 0
-331 -315 0
-332 -315 0
-316 -325 0
-316 -326 0
-316 -327 0
-329 -316 0
-331 -316 0
-332 -316 0
-317 -325 0
-317 -326 0
-317 -327 0
-329 -317 0
-330 -317 0
-332 -317 0
-318 -325 0
-318 -326 0
-318 -327 0
-318 -329 0
-318 -330 0
-318 -331 0
-319 -325 0
-319 -326 0
-319 -327 0
-328 -319 0
-331 -319 0
-332 -319 0
-320 -325 0
-320 -326 0
-320 -327 0
-328 -320 0
-330 -320 0
-332 -320 0
-321 -325 0
-321 -326 0
-321 -327 0
-328 -321 0
-330 -321 0
-331 -321 0
-322 -325 0
-322 -326 0
-322 -327 0
-328 -322 0
-329 -322 0
-332 -322 0
-323 -325 0
-323 -326 0
-323 -327 0
-323 -328 0
-323 -329 0
-323 -331 0
-324 -325 0
-324 -326 0
-324 -327 0
-328 -324 0
-329 -324 0
-330 -324 0
-334 -362 0
-335 -362 0
-336 -362 0
-337 -362 0
-338 -362 0
-339 -362 0
-361 -340 0
-341 -361 0
-342 -361 0
-343 -361 0
-344 -361 0
-345 -361 0
-346 -361 0
-346 -362 0
-347 -361 0
-347 -362 0
-348 -361 0
-348 -362 0
-349 -361 0
-349 -362 0
-350 -361 0
-350 -362 0
-351 -361 0
-351 -362 0
-352 -361 0
-352 -362 0
-353 -361 0
-353 -362 0
-354 -361 0
-354 -362 0
-355 -361 0
-355 -362 0
-356 -361 0
-356 -362 0
-357 -361 0
-357 -362 0
-358 -361 0
-358 -362 0
-359 -361 0
-359 -362 0
-360 -361 0
-360 -362 0
