p cnf 8608 1841
1 26 2 9 4 6 7 8 27 10 11 12 13 14 15 3 5 18 19 20 21 16 17 22 23 24 25 28 29 30 31 32 33 34 35 36 0
397 -1 0
397 -2 0
397 -3 0
397 -4 0
397 -5 0
397 -6 0
397 -7 0
397 -8 0
-397 1 2 8 3 4 5 6 7 0
398 -1 0
398 -9 0
398 -10 0
398 -11 0
398 -12 0
398 -13 0
398 -14 0
398 -15 0
1 9 -398 10 11 12 13 14 15 0
399 -2 0
399 -16 0
399 -17 0
399 -18 0
399 -19 0
399 -20 0
399 -21 0
-399 2 16 9 17 18 19 20 21 0
-400 26 3 10 16 22 23 24 25 0
-401 27 4 11 17 22 28 29 30 0
-402 27 5 12 18 23 31 32 33 0
-403 28 6 13 19 24 31 34 35 0
-404 25 7 14 20 29 32 34 36 0
-405 26 8 15 21 30 33 35 36 0
43 44 62 59 37 46 47 38 41 39 45 51 42 48 49 54 40 55 58 56 57 52 53 60 50 61 63 64 65 66 67 68 69 70 71 72 0
-37 531 0
-531 532 0
-531 -38 0
-532 533 0
-533 534 0
-534 535 0
-535 536 0
-536 537 0
-537 538 0
-538 539 0
-538 -45 0
-539 540 0
-540 541 0
-541 542 0
-542 543 0
-543 544 0
-544 545 0
546 -545 0
-545 -52 0
547 -546 0
-53 -546 0
548 -547 0
-54 -547 0
549 -548 0
-55 -548 0
550 -549 0
-56 -549 0
-57 -550 0
-37 406 0
-38 406 0
-39 406 0
-40 406 0
-41 406 0
-42 406 0
-43 406 0
-44 406 0
40 -406 37 38 39 41 42 43 44 0
-37 407 0
-45 407 0
-46 407 0
-47 407 0
-48 407 0
-49 407 0
-50 407 0
-51 407 0
-407 37 47 45 46 48 49 50 51 0
-45 408 0
-52 408 0
-53 408 0
-54 408 0
-55 408 0
-56 408 0
-57 408 0
38 -408 52 45 56 53 55 54 57 0
95 94 82 83 76 78 79 80 74 73 77 84 85 86 87 75 81 89 90 92 93 88 91 96 97 98 99 100 101 102 103 104 105 106 107 108 0
566 -73 0
567 -566 0
-74 -566 0
568 -567 0
-568 569 0
-569 570 0
-570 571 0
-571 572 0
-572 573 0
-573 -81 0
415 -73 0
-74 415 0
-75 415 0
-76 415 0
-77 415 0
-78 415 0
-79 415 0
-80 415 0
75 -415 73 74 76 77 78 79 80 0
-73 416 0
-81 416 0
-82 416 0
-83 416 0
-84 416 0
-85 416 0
-86 416 0
-87 416 0
83 84 -416 73 82 81 85 86 87 0
-88 417 0
-89 417 0
-90 417 0
-91 417 0
-92 417 0
-93 417 0
88 -417 74 81 89 90 91 92 93 0
112 113 131 130 109 114 115 116 117 118 119 120 121 122 123 110 111 126 127 128 129 124 125 132 133 134 135 136 137 138 139 140 141 142 143 144 0
-109 601 0
-601 602 0
-110 -601 0
-602 603 0
-603 604 0
-604 605 0
-605 606 0
-606 607 0
-607 608 0
-608 609 0
-608 -117 0
-609 610 0
-610 611 0
-611 612 0
-612 613 0
-613 614 0
-614 615 0
616 -615 0
-615 -124 0
617 -616 0
-125 -616 0
618 -617 0
-126 -617 0
619 -618 0
-127 -618 0
620 -619 0
-128 -619 0
-129 -620 0
424 -109 0
-110 424 0
-111 424 0
-112 424 0
-113 424 0
-114 424 0
-115 424 0
-116 424 0
111 -424 109 110 112 113 114 115 116 0
-109 425 0
-117 425 0
-118 425 0
-119 425 0
-120 425 0
-121 425 0
-122 425 0
-123 425 0
121 118 109 -425 117 120 119 122 123 0
-124 426 0
-125 426 0
-126 426 0
-127 426 0
-128 426 0
-129 426 0
124 126 117 110 -426 125 128 127 129 0
166 154 153 146 147 148 149 150 152 167 155 156 157 158 159 145 151 162 163 164 165 160 161 168 169 170 171 172 173 174 175 176 177 178 179 180 0
636 -145 0
-636 637 0
-146 -636 0
-637 638 0
-638 639 0
-639 640 0
-640 641 0
-641 642 0
-642 643 0
-643 -153 0
433 -145 0
-146 433 0
-147 433 0
-148 433 0
-149 433 0
-150 433 0
-151 433 0
-152 433 0
147 -433 145 146 148 149 150 151 152 0
-145 434 0
-153 434 0
-154 434 0
-155 434 0
-156 434 0
-157 434 0
-158 434 0
-159 434 0
159 153 145 -434 154 155 156 158 157 0
-160 435 0
-161 435 0
-162 435 0
-163 435 0
-164 435 0
-165 435 0
160 -435 146 153 161 162 163 164 165 0
193 192 181 203 182 189 196 202 187 183 184 185 186 194 195 188 197 198 199 200 201 190 191 204 205 206 207 208 209 210 211 212 213 214 215 216 0
-181 671 0
-671 672 0
-182 -671 0
-182 672 0
-672 673 0
-673 674 0
-674 675 0
-675 676 0
-676 677 0
-677 678 0
-678 679 0
-678 -189 0
-679 680 0
-190 -679 0
-680 681 0
-680 -191 0
-681 682 0
-192 -681 0
-682 683 0
-682 -193 0
-683 684 0
-194 -683 0
-684 685 0
-195 -684 0
-685 686 0
-196 -685 0
-686 687 0
-197 -686 0
688 -687 0
-687 -198 0
689 -688 0
-199 -688 0
690 -689 0
-200 -689 0
-201 -690 0
-181 442 0
-182 442 0
-183 442 0
-184 442 0
-185 442 0
-186 442 0
-187 442 0
-188 442 0
-442 184 181 182 183 185 186 187 188 0
-181 443 0
-189 443 0
-190 443 0
-191 443 0
-192 443 0
-193 443 0
-194 443 0
-195 443 0
193 -443 181 191 189 194 192 190 195 0
-182 444 0
-189 444 0
-196 444 0
-197 444 0
-198 444 0
-199 444 0
-200 444 0
-201 444 0
198 200 182 189 -444 196 197 199 201 0
221 222 239 238 225 217 223 224 218 219 220 228 229 230 231 232 233 234 235 236 237 226 227 240 241 242 243 244 245 246 247 248 249 250 251 252 0
706 -217 0
-218 -706 0
451 -217 0
-218 451 0
-219 451 0
-220 451 0
-221 451 0
-222 451 0
-223 451 0
-224 451 0
220 -451 217 218 219 221 222 223 224 0
-217 452 0
-225 452 0
-226 452 0
-227 452 0
-228 452 0
-229 452 0
-230 452 0
-231 452 0
226 228 -452 217 225 227 229 230 231 0
-218 453 0
-225 453 0
-232 453 0
-233 453 0
-234 453 0
-235 453 0
-236 453 0
-237 453 0
233 232 218 225 -453 234 235 236 237 0
274 275 259 260 270 271 263 262 261 253 254 264 265 266 267 255 256 257 258 272 273 268 269 276 277 278 279 280 281 282 283 284 285 286 287 288 0
741 -253 0
-254 -741 0
-253 460 0
-254 460 0
-255 460 0
-256 460 0
-257 460 0
-258 460 0
-259 460 0
-260 460 0
-460 253 254 256 255 257 258 259 260 0
461 -261 0
-262 461 0
-263 461 0
-264 461 0
-265 461 0
-266 461 0
-267 461 0
-461 264 261 253 265 262 263 266 267 0
-254 462 0
-261 462 0
-268 462 0
-269 462 0
-270 462 0
-271 462 0
-272 462 0
-273 462 0
268 -462 261 254 269 270 271 272 273 0
293 294 311 310 307 306 295 296 290 289 299 300 301 302 303 297 298 291 292 308 309 304 305 312 313 314 315 316 317 318 319 320 321 322 323 324 0
-289 776 0
-776 -290 0
469 -289 0
469 -290 0
-291 469 0
-292 469 0
-293 469 0
-294 469 0
-295 469 0
-296 469 0
291 290 -469 289 292 293 294 295 296 0
-297 470 0
-298 470 0
-299 470 0
-300 470 0
-301 470 0
-302 470 0
-303 470 0
-470 299 289 303 297 300 301 302 298 0
-297 471 0
-304 471 0
-305 471 0
-306 471 0
-307 471 0
-308 471 0
-309 471 0
290 -471 297 304 305 306 307 308 309 0
347 346 330 334 329 333 331 332 325 326 335 336 337 338 339 327 328 342 343 344 345 340 341 348 349 350 351 352 353 354 355 356 357 358 359 360 0
-325 811 0
-811 -326 0
-326 812 0
-812 813 0
-327 813 0
-813 814 0
-328 814 0
-814 815 0
-329 815 0
-815 816 0
-330 816 0
-816 817 0
-331 817 0
-817 818 0
-332 818 0
-818 819 0
-333 -818 0
-819 820 0
-334 -819 0
-820 821 0
-335 -820 0
822 -821 0
-821 -336 0
823 -822 0
-337 -822 0
824 -823 0
-338 -823 0
-339 -824 0
478 -325 0
478 -326 0
-327 478 0
-328 478 0
-329 478 0
-330 478 0
-331 478 0
-332 478 0
-478 326 328 325 327 329 330 331 332 0
-325 479 0
-333 479 0
-334 479 0
-335 479 0
-336 479 0
-337 479 0
-338 479 0
-339 479 0
336 337 -479 333 325 334 335 339 338 0
-326 480 0
-333 480 0
-340 480 0
-341 480 0
-342 480 0
-343 480 0
-344 480 0
-345 480 0
-480 341 333 326 340 342 343 344 345 0
487 -362 0
-369 488 0
370 369 -488 361 371 372 373 374 375 0
362 377 376 369 -489 378 379 380 381 0
-3499 0
3501 0
-3600 0
-1 -3607 3499 0
399 3510 -3501 0
3607 3510 -3501 0
3519 408 -3510 0
3528 -3519 417 0
3537 -3528 426 0
3546 -3537 435 0
3555 -3546 444 0
3564 -3555 453 0
3573 -3564 462 0
3582 -3573 471 0
3591 480 -3582 0
-369 -3617 -3591 0
-3591 3617 3600 0
-4075 0
-4003 3994 416 0
-4012 4003 425 0
-4021 4012 434 0
-4021 4030 443 0
-4030 4039 452 0
-4039 4048 461 0
-4048 4057 470 0
-4057 479 4066 0
488 -4066 4075 0
5285 0
-5384 0
5286 0
398 5294 -5285 0
399 5295 -5286 0
-37 -5393 -5294 0
5303 -5294 407 0
5393 5303 -5294 0
5304 408 -5295 0
-5394 -5303 -73 0
-5394 -5304 -81 0
5312 -5303 416 0
5394 5312 -5303 0
5313 -5304 417 0
5313 5394 -5304 0
-5395 -5312 -109 0
-5395 -5313 -117 0
5321 -5312 425 0
5395 5321 -5312 0
5322 -5313 426 0
5395 5322 -5313 0
-5396 -5321 -145 0
-146 -5396 -5322 0
-5396 -5322 -153 0
5330 -5321 434 0
5396 5330 -5321 0
5331 -5322 435 0
-181 -5397 -5330 0
-5331 -5397 -189 0
5339 -5330 443 0
5397 5339 -5330 0
5340 -5331 444 0
-5398 -217 -5339 0
-5398 -218 -5340 0
-5398 -225 -5340 0
5348 -5339 452 0
5398 5348 -5339 0
5349 -5340 453 0
5349 5398 -5340 0
-5399 -253 -5348 0
-5399 -5349 -261 0
5357 -5348 461 0
5399 5357 -5348 0
5358 -5349 462 0
-5400 -289 -5357 0
-5400 -297 -5358 0
5366 -5357 470 0
5400 5366 -5357 0
5367 5400 -5358 0
-325 -5401 -5366 0
-333 -5367 -5401 0
-5366 479 5375 0
5401 -5366 5375 0
-5402 -5375 -361 0
-5375 488 5384 0
-5375 5402 5384 0
5403 0
-5502 0
-5404 0
-5503 0
-5405 0
5504 0
5406 0
5407 0
5408 0
5409 0
5410 0
5411 0
5511 -1 5404 -5403 0
-2 5511 5405 -5403 0
-5511 -3 -5406 0
-5511 -4 -5407 0
-5511 -5 -5408 0
-5511 -6 -5409 0
-5511 -7 -5410 0
-5511 -8 -5411 0
-5511 -9 5404 0
-5511 -10 5404 0
-5511 -11 5404 0
-5511 -12 5404 0
-5511 -13 5404 0
-5511 -14 5404 0
-5511 -15 5404 0
-5511 -16 -5406 0
-5511 -17 -5407 0
-5511 -18 -5408 0
-5511 -19 -5409 0
-5511 -20 -5410 0
-5511 -21 -5411 0
-5511 -22 -5407 0
-5511 -23 -5408 0
-5511 -24 -5409 0
-5511 -25 -5410 0
-5511 -26 -5411 0
-5511 -27 -5408 0
-5511 -28 -5409 0
-5511 -29 -5410 0
-5511 -30 -5411 0
-5511 -31 -5409 0
-5511 -32 -5410 0
-5511 -33 -5411 0
-5511 -34 -5410 0
-5511 -35 -5411 0
-5511 -36 -5411 0
397 5412 -5403 0
5412 5511 -5403 0
-5511 -5412 -397 -5403 0
-5413 398 5404 0
-5413 5511 5404 0
-398 -5511 5413 5404 0
-5414 399 5405 0
-5414 5511 5405 0
-5511 -399 5414 5405 0
5415 400 -5406 0
5416 401 -5407 0
5417 402 -5408 0
5418 403 -5409 0
5419 404 -5410 0
5420 405 -5411 0
-37 -5512 5412 0
5512 -37 -5412 5413 0
-38 -5512 5412 0
-39 -5512 5412 0
-40 -5512 5412 0
-41 -5512 5412 0
-42 -5512 5412 0
-43 -5512 5412 0
-44 -5512 5412 0
-45 -5512 5413 0
-46 -5512 5413 0
-46 -5512 -5415 0
-47 -5512 5413 0
-47 -5512 -5416 0
-48 -5512 5413 0
-48 -5512 -5417 0
-49 -5512 5413 0
-49 -5512 -5418 0
-50 -5512 5413 0
-50 -5512 -5419 0
-51 -5512 5413 0
-51 -5512 -5420 0
-52 -5512 5414 0
-52 -5512 -5415 0
-53 -5512 5414 0
-53 -5512 -5416 0
-54 -5512 5414 0
-54 -5512 -5417 0
-55 -5512 5414 0
-55 -5512 -5418 0
-56 -5512 5414 0
-56 -5512 -5419 0
-57 -5512 5414 0
-57 -5512 -5420 0
-58 -5512 -5416 0
-59 -5512 -5417 0
-60 -5512 -5418 0
-61 -5512 -5419 0
-62 -5512 -5420 0
-63 -5512 -5417 0
-64 -5512 -5418 0
-65 -5512 -5419 0
-66 -5512 -5420 0
-67 -5512 -5418 0
-68 -5512 -5419 0
-69 -5512 -5420 0
-70 -5512 -5419 0
-71 -5512 -5420 0
-72 -5512 -5420 0
5421 406 -5412 0
406 -5421 5412 0
5512 -5421 5412 0
-406 -5421 -5412 -5512 0
407 5422 -5413 0
-5422 407 5413 0
5512 5422 -5413 0
5512 -5422 5413 0
5422 -407 5413 -5512 0
-5512 -5422 -5413 -407 0
408 5423 -5414 0
-5423 408 5414 0
5512 -5423 5414 0
-408 -5512 5423 5414 0
5421 -73 -5513 0
5513 -73 -5421 5422 0
-74 5421 -5513 0
-75 5421 -5513 0
-76 5421 -5513 0
-77 5421 -5513 0
-78 5421 -5513 0
-79 5421 -5513 0
-80 5421 -5513 0
-81 -5513 5422 0
-82 5422 -5513 0
-83 5422 -5513 0
-84 5422 -5513 0
-85 5422 -5513 0
-86 5422 -5513 0
-87 5422 -5513 0
-88 -5513 5423 0
-89 -5513 5423 0
-90 -5513 5423 0
-91 -5513 5423 0
-92 -5513 5423 0
-93 -5513 5423 0
-5421 415 5430 0
5421 415 -5430 0
5421 5513 -5430 0
-5430 -5421 -415 -5513 0
416 5431 -5422 0
416 -5431 5422 0
5513 -5431 5422 0
-416 5431 -5513 5422 0
-416 -5422 -5513 -5431 0
417 5423 -5432 0
5513 5423 -5432 0
5430 -109 -5514 0
-109 -5431 -5514 0
5514 -109 5431 -5430 0
-110 5430 -5514 0
-111 5430 -5514 0
-112 5430 -5514 0
-113 5430 -5514 0
-114 5430 -5514 0
-115 5430 -5514 0
-116 5430 -5514 0
-117 -5514 5431 0
-118 5431 -5514 0
-119 5431 -5514 0
-120 5431 -5514 0
-121 5431 -5514 0
-122 5431 -5514 0
-123 5431 -5514 0
-124 -5514 5432 0
-125 -5514 5432 0
-126 -5514 5432 0
-127 -5514 5432 0
-128 -5514 5432 0
-129 -5514 5432 0
424 -5430 5439 0
5430 424 -5439 0
5514 5430 -5439 0
-424 -5439 -5514 -5430 0
425 -5431 5440 0
425 -5440 5431 0
5514 -5431 5440 0
5514 -5440 5431 0
-425 5440 -5514 5431 0
426 -5441 5432 0
5514 -5441 5432 0
5439 -145 -5515 0
-145 -5440 -5515 0
-5439 5515 -145 5440 0
-146 5439 -5515 0
-147 5439 -5515 0
-148 5439 -5515 0
-149 5439 -5515 0
-150 5439 -5515 0
-151 5439 -5515 0
-152 5439 -5515 0
-153 -5515 5440 0
-154 5440 -5515 0
-155 5440 -5515 0
-156 5440 -5515 0
-157 5440 -5515 0
-158 5440 -5515 0
-159 5440 -5515 0
-160 -5515 5441 0
-161 -5515 5441 0
-162 -5515 5441 0
-163 -5515 5441 0
-164 -5515 5441 0
-165 -5515 5441 0
-5448 433 5439 0
-5448 5515 5439 0
-5448 -433 -5515 -5439 0
434 5449 -5440 0
434 -5449 5440 0
5515 5449 -5440 0
5515 -5449 5440 0
-434 5449 -5515 5440 0
435 -5450 5441 0
5515 -5450 5441 0
-435 5441 5450 -5515 0
5448 -181 -5516 0
-181 -5449 -5516 0
-181 -5448 5516 5449 0
-182 5448 -5516 0
-183 5448 -5516 0
-184 5448 -5516 0
-185 5448 -5516 0
-186 5448 -5516 0
-187 5448 -5516 0
-188 5448 -5516 0
-189 -5516 5449 0
-190 5449 -5516 0
-191 5449 -5516 0
-192 5449 -5516 0
-193 5449 -5516 0
-194 5449 -5516 0
-195 5449 -5516 0
-196 -5516 5450 0
-197 -5516 5450 0
-198 -5516 5450 0
-199 -5516 5450 0
-200 -5516 5450 0
-201 -5516 5450 0
5448 442 -5457 0
5448 -5457 5516 0
-5448 -5457 -5516 -442 0
5458 -5449 443 0
443 5449 -5458 0
5516 5458 -5449 0
5516 -5458 5449 0
-443 5458 -5516 5449 0
-5449 -5458 -5516 -443 0
444 -5459 5450 0
5516 -5459 5450 0
-5516 5450 5459 -444 0
5457 -217 -5517 0
-217 -5458 -5517 0
5517 -5457 -217 5458 0
-218 5457 -5517 0
-219 5457 -5517 0
-220 5457 -5517 0
-221 5457 -5517 0
-222 5457 -5517 0
-223 5457 -5517 0
-224 5457 -5517 0
-225 -5517 5458 0
-226 5458 -5517 0
-227 5458 -5517 0
-228 5458 -5517 0
-229 5458 -5517 0
-230 5458 -5517 0
-231 5458 -5517 0
-232 -5517 5459 0
-233 -5517 5459 0
-234 -5517 5459 0
-235 -5517 5459 0
-236 -5517 5459 0
-237 -5517 5459 0
451 -5457 5466 0
451 5457 -5466 0
5517 5457 -5466 0
-451 -5466 -5517 -5457 0
452 5467 -5458 0
452 -5467 5458 0
5517 5467 -5458 0
5517 -5467 5458 0
-452 5467 -5517 5458 0
-452 -5467 -5458 -5517 0
453 -5468 5459 0
5517 -5468 5459 0
-5517 5459 5468 -453 0
-253 5466 -5518 0
-253 -5467 -5518 0
-254 5466 -5518 0
-255 5466 -5518 0
-256 5466 -5518 0
-257 5466 -5518 0
-258 5466 -5518 0
-259 5466 -5518 0
-260 5466 -5518 0
5467 -261 -5518 0
-262 5467 -5518 0
-263 5467 -5518 0
-264 5467 -5518 0
-265 5467 -5518 0
-266 5467 -5518 0
-267 5467 -5518 0
-268 -5518 5468 0
-269 -5518 5468 0
-270 -5518 5468 0
-271 -5518 5468 0
-272 -5518 5468 0
-273 -5518 5468 0
5475 -5466 460 0
5466 -5475 460 0
5475 -5466 5518 0
5518 5466 -5475 0
-460 -5475 -5518 -5466 0
5476 -5467 461 0
-5476 5467 461 0
5518 5476 -5467 0
5518 -5476 5467 0
5476 -461 -5518 5467 0
-5477 462 5468 0
5518 -5477 5468 0
5477 -5518 -462 5468 0
5475 -289 -5519 0
-289 -5476 -5519 0
5475 -5519 -290 0
-291 5475 -5519 0
-292 5475 -5519 0
-293 5475 -5519 0
-294 5475 -5519 0
-295 5475 -5519 0
-296 5475 -5519 0
-297 -5519 5476 0
-297 -5519 -5477 0
-298 5476 -5519 0
-299 5476 -5519 0
-300 5476 -5519 0
-301 5476 -5519 0
-302 5476 -5519 0
-303 5476 -5519 0
-304 -5519 5477 0
-305 -5519 5477 0
-306 -5519 5477 0
-307 -5519 5477 0
-308 -5519 5477 0
-309 -5519 5477 0
-5475 469 5484 0
469 5475 -5484 0
5519 5475 -5484 0
-5484 -5519 -469 -5475 0
470 5485 -5476 0
-5485 470 5476 0
5519 5485 -5476 0
5519 -5485 5476 0
-470 5485 5476 -5519 0
-470 -5476 -5519 -5485 0
471 5477 -5486 0
5519 5486 -5477 0
5519 5477 -5486 0
5486 -5519 -471 5477 0
-325 -5520 5484 0
-5485 -325 -5520 0
-326 -5520 5484 0
-327 -5520 5484 0
-328 -5520 5484 0
-329 -5520 5484 0
-330 -5520 5484 0
-331 -5520 5484 0
-332 -5520 5484 0
-333 5485 -5520 0
-334 5485 -5520 0
-335 5485 -5520 0
5485 -5520 -336 0
-337 5485 -5520 0
-338 5485 -5520 0
-339 5485 -5520 0
-340 -5520 5486 0
-341 -5520 5486 0
-342 -5520 5486 0
-343 -5520 5486 0
-344 -5520 5486 0
-345 -5520 5486 0
5493 -5484 478 0
5484 478 -5493 0
-478 -5520 -5493 -5484 0
-5485 479 5494 0
479 5485 -5494 0
5520 -5485 5494 0
5520 5485 -5494 0
-5520 -479 5494 5485 0
-5485 -479 -5494 -5520 0
480 5486 -5495 0
5520 5486 -5495 0
-480 5486 5495 -5520 0
-5520 -5495 -5486 -480 0
-361 -5521 -5494 0
-362 -5521 5493 0
-376 -5521 5495 0
-377 -5521 5495 0
-378 -5521 5495 0
-379 -5521 5495 0
-380 -5521 5495 0
-381 -5521 5495 0
487 -5493 5502 0
-5521 -487 5493 5502 0
-5494 488 5503 0
5521 -5494 5503 0
-5521 5494 -488 5503 0
5495 489 -5504 0
5495 5521 -5504 0
5522 0
-5621 0
5523 0
5622 0
-5524 0
-5630 -1 -5523 0
-2 5630 5524 -5522 0
397 5531 -5522 0
5531 5630 -5522 0
398 5532 -5523 0
5532 5630 -5523 0
-5533 399 5524 0
5540 406 -5531 0
5541 407 -5532 0
-5542 408 5533 0
-5632 -5541 -73 0
5549 -5540 415 0
5632 5549 -5540 0
5550 -5541 416 0
5550 5632 -5541 0
-5551 5542 417 0
5558 -5549 424 0
5559 -5550 425 0
-5560 5551 426 0
5567 -5558 433 0
5568 -5559 434 0
5559 -5568 434 0
-5569 5560 435 0
-5635 -181 -5568 0
-5567 5576 442 0
-5567 5635 5576 0
5577 -5568 443 0
5568 -5577 443 0
-5635 -5568 -443 -5577 0
-5578 5569 444 0
-5636 -217 -5577 0
-225 -5577 5578 5636 0
-5576 5585 451 0
5577 -5586 452 0
-5585 5594 460 0
5586 -5595 461 0
-5594 5603 469 0
5595 -5604 470 0
-5603 5612 478 0
5604 -5613 479 0
487 -5612 5621 0
488 5613 -5622 0
5641 0
-5740 0
-5642 0
5741 0
5643 0
5644 0
5645 0
5646 0
5647 0
5648 0
5649 0
5749 -1 5642 -5641 0
-3 -5749 -5644 0
-4 -5749 -5645 0
-5 -5749 -5646 0
-6 -5749 -5647 0
-7 -5749 -5648 0
-8 -5749 -5649 0
-9 -5749 -5643 0
-10 -5749 -5644 0
-11 -5749 -5645 0
-12 -5749 -5646 0
-13 -5749 -5647 0
-14 -5749 -5648 0
-15 -5749 -5649 0
-16 -5749 -5644 0
-17 -5749 -5645 0
-18 -5749 -5646 0
-19 -5749 -5647 0
-20 -5749 -5648 0
-21 -5749 -5649 0
-22 -5749 -5645 0
-23 -5749 -5646 0
-24 -5749 -5647 0
-25 -5749 -5648 0
-26 -5749 -5649 0
-27 -5749 -5646 0
-28 -5749 -5647 0
-29 -5749 -5648 0
-30 -5749 -5649 0
-31 -5749 -5647 0
-32 -5749 -5648 0
-33 -5749 -5649 0
-34 -5749 -5648 0
-35 -5749 -5649 0
-36 -5749 -5649 0
-5651 398 5642 0
-5651 5749 5642 0
5651 -5749 -398 5642 0
5652 399 -5643 0
-45 -5750 5651 0
-46 -5750 5651 0
-47 -5750 5651 0
-48 -5750 5651 0
-49 -5750 5651 0
-50 -5750 5651 0
-51 -5750 5651 0
5660 407 -5651 0
-5660 407 5651 0
5750 -5660 5651 0
5661 408 -5652 0
-5751 5660 -81 0
-82 -5751 5660 0
-5751 5660 -83 0
-84 -5751 5660 0
-85 -5751 5660 0
-86 -5751 5660 0
-87 -5751 5660 0
416 5669 -5660 0
5660 -5669 416 0
5751 5660 -5669 0
5670 -5661 417 0
-5752 5669 -117 0
-118 -5752 5669 0
-119 -5752 5669 0
-120 -5752 5669 0
-5752 5669 -121 0
-122 -5752 5669 0
-123 -5752 5669 0
-5669 5678 425 0
5669 -5678 425 0
5752 5669 -5678 0
5679 -5670 426 0
-5753 5678 -153 0
-154 -5753 5678 0
-155 -5753 5678 0
-156 -5753 5678 0
-157 -5753 5678 0
-158 -5753 5678 0
-159 -5753 5678 0
5678 -5687 434 0
5753 5678 -5687 0
5688 -5679 435 0
-5754 -181 -5687 0
-5754 5687 -189 0
-190 -5754 5687 0
-191 -5754 5687 0
-192 -5754 5687 0
-5754 5687 -193 0
-194 -5754 5687 0
-195 -5754 5687 0
5754 -5686 5695 0
5687 -5696 443 0
5754 5687 -5696 0
5697 -5688 444 0
-225 -5755 5696 0
-5755 5696 -226 0
-227 -5755 5696 0
-228 -5755 5696 0
-229 -5755 5696 0
-230 -5755 5696 0
-231 -5755 5696 0
-5695 5704 451 0
-5696 452 5705 0
5696 452 -5705 0
5755 5696 -5705 0
5706 -5697 453 0
-5756 5705 -261 0
-5756 5705 -262 0
-263 -5756 5705 0
-264 -5756 5705 0
-265 -5756 5705 0
-266 -5756 5705 0
-267 -5756 5705 0
-5704 5713 460 0
-5714 5705 461 0
5756 -5714 5705 0
5715 -5706 462 0
-5757 -297 5714 0
-298 -5757 5714 0
-299 -5757 5714 0
-300 -5757 5714 0
-301 -5757 5714 0
-302 -5757 5714 0
-5757 -303 5714 0
-5713 5722 469 0
-5723 5714 470 0
5757 -5723 5714 0
-333 -5758 5723 0
-334 -5758 5723 0
-335 -5758 5723 0
-336 -5758 5723 0
-337 -5758 5723 0
-338 -5758 5723 0
-339 -5758 5723 0
-5722 5731 478 0
479 5723 -5732 0
5758 5723 -5732 0
-369 -5759 5732 0
-370 -5759 5732 0
-371 -5759 5732 0
-372 -5759 5732 0
-373 -5759 5732 0
-374 -5759 5732 0
-375 -5759 5732 0
487 -5731 5740 0
5732 488 -5741 0
5732 5759 -5741 0
8435 -398 5404 0
8435 -399 5405 0
-406 8436 5412 0
-407 8436 5413 0
-408 8436 5414 0
-415 5421 8437 0
-416 5422 8437 0
-417 5423 8437 0
-424 5430 8438 0
-425 5431 8438 0
8438 -426 5432 0
-433 5439 8439 0
-434 5440 8439 0
8439 -435 5441 0
-442 5448 8440 0
-443 5449 8440 0
8440 -444 5450 0
5457 -451 8441 0
-452 5458 8441 0
8441 -453 5459 0
-460 5466 8442 0
5467 8442 -461 0
8442 5468 -462 0
5475 8443 -469 0
-470 5476 8443 0
8443 5477 -471 0
-478 8444 5484 0
5485 8444 -479 0
-480 5486 8444 0
5493 8445 -487 0
8445 5494 -488 0
-489 8445 5495 0
8446 -8435 0
8447 -8446 0
-8436 8448 -8446 0
-8448 8449 0
-8448 -8437 0
-8436 8447 0
8450 -8447 0
-8437 8449 -8447 0
-8449 8451 0
-8449 -8438 0
-8437 8450 0
8452 -8450 0
-8438 8451 -8450 0
-8451 8453 0
-8451 -8439 0
8452 -8438 0
8454 -8452 0
-8439 8453 -8452 0
-8453 8455 0
-8453 -8440 0
8454 -8439 0
8456 -8454 0
-8440 8455 -8454 0
-8455 8457 0
-8455 -8441 0
8456 -8440 0
8458 -8456 0
-8441 8457 -8456 0
-8457 8459 0
-8457 -8442 0
8458 -8441 0
8460 -8458 0
8459 -8442 -8458 0
8461 -8459 0
-8459 -8443 0
8460 -8442 0
8462 -8460 0
8461 -8443 -8460 0
8463 -8461 0
-8444 -8461 0
8462 -8443 0
8463 -8444 -8462 0
-8445 -8463 0
8499 -397 0
8499 -398 0
-406 8500 0
8500 -407 0
-415 8501 0
8501 -416 0
-424 8502 0
8502 -425 0
-433 8503 0
8503 -434 0
-442 8504 0
8504 -443 0
8505 -451 0
8505 -452 0
-460 8506 0
8506 -461 0
8507 -469 0
8507 -470 0
8508 -478 0
8508 -479 0
8509 -487 0
8509 -488 0
8510 -8499 0
8511 -8510 0
-8500 8512 -8510 0
-8512 8513 0
-8501 -8512 8514 0
-8514 8515 0
-8514 -8502 0
8511 -8500 0
8516 -8511 0
-8501 8513 -8511 0
-8513 8517 0
-8502 -8513 8515 0
-8515 8518 0
-8515 -8503 0
8516 -8501 0
8519 -8516 0
-8502 8517 -8516 0
-8517 8520 0
-8503 -8517 8518 0
-8518 8521 0
-8518 -8504 0
8519 -8502 0
8522 -8519 0
-8503 8520 -8519 0
-8520 8523 0
-8504 -8520 8521 0
-8521 8524 0
-8521 -8505 0
8522 -8503 0
8525 -8522 0
-8504 8523 -8522 0
-8523 8526 0
-8505 -8523 8524 0
-8524 8527 0
-8524 -8506 0
8525 -8504 0
8528 -8525 0
-8505 8526 -8525 0
8529 -8526 0
-8526 -8506 8527 0
-8527 8530 0
-8527 -8507 0
8528 -8505 0
8531 -8528 0
8529 -8506 -8528 0
8532 -8529 0
-8529 -8507 8530 0
-8530 8533 0
-8530 -8508 0
8531 -8506 0
8532 -8507 -8531 0
-8532 -8508 8533 0
-8533 -8509 0
8534 -398 5642 0
8535 -407 5651 0
8536 5660 -416 0
8537 5669 -425 0
8538 5678 -434 0
8539 5686 -442 0
8539 5687 -443 0
8540 5696 -452 0
8541 5705 -461 0
8542 -470 5714 0
8543 -479 5723 0
8544 5732 -488 0
8545 -8534 0
8546 -8545 0
8546 -8535 0
8549 -8546 0
8548 -8536 -8546 0
-8548 -8537 0
8549 -8536 0
8551 -8549 0
8551 -8537 0
8553 -8551 0
-8538 8552 -8551 0
-8552 8554 0
-8552 -8539 0
8553 -8538 0
8555 -8553 0
-8539 8554 -8553 0
-8554 -8540 0
8557 -8555 0
-8540 8556 -8555 0
-8556 -8541 0
8559 -8557 0
-8541 8558 -8557 0
-8558 -8542 0
8561 -8559 0
-8542 8560 -8559 0
-8560 -8543 0
8562 -8543 -8561 0
-8562 -8544 0
-16 -37 0
-17 -37 0
-18 -37 0
-19 -37 0
-20 -37 0
-21 -37 0
-22 -37 0
-22 -38 0
-23 -37 0
-23 -38 0
-24 -37 0
-24 -38 0
-25 -37 0
-25 -38 0
-26 -37 0
-26 -38 0
-37 -27 0
-38 -27 0
-28 -37 0
-28 -38 0
-29 -37 0
-29 -38 0
-30 -37 0
-30 -38 0
-31 -37 0
-31 -38 0
-32 -37 0
-32 -38 0
-33 -37 0
-33 -38 0
-34 -37 0
-34 -38 0
-35 -37 0
-35 -38 0
-36 -37 0
-36 -38 0
-73 -52 0
-53 -73 0
-54 -73 0
-55 -73 0
-56 -73 0
-57 -73 0
-58 -73 0
-58 -74 0
-58 -81 0
-59 -73 0
-59 -74 0
-59 -81 0
-60 -73 0
-60 -74 0
-60 -81 0
-61 -73 0
-61 -74 0
-61 -81 0
-62 -73 0
-62 -74 0
-62 -81 0
-63 -73 0
-63 -74 0
-63 -81 0
-64 -73 0
-64 -74 0
-64 -81 0
-65 -73 0
-65 -74 0
-65 -81 0
-66 -73 0
-66 -74 0
-66 -81 0
-67 -73 0
-67 -74 0
-67 -81 0
-68 -73 0
-68 -74 0
-68 -81 0
-69 -73 0
-69 -74 0
-69 -81 0
-70 -73 0
-70 -74 0
-70 -81 0
-71 -73 0
-71 -74 0
-71 -81 0
-72 -73 0
-72 -74 0
-72 -81 0
-88 -109 0
-89 -109 0
-90 -109 0
-91 -109 0
-92 -109 0
-93 -109 0
-94 -109 0
-94 -110 0
-94 -117 0
-95 -109 0
-95 -110 0
-95 -117 0
-96 -109 0
-96 -110 0
-96 -117 0
-97 -109 0
-97 -110 0
-97 -117 0
-98 -109 0
-98 -110 0
-98 -117 0
-99 -109 0
-99 -110 0
-99 -117 0
-100 -109 0
-100 -110 0
-100 -117 0
-101 -109 0
-101 -110 0
-101 -117 0
-102 -109 0
-102 -110 0
-102 -117 0
-103 -109 0
-103 -110 0
-103 -117 0
-104 -109 0
-104 -110 0
-104 -117 0
-105 -109 0
-105 -110 0
-105 -117 0
-106 -109 0
-106 -110 0
-106 -117 0
-107 -109 0
-107 -110 0
-107 -117 0
-108 -109 0
-108 -110 0
-108 -117 0
-145 -124 0
-125 -145 0
-126 -145 0
-127 -145 0
-128 -145 0
-129 -145 0
-130 -145 0
-130 -146 0
-130 -153 0
-131 -145 0
-131 -146 0
-131 -153 0
-132 -145 0
-132 -146 0
-132 -153 0
-133 -145 0
-133 -146 0
-133 -153 0
-134 -145 0
-134 -146 0
-134 -153 0
-135 -145 0
-135 -146 0
-135 -153 0
-136 -145 0
-136 -146 0
-136 -153 0
-137 -145 0
-137 -146 0
-137 -153 0
-138 -145 0
-138 -146 0
-138 -153 0
-139 -145 0
-139 -146 0
-139 -153 0
-140 -145 0
-140 -146 0
-140 -153 0
-141 -145 0
-141 -146 0
-141 -153 0
-142 -145 0
-142 -146 0
-142 -153 0
-143 -145 0
-143 -146 0
-143 -153 0
-144 -145 0
-144 -146 0
-144 -153 0
-183 -153 0
-184 -153 0
-185 -153 0
-186 -153 0
-187 -153 0
-188 -153 0
-154 -182 0
-155 -182 0
-156 -182 0
-157 -182 0
-158 -182 0
-159 -182 0
-160 -181 0
-161 -181 0
-162 -181 0
-163 -181 0
-164 -181 0
-165 -181 0
-166 -181 0
-166 -182 0
-166 -189 0
-167 -181 0
-167 -182 0
-167 -189 0
-168 -181 0
-168 -182 0
-168 -189 0
-169 -181 0
-169 -182 0
-169 -189 0
-170 -181 0
-170 -182 0
-170 -189 0
-171 -181 0
-171 -182 0
-171 -189 0
-172 -181 0
-172 -182 0
-172 -189 0
-173 -181 0
-173 -182 0
-173 -189 0
-174 -181 0
-174 -182 0
-174 -189 0
-175 -181 0
-175 -182 0
-175 -189 0
-176 -181 0
-176 -182 0
-176 -189 0
-177 -181 0
-177 -182 0
-177 -189 0
-178 -181 0
-178 -182 0
-178 -189 0
-179 -181 0
-179 -182 0
-179 -189 0
-180 -181 0
-180 -182 0
-180 -189 0
-196 -217 0
-197 -217 0
-217 -198 0
-199 -217 0
-200 -217 0
-201 -217 0
-202 -217 0
-202 -218 0
-202 -225 0
-203 -217 0
-203 -218 0
-203 -225 0
-204 -217 0
-204 -218 0
-204 -225 0
-205 -217 0
-205 -218 0
-205 -225 0
-206 -217 0
-206 -218 0
-206 -225 0
-207 -217 0
-207 -218 0
-207 -225 0
-208 -217 0
-208 -218 0
-208 -225 0
-209 -217 0
-209 -218 0
-209 -225 0
-210 -217 0
-210 -218 0
-210 -225 0
-211 -217 0
-211 -218 0
-211 -225 0
-212 -217 0
-212 -218 0
-212 -225 0
-213 -217 0
-213 -218 0
-213 -225 0
-214 -217 0
-214 -218 0
-214 -225 0
-215 -217 0
-215 -218 0
-215 -225 0
-216 -217 0
-216 -218 0
-216 -225 0
-232 -253 0
-233 -253 0
-234 -253 0
-235 -253 0
-236 -253 0
-237 -253 0
-238 -253 0
-238 -254 0
-238 -261 0
-239 -253 0
-239 -254 0
-239 -261 0
-240 -253 0
-240 -254 0
-240 -261 0
-241 -253 0
-241 -254 0
-241 -261 0
-242 -253 0
-242 -254 0
-242 -261 0
-243 -253 0
-243 -254 0
-243 -261 0
-244 -253 0
-244 -254 0
-244 -261 0
-245 -253 0
-245 -254 0
-245 -261 0
-246 -253 0
-246 -254 0
-246 -261 0
-247 -253 0
-247 -254 0
-247 -261 0
-248 -253 0
-248 -254 0
-248 -261 0
-249 -253 0
-249 -254 0
-249 -261 0
-250 -253 0
-250 -254 0
-250 -261 0
-251 -253 0
-251 -254 0
-251 -261 0
-252 -253 0
-252 -254 0
-252 -261 0
-262 -290 0
-263 -290 0
-264 -290 0
-265 -290 0
-266 -290 0
-267 -290 0
-268 -289 0
-269 -289 0
-270 -289 0
-271 -289 0
-272 -289 0
-273 -289 0
-274 -289 0
-274 -290 0
-297 -274 0
-275 -289 0
-275 -290 0
-275 -297 0
-276 -289 0
-276 -290 0
-276 -297 0
-277 -289 0
-277 -290 0
-277 -297 0
-278 -289 0
-278 -290 0
-278 -297 0
-279 -289 0
-279 -290 0
-279 -297 0
-280 -289 0
-280 -290 0
-280 -297 0
-281 -289 0
-281 -290 0
-281 -297 0
-282 -289 0
-282 -290 0
-282 -297 0
-283 -289 0
-283 -290 0
-283 -297 0
-284 -289 0
-284 -290 0
-284 -297 0
-285 -289 0
-285 -290 0
-285 -297 0
-286 -289 0
-286 -290 0
-286 -297 0
-287 -289 0
-287 -290 0
-287 -297 0
-288 -289 0
-288 -290 0
-288 -297 0
-298 -326 0
-299 -326 0
-300 -326 0
-301 -326 0
-302 -326 0
-326 -303 0
-304 -325 0
-305 -325 0
-306 -325 0
-307 -325 0
-308 -325 0
-309 -325 0
-310 -325 0
-310 -326 0
-310 -333 0
-311 -325 0
-311 -326 0
-311 -333 0
-312 -325 0
-312 -326 0
-312 -333 0
-313 -325 0
-313 -326 0
-313 -333 0
-314 -325 0
-314 -326 0
-314 -333 0
-315 -325 0
-315 -326 0
-315 -333 0
-316 -325 0
-316 -326 0
-316 -333 0
-317 -325 0
-317 -326 0
-317 -333 0
-318 -325 0
-318 -326 0
-318 -333 0
-319 -325 0
-319 -326 0
-319 -333 0
-320 -325 0
-320 -326 0
-320 -333 0
-321 -325 0
-321 -326 0
-321 -333 0
-322 -325 0
-322 -326 0
-322 -333 0
-323 -325 0
-323 -326 0
-323 -333 0
-324 -325 0
-324 -326 0
-324 -333 0
-340 -361 0
-341 -361 0
-342 -361 0
-343 -361 0
-344 -361 0
-345 -361 0
-346 -361 0
-346 -362 0
-346 -369 0
-347 -361 0
-347 -362 0
-347 -369 0
-348 -361 0
-348 -362 0
-348 -369 0
-349 -361 0
-349 -362 0
-349 -369 0
-350 -361 0
-350 -362 0
-350 -369 0
-351 -361 0
-351 -362 0
-351 -369 0
-352 -361 0
-352 -362 0
-352 -369 0
-353 -361 0
-353 -362 0
-353 -369 0
-354 -361 0
-354 -362 0
-354 -369 0
-355 -361 0
-355 -362 0
-355 -369 0
-356 -361 0
-356 -362 0
-356 -369 0
-357 -361 0
-357 -362 0
-357 -369 0
-358 -361 0
-358 -362 0
-358 -369 0
-359 -361 0
-359 -362 0
-359 -369 0
-360 -361 0
-360 -362 0
-360 -369 0
