p cnf 9645 3674
27 26 29 28 7 12 11 4 5 6 3 31 13 32 36 25 10 16 17 14 9 19 20 22 23 21 1 2 15 24 30 18 8 33 34 35 0
397 -1 0
397 -2 0
397 -3 0
397 -4 0
397 -5 0
397 -6 0
397 -7 0
397 -8 0
-397 8 7 1 2 3 4 5 6 0
398 -9 0
398 -10 0
398 -11 0
398 -12 0
398 -13 0
398 -14 0
398 -15 0
-398 9 11 12 10 14 15 1 13 0
399 -9 0
399 -16 0
399 -17 0
399 -18 0
399 -19 0
399 -20 0
399 -21 0
-399 21 9 2 16 18 17 19 20 0
400 -10 0
400 -16 0
400 -22 0
400 -23 0
400 -24 0
400 -25 0
400 -26 0
16 26 10 22 3 24 -400 23 25 0
401 -27 0
401 -28 0
401 -29 0
-401 30 29 17 28 11 27 22 4 0
402 -27 0
402 -31 0
402 -32 0
402 -33 0
-402 27 31 5 23 18 33 32 12 0
403 -28 0
-403 28 6 35 19 13 24 31 34 0
404 -29 0
-404 29 7 20 32 14 25 34 36 0
405 -33 0
-405 26 8 30 21 15 33 35 36 0
46 42 49 41 38 37 43 44 45 52 72 67 48 47 51 59 50 61 55 56 57 54 53 60 58 62 39 40 64 63 65 68 69 70 71 66 0
-37 406 0
-38 406 0
-39 406 0
-40 406 0
-41 406 0
-42 406 0
-43 406 0
-44 406 0
-406 44 37 38 39 40 41 42 43 0
407 -37 0
407 -45 0
-46 407 0
407 -47 0
-48 407 0
407 -49 0
-50 407 0
-51 407 0
46 45 37 49 48 51 -407 47 50 0
-45 408 0
-52 408 0
-53 408 0
-54 408 0
-55 408 0
-56 408 0
408 -57 0
45 -408 38 52 53 54 55 56 57 0
409 -46 0
-58 409 0
-59 409 0
-60 409 0
-61 409 0
-62 409 0
-409 46 52 39 60 58 59 61 62 0
-63 410 0
-410 47 66 64 53 40 58 65 63 0
-41 411 0
411 -48 0
-63 411 0
-67 411 0
-69 411 0
-411 48 67 54 63 59 41 69 68 0
-412 55 49 70 71 42 67 60 64 0
-413 43 50 56 61 65 68 70 72 0
414 -51 0
57 62 51 -414 71 66 44 72 69 0
87 81 108 102 75 73 77 78 79 80 76 74 82 85 84 88 89 90 91 92 93 104 105 94 95 96 83 86 97 98 100 103 99 106 101 107 0
-73 415 0
-74 415 0
-75 415 0
-76 415 0
-77 415 0
-78 415 0
-79 415 0
-80 415 0
73 -415 75 74 76 77 78 79 80 0
416 -73 0
-81 416 0
-82 416 0
-83 416 0
-84 416 0
-85 416 0
-86 416 0
-87 416 0
87 -416 82 73 83 81 85 84 86 0
-81 417 0
-88 417 0
-89 417 0
-90 417 0
-91 417 0
-92 417 0
-93 417 0
-417 81 74 89 88 93 90 91 92 0
418 -82 0
-94 418 0
-95 418 0
-96 418 0
-97 418 0
-98 418 0
-418 98 82 88 75 94 95 96 97 0
-83 419 0
-419 83 102 76 89 94 99 100 101 0
-84 420 0
420 -99 0
-104 420 0
-105 420 0
-420 84 99 90 77 95 104 103 105 0
-85 421 0
-103 421 0
-79 422 0
422 -86 0
-92 422 0
-97 422 0
-101 422 0
-104 422 0
-106 422 0
-80 423 0
423 -87 0
-93 423 0
-98 423 0
423 -102 0
-105 423 0
-107 423 0
-108 423 0
-423 87 93 102 80 98 105 107 108 0
113 120 131 130 114 123 115 116 117 109 110 111 112 137 135 124 125 126 127 128 129 118 119 132 133 134 121 122 136 138 139 140 141 142 143 144 0
610 -118 0
-610 611 0
-611 -120 0
-109 424 0
-110 424 0
-111 424 0
-112 424 0
-113 424 0
-114 424 0
-115 424 0
-116 424 0
110 -424 109 111 112 113 114 115 116 0
425 -109 0
425 -117 0
-118 425 0
-119 425 0
-120 425 0
-121 425 0
-122 425 0
-123 425 0
117 121 109 120 -425 118 119 123 122 0
426 -117 0
-124 426 0
-125 426 0
-126 426 0
-127 426 0
-128 426 0
426 -129 0
117 125 -426 124 110 126 127 128 129 0
-118 427 0
-130 427 0
-131 427 0
-132 427 0
-133 427 0
427 -134 0
131 118 -427 124 111 130 132 133 134 0
-119 428 0
-428 119 130 112 125 135 136 137 138 0
429 -120 0
-429 120 131 126 113 141 139 140 135 0
-121 430 0
-132 430 0
-136 430 0
-139 430 0
-142 430 0
-143 430 0
-430 121 132 114 127 136 139 142 143 0
-122 431 0
-431 122 133 128 115 137 140 142 144 0
-116 432 0
432 -123 0
-129 432 0
-134 432 0
-138 432 0
-141 432 0
-143 432 0
-144 432 0
134 138 123 129 116 -432 141 143 144 0
175 172 145 155 153 159 149 150 151 146 148 154 157 158 156 160 161 162 163 164 165 147 152 168 169 170 166 167 173 174 171 176 177 178 179 180 0
636 -145 0
637 -636 0
-146 -636 0
638 -637 0
639 -638 0
640 -639 0
641 -640 0
642 -641 0
643 -642 0
644 -643 0
644 -153 0
645 -644 0
-154 -644 0
645 -154 0
646 -645 0
647 -646 0
-156 -646 0
648 -647 0
649 -648 0
650 -649 0
651 -650 0
-160 -650 0
652 -651 0
-161 -651 0
653 -652 0
-162 -652 0
654 -653 0
-163 -653 0
655 -654 0
-164 -654 0
-165 -655 0
-145 433 0
-146 433 0
-147 433 0
-148 433 0
-149 433 0
-150 433 0
-151 433 0
-152 433 0
146 -433 145 147 148 149 150 151 152 0
434 -145 0
-153 434 0
-154 434 0
-155 434 0
-156 434 0
-157 434 0
-158 434 0
-159 434 0
-434 159 145 153 154 155 157 158 156 0
-153 435 0
-160 435 0
-161 435 0
-162 435 0
-163 435 0
-164 435 0
-165 435 0
-435 165 153 146 161 160 163 162 164 0
-147 436 0
-154 436 0
-160 436 0
-166 436 0
-167 436 0
-168 436 0
-169 436 0
-170 436 0
-436 167 154 166 160 147 170 169 168 0
-155 437 0
-156 438 0
-438 156 177 167 149 171 162 176 175 0
-157 439 0
-172 439 0
-175 439 0
-178 439 0
-179 439 0
-439 178 157 168 163 150 172 175 179 0
440 -158 0
-159 441 0
-170 441 0
-177 441 0
-441 179 159 152 170 174 177 165 180 0
187 190 216 207 203 193 186 188 181 183 184 196 189 185 197 191 182 195 199 200 201 194 192 204 205 206 202 208 209 210 211 212 213 214 215 198 0
671 -181 0
-671 672 0
-672 673 0
-183 -672 0
-183 673 0
-673 674 0
-674 675 0
-675 676 0
-676 677 0
-677 678 0
-678 679 0
-678 -189 0
-189 679 0
-679 680 0
-679 -190 0
680 -190 0
-680 681 0
-191 -680 0
-191 681 0
682 -681 0
-681 -192 0
682 -192 0
683 -682 0
-193 -682 0
-193 683 0
684 -683 0
-194 -683 0
684 -194 0
685 -684 0
-195 -684 0
685 -195 0
-196 -685 0
-181 442 0
-182 442 0
-183 442 0
-184 442 0
-185 442 0
-186 442 0
-187 442 0
-188 442 0
-442 182 181 183 184 185 186 187 188 0
-181 443 0
-189 443 0
-190 443 0
-191 443 0
-192 443 0
-193 443 0
-194 443 0
-195 443 0
-443 193 181 189 192 191 194 195 190 0
-189 444 0
-196 444 0
-197 444 0
-198 444 0
-199 444 0
-200 444 0
-201 444 0
-444 189 197 201 196 182 198 199 200 0
-190 445 0
-202 445 0
-203 445 0
-204 445 0
-205 445 0
-206 445 0
-445 190 203 196 204 183 202 205 206 0
-191 446 0
-446 191 202 197 184 209 208 207 210 0
447 -192 0
-447 192 213 185 198 211 207 212 203 0
-193 448 0
-448 193 204 186 199 214 208 211 215 0
449 -194 0
-188 450 0
-195 450 0
-201 450 0
-206 450 0
-210 450 0
-213 450 0
-215 450 0
-216 450 0
-450 195 216 201 188 210 213 215 206 0
226 230 251 250 241 242 222 225 217 220 219 221 232 233 244 243 218 234 235 236 237 228 227 238 239 240 229 231 245 246 247 248 249 224 223 252 0
706 -217 0
707 -706 0
-218 -706 0
-218 707 0
708 -707 0
-219 -707 0
-219 708 0
709 -708 0
-220 709 0
710 -709 0
-221 710 0
711 -710 0
-222 711 0
712 -711 0
-223 712 0
713 -712 0
-224 713 0
714 -713 0
-713 -225 0
714 -225 0
715 -714 0
-226 -714 0
715 -226 0
716 -715 0
-227 -715 0
717 -716 0
-228 -716 0
718 -717 0
-717 -229 0
719 -718 0
720 -719 0
721 -720 0
-232 -720 0
722 -721 0
-233 -721 0
723 -722 0
-234 -722 0
724 -723 0
-235 -723 0
725 -724 0
-236 -724 0
726 -725 0
-237 -725 0
727 -726 0
-238 -726 0
728 -727 0
-239 -727 0
729 -728 0
-240 -728 0
730 -729 0
-241 -729 0
731 -730 0
-242 -730 0
732 -731 0
-243 -731 0
733 -732 0
734 -733 0
735 -734 0
736 -735 0
-247 -735 0
737 -736 0
-248 -736 0
-249 -737 0
-217 451 0
-218 451 0
-219 451 0
-220 451 0
-221 451 0
-222 451 0
-223 451 0
-224 451 0
-451 217 219 218 220 221 222 223 224 0
452 -217 0
452 -225 0
-226 452 0
-227 452 0
-228 452 0
-229 452 0
-230 452 0
-231 452 0
229 -452 217 225 227 228 226 230 231 0
453 -225 0
-232 453 0
-233 453 0
-234 453 0
-235 453 0
-236 453 0
-237 453 0
-453 225 237 218 233 232 236 234 235 0
-238 454 0
-239 454 0
-240 454 0
-241 454 0
-242 454 0
-454 226 219 242 232 239 238 240 241 0
-455 227 246 220 233 238 244 243 245 0
-456 221 249 228 234 239 243 248 247 0
-457 229 250 222 235 240 244 247 251 0
-249 459 0
-459 231 252 237 242 246 224 249 251 0
275 274 261 262 260 256 257 258 259 254 253 267 255 264 265 266 263 270 271 272 273 268 269 276 277 278 279 280 281 282 283 284 285 286 287 288 0
741 -253 0
-741 742 0
-254 -741 0
-742 743 0
-743 744 0
-744 745 0
-745 746 0
-746 747 0
-747 748 0
-748 749 0
749 -261 0
-749 750 0
-749 -262 0
-750 751 0
-751 752 0
-752 753 0
-265 -752 0
-753 754 0
-754 755 0
-755 756 0
-268 -755 0
-756 757 0
-269 -756 0
-757 758 0
-270 -757 0
-758 759 0
-271 -758 0
-759 760 0
-272 -759 0
-760 761 0
-273 -760 0
-761 762 0
-274 -761 0
-762 763 0
-275 -762 0
-763 764 0
-276 -763 0
-764 765 0
-765 766 0
767 -766 0
-766 -279 0
768 -767 0
-280 -767 0
769 -768 0
-281 -768 0
770 -769 0
-282 -769 0
771 -770 0
-283 -770 0
772 -771 0
-284 -771 0
773 -772 0
-285 -772 0
774 -773 0
-286 -773 0
-287 -774 0
-253 460 0
-254 460 0
-255 460 0
-256 460 0
-257 460 0
-258 460 0
-259 460 0
-260 460 0
-460 255 254 253 256 257 258 259 260 0
-253 461 0
-261 461 0
-262 461 0
-263 461 0
-264 461 0
-265 461 0
-266 461 0
-267 461 0
262 266 -461 253 263 264 265 261 267 0
-268 462 0
-269 462 0
-270 462 0
-271 462 0
-272 462 0
-273 462 0
-462 268 254 261 271 272 269 270 273 0
-463 262 255 278 268 274 276 275 277 0
-464 279 263 256 269 274 281 280 282 0
-465 279 264 257 270 275 285 284 283 0
-466 258 280 265 271 276 286 283 287 0
-468 288 267 260 273 282 287 285 278 0
311 310 297 295 291 294 296 299 289 292 293 300 304 305 301 302 290 306 307 308 309 298 303 312 313 314 315 316 317 318 319 320 321 322 323 324 0
-289 776 0
-776 777 0
-776 -290 0
-290 777 0
-777 778 0
-291 -777 0
-291 778 0
-778 779 0
-779 780 0
-780 781 0
-294 -780 0
-781 782 0
-782 783 0
-783 784 0
-783 -297 0
784 -297 0
-784 785 0
-298 -784 0
-785 786 0
-299 -785 0
787 -786 0
-786 -300 0
788 -787 0
-301 -787 0
789 -788 0
-302 -788 0
790 -789 0
-303 -789 0
791 -790 0
-304 -790 0
792 -791 0
-305 -791 0
793 -792 0
-306 -792 0
794 -793 0
-307 -793 0
795 -794 0
-308 -794 0
796 -795 0
-309 -795 0
797 -796 0
-310 -796 0
798 -797 0
-311 -797 0
799 -798 0
-312 -798 0
800 -799 0
-313 -799 0
801 -800 0
-314 -800 0
802 -801 0
803 -802 0
-316 -802 0
804 -803 0
805 -804 0
806 -805 0
-319 -805 0
807 -806 0
808 -807 0
809 -808 0
-322 -808 0
-323 -809 0
-289 469 0
-290 469 0
-291 469 0
-292 469 0
-293 469 0
-294 469 0
-295 469 0
-296 469 0
-469 292 289 290 291 294 293 295 296 0
-289 470 0
-297 470 0
-298 470 0
-299 470 0
-300 470 0
-301 470 0
-302 470 0
-303 470 0
300 302 -470 297 289 298 303 299 301 0
-290 471 0
-297 471 0
-304 471 0
-305 471 0
-306 471 0
-307 471 0
-308 471 0
-309 471 0
-471 305 297 290 306 309 308 307 304 0
310 314 298 304 291 -472 311 312 313 0
-475 322 301 294 307 312 316 319 323 0
-296 477 0
324 -477 303 296 309 314 318 321 323 0
342 340 326 325 349 339 333 332 331 330 327 348 329 335 336 337 334 328 343 344 345 346 338 356 355 350 347 352 351 354 353 341 357 358 359 360 0
-325 811 0
-811 812 0
-326 -811 0
-812 813 0
-813 814 0
-814 815 0
-815 816 0
-816 817 0
-817 818 0
-818 819 0
-819 820 0
-820 821 0
-821 822 0
-822 823 0
-823 824 0
-824 825 0
-825 826 0
-825 -340 0
-826 827 0
-341 -826 0
-827 828 0
-342 -827 0
-828 829 0
-343 -828 0
-829 830 0
-344 -829 0
-830 831 0
-345 -830 0
-831 832 0
-346 -831 0
-832 833 0
-347 -832 0
834 -833 0
-833 -348 0
835 -834 0
-349 -834 0
-350 -835 0
-325 478 0
-326 478 0
-327 478 0
-328 478 0
-329 478 0
-330 478 0
-331 478 0
-332 478 0
-478 326 327 325 328 329 330 331 332 0
-333 479 0
-334 479 0
-335 479 0
-336 479 0
-337 479 0
-338 479 0
-339 479 0
335 338 325 333 -479 334 337 336 339 0
-333 480 0
480 -340 0
-341 480 0
-342 480 0
-343 480 0
-344 480 0
-345 480 0
-480 340 326 345 342 343 333 341 344 0
-334 481 0
481 -340 0
-346 481 0
-350 481 0
348 349 334 340 327 -481 347 346 350 0
-335 482 0
-341 482 0
483 -356 0
483 -357 0
-337 484 0
-343 484 0
-355 484 0
-360 486 0
-486 357 350 339 345 354 332 359 360 0
361 369 377 376 365 367 363 366 364 371 368 362 372 374 373 375 370 378 379 380 381 382 383 384 385 386 387 388 389 390 391 392 393 394 395 396 0
-361 487 0
-362 487 0
-363 487 0
-365 487 0
-366 487 0
-367 487 0
-369 488 0
-370 488 0
-372 488 0
-373 488 0
-374 488 0
369 374 361 -488 371 370 373 372 375 0
-376 489 0
-380 489 0
362 369 -489 376 378 377 379 380 381 0
-370 490 0
-376 490 0
-385 490 0
382 363 376 370 -490 383 384 385 386 0
-371 491 0
-377 491 0
-372 492 0
-378 492 0
-391 492 0
-373 493 0
-379 493 0
391 384 -493 373 366 388 379 394 395 0
-374 494 0
-380 494 0
-494 385 374 389 396 380 392 394 367 0
-881 0
-882 0
-883 0
-884 0
885 0
-886 0
-887 0
-888 0
-889 0
988 0
-989 -1 881 0
-989 -2 881 0
-989 -3 881 0
-989 -4 881 0
-989 -5 881 0
-989 -6 881 0
-989 -7 881 0
-989 -8 881 0
-989 -9 882 0
-989 -10 882 0
-989 -11 882 0
-989 -12 882 0
-989 -13 882 0
-989 -14 882 0
-989 -15 882 0
-989 -16 883 0
-989 -17 883 0
-989 -18 883 0
-989 -19 883 0
-989 -20 883 0
-989 -21 883 0
-989 -22 884 0
-989 -23 884 0
-989 -24 884 0
-989 -25 884 0
-26 -989 884 0
989 -29 888 -885 0
-31 -989 886 0
-32 -989 886 0
-33 -989 886 0
-34 -989 887 0
-35 -989 887 0
-36 -989 888 0
-890 397 881 0
-891 398 882 0
-892 399 883 0
400 -893 884 0
-894 -401 -989 -885 0
-895 402 886 0
-896 403 887 0
-898 405 889 0
989 -898 889 0
-990 -44 890 0
-990 -51 891 0
-990 -57 892 0
-62 -990 893 0
-990 -66 894 0
-69 -990 895 0
-71 -990 896 0
-900 407 891 0
-907 414 898 0
-907 990 898 0
-991 -87 900 0
-916 423 907 0
-916 991 907 0
-925 432 916 0
-934 925 441 0
-943 934 450 0
943 -952 459 0
952 -961 468 0
961 -970 477 0
970 -979 486 0
495 979 -988 0
-1000 0
-1004 0
-1008 0
1107 0
-30 -1108 1004 0
-1009 397 1000 0
-1017 405 1008 0
1108 -1017 1008 0
-1109 -37 1009 0
-39 -1109 1009 0
-40 -1109 1009 0
-1109 -41 1009 0
-42 -1109 1009 0
-43 -1109 1009 0
-1026 414 1017 0
-1026 1109 1017 0
-1035 423 1026 0
432 1035 -1044 0
1044 -1053 441 0
1053 -1062 450 0
1062 -1071 459 0
1071 -1080 468 0
1080 -1089 477 0
1089 -1098 486 0
495 1098 -1107 0
1125 0
-1224 0
1134 403 -1125 0
1143 412 -1134 0
1152 -1143 421 0
1161 -1152 430 0
1170 -1161 439 0
1179 -1170 448 0
1188 -1179 457 0
1197 -1188 466 0
1206 -1197 475 0
-1206 1215 484 0
-379 -1237 -1215 0
-384 -1237 -1215 0
-1215 1237 1224 0
1239 0
-1240 0
1246 0
1345 0
1248 398 -1239 0
-1249 399 1240 0
405 1255 -1246 0
1347 -45 -1248 1249 0
-1347 -1264 -414 -1255 0
1264 -1273 423 0
1273 432 -1282 0
1282 -1291 441 0
1291 -1300 450 0
1300 -1309 459 0
1309 -1318 468 0
1318 -1327 477 0
1327 -1336 486 0
495 1336 -1345 0
-1357 0
-1456 0
-1358 0
-1359 0
-1458 0
-1360 0
-1459 0
1361 0
-1460 0
-1362 0
-1461 0
-1363 0
-1462 0
-1364 0
1463 0
1365 0
-1465 -1 1357 0
-1465 -2 1357 0
-1465 -3 1357 0
-1465 -4 1357 0
-1465 -5 1357 0
-1465 -6 1357 0
-1465 -7 1357 0
-1465 -8 1357 0
-1465 -9 1358 0
-1465 -10 1358 0
-1465 -11 1358 0
-1465 -12 1358 0
-1465 -13 1358 0
-1465 -14 1358 0
-1465 -15 1358 0
-1465 -16 1359 0
-1465 -17 1359 0
-1465 -18 1359 0
-1465 -19 1359 0
-1465 -20 1359 0
-1465 -21 1359 0
-1465 -22 1360 0
-1465 -23 1360 0
-1465 -24 1360 0
-1465 -25 1360 0
-1465 -26 1360 0
-27 1465 1362 -1361 0
-28 1465 1363 -1361 0
-29 1465 1364 -1361 0
-30 -1465 -1365 0
-31 -1465 1362 0
-32 -1465 1362 0
-33 -1465 1362 0
-34 -1465 1363 0
-35 -1465 -1365 0
-36 -1465 -1365 0
-1367 398 1358 0
1370 1465 -1361 0
1371 -402 -1465 1362 0
1372 -403 -1465 1363 0
-404 1373 -1465 1364 0
405 1374 -1365 0
1374 1465 -1365 0
-405 -1465 -1374 -1365 0
-1466 -44 -1374 0
-1466 -51 -1374 0
-57 -1466 -1374 0
-62 -1466 -1374 0
-66 -1466 -1374 0
-69 -1466 -1374 0
-71 -1466 -1374 0
-72 -1466 -1374 0
-1376 407 1367 0
1379 1466 -1370 0
1466 1380 -1371 0
1466 -1372 1381 0
1382 1466 -1373 0
414 1383 -1374 0
1466 1383 -1374 0
-414 -1383 -1374 -1466 0
-80 -1467 -1383 0
-83 -1467 -1379 0
-1467 -87 -1383 0
-93 -1467 -1383 0
-98 -1467 -1383 0
-1380 -99 -1467 0
-1467 -102 -1383 0
-105 -1467 -1383 0
-107 -1467 -1383 0
-108 -1467 -1383 0
-1467 1376 1385 -416 0
1388 419 -1379 0
1467 1388 -1379 0
-1380 1389 420 0
-420 -1467 1380 1389 0
1390 -1381 421 0
-1381 1390 1467 0
1392 423 -1383 0
1467 1392 -1383 0
-116 -1392 -1468 0
-123 -1392 -1468 0
-129 -1468 -1392 0
-134 -1468 -1392 0
-138 -1468 -1392 0
-141 -1468 -1392 0
-143 -1468 -1392 0
-144 -1468 -1392 0
1397 428 -1388 0
1398 -1389 429 0
-1390 1399 430 0
432 1401 -1392 0
1468 -1392 1401 0
-152 -1469 -1401 0
-159 -1469 -1401 0
-165 -1469 -1401 0
-170 -1469 -1401 0
-174 -1469 -1401 0
-177 -1469 -1401 0
-179 -1469 -1401 0
-180 -1469 -1401 0
1406 437 -1397 0
438 -1398 1407 0
1408 -1399 439 0
1410 441 -1401 0
1410 1469 -1401 0
-188 -1470 -1410 0
-1470 -195 -1410 0
-201 -1470 -1410 0
-206 -1470 -1410 0
-210 -1470 -1410 0
-213 -1470 -1410 0
-215 -1470 -1410 0
-1470 -216 -1410 0
1415 446 -1406 0
-1407 1416 447 0
448 -1408 1417 0
1419 450 -1410 0
1419 1470 -1410 0
-224 -1471 -1419 0
-231 -1471 -1419 0
-237 -1471 -1419 0
-1471 -242 -1419 0
-246 -1471 -1419 0
-249 -1471 -1419 0
-251 -1471 -1419 0
-252 -1471 -1419 0
1424 -1415 455 0
-1416 456 1425 0
1426 -1417 457 0
1428 459 -1419 0
1471 1428 -1419 0
-260 -1472 -1428 0
-267 -1472 -1428 0
-273 -1472 -1428 0
-278 -1472 -1428 0
-282 -1472 -1428 0
-285 -1472 -1428 0
-287 -1472 -1428 0
-288 -1472 -1428 0
1433 464 -1424 0
465 1434 -1425 0
466 1435 -1426 0
1437 -1428 468 0
1437 1472 -1428 0
-296 -1473 -1437 0
-303 -1473 -1437 0
-309 -1473 -1437 0
-314 -1473 -1437 0
-318 -1473 -1437 0
-321 -1473 -1437 0
-323 -1473 -1437 0
-324 -1473 -1437 0
1442 473 -1433 0
1443 -1434 474 0
475 -1435 1444 0
1446 477 -1437 0
1473 1446 -1437 0
-1474 -325 1438 0
1438 -329 -1474 0
1439 -336 -1474 0
-338 1439 -1474 0
-339 1439 -1474 0
1440 -342 -1474 0
1440 -344 -1474 0
-347 -1474 1441 0
-1474 1441 -348 0
-349 -1474 1441 0
-350 1441 -1474 0
-351 -1474 1442 0
-352 -1474 1442 0
-353 -1474 1442 0
-354 -1474 1442 0
-356 -1474 1443 0
-357 -1474 1443 0
-357 -1474 -1446 0
-358 -1474 1444 0
-359 -1474 1444 0
-1474 -478 1438 1447 0
1440 -1474 -480 1449 0
-1441 481 1450 0
-1474 -481 1450 1441 0
-1442 1451 482 0
1451 -1442 1474 0
-482 1442 1451 -1474 0
-1443 1452 1474 0
484 -1444 1453 0
-484 -1474 1453 1444 0
1455 -1446 486 0
-1455 1446 486 0
1474 1446 -1455 0
-361 1447 -1475 0
-362 1447 -1475 0
-363 1447 -1475 0
-364 1447 -1475 0
-365 1447 -1475 0
-366 1447 -1475 0
-367 1447 -1475 0
-368 1447 -1475 0
-369 1448 -1475 0
-374 1448 -1475 0
-375 -1455 -1475 0
-381 -1455 -1475 0
-382 1450 -1475 0
-383 1450 -1475 0
-384 1450 -1475 0
-385 1450 -1475 0
-386 1450 -1475 0
-387 1451 -1475 0
-388 1451 -1475 0
-389 1451 -1475 0
-390 1451 -1475 0
-391 1452 -1475 0
-392 -1475 1452 0
-393 -1455 -1475 0
-394 1453 -1475 0
-395 -1455 -1475 0
-396 1454 -1475 0
-396 -1455 -1475 0
487 -1447 1456 0
1475 -1449 1458 0
-489 -1475 1449 1458 0
490 -1450 1459 0
-490 1450 -1475 1459 0
491 -1451 1460 0
-491 1451 -1475 1460 0
-1452 492 1461 0
-1475 -492 1452 1461 0
-1453 493 1462 0
-493 1453 -1475 1462 0
1454 1475 -1463 0
3026 0
-3125 0
3035 400 -3026 0
3044 409 -3035 0
3053 418 -3044 0
3062 -3053 427 0
3071 -3062 436 0
3080 -3071 445 0
3089 -3080 454 0
-3138 -3089 -262 0
3098 -3089 3138 0
-3098 3107 472 0
-3107 3116 481 0
490 -3116 3125 0
-3856 0
-3955 0
3858 0
-3957 0
-3865 397 3856 0
3867 399 -3858 0
-3874 406 3865 0
3876 408 -3867 0
-3883 415 3874 0
-3966 3874 -415 3883 0
3885 417 -3876 0
3885 3966 -3876 0
-3883 3892 424 0
-3892 424 3883 0
-3967 3883 -424 3892 0
3894 426 -3885 0
3894 -3885 3967 0
-3968 -145 3892 0
-3892 3901 433 0
-3901 3892 433 0
3903 435 -3894 0
3903 3968 -3894 0
-3969 -181 3901 0
-3901 3910 442 0
-3910 3901 442 0
3912 -3903 444 0
3912 3969 -3903 0
-3910 3919 451 0
-3919 3910 451 0
3921 -3912 453 0
-3919 3928 460 0
-3928 3919 460 0
-3971 -460 3928 3919 0
3930 -3921 462 0
3930 3971 -3921 0
-3972 -297 -3930 0
-3928 3937 469 0
-3937 3928 469 0
3939 -3930 471 0
3939 3972 -3930 0
-3973 -333 -3939 0
-3937 3946 478 0
3937 478 -3946 0
3948 -3939 480 0
3973 3948 -3939 0
-362 -3948 -3974 0
-3948 -369 -3974 0
487 -3946 3955 0
-487 -3974 3946 3955 0
-3948 3974 3957 0
-4332 0
-4431 0
4333 0
-4432 0
4334 0
4335 0
4336 0
4435 0
4337 0
4436 0
-4338 0
4437 0
4339 0
4340 0
-4440 -10 -4335 0
-11 -4440 -4336 0
-12 -4440 -4337 0
-14 -4440 -4339 0
-15 -4440 -4340 0
-22 -4440 -4336 0
-23 -4440 -4337 0
-24 4440 4338 -4335 0
-25 -4440 -4339 0
-4440 -26 -4340 0
-4440 -27 -4337 0
-28 4440 4338 -4336 0
-29 -4440 -4339 0
-30 -4440 -4340 0
-31 4440 4338 -4337 0
-32 -4440 -4339 0
-33 -4440 -4340 0
-34 -4440 -4339 0
-35 -4440 -4340 0
-36 -4440 -4340 0
-4341 397 4332 0
4342 398 -4333 0
4342 4440 -4333 0
-398 -4440 -4342 -4333 0
4343 399 -4334 0
4344 400 -4335 0
4344 4440 -4335 0
4345 4440 -4336 0
4346 402 -4337 0
4346 4440 -4337 0
-4347 403 4338 0
4348 404 -4339 0
4348 4440 -4339 0
4349 405 -4340 0
4349 4440 -4340 0
-37 -4441 4341 0
-44 -4441 -4349 0
-4441 -45 -4343 0
-46 -4441 -4344 0
-47 -4441 4342 0
-47 -4441 -4345 0
-48 -4441 -4346 0
-50 -4441 -4348 0
-51 -4441 -4349 0
-4441 -57 -4349 0
-62 -4441 -4349 0
-66 -4441 -4349 0
-69 -4441 -4349 0
-71 -4441 -4349 0
-72 -4441 -4349 0
-4350 406 4341 0
407 4351 -4342 0
4351 4441 -4342 0
4352 408 -4343 0
4353 409 -4344 0
4353 4441 -4344 0
4355 411 -4346 0
-4356 412 4347 0
4358 414 -4349 0
4358 4441 -4349 0
-4442 -81 -4352 0
-4442 -82 -4353 0
-84 -4442 -4355 0
-4442 -87 -4358 0
-4359 415 4350 0
-4442 4350 -415 4359 0
-4351 4360 416 0
-4351 4360 4442 0
4361 417 -4352 0
4362 418 -4353 0
4364 420 -4355 0
-4365 4356 421 0
-4443 -4361 -117 0
-118 -4362 -4443 0
-4364 -4443 -120 0
-4359 4368 424 0
-4368 424 4359 0
-4443 4359 -424 4368 0
-4360 425 4369 0
-4360 4443 4369 0
4370 426 -4361 0
4371 427 -4362 0
-4364 4373 429 0
-4374 4365 430 0
-4444 -145 4368 0
-4444 -153 -4370 0
-4371 -154 -4444 0
-155 -4372 -4444 0
-4373 -156 -4444 0
-157 -4374 -4444 0
-4375 -158 -4444 0
-4376 -159 -4444 0
-4368 4377 433 0
-4377 4368 433 0
-4369 4378 434 0
-4369 4378 4444 0
4379 435 -4370 0
4380 -4371 436 0
4372 -4381 437 0
-4373 4382 438 0
4373 -4382 438 0
-438 -4373 -4444 -4382 0
-4383 4374 439 0
-439 4383 -4444 4374 0
-4445 -181 4377 0
-189 -4445 -4379 0
-4445 -190 -4380 0
-191 -4445 -4381 0
-4445 -4382 -192 0
-193 -4445 -4383 0
-4384 -194 -4445 0
-4385 -195 -4445 0
-4377 442 4386 0
-4386 4377 442 0
-4378 4387 443 0
-4378 4445 4387 0
-4445 -443 4378 4387 0
4388 -4379 444 0
4389 -4380 445 0
-4390 4381 4445 0
4391 -4382 447 0
-4391 4382 447 0
-4392 4383 448 0
-4392 4383 4445 0
-217 4386 -4446 0
-4388 -225 -4446 0
-226 -4389 -4446 0
-4386 4395 451 0
-4395 4386 451 0
4396 452 -4387 0
4446 4396 -4387 0
4397 -4388 453 0
-4399 4390 455 0
-4399 4390 4446 0
4400 -4391 456 0
4391 -4400 456 0
-4401 4392 457 0
-4447 -253 4395 0
-4447 -261 -4397 0
-4395 4404 460 0
-4404 4395 460 0
-4396 4405 461 0
-4396 4447 4405 0
-4408 4399 4447 0
4409 -4400 465 0
4400 -4409 465 0
-4410 4401 466 0
-4448 -289 4404 0
-4404 4413 469 0
-4405 4414 470 0
-4405 4448 4414 0
-4417 4408 473 0
4448 -4417 4408 0
4409 474 -4418 0
-474 -4409 -4418 -4448 0
-4419 4410 475 0
-4413 4422 478 0
-4414 4423 479 0
4417 -4426 482 0
483 4418 -4427 0
4419 484 -4428 0
-388 4426 -4450 0
-391 -4450 4427 0
-394 4428 -4450 0
-395 4428 -4450 0
487 -4422 4431 0
488 -4423 4432 0
4426 491 -4435 0
4450 4426 -4435 0
492 4427 -4436 0
4427 4450 -4436 0
-4427 -4450 -492 -4436 0
493 4428 -4437 0
-4689 0
4690 0
-4789 0
4691 0
-4790 0
4692 0
4791 0
4695 0
4696 0
4697 0
-13 -4797 -4695 0
-4797 -24 -4695 0
-4797 -28 -4695 0
-4797 -31 -4695 0
-4797 -34 -4696 0
-35 -4797 -4697 0
-4698 397 4689 0
4699 398 -4690 0
4699 4797 -4690 0
4700 399 -4691 0
4701 400 -4692 0
4701 4797 -4692 0
4704 4797 -4695 0
-4798 -46 -4701 0
-4798 -49 -4704 0
-4707 406 4698 0
4708 4798 -4699 0
4709 408 -4700 0
4710 409 -4701 0
-4799 -81 -4709 0
-4716 415 4707 0
-4708 4717 4799 0
4718 417 -4709 0
4719 418 -4710 0
-4800 4716 -109 0
-4800 -4718 -117 0
-4725 424 4716 0
-4717 4800 4726 0
4727 426 -4718 0
4728 -4719 427 0
-4801 -145 4725 0
-4734 4725 433 0
-4726 4735 434 0
-4726 4801 4735 0
4736 435 -4727 0
4737 -4728 436 0
-4743 4734 442 0
-4735 4744 443 0
4745 -4736 444 0
4746 -4737 445 0
-4752 4743 451 0
-4744 4753 452 0
4754 -4745 453 0
4755 -4746 454 0
-4804 -4755 -262 0
-4761 4752 460 0
-4753 4762 461 0
4763 -4754 462 0
4764 -4755 4804 0
-4805 -4763 -297 0
-4770 4761 469 0
-4762 4771 470 0
4772 4805 -4763 0
4773 -4764 472 0
-4806 -325 4770 0
-4771 4780 479 0
4806 4781 -4772 0
4782 -4773 481 0
488 -4780 4789 0
4807 -4781 4790 0
-4782 -4807 -490 -4791 0
-5165 0
5166 0
-5265 0
5167 0
5169 0
5171 0
-5273 -11 -5169 0
-5174 397 5165 0
5175 398 -5166 0
5273 5175 -5166 0
5176 399 -5167 0
5180 403 -5171 0
-5274 -49 -5180 0
-5183 406 5174 0
5184 5274 -5175 0
5185 408 -5176 0
-5275 -81 -5185 0
-5192 415 5183 0
-5184 5193 5275 0
-5276 5192 -109 0
-5193 5202 5276 0
-5202 5211 434 0
-5211 5220 443 0
-5220 5229 452 0
-5229 5238 461 0
-5238 5247 470 0
-5247 5256 479 0
488 -5256 5265 0
-5403 0
5404 0
-5503 0
5405 0
5406 0
-5408 0
5507 0
-5412 397 5403 0
5413 398 -5404 0
5414 399 -5405 0
5415 400 -5406 0
-5417 402 5408 0
-5417 -5512 -48 0
5416 -63 -5512 0
-67 -5512 5417 0
-68 -5512 5417 0
-69 -5512 5417 0
-5421 406 5412 0
407 5422 -5413 0
5422 5512 -5413 0
5423 408 -5414 0
5424 409 -5415 0
-5512 -5416 -410 -5425 0
-5426 411 5417 0
-5426 5512 5417 0
-5513 -82 -5424 0
-5513 -83 -5425 0
-85 -5513 -5427 0
-86 -5513 -5428 0
-5513 -87 -5429 0
-5430 415 5421 0
5431 -5422 416 0
5431 5513 -5422 0
5432 417 -5423 0
5433 418 -5424 0
-5435 420 5426 0
-5514 -5432 -117 0
-5514 -118 -5433 0
-119 -5434 -5514 0
-5435 -5514 -120 0
-121 -5436 -5514 0
-122 -5437 -5514 0
-5438 -5514 -123 0
-5436 -132 -5514 0
-5439 424 5430 0
-5431 425 5440 0
-5431 5514 5440 0
5441 426 -5432 0
5442 -5433 427 0
-5444 5435 429 0
-5515 -145 5439 0
-5515 -153 -5441 0
-5515 -5442 -154 0
-5447 -5515 -159 0
-5448 5439 433 0
-5440 5515 5449 0
5450 435 -5441 0
5451 -5442 436 0
5443 -5452 437 0
-437 -5443 -5515 -5452 0
-5453 5444 438 0
-5453 5444 5515 0
-5516 -181 5448 0
-5516 -189 -5450 0
-5516 -5451 -190 0
-5457 5448 442 0
-5449 5458 443 0
-5449 5516 5458 0
5459 -5450 444 0
5452 -5461 446 0
-5462 5453 447 0
-5462 5453 5516 0
-5517 5457 -217 0
-5517 -5459 -225 0
-5466 5457 451 0
-5458 5467 452 0
-5458 5517 5467 0
5461 -5470 455 0
-5471 5462 456 0
-5518 -253 5466 0
-5467 5476 461 0
-5467 5518 5476 0
5470 -5479 464 0
-5480 5471 465 0
-5476 5485 470 0
-5489 5480 474 0
-5485 5494 479 0
5489 483 -5498 0
488 -5494 5503 0
492 5498 -5507 0
5522 0
-5621 0
5523 0
5622 0
5524 0
5525 0
5526 0
-5527 0
5528 0
5529 0
5530 0
-5630 -1 -5523 0
-5630 -2 -5524 0
-5630 -3 -5525 0
-5630 -4 -5526 0
-5630 -6 -5528 0
-5630 -7 -5529 0
-5630 -8 -5530 0
-5630 -9 -5524 0
-5630 -10 -5525 0
-5630 -11 -5526 0
-5630 -13 -5528 0
-5630 -14 -5529 0
-5630 -15 -5530 0
-5630 -16 -5525 0
-5630 -17 -5526 0
-5630 -19 -5528 0
-5630 -20 -5529 0
-5630 -21 -5530 0
-5630 -22 -5526 0
-5630 -24 -5528 0
-5630 -25 -5529 0
-5630 -26 -5530 0
-5630 -28 -5528 0
-5630 -29 -5529 0
-5630 -30 -5530 0
-5630 -31 -5528 0
-5630 -32 -5529 0
-5630 -33 -5530 0
-5630 -34 -5529 0
-5630 -35 -5530 0
-5630 -36 -5530 0
5531 397 -5522 0
5531 5630 -5522 0
5532 398 -5523 0
5532 5630 -5523 0
5533 399 -5524 0
5534 400 -5525 0
401 5535 -5526 0
5535 5630 -5526 0
-5535 -5630 -401 -5526 0
-5536 402 5527 0
5537 5630 -5528 0
5538 5630 -5529 0
5539 5630 -5530 0
-37 -5631 -5532 0
-5631 -45 -5533 0
-5631 -46 -5534 0
-5631 -47 -5535 0
-5631 -49 -5537 0
-50 -5631 -5538 0
-52 -5631 -5534 0
-61 -5631 -5538 0
-64 -5631 -5537 0
-65 -5631 -5538 0
-5631 -66 -5539 0
-68 -5631 5536 0
-70 -5631 -5538 0
-71 -5631 -5539 0
-72 -5631 -5539 0
5540 406 -5531 0
5540 5631 -5531 0
407 5541 -5532 0
5541 5631 -5532 0
5542 408 -5533 0
5543 409 -5534 0
5544 410 -5535 0
5544 5631 -5535 0
-5545 411 5536 0
5546 412 -5537 0
5546 5631 -5537 0
5547 413 -5538 0
5547 5631 -5538 0
5548 5631 -5539 0
-5632 -5541 -73 0
-74 -5632 -5542 0
-5632 -81 -5542 0
-5632 -82 -5543 0
-83 -5632 -5544 0
-84 -5545 -5632 0
-85 -5632 -5546 0
-86 -5632 -5547 0
-87 -5632 -5548 0
5549 415 -5540 0
5632 5549 -5540 0
5550 -5541 416 0
5550 5632 -5541 0
5551 417 -5542 0
5551 5632 -5542 0
5552 418 -5543 0
-5550 -5633 -109 0
-110 -5633 -5551 0
-5551 -5633 -117 0
-118 -5552 -5633 0
-5554 -120 -5633 0
5558 424 -5549 0
5633 5558 -5549 0
5633 -5550 5559 0
5560 426 -5551 0
5561 -5552 427 0
-5634 -145 -5559 0
-5634 -153 -5560 0
-5561 -154 -5634 0
-5558 5567 433 0
5634 -5558 5567 0
5568 -5559 5634 0
5569 -5560 435 0
-5635 -181 -5568 0
-5635 -189 -5569 0
-5567 5576 442 0
5635 -5567 5576 0
5568 -5577 443 0
5635 5577 -5568 0
5578 -5569 444 0
-5636 -5577 -217 0
-5576 5585 451 0
5636 -5576 5585 0
5577 -5586 452 0
5587 -5578 453 0
-5585 5594 460 0
5586 -5595 461 0
5596 -5587 462 0
-5594 5603 469 0
5595 -5604 470 0
-5603 5612 478 0
5604 -5613 479 0
487 -5612 5621 0
488 5613 -5622 0
-5998 0
-6097 0
5999 0
-6098 0
6000 0
6099 0
-6001 0
6100 0
6002 0
6003 0
6004 0
6005 0
6006 0
-6106 -1 5998 0
-6106 -2 5998 0
-6106 -3 5998 0
-6106 -4 5998 0
-6106 -5 5998 0
-6106 -6 5998 0
-6106 -7 5998 0
-6106 -8 5998 0
-6106 -9 -6000 0
-10 6106 6001 -5999 0
-6106 -11 -6002 0
-6106 -12 -6003 0
-6106 -13 -6004 0
-6106 -14 -6005 0
-6106 -15 -6006 0
-6106 -17 -6002 0
-18 -6106 -6003 0
-6106 -19 -6004 0
-6106 -20 -6005 0
-6106 -21 -6006 0
-6106 -22 -6002 0
-6106 -23 -6003 0
-6106 -24 -6004 0
-25 -6106 6001 0
-6106 -26 -6006 0
-6106 -27 -6003 0
-6106 -28 -6004 0
-6106 -29 -6005 0
-6106 -30 -6006 0
-6106 -31 -6004 0
-6106 -32 -6005 0
-6106 -33 -6006 0
-6106 -34 -6005 0
-6106 -35 -6006 0
-6106 -36 -6006 0
-6007 397 5998 0
-6007 6106 5998 0
398 6008 -5999 0
6008 6106 -5999 0
-398 -6106 -6008 -5999 0
6009 399 -6000 0
-6010 400 6001 0
-6010 6106 6001 0
6011 6106 -6002 0
6012 6106 -6003 0
6013 6106 -6004 0
6014 404 -6005 0
6014 6106 -6005 0
6015 6106 -6006 0
-38 -6107 6007 0
-40 -6107 6007 0
-41 -6107 6007 0
-42 -6107 6007 0
-43 -6107 6007 0
-44 -6107 6007 0
-6107 -45 -6009 0
-47 -6107 -6011 0
-48 -6107 -6012 0
-6107 -49 -6013 0
-50 -6107 -6014 0
-51 -6107 -6015 0
-53 -6107 -6011 0
-54 -6107 -6012 0
-55 -6107 -6013 0
-56 -6107 -6014 0
-6107 -57 -6015 0
-58 -6107 6010 0
-59 -6107 6010 0
-60 -6107 6010 0
-61 -6107 6010 0
-62 -6107 6010 0
-63 -6107 -6012 0
-64 -6107 -6013 0
-65 -6107 -6014 0
-6107 -66 -6015 0
-67 -6107 -6013 0
-68 -6107 -6014 0
-69 -6107 -6015 0
-70 -6107 -6014 0
-71 -6107 -6015 0
-72 -6107 -6015 0
-6016 406 6007 0
407 6017 -6008 0
-6017 407 6008 0
6017 6107 -6008 0
-6107 -6017 -407 -6008 0
6018 408 -6009 0
-6019 409 6010 0
-6019 6107 6010 0
6020 6107 -6011 0
6021 6107 -6012 0
6022 6107 -6013 0
6023 6107 -6014 0
6024 6107 -6015 0
-6108 -73 6016 0
-81 -6018 -6108 0
-82 6017 -6108 0
-6019 -82 -6108 0
-83 -6020 -6108 0
-84 -6021 -6108 0
-85 -6022 -6108 0
-86 -6023 -6108 0
-87 -6024 -6108 0
-94 6019 -6108 0
-95 6019 -6108 0
-96 6019 -6108 0
-97 6019 -6108 0
-98 6019 -6108 0
-99 -6021 -6108 0
-100 -6022 -6108 0
-101 -6023 -6108 0
-102 -6024 -6108 0
-103 -6022 -6108 0
-104 -6023 -6108 0
-105 -6024 -6108 0
-106 -6023 -6108 0
-107 -6024 -6108 0
-108 -6024 -6108 0
415 -6025 6016 0
6108 -6025 6016 0
-6108 6025 6016 -415 0
-6017 416 6026 0
-6026 6017 416 0
6108 -6017 6026 0
-6026 -6017 -416 -6108 0
417 -6018 6027 0
418 6019 -6028 0
6108 6019 -6028 0
6026 -117 -6109 0
-6027 -117 -6109 0
-118 -6109 6026 0
-118 -6026 6109 6028 0
-119 6026 -6109 0
-120 6026 -6109 0
-121 6026 -6109 0
-122 6026 -6109 0
-123 6026 -6109 0
-130 -6109 6028 0
-131 -6109 6028 0
-132 -6109 6028 0
-133 -6109 6028 0
-6109 6028 -134 0
424 6034 -6025 0
-6034 424 6025 0
6025 -424 -6109 6034 0
-6026 425 6035 0
425 -6035 6026 0
-6026 6109 6035 0
6109 -6035 6026 0
-6026 -425 -6109 -6035 0
6036 426 -6027 0
-6037 427 6028 0
6109 -6037 6028 0
6037 -6109 -427 6028 0
-6110 -145 6034 0
-6110 -153 -6036 0
-154 -6110 6035 0
-166 -6110 6037 0
-167 -6110 6037 0
-168 -6110 6037 0
-169 -6110 6037 0
-170 -6110 6037 0
-6034 6043 433 0
-6043 6034 433 0
6044 434 -6035 0
6035 -6044 434 0
6044 6110 -6035 0
6035 -434 6044 -6110 0
-6044 -6110 -6035 -434 0
6045 435 -6036 0
6045 6110 -6036 0
-6046 6037 436 0
-6046 6110 6037 0
-6111 -181 6043 0
-189 -6111 -6045 0
-202 -6111 6046 0
-203 -6111 6046 0
-204 -6111 6046 0
-205 -6111 6046 0
-206 -6111 6046 0
-6043 442 6052 0
-6052 6043 442 0
-6044 6053 443 0
6044 -6053 443 0
-6044 6111 6053 0
6054 -6045 444 0
6054 6111 -6045 0
-6055 6046 445 0
-6055 6111 6046 0
-6112 -217 6052 0
-6112 -6054 -225 0
-238 -6112 6055 0
-239 -6112 6055 0
-240 -6112 6055 0
-241 -6112 6055 0
-6112 -242 6055 0
-6052 451 6061 0
-6061 6052 451 0
-6053 6062 452 0
6053 -6062 452 0
-6053 6112 6062 0
-6112 -6062 -452 -6053 0
6063 -6054 453 0
6063 6112 -6054 0
-6112 -6054 -453 -6063 0
454 6055 -6064 0
6112 6055 -6064 0
-253 6061 -6113 0
-6063 -261 -6113 0
6063 -268 -6113 0
-274 -6113 6064 0
-275 -6113 6064 0
-276 -6113 6064 0
-277 -6113 6064 0
-278 -6113 6064 0
-6061 6070 460 0
-6070 6061 460 0
-6062 6071 461 0
-6062 6113 6071 0
6072 -6063 462 0
6063 -6072 462 0
6072 6113 -6063 0
-6072 -462 -6113 -6063 0
463 -6073 6064 0
6113 -6073 6064 0
-289 6070 -6114 0
-6072 -297 -6114 0
6072 -304 -6114 0
6072 -305 -6114 0
-306 6072 -6114 0
-307 6072 -6114 0
-308 6072 -6114 0
-309 6072 -6114 0
-310 -6114 6073 0
-311 -6114 6073 0
-312 -6114 6073 0
-313 -6114 6073 0
-314 -6114 6073 0
-6070 6079 469 0
-6079 6070 469 0
-6071 6080 470 0
-6071 6114 6080 0
6072 -6081 471 0
6114 -6072 6081 0
6072 6114 -6081 0
-6081 -471 -6114 -6072 0
472 -6082 6073 0
6114 -6082 6073 0
-325 -6115 6079 0
6081 -340 -6115 0
-6115 -340 -6082 0
-341 6081 -6115 0
6081 -342 -6115 0
-343 6081 -6115 0
6081 -344 -6115 0
-345 6081 -6115 0
-346 -6115 6082 0
-347 -6115 6082 0
-348 -6115 6082 0
-349 -6115 6082 0
-350 -6115 6082 0
-6079 6088 478 0
6079 478 -6088 0
-6080 6089 479 0
-6080 6115 6089 0
6081 480 -6090 0
6115 6081 -6090 0
-6081 -480 -6115 -6090 0
481 6082 -6091 0
6115 6082 -6091 0
6090 -376 -6116 0
6090 -377 -6116 0
-378 6090 -6116 0
-379 6090 -6116 0
-380 6090 -6116 0
-381 6090 -6116 0
-382 -6116 6091 0
-383 -6116 6091 0
-384 -6116 6091 0
-385 -6116 6091 0
-386 -6116 6091 0
487 -6088 6097 0
488 -6089 6098 0
6090 489 -6099 0
6116 6090 -6099 0
-6116 -6090 -489 -6099 0
6091 490 -6100 0
6091 6116 -6100 0
-6117 0
-6216 0
6118 0
-6217 0
-6119 0
6218 0
6120 0
6121 0
6122 0
6123 0
6124 0
6125 0
-6225 -1 6117 0
-6225 -2 6117 0
-6225 -3 6117 0
-6225 -4 6117 0
-6225 -5 6117 0
-6225 -6 6117 0
-6225 -7 6117 0
-6225 -8 6117 0
-6225 -10 -6120 0
-6225 -11 -6121 0
-6225 -12 -6122 0
-6225 -13 -6123 0
-6225 -14 -6124 0
-6225 -15 -6125 0
-6225 -16 -6120 0
-6225 -17 -6121 0
-6225 -18 -6122 0
-6225 -19 -6123 0
-6225 -20 -6124 0
-6225 -21 -6125 0
-6225 -22 -6121 0
-6225 -23 -6122 0
-6225 -24 -6123 0
-6225 -25 -6124 0
-6225 -26 -6125 0
-6225 -27 -6122 0
-6225 -28 -6123 0
-6225 -29 -6124 0
-6225 -30 -6125 0
-6225 -31 -6123 0
-6225 -32 -6124 0
-6225 -33 -6125 0
-6225 -34 -6124 0
-6225 -35 -6125 0
-6225 -36 -6125 0
-6126 397 6117 0
-6126 6225 6117 0
-6127 -6225 -398 -6118 0
399 -6128 6119 0
-6128 6225 6119 0
6129 400 -6120 0
6129 6225 -6120 0
6130 401 -6121 0
6130 6225 -6121 0
6131 402 -6122 0
6131 6225 -6122 0
6132 403 -6123 0
6132 6225 -6123 0
6133 404 -6124 0
6133 6225 -6124 0
6134 405 -6125 0
6134 6225 -6125 0
-37 -6226 6126 0
-38 -6226 6126 0
-39 -6226 6126 0
-40 -6226 6126 0
-41 -6226 6126 0
-42 -6226 6126 0
-43 -6226 6126 0
-44 -6226 6126 0
6127 -45 -6226 0
-46 -6226 -6129 0
-47 -6226 -6130 0
-48 -6226 -6131 0
-49 -6226 -6132 0
-50 -6226 -6133 0
-51 -6226 -6134 0
-52 -6226 6128 0
-53 -6226 6128 0
-54 -6226 6128 0
-55 -6226 6128 0
-56 -6226 6128 0
-6226 -57 6128 0
-58 -6226 -6130 0
-59 -6226 -6131 0
-60 -6226 -6132 0
-61 -6226 -6133 0
-62 -6226 -6134 0
-63 -6226 -6131 0
-64 -6226 -6132 0
-65 -6226 -6133 0
-66 -6226 -6134 0
-67 -6226 -6132 0
-68 -6226 -6133 0
-69 -6226 -6134 0
-70 -6226 -6133 0
-71 -6226 -6134 0
-72 -6226 -6134 0
-6135 406 6126 0
6226 -6135 6126 0
6135 -406 -6226 6126 0
407 6127 -6136 0
6127 6226 -6136 0
-6127 -407 -6136 -6226 0
-6137 408 6128 0
6226 -6137 6128 0
-6227 6135 -73 0
-74 -6227 6135 0
-75 -6227 6135 0
-76 -6227 6135 0
-77 -6227 6135 0
-78 -6227 6135 0
-79 -6227 6135 0
-80 -6227 6135 0
6136 -81 -6227 0
6227 -81 6137 -6136 0
6136 -82 -6227 0
-83 6136 -6227 0
-84 6136 -6227 0
-85 6136 -6227 0
-86 6136 -6227 0
6136 -87 -6227 0
-88 6137 -6227 0
-89 6137 -6227 0
-90 6137 -6227 0
-91 6137 -6227 0
-92 6137 -6227 0
-93 6137 -6227 0
415 -6144 6135 0
6227 -6144 6135 0
-6227 6144 6135 -415 0
6136 -6145 416 0
6136 6227 -6145 0
-6145 -6227 -416 -6136 0
417 -6146 6137 0
6227 -6146 6137 0
-109 -6228 6144 0
-110 -6228 6144 0
-111 -6228 6144 0
-112 -6228 6144 0
-113 -6228 6144 0
-114 -6228 6144 0
-115 -6228 6144 0
-116 -6228 6144 0
6145 -6228 -117 0
-6228 -6146 -117 0
-6145 6228 -117 6146 0
6145 -118 -6228 0
6145 -119 -6228 0
6145 -120 -6228 0
-121 6145 -6228 0
6145 -122 -6228 0
6145 -123 -6228 0
-124 6146 -6228 0
-125 6146 -6228 0
-126 6146 -6228 0
-127 6146 -6228 0
-128 6146 -6228 0
6146 -6228 -129 0
424 -6153 6144 0
6228 -6153 6144 0
-6228 6144 6153 -424 0
6145 -6154 425 0
-6154 6145 6228 0
-6154 -6145 -6228 -425 0
426 6146 -6155 0
6228 -6146 6155 0
6228 6146 -6155 0
6155 -6228 -426 6146 0
-145 -6229 6153 0
-146 -6229 6153 0
-147 -6229 6153 0
-148 -6229 6153 0
-149 -6229 6153 0
-150 -6229 6153 0
-151 -6229 6153 0
-152 -6229 6153 0
-153 6154 -6229 0
-154 6154 -6229 0
-155 6154 -6229 0
-156 6154 -6229 0
-157 6154 -6229 0
-158 6154 -6229 0
-159 6154 -6229 0
-160 -6229 6155 0
-161 -6229 6155 0
-162 -6229 6155 0
-163 -6229 6155 0
-164 -6229 6155 0
-165 -6229 6155 0
433 -6162 6153 0
6229 -6162 6153 0
-6229 6153 6162 -433 0
-6163 6154 434 0
6154 -6163 6229 0
6163 -434 6154 -6229 0
-6154 -434 -6229 -6163 0
435 6155 -6164 0
6229 6155 -6164 0
-181 -6230 6162 0
-182 -6230 6162 0
-183 -6230 6162 0
-184 -6230 6162 0
-185 -6230 6162 0
-186 -6230 6162 0
-187 -6230 6162 0
-188 -6230 6162 0
-189 6163 -6230 0
-190 6163 -6230 0
-191 6163 -6230 0
-192 6163 -6230 0
-193 6163 -6230 0
-194 6163 -6230 0
-195 6163 -6230 0
-196 6164 -6230 0
-197 6164 -6230 0
-198 6164 -6230 0
-199 6164 -6230 0
-200 6164 -6230 0
-201 6164 -6230 0
-6171 6162 442 0
6230 -6171 6162 0
-6230 6171 6162 -442 0
6172 -6163 443 0
-6172 6163 443 0
-6172 6230 6163 0
-6172 -443 -6230 -6163 0
-6173 6164 444 0
6230 6164 -6173 0
-6231 6171 -217 0
-218 -6231 6171 0
-219 -6231 6171 0
-220 -6231 6171 0
-221 -6231 6171 0
-222 -6231 6171 0
-223 -6231 6171 0
-224 -6231 6171 0
-6231 6172 -225 0
-226 -6231 6172 0
-227 -6231 6172 0
-228 -6231 6172 0
-6231 6172 -229 0
-230 -6231 6172 0
-231 -6231 6172 0
-232 -6231 6173 0
-233 -6231 6173 0
-234 -6231 6173 0
-235 -6231 6173 0
-236 -6231 6173 0
-237 -6231 6173 0
-6180 6171 451 0
-6180 6231 6171 0
-6231 6171 -451 6180 0
-6181 452 6172 0
6181 -6172 6231 0
-6181 6231 6172 0
-6231 6172 -452 6181 0
-6231 -6181 -452 -6172 0
6173 -6182 453 0
6231 -6173 6182 0
6231 6173 -6182 0
-6232 -253 6180 0
-254 -6232 6180 0
-255 -6232 6180 0
-256 -6232 6180 0
-257 -6232 6180 0
-258 -6232 6180 0
-259 -6232 6180 0
-260 -6232 6180 0
-261 -6232 6181 0
-6232 6181 -262 0
-263 -6232 6181 0
-264 -6232 6181 0
-265 -6232 6181 0
-266 -6232 6181 0
-267 -6232 6181 0
-268 -6232 6182 0
-269 -6232 6182 0
-270 -6232 6182 0
-271 -6232 6182 0
-272 -6232 6182 0
-273 -6232 6182 0
-6189 6180 460 0
-6189 6232 6180 0
6189 -460 6180 -6232 0
-6190 6181 461 0
6232 -6190 6181 0
-6232 6181 -461 6190 0
-6181 -6232 -461 -6190 0
-6191 462 6182 0
6232 -6191 6182 0
-289 -6233 6189 0
-290 -6233 6189 0
-291 -6233 6189 0
-292 -6233 6189 0
-293 -6233 6189 0
-294 -6233 6189 0
-295 -6233 6189 0
-296 -6233 6189 0
-297 -6233 6190 0
6233 -297 6191 -6190 0
-298 -6233 6190 0
-299 -6233 6190 0
-6233 6190 -300 0
-301 -6233 6190 0
-302 -6233 6190 0
-303 -6233 6190 0
-304 -6233 6191 0
-305 -6233 6191 0
-306 -6233 6191 0
-307 -6233 6191 0
-308 -6233 6191 0
-309 -6233 6191 0
-6198 6189 469 0
6233 -6198 6189 0
6198 -6233 -469 6189 0
-6199 470 6190 0
6233 -6199 6190 0
-6190 -6233 -6199 -470 0
471 -6191 6200 0
471 6191 -6200 0
6233 6191 -6200 0
-471 -6233 6200 6191 0
-6234 -325 6198 0
-326 -6234 6198 0
-326 -6234 -6200 0
-327 -6234 6198 0
-328 -6234 6198 0
-329 -6234 6198 0
-330 -6234 6198 0
-331 -6234 6198 0
-332 -6234 6198 0
-6234 -333 6199 0
-6234 -340 6200 0
-341 -6234 6200 0
-342 -6234 6200 0
-343 -6234 6200 0
-344 -6234 6200 0
-345 -6234 6200 0
6198 478 -6207 0
6234 -6198 6207 0
6234 6198 -6207 0
-6208 479 6199 0
-6208 6234 6199 0
-6234 -6208 -479 -6199 0
480 6200 -6209 0
6234 -6200 6209 0
6234 6200 -6209 0
-6208 -361 -6235 0
-376 -6235 6209 0
-377 6209 -6235 0
-378 -6235 6209 0
-379 6209 -6235 0
-380 6209 -6235 0
-381 6209 -6235 0
487 -6207 6216 0
-6235 -487 6207 6216 0
6235 -6208 6217 0
-6235 -488 6208 6217 0
6209 489 -6218 0
6209 6235 -6218 0
6236 0
-6335 0
6237 0
6336 0
-6238 0
6337 0
6241 0
-6344 -12 -6241 0
6245 397 -6236 0
6246 6344 -6237 0
-6247 399 6238 0
-6345 -37 -6246 0
6254 406 -6245 0
6254 6345 -6245 0
-6256 408 6247 0
-88 -6346 6256 0
-89 -6346 6256 0
-90 -6346 6256 0
-91 -6346 6256 0
-92 -6346 6256 0
-93 -6346 6256 0
6263 415 -6254 0
6346 6263 -6254 0
-6265 417 6256 0
6264 -6347 -117 0
6347 -6264 -117 6265 0
6272 424 -6263 0
6264 6347 -6273 0
-6264 -6347 -425 -6273 0
-6274 426 6265 0
-6348 6273 -153 0
6348 -153 6274 -6273 0
-6272 6281 433 0
-6282 434 6273 0
6348 6273 -6282 0
-6348 -434 -6282 -6273 0
-6283 6274 435 0
6282 -6349 -189 0
-6282 -189 6349 6283 0
-6281 6290 442 0
6282 -6291 443 0
6282 6349 -6291 0
-6349 -443 -6282 -6291 0
-6292 6283 444 0
6291 -6350 -225 0
6350 -6291 -225 6292 0
-6290 6299 451 0
6291 -6300 452 0
6291 6350 -6300 0
-6350 -6291 -452 -6300 0
-6301 6292 453 0
6300 -6351 -261 0
6351 -261 -6300 6301 0
-6299 6308 460 0
6300 -6309 461 0
6300 6351 -6309 0
-6351 -6300 -461 -6309 0
-6310 6301 462 0
6309 -6352 -297 0
6352 6310 -6309 -297 0
-304 -6352 6310 0
-305 -6352 6310 0
-306 -6352 6310 0
-307 -6352 6310 0
-308 -6352 6310 0
-309 -6352 6310 0
-6308 6317 469 0
6309 -6318 470 0
6309 6352 -6318 0
-6352 -6309 -470 -6318 0
-6319 6310 471 0
-6319 6352 6310 0
6318 -6353 -333 0
6353 -333 -6318 6319 0
-6317 6326 478 0
6318 -6327 479 0
6318 6353 -6327 0
-6353 -6318 -479 -6327 0
-6328 6319 480 0
-6354 6328 -376 0
-6354 6328 -377 0
-378 -6354 6328 0
-379 -6354 6328 0
-380 -6354 6328 0
-381 -6354 6328 0
487 -6326 6335 0
488 6327 -6336 0
6328 489 -6337 0
6328 6354 -6337 0
6355 0
-6454 0
-6356 0
6455 0
6357 0
6358 0
6359 0
6360 0
6361 0
6362 0
6363 0
-6463 -2 -6357 0
-6463 -3 -6358 0
-6463 -4 -6359 0
-6463 -5 -6360 0
-6463 -6 -6361 0
-6463 -7 -6362 0
-6463 -8 -6363 0
-6463 -9 -6357 0
-6463 -10 -6358 0
-6463 -11 -6359 0
-6463 -12 -6360 0
-6463 -13 -6361 0
-6463 -14 -6362 0
-6463 -15 -6363 0
-6463 -16 -6358 0
-6463 -17 -6359 0
-6463 -18 -6360 0
-6463 -19 -6361 0
-6463 -20 -6362 0
-6463 -21 -6363 0
-6463 -22 -6359 0
-6463 -23 -6360 0
-6463 -24 -6361 0
-6463 -25 -6362 0
-6463 -26 -6363 0
-6463 -27 -6360 0
-6463 -28 -6361 0
-6463 -29 -6362 0
-6463 -30 -6363 0
-6463 -31 -6361 0
-6463 -32 -6362 0
-6463 -33 -6363 0
-6463 -34 -6362 0
-6463 -35 -6363 0
-6463 -36 -6363 0
6364 397 -6355 0
6364 6463 -6355 0
-6365 6463 6356 0
399 6366 -6357 0
6366 6463 -6357 0
6367 6463 -6358 0
6368 6463 -6359 0
6369 6463 -6360 0
6370 6463 -6361 0
6371 6463 -6362 0
6372 6463 -6363 0
6464 -37 -6364 6365 0
-38 -6464 -6366 0
-6464 -45 -6366 0
-6464 -46 6365 0
-6464 -47 6365 0
-48 -6464 6365 0
-6464 -49 6365 0
-50 -6464 6365 0
-51 -6464 6365 0
-52 -6464 -6367 0
-53 -6464 -6368 0
-54 -6464 -6369 0
-55 -6464 -6370 0
-56 -6464 -6371 0
-6464 -57 -6372 0
6373 406 -6364 0
6464 6373 -6364 0
-6374 407 6365 0
-6374 6464 6365 0
6375 408 -6366 0
-6375 -6464 -408 -6366 0
6465 6374 -73 -6373 0
-6465 -81 6374 0
-82 -6465 6374 0
-83 -6465 6374 0
-84 -6465 6374 0
-85 -6465 6374 0
-86 -6465 6374 0
-87 -6465 6374 0
6382 415 -6373 0
-6383 6374 416 0
-6383 6465 6374 0
-6465 6383 -416 6374 0
6384 417 -6375 0
6375 -6384 417 0
-6465 -6384 -6375 -417 0
6383 -6466 -117 0
6384 -6383 -117 6466 0
-118 6383 -6466 0
-119 6383 -6466 0
-120 6383 -6466 0
-121 6383 -6466 0
-122 6383 -6466 0
-123 6383 -6466 0
6391 424 -6382 0
6392 425 -6383 0
425 6383 -6392 0
6466 6383 -6392 0
-6383 -6466 -425 -6392 0
6393 426 -6384 0
6384 -6393 426 0
-6393 -6384 -426 -6466 0
6467 6392 -145 -6391 0
-153 -6467 6392 0
-6393 -153 -6467 0
6393 -153 -6392 6467 0
-154 -6467 6392 0
-155 -6467 6392 0
-156 -6467 6392 0
-157 -6467 6392 0
-158 -6467 6392 0
-159 -6467 6392 0
-6391 6400 433 0
6467 -6391 6400 0
6392 -6401 434 0
6467 6392 -6401 0
-6467 -434 6401 6392 0
-6467 -434 -6401 -6392 0
6402 -6393 435 0
6393 -6402 435 0
-435 -6402 -6467 -6393 0
-189 -6468 6401 0
6468 -189 6402 -6401 0
-190 6401 -6468 0
-191 -6468 6401 0
-192 -6468 6401 0
-193 -6468 6401 0
-194 -6468 6401 0
-195 -6468 6401 0
-6400 6409 442 0
6401 -6410 443 0
6468 6401 -6410 0
-6468 -443 -6401 -6410 0
6411 -6402 444 0
6402 -6411 444 0
6468 6402 -6411 0
-444 -6411 -6468 -6402 0
-225 -6469 6410 0
6411 -6410 -225 6469 0
-226 -6469 6410 0
-227 -6469 6410 0
-228 -6469 6410 0
-229 -6469 6410 0
-230 -6469 6410 0
-231 -6469 6410 0
6418 -6409 451 0
6469 6418 -6409 0
452 -6419 6410 0
6469 -6419 6410 0
-6469 -6410 -452 -6419 0
6420 -6411 453 0
6411 -6420 453 0
6470 -253 6419 -6418 0
-261 -6470 6419 0
-6420 -261 -6470 0
6420 6470 -261 -6419 0
-262 -6470 6419 0
-263 -6470 6419 0
-264 -6470 6419 0
-265 -6470 6419 0
-266 -6470 6419 0
-267 -6470 6419 0
6427 -6418 460 0
6427 6470 -6418 0
461 -6428 6419 0
6470 -6428 6419 0
-6470 6428 6419 -461 0
-6470 -6419 -461 -6428 0
6429 -6420 462 0
6420 -6429 462 0
6429 6470 -6420 0
6428 -289 6471 -6427 0
-290 -6429 -6471 0
-297 -6471 6428 0
-6429 -297 -6471 0
6429 -297 -6428 6471 0
-298 -6471 6428 0
-299 -6471 6428 0
-300 -6471 6428 0
-301 -6471 6428 0
-302 -6471 6428 0
-303 -6471 6428 0
6436 -6427 469 0
-6436 6427 6471 0
470 6428 -6437 0
6471 6428 -6437 0
-6471 6437 -470 6428 0
-6471 -470 -6428 -6437 0
6429 -6438 6471 0
-6472 -325 6436 0
-333 -6472 6437 0
6438 6472 -6437 -333 0
-334 -6472 6437 0
-335 -6472 6437 0
-336 -6472 6437 0
-337 -6472 6437 0
-338 -6472 6437 0
-339 -6472 6437 0
6445 478 -6436 0
479 6437 -6446 0
6472 6437 -6446 0
-6472 -479 -6437 -6446 0
-369 6446 -6473 0
-370 6446 -6473 0
-371 6446 -6473 0
-372 6446 -6473 0
-373 6446 -6473 0
-374 6446 -6473 0
-375 6446 -6473 0
-6445 487 6454 0
6446 488 -6455 0
6446 6473 -6455 0
6662 -401 -1361 0
6662 -405 -1365 0
6663 -411 -1371 0
6663 -414 -1374 0
-419 6664 -1379 0
-1380 -420 6664 0
-421 -1381 6664 0
-1382 -422 6664 0
-423 -1383 6664 0
-1385 -425 6665 0
-428 -1388 6665 0
-1389 -429 6665 0
-1390 -430 6665 0
6665 -432 -1392 0
-437 -1397 6666 0
-438 -1398 6666 0
-439 -1399 6666 0
-441 6666 -1401 0
-446 -1406 6667 0
-1407 -447 6667 0
-448 -1408 6667 0
-1410 -450 6667 0
-455 -1415 6668 0
-456 -1416 6668 0
-457 -1417 6668 0
-459 6668 -1419 0
-464 -1424 6669 0
-465 -1425 6669 0
-466 -1426 6669 0
-468 -1428 6669 0
-473 -1433 6670 0
-474 -1434 6670 0
-475 -1435 6670 0
-477 -1437 6670 0
-1438 -478 6671 0
-1439 -479 6671 0
-1440 -480 6671 0
-1441 -481 6671 0
-482 -1442 6671 0
-1443 -483 6671 0
-484 -1444 6671 0
-486 -1446 6671 0
6672 -487 -1447 0
-1448 6672 -488 0
-489 6672 -1449 0
-1450 -490 6672 0
-491 -1451 6672 0
-492 -1452 6672 0
-493 -1453 6672 0
-1454 -494 6672 0
-495 -1455 6672 0
6673 -6662 0
-6663 6675 -6673 0
-6675 6676 0
-6664 -6675 0
6678 -6676 0
-6676 -6665 0
6680 -6678 0
-6666 -6678 0
6682 -6680 0
-6667 -6680 0
6684 -6682 0
-6668 -6682 0
6686 -6684 0
-6669 -6684 0
6688 -6686 0
-6670 -6686 0
6690 -6688 0
-6671 -6688 0
-6672 -6690 0
8282 -403 4338 0
8283 -412 4347 0
-421 8284 4356 0
4364 8285 -429 0
-430 8285 4365 0
8286 -434 4369 0
-437 4372 8286 0
-438 4373 8286 0
-439 4374 8286 0
4375 -440 8286 0
4376 -441 8286 0
8287 -443 4378 0
-446 4381 8287 0
4382 8287 -447 0
-448 8287 4383 0
4384 -449 8287 0
4385 8287 -450 0
8288 -451 4386 0
8288 4387 -452 0
8289 -460 4395 0
8289 4396 -461 0
8290 4404 -469 0
-473 4408 8290 0
-475 4410 8290 0
-482 4417 8291 0
4418 8291 -483 0
-484 4419 8291 0
4426 8292 -491 0
4427 8292 -492 0
4428 8292 -493 0
8293 -8282 0
8294 -8293 0
8294 -8283 0
8301 -8294 0
8301 -8284 0
8305 -8301 0
8302 -8285 -8301 0
8303 -8286 -8302 0
-8303 -8287 8304 0
-8304 -8288 0
8305 -8285 0
8309 -8305 0
8306 -8286 -8305 0
8307 -8287 -8306 0
-8307 8308 -8288 0
-8308 -8289 0
8309 -8286 0
8310 -8287 -8309 0
8311 -8310 -8288 0
8312 -8311 -8289 0
8316 -8312 0
-8290 -8312 0
8313 -8287 0
8314 -8313 -8288 0
8315 -8289 -8314 0
8319 -8315 0
-8290 8316 -8315 0
8320 -8316 0
-8291 -8316 0
-8291 8320 -8319 0
-8292 -8320 0
8929 -402 5408 0
8930 -411 5417 0
8931 5422 -416 0
5425 8931 -419 0
8931 -420 5426 0
5427 -421 8931 0
5428 -422 8931 0
5429 8931 -423 0
5431 8932 -425 0
5434 -428 8932 0
5435 8932 -429 0
5436 -430 8932 0
5437 -431 8932 0
5438 8932 -432 0
8933 5439 -433 0
8933 -434 5440 0
-437 5443 8933 0
5447 8933 -441 0
8934 5448 -442 0
8934 -443 5449 0
8935 5457 -451 0
8935 5458 -452 0
-456 5462 8935 0
8936 -460 5466 0
-465 5471 8936 0
5479 8937 -473 0
-474 5480 8937 0
5489 8938 -483 0
5498 8939 -492 0
8940 -8929 0
8941 -8940 0
8942 -8930 -8940 0
8944 -8942 -8931 0
-8944 8946 -8932 0
-8946 -8933 0
8941 -8930 0
8948 -8941 0
8943 -8931 -8941 0
8945 -8943 -8932 0
8947 -8933 -8945 0
-8947 -8934 0
8948 -8931 0
8952 -8948 0
8949 -8932 -8948 0
8950 -8933 -8949 0
-8950 8951 -8934 0
-8951 8955 0
-8951 -8935 0
8952 -8932 0
8956 -8952 0
8953 -8933 -8952 0
8954 -8934 -8953 0
-8954 8955 -8935 0
-8955 8959 0
-8955 -8936 0
8956 -8933 0
8957 -8934 -8956 0
8958 -8935 -8957 0
8959 -8958 -8936 0
8963 -8959 0
-8937 -8959 0
8960 -8934 0
8961 -8935 -8960 0
8962 -8936 -8961 0
-8937 8963 -8962 0
8967 -8963 0
-8938 -8963 0
-8939 -8967 0
8968 -402 5527 0
8969 -411 5536 0
8970 -420 5545 0
8971 5550 -425 0
8971 5554 -429 0
8972 5559 -434 0
8973 5568 -443 0
8974 5577 -452 0
8979 -8968 0
8980 -8979 0
8980 -8969 0
8982 -8970 -8980 0
8984 -8982 -8971 0
8986 -8972 -8984 0
-8986 -8973 0
8987 -8970 0
8988 -8987 -8971 0
8989 -8972 -8988 0
-8989 -8973 8990 0
-8990 -8974 0
9361 -400 6001 0
9362 -407 6008 0
9362 -409 6010 0
9363 6017 -416 0
9363 -418 6019 0
9364 6025 -424 0
9364 -425 6026 0
9364 6028 -427 0
9365 -434 6035 0
-436 6037 9365 0
9366 6043 -442 0
9366 -443 6044 0
9366 -445 6046 0
9367 -451 6052 0
9367 6053 -452 0
-454 9367 6055 0
-460 6061 9368 0
6062 9368 -461 0
6063 -462 9368 0
-463 9368 6064 0
-469 6070 9369 0
6071 9369 -470 0
6072 -471 9369 0
9369 -472 6073 0
-478 6079 9370 0
6081 -480 9370 0
6088 -487 9371 0
6090 9371 -489 0
9372 -9361 0
9373 -9372 0
9374 -9362 -9372 0
-9374 9375 0
-9374 -9363 9376 0
-9376 -9364 0
9373 -9362 0
9378 -9373 0
9375 -9363 -9373 0
-9375 9379 0
-9375 9377 -9364 0
-9365 -9377 0
9378 -9363 0
9381 -9378 0
9379 -9364 -9378 0
9382 -9379 0
-9365 -9379 9380 0
-9380 9383 0
-9380 -9366 0
9381 -9364 0
9384 -9381 0
9382 -9365 -9381 0
9385 -9382 0
-9366 -9382 9383 0
-9383 9386 0
-9383 -9367 0
9384 -9365 0
9387 -9384 0
9385 -9366 -9384 0
9388 -9385 0
-9367 -9385 9386 0
-9386 9389 0
-9386 -9368 0
9387 -9366 0
9390 -9387 0
9388 -9367 -9387 0
9391 -9388 0
-9368 -9388 9389 0
9392 -9389 0
-9389 -9369 0
9390 -9367 0
9391 -9368 -9390 0
-9391 9392 -9369 0
9395 -9392 0
-9370 -9392 0
-9371 -9395 0
9464 -397 6117 0
9464 -399 6119 0
-406 9465 6126 0
6127 9465 -407 0
9465 -408 6128 0
6135 9466 -415 0
6136 9466 -416 0
-417 9466 6137 0
-424 6144 9467 0
6145 9467 -425 0
6146 9467 -426 0
9468 -433 6153 0
-434 6154 9468 0
-435 6155 9468 0
9469 -442 6162 0
-443 6163 9469 0
-444 6164 9469 0
9470 6171 -451 0
6172 9470 -452 0
6173 9470 -453 0
-460 6180 9471 0
6181 9471 -461 0
-462 9471 6182 0
6189 -469 9472 0
6190 9472 -470 0
-471 6191 9472 0
-478 6198 9473 0
6199 9473 -479 0
-480 9473 6200 0
-487 9474 6207 0
-488 9474 6208 0
9474 6209 -489 0
9475 -9464 0
9476 -9475 0
-9465 9477 -9475 0
-9477 9478 0
-9477 -9466 0
9476 -9465 0
9479 -9476 0
-9466 9478 -9476 0
-9478 9480 0
-9478 -9467 0
9479 -9466 0
9481 -9479 0
-9467 9480 -9479 0
-9480 9482 0
-9480 -9468 0
9481 -9467 0
9483 -9481 0
-9468 9482 -9481 0
-9482 9484 0
-9482 -9469 0
9483 -9468 0
9485 -9483 0
-9469 9484 -9483 0
-9484 9486 0
-9470 -9484 0
9485 -9469 0
9487 -9485 0
-9470 9486 -9485 0
-9486 9488 0
-9471 -9486 0
9487 -9470 0
9489 -9487 0
-9471 9488 -9487 0
-9488 9490 0
-9472 -9488 0
9489 -9471 0
9491 -9489 0
-9472 9490 -9489 0
9492 -9490 0
-9473 -9490 0
9491 -9472 0
-9473 9492 -9491 0
-9474 -9492 0
9528 -397 0
9528 -398 0
9529 -406 0
9529 -407 0
9530 -415 0
9530 -416 0
9531 -425 0
9532 -434 0
9533 -442 0
9533 -443 0
9534 -452 0
9535 -460 0
9535 -461 0
9536 -469 0
9536 -470 0
9537 -478 0
9537 -479 0
9538 -487 0
9538 -488 0
9539 -9528 0
9540 -9539 0
9541 -9529 -9539 0
9542 -9541 0
9543 -9541 -9530 0
-9543 9545 -9531 0
-9545 -9532 0
9540 -9529 0
9547 -9540 0
9542 -9530 -9540 0
9548 -9542 0
9544 -9542 -9531 0
-9544 -9532 9546 0
-9546 -9533 0
9547 -9530 0
9551 -9547 0
9548 -9531 -9547 0
9552 -9548 0
9549 -9548 -9532 0
9553 -9549 0
-9549 -9533 9550 0
-9550 -9534 0
9551 -9531 0
9555 -9551 0
9552 -9532 -9551 0
9556 -9552 0
9553 -9552 -9533 0
9557 -9553 0
-9553 -9534 9554 0
-9554 -9535 0
9555 -9532 0
9559 -9555 0
9556 -9533 -9555 0
9560 -9556 0
9557 -9556 -9534 0
9561 -9557 0
-9557 9558 -9535 0
-9558 9562 0
-9558 -9536 0
9559 -9533 0
9563 -9559 0
9560 -9534 -9559 0
9564 -9560 0
9561 -9560 -9535 0
9565 -9561 0
-9561 9562 -9536 0
-9562 -9537 0
9563 -9534 0
9564 -9535 -9563 0
9565 -9564 -9536 0
-9565 -9537 9566 0
-9566 -9538 0
9571 6392 -434 0
9573 -452 6410 0
9574 -461 6419 0
9594 -9571 0
9598 -9594 0
9599 -9598 -9573 0
9600 -9599 -9574 0
9608 -415 0
9610 -433 0
9612 -451 0
9613 -460 0
9614 -469 0
-478 9615 0
9616 -487 0
-9619 9620 0
-9620 9622 0
9621 -9608 0
9623 -9621 0
-9622 -9610 0
9625 -9623 0
9627 -9625 0
9629 -9627 0
-9612 -9627 9628 0
-9628 9630 0
9631 -9629 0
-9613 -9629 9630 0
-9630 9632 0
9633 -9631 0
-9631 -9614 9632 0
-9632 9634 0
-9632 -9615 0
-9615 -9633 9634 0
-9634 -9616 0
-39 -9 0
-40 -9 0
-41 -9 0
-42 -9 0
-43 -9 0
-44 -9 0
-38 -10 0
-11 -38 0
-38 -12 0
-13 -38 0
-38 -14 0
-38 -15 0
-16 -37 0
-37 -17 0
-18 -37 0
-37 -19 0
-37 -20 0
-37 -21 0
-37 -22 0
-38 -22 0
-49 -22 0
-37 -23 0
-38 -23 0
-49 -23 0
-37 -24 0
-38 -24 0
-47 -24 0
-37 -25 0
-38 -25 0
-49 -25 0
-37 -26 0
-38 -26 0
-49 -26 0
-37 -27 0
-38 -27 0
-49 -27 0
-50 -27 0
-37 -28 0
-38 -28 0
-41 -28 0
-37 -29 0
-38 -29 0
-41 -29 0
-49 -29 0
-37 -30 0
-38 -30 0
-49 -30 0
-37 -31 0
-38 -31 0
-37 -32 0
-38 -32 0
-49 -32 0
-37 -33 0
-38 -33 0
-45 -33 0
-46 -33 0
-47 -33 0
-49 -33 0
-50 -33 0
-37 -34 0
-38 -34 0
-37 -35 0
-38 -35 0
-37 -36 0
-38 -36 0
-49 -36 0
-53 -82 0
-54 -82 0
-55 -82 0
-56 -82 0
-82 -57 0
-58 -81 0
-59 -81 0
-60 -81 0
-61 -81 0
-62 -81 0
-63 -81 0
-63 -82 0
-85 -63 0
-64 -81 0
-64 -82 0
-65 -81 0
-65 -82 0
-66 -81 0
-66 -82 0
-85 -66 0
-86 -66 0
-67 -81 0
-67 -82 0
-68 -81 0
-68 -82 0
-69 -81 0
-69 -82 0
-70 -81 0
-70 -82 0
-71 -81 0
-71 -82 0
-74 -72 0
-75 -72 0
-76 -72 0
-77 -72 0
-78 -72 0
-72 -81 0
-72 -82 0
-72 -83 0
-72 -84 0
-72 -85 0
-88 -72 0
-89 -72 0
-90 -72 0
-91 -72 0
-94 -72 0
-95 -72 0
-96 -72 0
-72 -99 0
-100 -72 0
-103 -72 0
-111 -81 0
-112 -81 0
-113 -81 0
-114 -81 0
-115 -81 0
-116 -81 0
-88 -109 0
-89 -109 0
-90 -109 0
-91 -109 0
-92 -109 0
-93 -109 0
-94 -109 0
-94 -117 0
-95 -109 0
-95 -117 0
-96 -109 0
-96 -117 0
-97 -109 0
-97 -117 0
-98 -109 0
-98 -117 0
-99 -109 0
-99 -117 0
-118 -99 0
-100 -109 0
-100 -117 0
-100 -118 0
-100 -120 0
-101 -109 0
-101 -117 0
-101 -118 0
-101 -120 0
-102 -109 0
-102 -117 0
-118 -102 0
-102 -120 0
-103 -109 0
-103 -117 0
-103 -118 0
-104 -109 0
-104 -117 0
-104 -118 0
-105 -109 0
-105 -117 0
-105 -118 0
-106 -109 0
-106 -117 0
-106 -118 0
-106 -120 0
-107 -109 0
-107 -117 0
-107 -118 0
-107 -120 0
-108 -109 0
-108 -117 0
-108 -118 0
-108 -120 0
-124 -145 0
-125 -145 0
-126 -145 0
-127 -145 0
-127 -154 0
-128 -145 0
-145 -129 0
-130 -145 0
-153 -130 0
-131 -145 0
-131 -153 0
-132 -145 0
-132 -153 0
-133 -145 0
-133 -153 0
-145 -134 0
-153 -134 0
-135 -145 0
-135 -153 0
-154 -135 0
-135 -157 0
-136 -145 0
-136 -153 0
-136 -154 0
-137 -145 0
-137 -153 0
-137 -154 0
-137 -157 0
-138 -145 0
-138 -153 0
-138 -154 0
-138 -157 0
-139 -145 0
-139 -153 0
-139 -154 0
-140 -145 0
-140 -153 0
-140 -154 0
-140 -157 0
-141 -145 0
-141 -153 0
-141 -154 0
-141 -157 0
-142 -145 0
-142 -153 0
-142 -154 0
-143 -145 0
-143 -153 0
-143 -154 0
-144 -145 0
-144 -153 0
-144 -154 0
-144 -157 0
-183 -153 0
-184 -153 0
-185 -153 0
-186 -153 0
-187 -153 0
-188 -153 0
-160 -181 0
-160 -193 0
-161 -181 0
-161 -193 0
-162 -181 0
-162 -193 0
-163 -181 0
-164 -181 0
-164 -193 0
-165 -181 0
-165 -193 0
-166 -181 0
-189 -166 0
-193 -166 0
-167 -181 0
-167 -189 0
-167 -193 0
-168 -181 0
-168 -189 0
-169 -181 0
-169 -189 0
-169 -193 0
-170 -181 0
-170 -189 0
-170 -193 0
-171 -181 0
-171 -189 0
-171 -190 0
-171 -193 0
-172 -181 0
-172 -189 0
-172 -190 0
-173 -181 0
-173 -189 0
-173 -190 0
-173 -193 0
-174 -181 0
-174 -189 0
-174 -190 0
-174 -193 0
-175 -181 0
-175 -189 0
-175 -190 0
-176 -181 0
-176 -189 0
-176 -190 0
-176 -193 0
-177 -181 0
-177 -189 0
-177 -190 0
-177 -193 0
-178 -181 0
-178 -189 0
-178 -190 0
-179 -181 0
-179 -189 0
-179 -190 0
-180 -181 0
-180 -189 0
-180 -190 0
-180 -193 0
-221 -189 0
-196 -217 0
-197 -217 0
-198 -217 0
-199 -217 0
-200 -217 0
-201 -217 0
-202 -217 0
-202 -225 0
-203 -217 0
-203 -225 0
-204 -217 0
-204 -225 0
-205 -217 0
-205 -225 0
-206 -217 0
-206 -225 0
-207 -217 0
-207 -225 0
-207 -226 0
-208 -217 0
-208 -225 0
-208 -226 0
-209 -217 0
-209 -225 0
-209 -226 0
-210 -217 0
-210 -225 0
-210 -226 0
-211 -217 0
-211 -225 0
-211 -226 0
-212 -217 0
-212 -225 0
-212 -226 0
-213 -217 0
-213 -225 0
-213 -226 0
-214 -217 0
-214 -225 0
-214 -226 0
-215 -217 0
-215 -225 0
-215 -226 0
-216 -217 0
-216 -225 0
-216 -226 0
-255 -225 0
-256 -225 0
-257 -225 0
-258 -225 0
-259 -225 0
-260 -225 0
-232 -253 0
-233 -253 0
-234 -253 0
-235 -253 0
-236 -253 0
-237 -253 0
-238 -253 0
-238 -261 0
-239 -253 0
-239 -261 0
-240 -253 0
-240 -261 0
-241 -253 0
-241 -261 0
-242 -253 0
-242 -261 0
-243 -253 0
-243 -261 0
-243 -262 0
-244 -253 0
-244 -261 0
-244 -262 0
-245 -253 0
-245 -261 0
-245 -262 0
-246 -253 0
-246 -261 0
-246 -262 0
-247 -253 0
-247 -261 0
-247 -262 0
-248 -253 0
-248 -261 0
-248 -262 0
-249 -253 0
-249 -261 0
-249 -262 0
-250 -253 0
-250 -261 0
-250 -262 0
-251 -253 0
-251 -261 0
-251 -262 0
-252 -253 0
-252 -261 0
-252 -262 0
-291 -261 0
-292 -261 0
-293 -261 0
-294 -261 0
-295 -261 0
-296 -261 0
-289 -268 0
-269 -289 0
-270 -289 0
-271 -289 0
-272 -289 0
-273 -289 0
-274 -289 0
-274 -297 0
-275 -289 0
-275 -297 0
-276 -289 0
-276 -297 0
-277 -289 0
-277 -297 0
-278 -289 0
-278 -297 0
-279 -289 0
-279 -297 0
-280 -289 0
-280 -297 0
-281 -289 0
-281 -297 0
-282 -289 0
-282 -297 0
-283 -289 0
-283 -297 0
-284 -289 0
-284 -297 0
-285 -289 0
-285 -297 0
-286 -289 0
-286 -297 0
-287 -289 0
-287 -297 0
-288 -289 0
-288 -297 0
-327 -297 0
-304 -325 0
-305 -325 0
-306 -325 0
-307 -325 0
-308 -325 0
-309 -325 0
-310 -325 0
-310 -333 0
-311 -325 0
-311 -333 0
-312 -325 0
-312 -333 0
-313 -325 0
-313 -333 0
-314 -325 0
-314 -333 0
-315 -325 0
-315 -333 0
-316 -325 0
-316 -333 0
-317 -325 0
-317 -333 0
-318 -325 0
-318 -333 0
-319 -325 0
-319 -333 0
-320 -325 0
-320 -333 0
-321 -325 0
-321 -333 0
-322 -325 0
-322 -333 0
-323 -325 0
-323 -333 0
-324 -325 0
-324 -333 0
-361 -340 0
-341 -361 0
-342 -361 0
-343 -361 0
-344 -361 0
-345 -361 0
-346 -361 0
-346 -369 0
-347 -361 0
-347 -369 0
-361 -348 0
-369 -348 0
-349 -361 0
-349 -369 0
-350 -361 0
-350 -369 0
-351 -361 0
-351 -369 0
-352 -361 0
-352 -369 0
-353 -361 0
-353 -369 0
-354 -361 0
-354 -369 0
-355 -361 0
-355 -369 0
-356 -361 0
-356 -369 0
-357 -361 0
-357 -369 0
-358 -361 0
-358 -369 0
-359 -361 0
-359 -369 0
-360 -361 0
-360 -369 0
