p cnf 9126 538
27 26 3 4 5 6 7 8 1 10 11 12 13 14 15 2 9 16 17 18 19 20 21 22 23 24 25 28 29 30 31 32 33 34 35 36 0
-1 397 0
397 -2 0
397 -3 0
397 -4 0
397 -5 0
397 -6 0
397 -7 0
397 -8 0
398 -9 0
398 -10 0
398 -11 0
398 -12 0
398 -13 0
398 -14 0
398 -15 0
-37 406 0
45 46 37 -407 47 48 49 50 51 0
-73 415 0
82 81 73 -416 83 84 85 86 87 0
-109 424 0
117 118 109 -425 119 120 121 122 123 0
-145 433 0
153 154 145 -434 155 156 157 158 159 0
197 196 184 185 183 186 187 188 189 190 191 192 193 194 195 181 182 198 199 200 201 202 203 204 205 206 207 208 209 210 211 212 213 214 215 216 0
-181 442 0
-182 442 0
-183 442 0
-184 442 0
-185 442 0
-186 442 0
-187 442 0
-188 442 0
-189 443 0
-190 443 0
-191 443 0
-192 443 0
-193 443 0
-194 443 0
-195 443 0
192 -443 181 191 189 190 193 194 195 0
-217 451 0
-218 451 0
-219 451 0
-220 451 0
-221 451 0
-222 451 0
-223 451 0
-224 451 0
225 226 217 -452 227 228 229 230 231 0
268 269 261 262 257 258 259 260 255 256 263 264 265 266 267 253 254 270 271 272 273 274 275 276 277 278 279 280 281 282 283 284 285 286 287 288 0
-253 460 0
-254 460 0
-255 460 0
-256 460 0
-257 460 0
-258 460 0
-259 460 0
-260 460 0
-261 461 0
-262 461 0
-263 461 0
-264 461 0
-265 461 0
-266 461 0
-267 461 0
262 -461 253 261 263 264 265 266 267 0
305 304 298 297 293 294 295 296 291 292 299 300 301 302 303 289 290 306 307 308 309 310 311 312 313 314 315 316 317 318 319 320 321 322 323 324 0
-289 469 0
-290 469 0
-291 469 0
-292 469 0
-293 469 0
-294 469 0
-295 469 0
-296 469 0
-297 470 0
-298 470 0
-299 470 0
-300 470 0
-301 470 0
-302 470 0
-303 470 0
297 298 289 -470 299 300 301 302 303 0
-325 478 0
333 334 325 -479 335 336 337 338 339 0
-361 487 0
361 370 -488 369 371 372 373 374 375 0
-2666 0
2667 0
397 -2675 2666 0
398 2676 -2667 0
-2684 2675 406 0
2685 -2676 407 0
-2693 2684 415 0
2694 -2685 416 0
-2702 2693 424 0
2703 -2694 425 0
-2711 2702 433 0
2712 -2703 434 0
-2720 2711 442 0
2721 -2712 443 0
-2729 2720 451 0
2730 -2721 452 0
5046 0
-5145 0
-5047 0
-5146 0
397 5055 -5046 0
398 -5056 5047 0
-5056 -5155 -37 0
5064 -5055 406 0
5155 5064 -5055 0
-5065 5056 407 0
5065 -407 5056 -5155 0
-5156 -73 -5065 0
5073 -5064 415 0
5156 5073 -5064 0
-5065 5074 416 0
-5074 5065 416 0
5074 -416 5065 -5156 0
-5074 -109 -5157 0
5082 -5073 424 0
5157 5082 -5073 0
-5074 5083 425 0
-5083 5074 425 0
5074 5083 -425 -5157 0
-5083 -5158 -145 0
5091 -5082 433 0
5158 5091 -5082 0
-5083 5092 434 0
5083 -5092 434 0
5092 5083 -434 -5158 0
-5159 -181 -5092 0
-189 -5159 5092 0
-190 -5159 5092 0
-5159 5092 -191 0
-192 -5159 5092 0
-193 -5159 5092 0
-194 -5159 5092 0
-195 -5159 5092 0
5100 -5091 442 0
5159 5100 -5091 0
5101 -5092 443 0
-5101 5159 5092 0
-5159 5101 -443 5092 0
-5101 -217 -5160 0
5109 -5100 451 0
5160 5109 -5100 0
-5101 5110 452 0
-5160 5110 -452 5101 0
-5110 -5161 -253 0
5118 -5109 460 0
5161 5118 -5109 0
-5110 5119 461 0
-5161 5110 -461 5119 0
-5119 -289 -5162 0
5127 -5118 469 0
5162 5127 -5118 0
-5119 5128 470 0
5119 5128 -470 -5162 0
-5128 -325 -5163 0
5136 -5127 478 0
5163 5136 -5127 0
-5128 479 5137 0
5128 -479 5137 -5163 0
-361 -5164 -5137 0
-5136 487 5145 0
-5136 5164 5145 0
488 -5137 5146 0
-488 -5164 5137 5146 0
5879 0
-5978 0
5880 0
-1 -5987 -5880 0
397 5888 -5879 0
5987 5888 -5879 0
398 5889 -5880 0
5897 -5888 406 0
5898 -5889 407 0
-5989 -73 -5898 0
5906 -5897 415 0
5989 5906 -5897 0
5907 -5898 416 0
-5990 -109 -5907 0
5915 -5906 424 0
5990 5915 -5906 0
-5907 5916 425 0
-5916 -5991 -145 0
5924 -5915 433 0
5991 5924 -5915 0
-5916 5925 434 0
-5992 -181 -5925 0
5933 -5924 442 0
5992 5933 -5924 0
5934 -5925 443 0
5942 -5933 451 0
-5934 5943 452 0
-5943 -5994 -253 0
5951 -5942 460 0
5994 5951 -5942 0
5960 -5951 469 0
5969 -5960 478 0
487 -5969 5978 0
6117 0
-6118 0
6217 0
6119 0
6120 0
6121 0
6122 0
6123 0
6124 0
6125 0
-6225 -2 -6119 0
-6225 -3 -6120 0
-6225 -4 -6121 0
-6225 -5 -6122 0
-6225 -6 -6123 0
-6225 -7 -6124 0
-6225 -8 -6125 0
-6225 -9 -6119 0
-6225 -10 -6120 0
-6225 -11 -6121 0
-6225 -12 -6122 0
-6225 -13 -6123 0
-6225 -14 -6124 0
-6225 -15 -6125 0
-6225 -16 -6120 0
-6225 -17 -6121 0
-6225 -18 -6122 0
-6225 -19 -6123 0
-6225 -20 -6124 0
-6225 -21 -6125 0
-6225 -22 -6121 0
-6225 -23 -6122 0
-6225 -24 -6123 0
-6225 -25 -6124 0
-6225 -26 -6125 0
-6225 -27 -6122 0
-6225 -28 -6123 0
-6225 -29 -6124 0
-6225 -30 -6125 0
-6225 -31 -6123 0
-6225 -32 -6124 0
-6225 -33 -6125 0
-6225 -34 -6124 0
-6225 -35 -6125 0
-6225 -36 -6125 0
397 6126 -6117 0
-6127 6225 6118 0
-45 -6226 6127 0
-46 -6226 6127 0
-47 -6226 6127 0
-48 -6226 6127 0
-49 -6226 6127 0
-50 -6226 6127 0
-51 -6226 6127 0
6135 -6126 406 0
6127 -6136 407 0
6226 6127 -6136 0
-81 -6227 6136 0
-82 -6227 6136 0
-83 -6227 6136 0
-84 -6227 6136 0
-85 -6227 6136 0
-86 -6227 6136 0
-87 -6227 6136 0
6144 -6135 415 0
6136 -6145 416 0
6227 6136 -6145 0
-117 -6228 6145 0
-118 -6228 6145 0
-119 -6228 6145 0
-120 -6228 6145 0
-121 -6228 6145 0
-122 -6228 6145 0
-123 -6228 6145 0
6153 -6144 424 0
6145 -6154 425 0
6228 6145 -6154 0
-153 -6229 6154 0
-154 -6229 6154 0
-155 -6229 6154 0
-156 -6229 6154 0
-157 -6229 6154 0
-158 -6229 6154 0
-159 -6229 6154 0
6162 -6153 433 0
6154 -6163 434 0
6229 6154 -6163 0
6230 -181 6163 -6162 0
-189 -6230 6163 0
-190 -6230 6163 0
-191 -6230 6163 0
-192 -6230 6163 0
-193 -6230 6163 0
-194 -6230 6163 0
-195 -6230 6163 0
-6163 6172 443 0
6163 -6172 443 0
6230 6163 -6172 0
-6230 -443 6172 6163 0
-225 -6231 6172 0
-226 -6231 6172 0
-227 -6231 6172 0
-228 -6231 6172 0
-229 -6231 6172 0
-230 -6231 6172 0
-231 -6231 6172 0
-6172 6181 452 0
6172 452 -6181 0
6231 6172 -6181 0
-261 -6232 6181 0
-262 -6232 6181 0
-263 -6232 6181 0
-264 -6232 6181 0
-265 -6232 6181 0
-266 -6232 6181 0
-267 -6232 6181 0
461 -6181 6190 0
6181 461 -6190 0
6232 6181 -6190 0
-297 -6233 6190 0
-298 -6233 6190 0
-299 -6233 6190 0
-300 -6233 6190 0
-301 -6233 6190 0
-302 -6233 6190 0
-303 -6233 6190 0
470 -6199 6190 0
6233 6190 -6199 0
-333 -6234 6199 0
-334 -6234 6199 0
-335 -6234 6199 0
-336 -6234 6199 0
-337 -6234 6199 0
-338 -6234 6199 0
-339 -6234 6199 0
479 -6208 6199 0
6234 6199 -6208 0
-369 -6235 6208 0
-370 -6235 6208 0
-371 -6235 6208 0
-372 -6235 6208 0
-373 -6235 6208 0
-374 -6235 6208 0
-375 -6235 6208 0
6208 488 -6217 0
6208 6235 -6217 0
-397 9031 0
-398 9031 0
-406 9032 0
-407 9032 0
-415 9033 0
-416 9033 0
-424 9034 0
-425 9034 0
-433 9035 0
-434 9035 0
-442 9036 0
-443 9036 0
-451 9037 0
-452 9037 0
-460 9038 0
-461 9038 0
-469 9039 0
9039 -470 0
-478 9040 0
9040 -479 0
9041 -488 0
-9031 9042 0
-9042 9043 0
-9032 -9042 9044 0
-9044 9045 0
-9044 -9033 0
-9032 9043 0
-9043 9046 0
-9033 -9043 9045 0
-9045 9047 0
-9045 -9034 0
-9033 9046 0
-9046 9048 0
-9034 -9046 9047 0
-9047 9049 0
-9047 -9035 0
-9034 9048 0
-9048 9050 0
-9035 -9048 9049 0
-9049 9051 0
-9049 -9036 0
-9035 9050 0
-9050 9052 0
-9036 -9050 9051 0
-9051 9053 0
-9051 -9037 0
-9036 9052 0
-9052 9054 0
-9037 -9052 9053 0
-9053 9055 0
-9053 -9038 0
-9037 9054 0
-9054 9056 0
-9038 -9054 9055 0
-9055 9057 0
-9055 -9039 0
-9038 9056 0
9058 -9056 0
-9056 -9039 9057 0
-9057 9059 0
-9057 -9040 0
9058 -9039 0
-9058 -9040 9059 0
-9059 -9041 0
-397 9095 0
-406 9096 0
-415 9097 0
-424 9098 0
-433 9099 0
-442 9100 0
-451 9101 0
-460 9102 0
-469 9103 0
-478 9104 0
9105 -487 0
-9095 9106 0
-9106 9107 0
-9106 -9096 0
-9096 9107 0
-9107 9108 0
-9097 -9107 0
-9097 9108 0
-9108 9109 0
-9108 -9098 0
-9098 9109 0
-9109 9110 0
-9109 -9099 0
-9099 9110 0
-9110 9111 0
-9100 -9110 0
-9100 9111 0
-9111 9112 0
-9101 -9111 0
-9101 9112 0
-9112 9113 0
-9102 -9112 0
-9102 9113 0
-9113 9114 0
-9103 -9113 0
-9103 9114 0
-9114 9115 0
-9104 -9114 0
-9104 9115 0
-9115 -9105 0
-16 -37 0
-17 -37 0
-18 -37 0
-19 -37 0
-20 -37 0
-21 -37 0
-22 -37 0
-23 -37 0
-24 -37 0
-25 -37 0
-26 -37 0
-37 -27 0
-28 -37 0
-29 -37 0
-30 -37 0
-31 -37 0
-32 -37 0
-33 -37 0
-34 -37 0
-35 -37 0
-36 -37 0
-196 -217 0
-197 -217 0
-198 -217 0
-199 -217 0
-200 -217 0
-201 -217 0
-202 -217 0
-203 -217 0
-204 -217 0
-205 -217 0
-206 -217 0
-207 -217 0
-208 -217 0
-209 -217 0
-210 -217 0
-211 -217 0
-212 -217 0
-213 -217 0
-214 -217 0
-215 -217 0
-216 -217 0
-268 -289 0
-269 -289 0
-270 -289 0
-271 -289 0
-272 -289 0
-273 -289 0
-274 -289 0
-275 -289 0
-276 -289 0
-277 -289 0
-278 -289 0
-279 -289 0
-280 -289 0
-281 -289 0
-282 -289 0
-283 -289 0
-284 -289 0
-285 -289 0
-286 -289 0
-287 -289 0
-288 -289 0
-304 -325 0
-305 -325 0
-306 -325 0
-307 -325 0
-308 -325 0
-309 -325 0
-310 -325 0
-311 -325 0
-312 -325 0
-313 -325 0
-314 -325 0
-315 -325 0
-316 -325 0
-317 -325 0
-318 -325 0
-319 -325 0
-320 -325 0
-321 -325 0
-322 -325 0
-323 -325 0
-324 -325 0
