p cnf 9110 837
26 25 3 7 4 5 6 8 9 10 11 12 13 14 15 1 2 16 17 18 19 20 21 22 23 24 27 28 29 30 31 32 33 34 35 36 0
397 -1 0
397 -2 0
397 -3 0
397 -4 0
397 -5 0
397 -6 0
397 -7 0
397 -8 0
398 -9 0
398 -10 0
398 -11 0
398 -12 0
398 -13 0
398 -14 0
398 -15 0
52 53 39 40 41 42 43 44 45 46 47 48 49 50 51 37 38 54 55 56 57 58 59 60 61 62 63 64 65 66 67 68 69 70 71 72 0
-37 406 0
-38 406 0
-39 406 0
-40 406 0
-41 406 0
-42 406 0
-43 406 0
-44 406 0
407 -37 0
-45 407 0
-46 407 0
-47 407 0
-48 407 0
-49 407 0
-50 407 0
-51 407 0
46 -407 45 37 47 48 49 50 51 0
89 88 81 82 77 78 79 80 75 76 83 84 85 86 87 73 74 90 91 92 93 94 95 96 97 98 99 100 101 102 103 104 105 106 107 108 0
-73 415 0
-74 415 0
-75 415 0
-76 415 0
-77 415 0
-78 415 0
-79 415 0
-80 415 0
75 -415 73 74 76 77 78 79 80 0
-81 416 0
-82 416 0
-83 416 0
-84 416 0
-85 416 0
-86 416 0
-87 416 0
82 -416 73 81 83 84 85 86 87 0
124 125 117 118 113 114 115 116 111 112 119 120 121 122 123 109 110 126 127 128 129 130 131 132 133 134 135 136 137 138 139 140 141 142 143 144 0
-109 424 0
-110 424 0
-111 424 0
-112 424 0
-113 424 0
-114 424 0
-115 424 0
-116 424 0
-117 425 0
-118 425 0
-119 425 0
-120 425 0
-121 425 0
-122 425 0
-123 425 0
118 -425 109 117 119 120 121 122 123 0
160 161 147 148 149 150 151 152 153 154 155 156 157 158 159 145 146 162 163 164 165 166 167 168 169 170 171 172 173 174 175 176 177 178 179 180 0
-145 433 0
-146 433 0
-147 433 0
-148 433 0
-149 433 0
-150 433 0
-151 433 0
-152 433 0
-153 434 0
-154 434 0
-155 434 0
-156 434 0
-157 434 0
-158 434 0
-159 434 0
153 -434 145 154 155 156 157 158 159 0
196 197 183 184 185 186 187 188 189 190 191 192 193 194 195 181 182 198 199 200 201 202 203 204 205 206 207 208 209 210 211 212 213 214 215 216 0
-181 442 0
-182 442 0
-183 442 0
-184 442 0
-185 442 0
-186 442 0
-187 442 0
-188 442 0
-181 443 0
-189 443 0
-190 443 0
-191 443 0
-192 443 0
-193 443 0
-194 443 0
-195 443 0
192 -443 181 191 189 190 193 194 195 0
232 233 219 220 221 222 223 224 225 226 227 228 229 230 231 217 218 234 235 236 237 238 239 240 241 242 243 244 245 246 247 248 249 250 251 252 0
-217 451 0
-218 451 0
-219 451 0
-220 451 0
-221 451 0
-222 451 0
-223 451 0
-224 451 0
-225 452 0
-226 452 0
-227 452 0
-228 452 0
-229 452 0
-230 452 0
-231 452 0
226 -452 217 225 227 228 229 230 231 0
253 256 269 268 257 258 259 260 254 255 263 264 265 266 267 261 262 270 271 272 273 274 275 276 277 278 279 280 281 282 283 284 285 286 287 288 0
-253 460 0
-254 460 0
-255 460 0
-256 460 0
-257 460 0
-258 460 0
-259 460 0
-260 460 0
-253 461 0
-261 461 0
-262 461 0
-263 461 0
-264 461 0
-265 461 0
-266 461 0
-267 461 0
262 -461 253 261 263 264 265 266 267 0
304 305 289 297 298 294 295 296 292 293 299 300 301 302 303 290 291 306 307 308 309 310 311 312 313 314 315 316 317 318 319 320 321 322 323 324 0
469 -289 0
-290 469 0
-291 469 0
-292 469 0
-293 469 0
-294 469 0
-295 469 0
-296 469 0
-289 470 0
-297 470 0
-298 470 0
-299 470 0
-300 470 0
-301 470 0
-302 470 0
-303 470 0
289 -470 297 298 299 300 301 302 303 0
341 340 325 328 329 330 331 332 333 334 335 336 337 338 339 326 327 342 343 344 345 346 347 348 349 350 351 352 353 354 355 356 357 358 359 360 0
-325 478 0
-326 478 0
-327 478 0
-328 478 0
-329 478 0
-330 478 0
-331 478 0
-332 478 0
479 -325 0
-333 479 0
-334 479 0
-335 479 0
-336 479 0
-337 479 0
-338 479 0
-339 479 0
334 333 325 -479 335 336 337 338 339 0
370 369 -488 361 371 372 373 374 375 0
2547 0
-2646 0
-2548 0
-2647 0
2655 -1 2548 -2547 0
397 2556 -2547 0
2655 2556 -2547 0
-2556 -2655 -397 -2547 0
398 -2557 2548 0
-398 2557 -2655 2548 0
-37 -2557 -2656 0
2565 -2556 406 0
-2565 406 2556 0
2656 2565 -2556 0
-2656 -406 2556 2565 0
-2656 -406 -2565 -2556 0
-2557 2566 407 0
-2566 2557 407 0
2656 -2557 2566 0
2656 -2566 2557 0
-2656 2566 -407 2557 0
-2657 -73 -2566 0
2574 -2565 415 0
2565 -2574 415 0
2657 2574 -2565 0
-2657 -415 2565 2574 0
-2566 2575 416 0
-2575 2566 416 0
2657 -2566 2575 0
-2657 2566 -416 2575 0
-2658 -2575 -109 0
2583 -2574 424 0
2574 -2583 424 0
2658 2583 -2574 0
2584 -2575 425 0
-2584 2575 425 0
-2658 -425 2575 2584 0
-2659 -2584 -145 0
2592 -2583 433 0
2583 -2592 433 0
2659 2592 -2583 0
2593 -2584 434 0
-2593 2584 434 0
-2659 -434 2584 2593 0
-2660 -2593 -181 0
2660 -181 -2592 2593 0
2601 -2592 442 0
2592 -2601 442 0
2660 2601 -2592 0
2602 -2593 443 0
-2602 2593 443 0
2660 -2593 2602 0
-2660 -443 2593 2602 0
-2602 -2661 -217 0
2610 -2601 451 0
2601 -2610 451 0
2661 2610 -2601 0
-2602 2611 452 0
-2611 2602 452 0
2661 -2602 2611 0
-2661 2602 -452 2611 0
-2611 -253 -2662 0
2619 -2610 460 0
2662 2619 -2610 0
2610 -2662 2619 -460 0
-2611 461 2620 0
-2620 2611 461 0
-2611 2662 2620 0
2611 -2662 -461 2620 0
2619 -289 -2663 0
-2620 -2663 -289 0
2620 2663 -289 -2619 0
2628 469 -2619 0
-2620 470 2629 0
-2629 2620 470 0
-2620 2663 2629 0
-470 -2663 2629 2620 0
-2629 -2664 -325 0
-2628 478 2637 0
2664 -2628 2637 0
-2629 479 2638 0
-2664 2629 -479 2638 0
-2638 -2665 -361 0
487 -2637 2646 0
2665 -2637 2646 0
-2638 488 2647 0
2665 -2638 2647 0
-488 -2665 2638 2647 0
-5046 0
5047 0
-5146 0
397 -5055 5046 0
398 5056 -5047 0
-5155 -37 -5056 0
-5064 5055 406 0
5065 -5056 407 0
5155 5065 -5056 0
-5156 -73 -5065 0
-74 -5156 5064 0
-75 -5156 5064 0
-76 -5156 5064 0
-77 -5156 5064 0
-78 -5156 5064 0
-79 -5156 5064 0
-80 -5156 5064 0
-5073 5064 415 0
5074 -5065 416 0
5074 5156 -5065 0
-5157 -109 -5074 0
-5082 5073 424 0
-5157 -424 5073 5082 0
5083 -5074 425 0
5157 5083 -5074 0
-5158 -145 -5083 0
-5082 5158 5083 -145 0
-5091 5082 433 0
5092 -5083 434 0
5158 5092 -5083 0
-5158 5083 -434 5092 0
-5159 -181 -5092 0
-5100 5091 442 0
5101 -5092 443 0
5159 5101 -5092 0
-5160 -217 -5101 0
-5109 5100 451 0
5110 -5101 452 0
5160 5110 -5101 0
-5161 -253 -5110 0
-5118 5109 460 0
5119 -5110 461 0
5161 5119 -5110 0
-5162 -5119 -289 0
-5127 5118 469 0
-5162 5118 -469 5127 0
5128 -5119 470 0
5162 5128 -5119 0
-5163 -5128 -325 0
-5127 5128 -325 5163 0
-5128 479 5137 0
5163 -5128 5137 0
-5163 5128 -479 5137 0
-5164 -5137 -361 0
488 -5137 5146 0
-5137 5164 5146 0
5879 0
-5978 0
5880 0
5979 0
-5987 -1 -5880 0
5987 5888 -5879 0
-5888 -5987 -397 -5879 0
5987 5889 -5880 0
5897 -5888 406 0
5888 -5897 406 0
5898 -5889 407 0
5906 -5897 415 0
5989 5906 -5897 0
5907 -5898 416 0
-5989 -5907 -416 -5898 0
5907 -5990 -117 0
-118 5907 -5990 0
-119 5907 -5990 0
-120 5907 -5990 0
-121 5907 -5990 0
-122 5907 -5990 0
-123 5907 -5990 0
5915 -5906 424 0
5990 5915 -5906 0
5916 -5907 425 0
5907 -5916 425 0
-5990 -425 -5907 -5916 0
-5991 5916 -153 0
-154 -5991 5916 0
-155 -5991 5916 0
-156 -5991 5916 0
-157 -5991 5916 0
-158 -5991 5916 0
-159 -5991 5916 0
5924 -5915 433 0
5991 5924 -5915 0
5925 -5916 434 0
5916 -5925 434 0
-5991 -434 -5916 -5925 0
-189 -5992 5925 0
-190 -5992 5925 0
-5992 5925 -191 0
-192 -5992 5925 0
-193 -5992 5925 0
-194 -5992 5925 0
-195 -5992 5925 0
5933 -5924 442 0
5992 5933 -5924 0
5934 -5925 443 0
5925 -5934 443 0
-5992 -443 -5925 -5934 0
-5993 5934 -225 0
-226 -5993 5934 0
-227 -5993 5934 0
-228 -5993 5934 0
-229 -5993 5934 0
-230 -5993 5934 0
-231 -5993 5934 0
5942 -5933 451 0
5993 5942 -5933 0
5943 -5934 452 0
5934 -5943 452 0
-5993 -5934 -452 -5943 0
5951 -5942 460 0
5952 -5943 461 0
5943 -5952 461 0
5960 -5951 469 0
5995 5960 -5951 0
5961 -5952 470 0
5952 -5961 470 0
-5995 -5961 -470 -5952 0
-5960 478 5969 0
5996 -5960 5969 0
-5961 479 5970 0
5961 479 -5970 0
-5996 -5961 -479 -5970 0
487 -5969 5978 0
-5969 5997 5978 0
488 5970 -5979 0
-5970 -5997 -488 -5979 0
5998 0
-6097 0
-5999 0
6098 0
6000 0
6001 0
6002 0
6003 0
6004 0
6005 0
6006 0
-6106 -2 -6000 0
-6106 -3 -6001 0
-6106 -4 -6002 0
-6106 -5 -6003 0
-6106 -6 -6004 0
-6106 -7 -6005 0
-6106 -8 -6006 0
-6106 -9 -6000 0
-6106 -10 -6001 0
-6106 -11 -6002 0
-6106 -12 -6003 0
-6106 -13 -6004 0
-6106 -14 -6005 0
-6106 -15 -6006 0
-6106 -16 -6001 0
-6106 -17 -6002 0
-6106 -18 -6003 0
-6106 -19 -6004 0
-6106 -20 -6005 0
-6106 -21 -6006 0
-6106 -22 -6002 0
-6106 -23 -6003 0
-6106 -24 -6004 0
-6106 -25 -6005 0
-6106 -26 -6006 0
-6106 -27 -6003 0
-6106 -28 -6004 0
-6106 -29 -6005 0
-6106 -30 -6006 0
-6106 -31 -6004 0
-6106 -32 -6005 0
-6106 -33 -6006 0
-6106 -34 -6005 0
-6106 -35 -6006 0
-6106 -36 -6006 0
397 6007 -5998 0
-6106 -6007 -397 -5998 0
398 -6008 5999 0
-6008 6106 5999 0
-45 -6107 6008 0
-46 -6107 6008 0
-47 -6107 6008 0
-48 -6107 6008 0
-49 -6107 6008 0
-50 -6107 6008 0
-51 -6107 6008 0
6016 406 -6007 0
6007 -6016 406 0
6008 407 -6017 0
6107 6008 -6017 0
-81 -6108 6017 0
-82 -6108 6017 0
-83 -6108 6017 0
-84 -6108 6017 0
-85 -6108 6017 0
-86 -6108 6017 0
-87 -6108 6017 0
6025 -6016 415 0
6016 -6025 415 0
6108 6025 -6016 0
6017 -6026 416 0
6108 6017 -6026 0
-6108 -416 -6026 -6017 0
-117 -6109 6026 0
-118 -6109 6026 0
-119 -6109 6026 0
-120 -6109 6026 0
-121 -6109 6026 0
-122 -6109 6026 0
-123 -6109 6026 0
6034 -6025 424 0
6025 -6034 424 0
6026 -6035 425 0
6109 6026 -6035 0
-153 -6110 6035 0
-154 -6110 6035 0
-155 -6110 6035 0
-156 -6110 6035 0
-157 -6110 6035 0
-158 -6110 6035 0
-159 -6110 6035 0
6043 -6034 433 0
6034 -6043 433 0
6035 -6044 434 0
6110 6035 -6044 0
-189 -6111 6044 0
-190 -6111 6044 0
-191 -6111 6044 0
-192 -6111 6044 0
-193 -6111 6044 0
-194 -6111 6044 0
-195 -6111 6044 0
6052 -6043 442 0
6043 -6052 442 0
6044 -6053 443 0
6111 6044 -6053 0
-225 -6112 6053 0
-226 -6112 6053 0
-227 -6112 6053 0
-228 -6112 6053 0
-229 -6112 6053 0
-230 -6112 6053 0
-231 -6112 6053 0
6061 -6052 451 0
6052 -6061 451 0
6053 452 -6062 0
6112 6053 -6062 0
-261 -6113 6062 0
-262 -6113 6062 0
-263 -6113 6062 0
-264 -6113 6062 0
-265 -6113 6062 0
-266 -6113 6062 0
-267 -6113 6062 0
6070 -6061 460 0
6061 460 -6070 0
461 6062 -6071 0
6113 -6071 6062 0
6070 -289 -6114 0
-297 -6114 6071 0
-298 -6114 6071 0
-299 -6114 6071 0
-300 -6114 6071 0
-301 -6114 6071 0
-302 -6114 6071 0
-303 -6114 6071 0
6079 469 -6070 0
470 6071 -6080 0
6114 -6080 6071 0
-333 -6115 6080 0
-334 -6115 6080 0
-335 -6115 6080 0
-336 -6115 6080 0
-337 -6115 6080 0
-338 -6115 6080 0
-339 -6115 6080 0
-6079 478 6088 0
479 6080 -6089 0
6115 6080 -6089 0
-369 -6116 6089 0
-370 -6116 6089 0
-371 -6116 6089 0
-372 -6116 6089 0
-373 -6116 6089 0
-374 -6116 6089 0
-375 -6116 6089 0
487 -6088 6097 0
6116 -6088 6097 0
488 6089 -6098 0
6089 6116 -6098 0
-6089 -6116 -488 -6098 0
9007 -397 0
-398 9007 0
-406 9008 0
-407 9008 0
-415 9009 0
-416 9009 0
-424 9010 0
-425 9010 0
-433 9011 0
-434 9011 0
-442 9012 0
-443 9012 0
-451 9013 0
-452 9013 0
-460 9014 0
9014 -461 0
-469 9015 0
9015 -470 0
-478 9016 0
9016 -479 0
-487 9017 0
9017 -488 0
-9007 9018 0
-9018 9019 0
-9008 -9018 9020 0
-9020 9021 0
-9020 -9009 0
-9008 9019 0
-9019 9022 0
-9009 -9019 9021 0
-9021 9023 0
-9021 -9010 0
-9009 9022 0
-9022 9024 0
-9010 -9022 9023 0
-9023 9025 0
-9023 -9011 0
-9010 9024 0
-9024 9026 0
-9011 -9024 9025 0
-9025 9027 0
-9025 -9012 0
-9011 9026 0
-9026 9028 0
-9012 -9026 9027 0
-9027 9029 0
-9027 -9013 0
-9012 9028 0
-9028 9030 0
-9013 -9028 9029 0
-9029 9031 0
-9029 -9014 0
-9013 9030 0
9032 -9030 0
-9030 -9014 9031 0
-9031 9033 0
-9031 -9015 0
9032 -9014 0
9034 -9032 0
-9032 -9015 9033 0
-9033 9035 0
-9033 -9016 0
9034 -9015 0
-9016 -9034 9035 0
-9035 -9017 0
-16 -37 0
-17 -37 0
-18 -37 0
-19 -37 0
-20 -37 0
-21 -37 0
-22 -37 0
-23 -37 0
-24 -37 0
-25 -37 0
-37 -26 0
-27 -37 0
-28 -37 0
-29 -37 0
-30 -37 0
-31 -37 0
-32 -37 0
-33 -37 0
-34 -37 0
-35 -37 0
-36 -37 0
-52 -73 0
-53 -73 0
-54 -73 0
-55 -73 0
-56 -73 0
-57 -73 0
-58 -73 0
-59 -73 0
-60 -73 0
-61 -73 0
-62 -73 0
-63 -73 0
-64 -73 0
-65 -73 0
-66 -73 0
-67 -73 0
-68 -73 0
-69 -73 0
-70 -73 0
-71 -73 0
-72 -73 0
-88 -109 0
-89 -109 0
-90 -109 0
-91 -109 0
-92 -109 0
-93 -109 0
-94 -109 0
-95 -109 0
-96 -109 0
-97 -109 0
-98 -109 0
-99 -109 0
-100 -109 0
-101 -109 0
-102 -109 0
-103 -109 0
-104 -109 0
-105 -109 0
-106 -109 0
-107 -109 0
-108 -109 0
-124 -145 0
-125 -145 0
-126 -145 0
-127 -145 0
-128 -145 0
-129 -145 0
-130 -145 0
-131 -145 0
-132 -145 0
-133 -145 0
-134 -145 0
-135 -145 0
-136 -145 0
-137 -145 0
-138 -145 0
-139 -145 0
-140 -145 0
-141 -145 0
-142 -145 0
-143 -145 0
-144 -145 0
-160 -181 0
-161 -181 0
-162 -181 0
-163 -181 0
-164 -181 0
-165 -181 0
-166 -181 0
-167 -181 0
-168 -181 0
-169 -181 0
-170 -181 0
-171 -181 0
-172 -181 0
-173 -181 0
-174 -181 0
-175 -181 0
-176 -181 0
-177 -181 0
-178 -181 0
-179 -181 0
-180 -181 0
-196 -217 0
-197 -217 0
-198 -217 0
-199 -217 0
-200 -217 0
-201 -217 0
-202 -217 0
-203 -217 0
-204 -217 0
-205 -217 0
-206 -217 0
-207 -217 0
-208 -217 0
-209 -217 0
-210 -217 0
-211 -217 0
-212 -217 0
-213 -217 0
-214 -217 0
-215 -217 0
-216 -217 0
-232 -253 0
-233 -253 0
-234 -253 0
-235 -253 0
-236 -253 0
-237 -253 0
-238 -253 0
-239 -253 0
-240 -253 0
-241 -253 0
-242 -253 0
-243 -253 0
-244 -253 0
-245 -253 0
-246 -253 0
-247 -253 0
-248 -253 0
-249 -253 0
-250 -253 0
-251 -253 0
-252 -253 0
-268 -289 0
-269 -289 0
-270 -289 0
-271 -289 0
-272 -289 0
-273 -289 0
-274 -289 0
-275 -289 0
-276 -289 0
-277 -289 0
-278 -289 0
-279 -289 0
-280 -289 0
-281 -289 0
-282 -289 0
-283 -289 0
-284 -289 0
-285 -289 0
-286 -289 0
-287 -289 0
-288 -289 0
-304 -325 0
-305 -325 0
-306 -325 0
-307 -325 0
-308 -325 0
-309 -325 0
-310 -325 0
-311 -325 0
-312 -325 0
-313 -325 0
-314 -325 0
-315 -325 0
-316 -325 0
-317 -325 0
-318 -325 0
-319 -325 0
-320 -325 0
-321 -325 0
-322 -325 0
-323 -325 0
-324 -325 0
-340 -361 0
-341 -361 0
-342 -361 0
-343 -361 0
-344 -361 0
-345 -361 0
-346 -361 0
-347 -361 0
-348 -361 0
-349 -361 0
-350 -361 0
-351 -361 0
-352 -361 0
-353 -361 0
-354 -361 0
-355 -361 0
-356 -361 0
-357 -361 0
-358 -361 0
-359 -361 0
-360 -361 0
