p cnf 8596 1792
9 8 27 1 14 15 7 28 4 3 2 5 6 10 11 16 17 18 19 20 21 12 13 22 31 23 24 25 26 30 29 32 33 34 35 36 0
397 -1 0
397 -2 0
397 -3 0
397 -4 0
397 -5 0
397 -6 0
397 -7 0
397 -8 0
8 1 -397 2 3 4 5 6 7 0
398 -1 0
398 -9 0
398 -10 0
398 -11 0
398 -12 0
398 -13 0
398 -14 0
398 -15 0
-9 399 0
-16 399 0
-17 399 0
-18 399 0
-19 399 0
-20 399 0
-21 399 0
58 59 38 40 41 42 43 44 37 39 52 53 49 50 51 45 48 54 55 56 57 46 47 60 61 62 63 64 65 66 67 68 69 70 71 72 0
531 -37 0
-38 -531 0
-37 406 0
-38 406 0
-39 406 0
-40 406 0
-41 406 0
-42 406 0
-43 406 0
-44 406 0
-406 39 38 37 40 41 42 43 44 0
-45 407 0
-46 407 0
-47 407 0
-48 407 0
-49 407 0
-50 407 0
-51 407 0
46 45 37 -407 47 48 49 50 51 0
-38 408 0
-45 408 0
-52 408 0
-53 408 0
-54 408 0
-55 408 0
-56 408 0
-57 408 0
57 -408 38 45 54 52 53 55 56 0
95 94 85 86 88 89 79 80 73 74 75 76 77 78 81 87 82 90 91 92 93 83 84 96 97 98 99 100 101 102 103 104 105 106 107 108 0
-73 415 0
-74 415 0
-75 415 0
-76 415 0
-77 415 0
-78 415 0
-79 415 0
-80 415 0
-415 74 73 75 76 77 78 79 80 0
416 -73 0
-81 416 0
-82 416 0
-83 416 0
-84 416 0
-85 416 0
-86 416 0
-87 416 0
85 -416 73 84 81 82 83 86 87 0
-74 417 0
-81 417 0
92 93 81 74 -417 88 89 90 91 0
131 130 113 117 124 125 115 116 110 111 109 112 114 120 121 122 118 126 127 128 129 119 123 132 133 134 135 136 137 138 139 140 141 142 143 144 0
601 -109 0
-110 -601 0
-109 424 0
-110 424 0
-111 424 0
-112 424 0
-113 424 0
-114 424 0
-115 424 0
-116 424 0
-424 111 110 109 112 113 114 115 116 0
425 -109 0
-117 425 0
-118 425 0
-119 425 0
-120 425 0
-121 425 0
-122 425 0
-123 425 0
119 -425 109 118 117 120 121 122 123 0
-117 426 0
-124 426 0
-125 426 0
-126 426 0
-127 426 0
-128 426 0
-129 426 0
-426 124 110 125 117 127 126 128 129 0
166 167 153 158 164 165 151 152 147 145 146 149 148 150 159 154 155 160 161 162 163 156 157 168 169 170 171 172 173 174 175 176 177 178 179 180 0
-145 433 0
-146 433 0
-147 433 0
-148 433 0
-149 433 0
-150 433 0
-151 433 0
-152 433 0
147 -433 146 145 148 149 150 151 152 0
-153 434 0
-154 434 0
-155 434 0
-156 434 0
-157 434 0
-158 434 0
-159 434 0
158 -434 145 153 155 156 157 154 159 0
-160 435 0
-161 435 0
-162 435 0
-163 435 0
-164 435 0
-165 435 0
-435 162 153 146 163 161 160 164 165 0
193 194 203 202 183 184 187 188 181 182 200 201 185 186 195 189 190 196 197 198 199 191 192 204 205 206 207 208 209 210 211 212 213 214 215 216 0
-181 442 0
-182 442 0
-183 442 0
-184 442 0
-185 442 0
-186 442 0
-187 442 0
-188 442 0
183 -442 181 182 184 185 186 187 188 0
-189 443 0
-190 443 0
-191 443 0
-192 443 0
-193 443 0
-194 443 0
-195 443 0
195 -443 181 189 191 192 193 194 190 0
-196 444 0
-197 444 0
-198 444 0
-199 444 0
-200 444 0
-201 444 0
-444 196 182 189 197 198 199 200 201 0
239 238 227 230 219 220 223 224 217 218 221 222 232 233 231 225 226 234 235 236 237 228 229 240 241 242 243 244 245 246 247 248 249 250 251 252 0
-217 451 0
-218 451 0
-219 451 0
-220 451 0
-221 451 0
-222 451 0
-223 451 0
-224 451 0
-451 218 217 219 220 221 222 223 224 0
-225 452 0
-226 452 0
-227 452 0
-228 452 0
-229 452 0
-230 452 0
-231 452 0
225 226 217 -452 227 228 229 230 231 0
453 -225 0
-232 453 0
-233 453 0
-234 453 0
-235 453 0
-236 453 0
-237 453 0
236 225 -453 218 232 233 235 234 237 0
257 258 261 265 253 264 259 260 256 270 271 277 276 266 267 254 255 262 263 272 273 269 268 274 275 278 279 280 281 282 283 284 285 286 287 288 0
741 -253 0
-254 -741 0
-253 460 0
-254 460 0
-255 460 0
-256 460 0
-257 460 0
-258 460 0
-259 460 0
-260 460 0
-460 253 254 255 256 257 258 259 260 0
461 -253 0
-261 461 0
-262 461 0
-263 461 0
-264 461 0
-265 461 0
-266 461 0
-267 461 0
263 264 -461 253 261 262 265 266 267 0
-261 462 0
-268 462 0
-269 462 0
-270 462 0
-271 462 0
-272 462 0
-273 462 0
273 268 254 261 -462 270 271 272 269 0
294 299 304 303 297 305 295 296 290 293 289 291 292 300 301 302 298 306 307 308 309 310 311 312 313 314 315 316 317 318 319 320 321 322 323 324 0
-289 469 0
-290 469 0
-291 469 0
-292 469 0
-293 469 0
-294 469 0
-295 469 0
-296 469 0
-469 291 290 289 292 293 294 295 296 0
470 -289 0
470 -297 0
-298 470 0
-299 470 0
-300 470 0
-301 470 0
-302 470 0
-303 470 0
299 297 -470 289 298 300 301 302 303 0
-290 471 0
-304 471 0
-305 471 0
-306 471 0
-307 471 0
-308 471 0
-309 471 0
297 290 304 -471 305 306 307 308 309 0
335 325 334 336 332 328 329 330 331 326 327 337 333 338 340 341 339 342 343 344 345 346 347 348 349 350 351 352 353 354 355 356 357 358 359 360 0
811 -325 0
812 -811 0
-326 -811 0
-326 812 0
813 -812 0
-327 813 0
814 -813 0
-328 814 0
815 -814 0
-329 815 0
816 -815 0
-330 816 0
817 -816 0
-331 817 0
818 -817 0
-332 818 0
819 -818 0
-818 -333 0
819 -333 0
820 -819 0
-819 -334 0
821 -820 0
-335 -820 0
822 -821 0
-336 -821 0
823 -822 0
-337 -822 0
824 -823 0
-823 -338 0
825 -824 0
-339 -824 0
826 -825 0
-340 -825 0
827 -826 0
-341 -826 0
828 -827 0
-342 -827 0
829 -828 0
-343 -828 0
830 -829 0
-344 -829 0
-345 -830 0
478 -325 0
-326 478 0
-327 478 0
-328 478 0
-329 478 0
-330 478 0
-331 478 0
-332 478 0
325 -478 326 327 328 329 330 331 332 0
-333 479 0
-334 479 0
-335 479 0
-336 479 0
-337 479 0
-338 479 0
-339 479 0
325 335 334 -479 336 337 338 333 339 0
-326 480 0
-333 480 0
-340 480 0
-341 480 0
-342 480 0
-343 480 0
-344 480 0
-345 480 0
-480 344 333 326 340 341 343 342 345 0
481 -334 0
482 -335 0
483 -336 0
484 -337 0
485 -338 0
486 -339 0
-361 846 0
-846 847 0
-846 -362 0
-847 848 0
-848 849 0
-849 850 0
-850 851 0
-851 852 0
-852 853 0
-853 854 0
-369 -853 0
-854 855 0
-855 856 0
-856 857 0
-857 858 0
-858 859 0
-859 860 0
-860 861 0
-376 -860 0
-861 862 0
-377 -861 0
863 -862 0
-862 -378 0
864 -863 0
-379 -863 0
865 -864 0
-380 -864 0
-381 -865 0
-361 487 0
-362 487 0
363 362 -487 361 364 365 366 367 368 0
-361 488 0
370 371 -488 369 361 372 373 374 375 0
362 378 379 -489 369 376 377 381 380 0
-1595 0
1596 0
-1696 0
397 -1604 1595 0
398 1605 -1596 0
-1613 406 1604 0
1614 -1605 407 0
-1622 1613 415 0
1623 -1614 416 0
-1631 1622 424 0
1632 -1623 425 0
-1640 1631 433 0
1641 -1632 434 0
-1649 1640 442 0
1650 -1641 443 0
-1658 1649 451 0
1659 -1650 452 0
-1667 1658 460 0
1668 -1659 461 0
-1669 -1711 -297 0
1669 1711 -297 -1668 0
-1676 1667 469 0
1678 -1669 1711 0
1669 -1711 -471 1678 0
1687 -1678 480 0
-362 -1713 -1687 0
-369 -1713 -1687 0
489 -1687 1696 0
1713 -1687 1696 0
3975 0
-4074 0
3976 0
-4075 0
-3977 0
4076 0
3978 0
3979 0
3980 0
3982 0
3983 0
-1 -4083 -3976 0
397 3984 -3975 0
4083 3984 -3975 0
398 3985 -3976 0
4083 3985 -3976 0
-3986 399 3977 0
4083 -3986 3977 0
4083 3987 -3978 0
4083 3988 -3979 0
4083 3989 -3980 0
4083 3991 -3982 0
4083 3992 -3983 0
-4084 -37 -3985 0
3993 406 -3984 0
3993 4084 -3984 0
3994 -3985 407 0
-4084 -407 3985 3994 0
-3995 408 3986 0
-4085 -73 -3994 0
4002 -3993 415 0
4085 4002 -3993 0
4003 -3994 416 0
-4085 3994 -416 4003 0
-4004 3995 417 0
-4086 -109 -4003 0
4011 -4002 424 0
4086 4011 -4002 0
4012 -4003 425 0
4012 -4086 -425 4003 0
-4013 426 4004 0
-4087 -145 -4012 0
4020 -4011 433 0
4087 4020 -4011 0
4021 -4012 434 0
4012 4021 -434 -4087 0
-4022 4013 435 0
-4088 -181 -4021 0
4029 -4020 442 0
4088 4029 -4020 0
4030 -4021 443 0
4030 4021 -443 -4088 0
-4089 -217 -4030 0
4038 -4029 451 0
4089 4038 -4029 0
4039 -4030 452 0
4030 4039 -452 -4089 0
-4090 -253 -4039 0
4047 -4038 460 0
4090 4047 -4038 0
4048 -4039 461 0
-4090 4039 -461 4048 0
-289 -4091 -4048 0
4048 -4091 -297 0
4056 469 -4047 0
4091 4056 -4047 0
470 -4048 4057 0
4091 -4048 4057 0
4048 4057 -4091 -470 0
-4057 -325 -4092 0
4065 -4056 478 0
4092 4065 -4056 0
-4057 479 4066 0
-4092 4057 4066 -479 0
-4066 -361 -4093 0
-376 4067 -4093 0
-377 4067 -4093 0
-378 4067 -4093 0
-379 4067 -4093 0
-380 4067 -4093 0
-381 4067 -4093 0
-4065 487 4074 0
4093 -4065 4074 0
488 -4066 4075 0
-4066 4093 4075 0
-4093 -488 4066 4075 0
-4093 -4067 -489 -4076 0
5284 0
-5383 0
-5384 0
5286 0
397 5293 -5284 0
399 5295 -5286 0
5302 406 -5293 0
5304 -5295 408 0
5311 -5302 415 0
5313 417 -5304 0
5320 -5311 424 0
5322 -5313 426 0
-5321 -5396 -145 0
5329 -5320 433 0
5396 5329 -5320 0
5330 5321 -434 -5396 0
5331 -5322 435 0
-5397 -5331 -189 0
5338 -5329 442 0
5397 -5330 5339 0
5347 -5338 451 0
-5339 5348 452 0
5356 -5347 460 0
-5348 5357 461 0
5365 -5356 469 0
-5357 5366 470 0
5374 -5365 478 0
-5366 5375 479 0
487 -5374 5383 0
488 -5375 5384 0
-5403 0
-5502 0
5404 0
-5503 0
-5405 0
5504 0
5406 0
5407 0
5408 0
5409 0
5410 0
5411 0
-5511 -1 -5404 0
-5511 -2 5403 0
-5511 -3 5403 0
-5511 -4 5403 0
-5511 -5 5403 0
-5511 -6 5403 0
-5511 -7 5403 0
-5511 -8 5403 0
5511 -9 5405 -5404 0
-10 -5511 -5406 0
-11 -5511 -5407 0
-12 -5511 -5408 0
-13 -5511 -5409 0
-14 -5511 -5410 0
-15 -5511 -5411 0
-16 -5511 -5406 0
-17 -5511 -5407 0
-18 -5511 -5408 0
-19 -5511 -5409 0
-20 -5511 -5410 0
-21 -5511 -5411 0
-22 -5511 -5407 0
-23 -5511 -5408 0
-24 -5511 -5409 0
-25 -5511 -5410 0
-26 -5511 -5411 0
-27 -5511 -5408 0
-28 -5511 -5409 0
-29 -5511 -5410 0
-30 -5511 -5411 0
-31 -5511 -5409 0
-32 -5511 -5410 0
-33 -5511 -5411 0
-34 -5511 -5410 0
-35 -5511 -5411 0
-36 -5511 -5411 0
-5412 397 5403 0
5511 -5412 5403 0
5412 -397 -5511 5403 0
5511 5413 -5404 0
-5413 -398 -5511 -5404 0
-5414 399 5405 0
5511 -5414 5405 0
-37 -5512 5412 0
-38 -5512 5412 0
-39 -5512 5412 0
-40 -5512 5412 0
-41 -5512 5412 0
-42 -5512 5412 0
-43 -5512 5412 0
-44 -5512 5412 0
-52 -5512 5414 0
-53 -5512 5414 0
-5512 -54 5414 0
-55 -5512 5414 0
-56 -5512 5414 0
-57 -5512 5414 0
-5421 406 5412 0
5512 -5421 5412 0
-5512 -406 5421 5412 0
5413 -5422 407 0
5512 5413 -5422 0
-5512 -5422 -407 -5413 0
-5423 408 5414 0
5512 -5423 5414 0
-73 -5513 5421 0
-5513 -73 -5422 0
-74 -5513 5421 0
-75 -5513 5421 0
-76 -5513 5421 0
-77 -5513 5421 0
-78 -5513 5421 0
-79 -5513 5421 0
-80 -5513 5421 0
5422 -5513 -81 0
-82 5422 -5513 0
-83 5422 -5513 0
5422 -5513 -84 0
-85 5422 -5513 0
-86 5422 -5513 0
-87 5422 -5513 0
-88 -5513 5423 0
-89 -5513 5423 0
-90 -5513 5423 0
-91 -5513 5423 0
-5513 -92 5423 0
-93 -5513 5423 0
-5430 5421 415 0
5513 -5421 5430 0
5513 -5430 5421 0
-5513 -415 5421 5430 0
5422 -5431 416 0
5422 5513 -5431 0
-5513 -5422 -416 -5431 0
-5432 417 5423 0
-5432 5513 5423 0
-5514 -109 5430 0
-5514 -109 -5431 0
-110 -5514 5430 0
-111 -5514 5430 0
-112 -5514 5430 0
-113 -5514 5430 0
-114 -5514 5430 0
-115 -5514 5430 0
-116 -5514 5430 0
5431 -117 -5514 0
-124 -5514 5432 0
-125 -5514 5432 0
-126 -5514 5432 0
-127 -5514 5432 0
-128 -5514 5432 0
-129 -5514 5432 0
-5439 5430 424 0
5514 -5430 5439 0
5514 -5439 5430 0
-5514 -424 5430 5439 0
5440 -5431 425 0
5431 -5440 425 0
5431 -5440 5514 0
-5514 -5440 -425 -5431 0
-5441 5432 426 0
5514 -5441 5432 0
-5515 -145 5439 0
-5515 -146 5439 0
-147 -5515 5439 0
-148 -5515 5439 0
-149 -5515 5439 0
-150 -5515 5439 0
-151 -5515 5439 0
-152 -5515 5439 0
-153 -5515 5440 0
-154 -5515 5440 0
-155 -5515 5440 0
-156 -5515 5440 0
-157 -5515 5440 0
-5515 5440 -158 0
-159 -5515 5440 0
-160 -5515 5441 0
-161 -5515 5441 0
-5515 -162 5441 0
-163 -5515 5441 0
-164 -5515 5441 0
-165 -5515 5441 0
-5439 5448 433 0
-5448 5439 433 0
5515 -5448 5439 0
-5515 -433 5448 5439 0
5449 -5440 434 0
-5449 5440 434 0
-5440 5449 5515 0
5515 5440 -5449 0
-5515 -5449 -434 -5440 0
-5450 435 5441 0
-5450 5515 5441 0
-5516 -181 5448 0
-5516 -181 -5449 0
-182 -5516 5448 0
-183 -5516 5448 0
-184 -5516 5448 0
-185 -5516 5448 0
-186 -5516 5448 0
-187 -5516 5448 0
-188 -5516 5448 0
5449 -5516 -189 0
-190 5449 -5516 0
-191 5449 -5516 0
-192 5449 -5516 0
-193 5449 -5516 0
-194 5449 -5516 0
-195 5449 -5516 0
-5516 -196 5450 0
-197 -5516 5450 0
-198 -5516 5450 0
-199 -5516 5450 0
-200 -5516 5450 0
-201 -5516 5450 0
-5448 5457 442 0
-5457 5448 442 0
5516 -5448 5457 0
5516 -5457 5448 0
-5516 -442 5457 5448 0
5458 -5449 443 0
5449 -5458 443 0
5449 -5458 5516 0
-5516 -5458 -443 -5449 0
-5459 444 5450 0
-5459 5516 5450 0
-5517 -217 5457 0
-218 -5517 5457 0
-219 -5517 5457 0
-220 -5517 5457 0
-221 -5517 5457 0
-222 -5517 5457 0
-223 -5517 5457 0
-224 -5517 5457 0
-5517 5458 -225 0
-5458 5459 -225 5517 0
-226 -5517 5458 0
-227 -5517 5458 0
-228 -5517 5458 0
-229 -5517 5458 0
-230 -5517 5458 0
-231 -5517 5458 0
-5517 -232 5459 0
-233 -5517 5459 0
-234 -5517 5459 0
-235 -5517 5459 0
-236 -5517 5459 0
-237 -5517 5459 0
5466 -5457 451 0
-5466 5457 451 0
5517 -5466 5457 0
5467 -5458 452 0
-5467 5458 452 0
5517 5458 -5467 0
-5517 5458 -452 5467 0
-5517 -5467 -452 -5458 0
-5468 453 5459 0
-5468 5517 5459 0
-5459 -5517 -453 -5468 0
-5518 -253 5466 0
-254 -5518 5466 0
-255 -5518 5466 0
-256 -5518 5466 0
-257 -5518 5466 0
-258 -5518 5466 0
-259 -5518 5466 0
-260 -5518 5466 0
-261 5467 -5518 0
-261 -5467 5468 5518 0
-262 5467 -5518 0
5467 -5518 -263 0
-264 5467 -5518 0
-265 5467 -5518 0
-266 5467 -5518 0
-267 5467 -5518 0
-268 -5518 5468 0
-269 -5518 5468 0
-270 -5518 5468 0
-271 -5518 5468 0
-272 -5518 5468 0
-5518 5468 -273 0
-5466 5475 460 0
-5475 5466 460 0
5518 -5475 5466 0
-5518 -460 5475 5466 0
5476 -5467 461 0
5467 -5476 461 0
5518 5467 -5476 0
-5518 -5476 -461 -5467 0
-5477 462 5468 0
5518 -5477 5468 0
-5519 -289 5475 0
-5519 -289 -5476 0
-290 -5519 5475 0
-291 -5519 5475 0
-292 -5519 5475 0
-293 -5519 5475 0
-294 -5519 5475 0
-295 -5519 5475 0
-296 -5519 5475 0
5476 -5519 -297 0
-304 -5519 5477 0
-305 -5519 5477 0
-306 -5519 5477 0
-307 -5519 5477 0
-308 -5519 5477 0
-309 -5519 5477 0
-5475 5484 469 0
-5484 5475 469 0
5519 -5475 5484 0
-5484 5519 5475 0
-5519 -469 5484 5475 0
-5475 -469 -5484 -5519 0
470 -5476 5485 0
5476 -5485 470 0
5519 -5476 5485 0
5476 5519 -5485 0
471 5477 -5486 0
-5477 5486 5519 0
5519 5477 -5486 0
-5520 5484 -325 0
-5485 -5520 -325 0
-326 -5520 5484 0
-327 -5520 5484 0
-328 -5520 5484 0
-329 -5520 5484 0
-330 -5520 5484 0
-331 -5520 5484 0
-332 -5520 5484 0
5485 -333 -5520 0
-5520 -333 -5486 0
-5487 -5520 -334 0
-5488 -335 -5520 0
-5489 -336 -5520 0
-5490 -337 -5520 0
-5491 -5520 -338 0
-5492 -339 -5520 0
-340 5486 -5520 0
-341 5486 -5520 0
-342 5486 -5520 0
-343 5486 -5520 0
-344 5486 -5520 0
-345 5486 -5520 0
-5484 5493 478 0
-5493 5484 478 0
-5493 5520 5484 0
-5485 5494 479 0
5485 -5494 479 0
-5485 5520 5494 0
5485 -5520 -479 5494 0
5486 -5495 480 0
5486 -5495 5520 0
5495 -480 -5520 5486 0
-5520 -480 -5495 -5486 0
-5521 -5494 -361 0
-5521 5493 -362 0
-5495 -362 -5521 0
-369 5494 -5521 0
-376 5495 -5521 0
-377 5495 -5521 0
5495 -378 -5521 0
-379 5495 -5521 0
-380 5495 -5521 0
-381 5495 -5521 0
487 -5493 5502 0
5521 -5493 5502 0
-487 -5521 5493 5502 0
488 -5494 5503 0
-5494 5521 5503 0
-5521 5494 -488 5503 0
5495 489 -5504 0
5521 5495 -5504 0
5522 0
-5621 0
5523 0
5622 0
-5524 0
5623 0
5525 0
5526 0
5527 0
5528 0
5529 0
5530 0
-5630 -1 -5523 0
-5630 -3 -5525 0
-5630 -4 -5526 0
-5630 -5 -5527 0
-5630 -6 -5528 0
-5630 -7 -5529 0
-5630 -8 -5530 0
-5630 -10 -5525 0
-5630 -11 -5526 0
-5630 -12 -5527 0
-5630 -13 -5528 0
-5630 -14 -5529 0
-5630 -15 -5530 0
-5630 -16 -5525 0
-5630 -17 -5526 0
-5630 -18 -5527 0
-5630 -19 -5528 0
-5630 -20 -5529 0
-5630 -21 -5530 0
-5630 -22 -5526 0
-5630 -23 -5527 0
-5630 -24 -5528 0
-5630 -25 -5529 0
-5630 -26 -5530 0
-5630 -27 -5527 0
-5630 -28 -5528 0
-5630 -29 -5529 0
-5630 -30 -5530 0
-5630 -31 -5528 0
-5630 -32 -5529 0
-5630 -33 -5530 0
-5630 -34 -5529 0
-5630 -35 -5530 0
-5630 -36 -5530 0
5531 397 -5522 0
5531 5630 -5522 0
5532 5630 -5523 0
-5533 399 5524 0
-5533 5630 5524 0
5534 5630 -5525 0
5535 5630 -5526 0
5536 5630 -5527 0
5537 5630 -5528 0
5538 5630 -5529 0
5539 5630 -5530 0
-37 -5631 -5532 0
-46 -5631 -5534 0
-47 -5631 -5535 0
-48 -5631 -5536 0
-49 -5631 -5537 0
-50 -5631 -5538 0
-51 -5631 -5539 0
-52 -5631 5533 0
-53 -5631 5533 0
-54 -5631 5533 0
-55 -5631 5533 0
-56 -5631 5533 0
-57 -5631 5533 0
-58 -5631 -5535 0
-59 -5631 -5536 0
-60 -5631 -5537 0
-61 -5631 -5538 0
-62 -5631 -5539 0
-63 -5631 -5536 0
-64 -5631 -5537 0
-65 -5631 -5538 0
-66 -5631 -5539 0
-67 -5631 -5537 0
-68 -5631 -5538 0
-69 -5631 -5539 0
-70 -5631 -5538 0
-71 -5631 -5539 0
-72 -5631 -5539 0
5540 406 -5531 0
5540 5631 -5531 0
5541 5631 -5532 0
-5542 408 5533 0
5631 -5542 5533 0
5543 5631 -5534 0
5544 5631 -5535 0
5545 5631 -5536 0
5546 5631 -5537 0
5547 5631 -5538 0
5548 5631 -5539 0
-73 -5541 -5632 0
-82 -5543 -5632 0
-83 -5544 -5632 0
-5545 -5632 -84 0
-85 -5546 -5632 0
-86 -5547 -5632 0
-87 -5548 -5632 0
-88 -5632 5542 0
-89 -5632 5542 0
-90 -5632 5542 0
-91 -5632 5542 0
-92 -5632 5542 0
-93 -5632 5542 0
5549 -5540 415 0
5632 5549 -5540 0
5550 -5541 416 0
5632 5550 -5541 0
-5551 417 5542 0
5632 -5551 5542 0
-5633 -109 -5550 0
-124 -5633 5551 0
-125 -5633 5551 0
-126 -5633 5551 0
-127 -5633 5551 0
-128 -5633 5551 0
-129 -5633 5551 0
5558 -5549 424 0
5633 5558 -5549 0
-5559 5550 425 0
5559 5550 -425 -5633 0
-5560 426 5551 0
5633 -5560 5551 0
5634 -153 -5559 5560 0
-160 -5634 5560 0
-161 -5634 5560 0
-162 -5634 5560 0
-163 -5634 5560 0
-164 -5634 5560 0
-165 -5634 5560 0
5567 -5558 433 0
-5568 5559 434 0
-5568 -5559 -434 -5634 0
-5569 435 5560 0
5634 -5569 5560 0
-5568 -181 -5635 0
-196 -5635 5569 0
-197 -5635 5569 0
-198 -5635 5569 0
-199 -5635 5569 0
-200 -5635 5569 0
-201 -5635 5569 0
5576 -5567 442 0
5635 5576 -5567 0
5568 -5577 443 0
5568 -5635 -443 5577 0
-5578 444 5569 0
5635 -5578 5569 0
-5577 -217 -5636 0
5636 -5577 5578 -225 0
-232 -5636 5578 0
-233 -5636 5578 0
-234 -5636 5578 0
-235 -5636 5578 0
-236 -5636 5578 0
-237 -5636 5578 0
5585 -5576 451 0
5636 5585 -5576 0
5577 -5586 452 0
5586 -5636 -452 5577 0
-5577 -5636 -452 -5586 0
-5587 453 5578 0
5636 -5587 5578 0
-253 -5586 -5637 0
5637 -261 -5586 5587 0
-268 -5637 5587 0
-269 -5637 5587 0
-270 -5637 5587 0
-271 -5637 5587 0
-272 -5637 5587 0
-273 -5637 5587 0
5594 -5585 460 0
5637 5594 -5585 0
5586 -5595 461 0
5586 5595 -461 -5637 0
-5586 -461 -5637 -5595 0
462 5587 -5596 0
5637 5587 -5596 0
-5638 -289 -5595 0
5638 5596 -297 -5595 0
-304 -5638 5596 0
-305 -5638 5596 0
-306 -5638 5596 0
-307 -5638 5596 0
-308 -5638 5596 0
-309 -5638 5596 0
5603 -5594 469 0
5638 5603 -5594 0
-5604 5595 470 0
5604 5595 -470 -5638 0
-5604 -5638 -470 -5595 0
471 5596 -5605 0
5639 -5604 -333 5605 0
5612 -5603 478 0
5604 479 -5613 0
-5604 -5639 -479 -5613 0
5605 -5614 480 0
-369 5613 -5640 0
-5640 5613 -370 0
-371 -5640 5613 0
-372 -5640 5613 0
-373 -5640 5613 0
-374 -5640 5613 0
-375 5613 -5640 0
-376 5614 -5640 0
-377 5614 -5640 0
5614 -378 -5640 0
-379 5614 -5640 0
-380 5614 -5640 0
-381 5614 -5640 0
487 -5612 5621 0
5613 488 -5622 0
5640 5613 -5622 0
-5613 -5640 -488 -5622 0
5614 489 -5623 0
5640 5614 -5623 0
5641 0
-5642 0
5741 0
5643 0
5644 0
5645 0
5646 0
5647 0
5648 0
5649 0
5749 -1 5642 -5641 0
-5749 -2 -5643 0
-5749 -3 -5644 0
-5749 -4 -5645 0
-5749 -5 -5646 0
-5749 -6 -5647 0
-5749 -7 -5648 0
-5749 -8 -5649 0
-5749 -9 -5643 0
-5749 -10 -5644 0
-5749 -11 -5645 0
-5749 -12 -5646 0
-5749 -13 -5647 0
-5749 -14 -5648 0
-5749 -15 -5649 0
-5749 -16 -5644 0
-5749 -17 -5645 0
-5749 -18 -5646 0
-5749 -19 -5647 0
-5749 -20 -5648 0
-5749 -21 -5649 0
-5749 -22 -5645 0
-5749 -23 -5646 0
-5749 -24 -5647 0
-5749 -25 -5648 0
-5749 -26 -5649 0
-5749 -27 -5646 0
-5749 -28 -5647 0
-5749 -29 -5648 0
-5749 -30 -5649 0
-5749 -31 -5647 0
-5749 -32 -5648 0
-5749 -33 -5649 0
-5749 -34 -5648 0
-5749 -35 -5649 0
-5749 -36 -5649 0
398 -5651 5642 0
-5651 5749 5642 0
-398 -5749 5651 5642 0
5652 399 -5643 0
-45 -5750 5651 0
-46 -5750 5651 0
-47 -5750 5651 0
-48 -5750 5651 0
-49 -5750 5651 0
-50 -5750 5651 0
-51 -5750 5651 0
-5660 407 5651 0
5750 -5660 5651 0
5661 408 -5652 0
-81 -5751 5660 0
-82 -5751 5660 0
-83 -5751 5660 0
-84 -5751 5660 0
-85 -5751 5660 0
-86 -5751 5660 0
-87 -5751 5660 0
5660 -5669 416 0
5751 5660 -5669 0
5670 -5661 417 0
-117 -5752 5669 0
-118 -5752 5669 0
-119 -5752 5669 0
-120 -5752 5669 0
-121 -5752 5669 0
-122 -5752 5669 0
-123 -5752 5669 0
5669 -5678 425 0
5752 5669 -5678 0
5679 426 -5670 0
-153 -5753 5678 0
-154 -5753 5678 0
-155 -5753 5678 0
-156 -5753 5678 0
-157 -5753 5678 0
-158 -5753 5678 0
-159 -5753 5678 0
5678 -5687 434 0
5753 5678 -5687 0
5688 -5679 435 0
-435 -5688 -5753 -5679 0
-189 -5754 5687 0
5688 5754 -5687 -189 0
-190 -5754 5687 0
-191 -5754 5687 0
-192 -5754 5687 0
-193 -5754 5687 0
-194 -5754 5687 0
-195 -5754 5687 0
5687 443 -5696 0
5754 5687 -5696 0
-5754 -443 -5687 -5696 0
5697 444 -5688 0
-5697 -444 -5688 -5754 0
-218 -5697 -5755 0
-225 -5755 5696 0
5697 5755 -5696 -225 0
-226 -5755 5696 0
-227 -5755 5696 0
-228 -5755 5696 0
-229 -5755 5696 0
-230 -5755 5696 0
-231 -5755 5696 0
452 -5705 5696 0
5755 -5705 5696 0
-5755 -5696 -452 -5705 0
5706 -5697 453 0
-261 -5756 5705 0
5706 -261 -5705 5756 0
-262 -5756 5705 0
-263 -5756 5705 0
-264 -5756 5705 0
-265 -5756 5705 0
-266 -5756 5705 0
-267 -5756 5705 0
461 -5714 5705 0
5756 -5714 5705 0
-5756 -5714 -5705 -461 0
5715 462 -5706 0
-290 -5715 -5757 0
-5757 5714 -297 0
-298 -5757 5714 0
-299 -5757 5714 0
-300 -5757 5714 0
-301 -5757 5714 0
-302 -5757 5714 0
-303 -5757 5714 0
470 -5723 5714 0
5757 -5723 5714 0
-333 -5758 5723 0
-334 -5758 5723 0
-335 -5758 5723 0
-336 -5758 5723 0
-337 -5758 5723 0
-338 -5758 5723 0
-339 -5758 5723 0
479 5723 -5732 0
5758 5723 -5732 0
-369 -5759 5732 0
-370 -5759 5732 0
-371 -5759 5732 0
-372 -5759 5732 0
-373 -5759 5732 0
-374 -5759 5732 0
-375 -5759 5732 0
5732 488 -5741 0
5732 5759 -5741 0
8360 -461 0
8361 -469 0
-8382 -8360 8383 0
-8383 -8361 0
8423 -397 5403 0
8423 -399 5405 0
-406 8424 5412 0
5413 8424 -407 0
-408 8424 5414 0
-415 5421 8425 0
5422 8425 -416 0
-417 5423 8425 0
-424 5430 8426 0
5431 8426 -425 0
-426 5432 8426 0
-433 5439 8427 0
5440 8427 -434 0
-435 5441 8427 0
-442 5448 8428 0
5449 8428 -443 0
-444 5450 8428 0
-451 5457 8429 0
5458 8429 -452 0
5459 8429 -453 0
-460 5466 8430 0
5467 8430 -461 0
5468 8430 -462 0
-469 5475 8431 0
5476 8431 -470 0
5477 8431 -471 0
8432 5484 -478 0
5485 8432 -479 0
5486 8432 -480 0
5487 8432 -481 0
5488 -482 8432 0
5489 -483 8432 0
5490 -484 8432 0
5491 8432 -485 0
5492 -486 8432 0
8433 5493 -487 0
8433 5494 -488 0
5495 8433 -489 0
8434 -8423 0
8435 -8434 0
-8424 8436 -8434 0
-8436 8437 0
-8436 -8425 0
-8424 8435 0
8438 -8435 0
-8425 8437 -8435 0
-8437 8439 0
-8437 -8426 0
-8425 8438 0
8440 -8438 0
-8426 8439 -8438 0
-8439 8441 0
-8439 -8427 0
-8426 8440 0
8442 -8440 0
-8427 8441 -8440 0
-8441 8443 0
-8441 -8428 0
-8427 8442 0
8444 -8442 0
-8428 8443 -8442 0
-8443 8445 0
-8443 -8429 0
-8428 8444 0
8446 -8444 0
-8429 8445 -8444 0
-8445 8447 0
-8445 -8430 0
-8429 8446 0
8448 -8446 0
-8430 8447 -8446 0
-8447 8449 0
-8447 -8431 0
-8430 8448 0
8450 -8448 0
-8431 8449 -8448 0
-8449 8451 0
-8449 -8432 0
-8431 8450 0
8451 -8432 -8450 0
-8451 -8433 0
8487 -397 0
-398 8487 0
-406 8488 0
-407 8488 0
-415 8489 0
-416 8489 0
-424 8490 0
-425 8490 0
-433 8491 0
-434 8491 0
-442 8492 0
-443 8492 0
-451 8493 0
8493 -452 0
-460 8494 0
8494 -461 0
8495 -469 0
8495 -470 0
-478 8496 0
8496 -479 0
8497 -487 0
8497 -488 0
8498 -8487 0
8499 -8498 0
-8488 8500 -8498 0
-8500 8501 0
-8500 -8489 8502 0
-8502 8503 0
-8502 -8490 0
-8488 8499 0
8504 -8499 0
-8489 8501 -8499 0
-8501 8505 0
-8501 -8490 8503 0
-8503 8506 0
-8503 -8491 0
-8489 8504 0
8507 -8504 0
-8490 8505 -8504 0
-8505 8508 0
-8505 -8491 8506 0
-8506 8509 0
-8506 -8492 0
-8490 8507 0
8510 -8507 0
-8491 8508 -8507 0
-8508 8511 0
-8508 -8492 8509 0
-8509 8512 0
-8509 -8493 0
-8491 8510 0
8513 -8510 0
-8492 8511 -8510 0
-8511 8514 0
-8511 -8493 8512 0
-8512 8515 0
-8512 -8494 0
-8492 8513 0
8516 -8513 0
-8493 8514 -8513 0
-8514 8517 0
-8514 -8494 8515 0
-8515 8518 0
-8515 -8495 0
8516 -8493 0
8519 -8516 0
-8494 8517 -8516 0
-8517 8520 0
-8517 8518 -8495 0
-8518 8521 0
-8518 -8496 0
8519 -8494 0
8520 -8495 -8519 0
-8520 -8496 8521 0
-8521 -8497 0
8557 -397 0
-406 8558 0
-415 8559 0
-424 8560 0
-433 8561 0
-442 8562 0
-451 8563 0
-460 8564 0
-469 8565 0
8566 -478 0
8567 -487 0
8568 -8557 0
8569 -8568 0
-8558 8570 -8568 0
-8570 8571 0
-8558 8569 0
8572 -8569 0
-8559 8571 -8569 0
-8571 8573 0
-8559 8572 0
8574 -8572 0
-8560 8573 -8572 0
-8573 8575 0
-8560 8574 0
8576 -8574 0
-8561 8575 -8574 0
-8575 8577 0
-8561 8576 0
8578 -8576 0
-8562 8577 -8576 0
-8577 8579 0
-8562 8578 0
8580 -8578 0
-8563 8579 -8578 0
-8579 8581 0
-8563 8580 0
8582 -8580 0
-8564 8581 -8580 0
-8581 8583 0
-8564 8582 0
8584 -8582 0
-8583 -8566 0
-8565 8584 0
-8566 8585 -8584 0
-8585 -8567 0
-10 -38 0
-11 -38 0
-12 -38 0
-13 -38 0
-14 -38 0
-15 -38 0
-16 -37 0
-17 -37 0
-18 -37 0
-19 -37 0
-20 -37 0
-21 -37 0
-22 -37 0
-22 -38 0
-23 -37 0
-23 -38 0
-24 -37 0
-24 -38 0
-25 -37 0
-25 -38 0
-26 -37 0
-26 -38 0
-27 -37 0
-38 -27 0
-37 -28 0
-38 -28 0
-29 -37 0
-29 -38 0
-30 -37 0
-30 -38 0
-31 -37 0
-31 -38 0
-32 -37 0
-32 -38 0
-33 -37 0
-33 -38 0
-34 -37 0
-34 -38 0
-35 -37 0
-35 -38 0
-36 -37 0
-36 -38 0
-52 -73 0
-53 -73 0
-73 -54 0
-55 -73 0
-56 -73 0
-57 -73 0
-58 -73 0
-58 -81 0
-59 -73 0
-59 -81 0
-60 -73 0
-60 -81 0
-61 -73 0
-61 -81 0
-62 -73 0
-62 -81 0
-63 -73 0
-63 -81 0
-64 -73 0
-64 -81 0
-65 -73 0
-65 -81 0
-66 -73 0
-66 -81 0
-67 -73 0
-67 -81 0
-68 -73 0
-68 -81 0
-69 -73 0
-69 -81 0
-70 -73 0
-70 -81 0
-71 -73 0
-71 -81 0
-72 -73 0
-72 -81 0
-88 -109 0
-89 -109 0
-90 -109 0
-91 -109 0
-109 -92 0
-93 -109 0
-94 -109 0
-95 -109 0
-96 -109 0
-97 -109 0
-98 -109 0
-99 -109 0
-100 -109 0
-101 -109 0
-102 -109 0
-103 -109 0
-104 -109 0
-105 -109 0
-106 -109 0
-107 -109 0
-108 -109 0
-124 -145 0
-125 -145 0
-126 -145 0
-127 -145 0
-128 -145 0
-129 -145 0
-130 -145 0
-130 -153 0
-131 -145 0
-131 -153 0
-132 -145 0
-132 -153 0
-133 -145 0
-133 -153 0
-134 -145 0
-134 -153 0
-135 -145 0
-135 -153 0
-136 -145 0
-136 -153 0
-137 -145 0
-137 -153 0
-138 -145 0
-138 -153 0
-139 -145 0
-139 -153 0
-140 -145 0
-140 -153 0
-141 -145 0
-141 -153 0
-142 -145 0
-142 -153 0
-143 -145 0
-143 -153 0
-144 -145 0
-144 -153 0
-160 -181 0
-161 -181 0
-181 -162 0
-163 -181 0
-164 -181 0
-165 -181 0
-166 -181 0
-166 -189 0
-167 -181 0
-167 -189 0
-168 -181 0
-168 -189 0
-169 -181 0
-169 -189 0
-170 -181 0
-170 -189 0
-171 -181 0
-171 -189 0
-172 -181 0
-172 -189 0
-173 -181 0
-173 -189 0
-174 -181 0
-174 -189 0
-175 -181 0
-175 -189 0
-176 -181 0
-176 -189 0
-177 -181 0
-177 -189 0
-178 -181 0
-178 -189 0
-179 -181 0
-179 -189 0
-180 -181 0
-180 -189 0
-217 -196 0
-197 -217 0
-198 -217 0
-199 -217 0
-200 -217 0
-201 -217 0
-202 -217 0
-202 -225 0
-203 -217 0
-203 -225 0
-204 -217 0
-204 -225 0
-205 -217 0
-205 -225 0
-206 -217 0
-206 -225 0
-207 -217 0
-207 -225 0
-208 -217 0
-208 -225 0
-209 -217 0
-209 -225 0
-210 -217 0
-210 -225 0
-211 -217 0
-211 -225 0
-212 -217 0
-212 -225 0
-213 -217 0
-213 -225 0
-214 -217 0
-214 -225 0
-215 -217 0
-215 -225 0
-216 -217 0
-216 -225 0
-253 -232 0
-233 -253 0
-234 -253 0
-235 -253 0
-236 -253 0
-237 -253 0
-238 -253 0
-238 -261 0
-239 -253 0
-239 -261 0
-240 -253 0
-240 -261 0
-241 -253 0
-241 -261 0
-242 -253 0
-242 -261 0
-243 -253 0
-243 -261 0
-244 -253 0
-244 -261 0
-245 -253 0
-245 -261 0
-246 -253 0
-246 -261 0
-247 -253 0
-247 -261 0
-248 -253 0
-248 -261 0
-249 -253 0
-249 -261 0
-250 -253 0
-250 -261 0
-251 -253 0
-251 -261 0
-252 -253 0
-252 -261 0
-268 -289 0
-269 -289 0
-270 -289 0
-271 -289 0
-272 -289 0
-289 -273 0
-274 -289 0
-274 -297 0
-275 -289 0
-275 -297 0
-276 -289 0
-276 -297 0
-277 -289 0
-277 -297 0
-278 -289 0
-278 -297 0
-279 -289 0
-279 -297 0
-280 -289 0
-280 -297 0
-281 -289 0
-281 -297 0
-282 -289 0
-282 -297 0
-283 -289 0
-283 -297 0
-284 -289 0
-284 -297 0
-285 -289 0
-285 -297 0
-286 -289 0
-286 -297 0
-287 -289 0
-287 -297 0
-288 -289 0
-288 -297 0
-304 -325 0
-305 -325 0
-306 -325 0
-307 -325 0
-308 -325 0
-309 -325 0
-310 -325 0
-310 -326 0
-310 -333 0
-311 -325 0
-311 -326 0
-311 -333 0
-312 -325 0
-312 -326 0
-312 -333 0
-313 -325 0
-313 -326 0
-313 -333 0
-314 -325 0
-314 -326 0
-314 -333 0
-315 -325 0
-315 -326 0
-315 -333 0
-316 -325 0
-316 -326 0
-316 -333 0
-317 -325 0
-317 -326 0
-317 -333 0
-318 -325 0
-318 -326 0
-318 -333 0
-319 -325 0
-319 -326 0
-319 -333 0
-320 -325 0
-320 -326 0
-320 -333 0
-321 -325 0
-321 -326 0
-321 -333 0
-322 -325 0
-322 -326 0
-322 -333 0
-323 -325 0
-323 -326 0
-323 -333 0
-324 -325 0
-324 -326 0
-324 -333 0
-363 -333 0
-364 -333 0
-365 -333 0
-366 -333 0
-367 -333 0
-368 -333 0
-340 -361 0
-341 -361 0
-342 -361 0
-343 -361 0
-344 -361 0
-345 -361 0
-346 -361 0
-346 -369 0
-347 -361 0
-347 -369 0
-348 -361 0
-348 -369 0
-349 -361 0
-349 -369 0
-350 -361 0
-350 -369 0
-351 -361 0
-351 -369 0
-352 -361 0
-352 -369 0
-353 -361 0
-353 -369 0
-354 -361 0
-354 -369 0
-355 -361 0
-355 -369 0
-356 -361 0
-356 -369 0
-357 -361 0
-357 -369 0
-358 -361 0
-358 -369 0
-359 -361 0
-359 -369 0
-360 -361 0
-360 -369 0
