p cnf 8964 3760
5 24 1 35 9 8 2 34 4 6 29 19 17 3 26 12 13 18 15 20 21 10 11 16 25 28 22 23 27 7 14 31 32 30 33 36 0
397 -1 0
397 -2 0
397 -3 0
397 -4 0
397 -5 0
397 -6 0
397 -7 0
397 -8 0
-397 7 1 8 2 3 4 5 6 0
398 -9 0
398 -10 0
398 -11 0
398 -12 0
398 -13 0
398 -14 0
398 -15 0
-398 13 1 9 15 11 10 12 14 0
399 -9 0
399 -16 0
399 -17 0
399 -18 0
399 -19 0
399 -20 0
399 -21 0
400 -22 0
400 -23 0
400 -24 0
400 -25 0
400 -26 0
3 24 -400 26 23 16 10 22 25 0
401 -22 0
401 -27 0
401 -28 0
401 -29 0
401 -30 0
-401 28 30 22 27 4 11 17 29 0
402 -23 0
402 -27 0
-402 5 33 18 23 27 31 12 32 0
403 -13 0
403 -19 0
403 -24 0
403 -28 0
403 -31 0
403 -34 0
-35 403 0
28 24 -403 35 6 31 13 19 34 0
-404 7 34 14 25 20 29 32 36 0
-405 8 35 15 26 21 33 30 36 0
70 65 37 45 38 56 43 44 52 51 57 39 42 46 40 49 41 72 67 55 50 54 47 48 68 63 60 58 61 64 59 69 71 62 66 53 0
-62 556 0
557 -556 0
-557 -64 0
-37 406 0
-38 406 0
-39 406 0
-40 406 0
-41 406 0
-42 406 0
-43 406 0
-44 406 0
-406 38 37 40 39 41 42 43 44 0
-37 407 0
407 -45 0
-46 407 0
-47 407 0
-48 407 0
-49 407 0
-50 407 0
-51 407 0
-407 48 37 47 45 46 51 50 49 0
-45 408 0
-52 408 0
-53 408 0
-54 408 0
-55 408 0
-56 408 0
-57 408 0
-408 52 38 45 53 54 55 57 56 0
409 -58 0
409 -59 0
409 -60 0
-61 409 0
-62 409 0
-409 58 60 61 62 52 39 46 59 0
410 -58 0
410 -63 0
410 -64 0
-59 411 0
411 -63 0
411 -67 0
-68 411 0
-69 411 0
-411 54 67 48 41 69 68 63 59 0
412 -60 0
412 -64 0
412 -67 0
412 -70 0
-71 412 0
-412 55 70 42 49 71 67 60 64 0
413 -70 0
-413 56 70 43 50 72 68 61 65 0
-71 414 0
-414 57 71 44 51 62 72 66 69 0
87 85 94 79 99 77 76 78 108 80 74 73 81 82 84 75 89 90 91 92 93 86 83 97 98 88 95 96 102 103 104 101 105 106 107 100 0
575 -82 0
576 -575 0
-84 -576 0
-73 415 0
-74 415 0
-75 415 0
-76 415 0
-77 415 0
-78 415 0
-79 415 0
-80 415 0
-415 78 73 76 74 77 75 79 80 0
416 -81 0
-82 416 0
-83 416 0
-84 416 0
-85 416 0
-86 416 0
-87 416 0
87 -416 73 81 85 82 84 86 83 0
-74 417 0
-81 417 0
-88 417 0
-89 417 0
-90 417 0
-91 417 0
-92 417 0
-93 417 0
89 90 81 -417 92 88 74 91 93 0
-75 418 0
418 -82 0
-88 418 0
418 -94 0
-95 418 0
-96 418 0
-97 418 0
-98 418 0
-418 82 94 75 97 88 95 96 98 0
419 -83 0
419 -94 0
-99 419 0
420 -84 0
420 -95 0
420 -99 0
-420 84 99 77 104 95 103 90 105 0
421 -85 0
136 139 117 116 111 114 115 109 122 112 120 110 128 127 124 123 125 126 121 130 129 118 119 113 138 134 143 131 133 132 135 140 137 142 141 144 0
601 -109 0
-110 -601 0
-109 424 0
-110 424 0
-111 424 0
-112 424 0
-113 424 0
-114 424 0
-115 424 0
-116 424 0
-424 114 109 110 111 116 112 115 113 0
425 -109 0
425 -117 0
-118 425 0
-119 425 0
-120 425 0
-121 425 0
-122 425 0
-123 425 0
120 123 -425 121 119 109 117 122 118 0
426 -117 0
-124 426 0
-125 426 0
-126 426 0
-127 426 0
-128 426 0
-129 426 0
129 128 -426 117 124 110 125 127 126 0
-111 427 0
-124 427 0
-130 427 0
-131 427 0
-132 427 0
-133 427 0
-134 427 0
-427 134 130 111 131 132 124 118 133 0
428 -130 0
-135 428 0
429 -131 0
-135 429 0
-139 429 0
-140 429 0
-141 429 0
-429 120 113 135 141 131 126 140 139 0
-138 432 0
-141 432 0
-143 432 0
-144 432 0
158 170 153 173 159 162 149 150 151 146 147 161 160 171 145 152 154 157 163 164 165 155 156 168 169 148 175 167 166 174 172 176 177 178 179 180 0
644 -153 0
-154 -644 0
645 -154 0
-155 -645 0
-167 658 0
659 -658 0
660 -659 0
-170 -660 0
-145 433 0
-146 433 0
-147 433 0
-148 433 0
-149 433 0
-150 433 0
-151 433 0
-152 433 0
-433 146 145 149 148 151 147 150 152 0
-153 434 0
-154 434 0
-155 434 0
-156 434 0
-157 434 0
-158 434 0
-159 434 0
156 -434 153 154 145 155 157 158 159 0
-153 435 0
-160 435 0
-161 435 0
-162 435 0
-163 435 0
-164 435 0
-165 435 0
162 -435 153 146 160 161 163 164 165 0
-166 436 0
-167 436 0
-168 436 0
-169 436 0
-170 436 0
-436 154 170 168 160 147 167 166 169 0
437 -166 0
-171 437 0
-437 155 174 161 148 166 171 172 173 0
-167 438 0
-171 438 0
-175 438 0
-176 438 0
-177 438 0
-438 156 177 162 167 149 171 175 176 0
439 -168 0
440 -169 0
-170 441 0
181 193 189 197 185 186 187 188 208 190 184 183 196 192 207 191 182 198 199 200 201 194 195 204 205 206 202 203 209 210 211 212 213 214 215 216 0
671 -181 0
672 -671 0
-182 -671 0
673 -672 0
-183 -672 0
674 -673 0
675 -674 0
676 -675 0
677 -676 0
678 -677 0
679 -678 0
679 -189 0
680 -679 0
-190 -679 0
680 -190 0
681 -680 0
-191 -680 0
682 -681 0
-192 -681 0
683 -682 0
684 -683 0
685 -684 0
686 -685 0
-196 -685 0
687 -686 0
-197 -686 0
688 -687 0
-198 -687 0
689 -688 0
-199 -688 0
690 -689 0
-200 -689 0
-201 -690 0
442 -181 0
-182 442 0
-183 442 0
-184 442 0
-185 442 0
-186 442 0
-187 442 0
-188 442 0
186 181 -442 185 188 182 184 187 183 0
-181 443 0
443 -189 0
-190 443 0
-191 443 0
-192 443 0
-193 443 0
-194 443 0
-195 443 0
181 194 -443 193 189 190 191 192 195 0
-189 444 0
-196 444 0
-197 444 0
-198 444 0
-199 444 0
-200 444 0
-201 444 0
-444 201 189 182 197 198 199 200 196 0
-183 445 0
445 -190 0
-196 445 0
-202 445 0
-203 445 0
-204 445 0
-205 445 0
-206 445 0
-445 206 190 196 183 205 202 203 204 0
-191 446 0
-202 446 0
-446 207 191 197 184 202 208 209 210 0
-203 447 0
-447 211 192 185 198 203 207 212 213 0
-195 450 0
229 227 238 240 221 222 217 225 220 223 219 246 228 230 226 250 218 234 235 236 237 233 249 248 232 252 242 244 239 224 243 247 231 245 251 241 0
706 -217 0
707 -706 0
-218 -706 0
-707 708 0
-219 -707 0
-708 709 0
-220 -708 0
-709 710 0
-710 711 0
-711 712 0
-712 713 0
-713 714 0
714 -225 0
-714 715 0
-226 -714 0
-226 715 0
-715 716 0
-227 -715 0
-716 717 0
-716 -228 0
-717 718 0
-718 719 0
-719 720 0
-720 721 0
-232 -720 0
722 -721 0
-721 -233 0
723 -722 0
-234 -722 0
724 -723 0
-235 -723 0
725 -724 0
-236 -724 0
726 -725 0
-237 -725 0
727 -726 0
-238 -726 0
728 -727 0
729 -728 0
730 -729 0
731 -730 0
732 -731 0
-243 -731 0
733 -732 0
-244 -732 0
734 -733 0
-245 -733 0
-246 -734 0
451 -217 0
-218 451 0
-219 451 0
-220 451 0
-221 451 0
-222 451 0
-223 451 0
-224 451 0
-451 220 217 219 218 221 222 223 224 0
452 -217 0
-225 452 0
-226 452 0
-227 452 0
-228 452 0
-229 452 0
-230 452 0
-231 452 0
-452 228 229 217 226 227 225 230 231 0
-218 453 0
-225 453 0
-232 453 0
-233 453 0
-234 453 0
-235 453 0
-236 453 0
-237 453 0
-453 225 232 218 234 235 233 237 236 0
-219 454 0
-226 454 0
454 -232 0
-238 454 0
-239 454 0
-240 454 0
-241 454 0
-242 454 0
242 240 219 226 -454 241 238 239 232 0
-220 455 0
-227 455 0
455 -233 0
-238 455 0
-243 455 0
-244 455 0
-245 455 0
-246 455 0
-455 227 238 220 233 244 243 245 246 0
456 -221 0
456 -228 0
456 -234 0
-239 456 0
456 -243 0
456 -247 0
456 -248 0
456 -249 0
-456 228 239 221 249 234 248 247 243 0
457 -222 0
457 -229 0
457 -235 0
-240 457 0
-244 457 0
-247 457 0
457 -250 0
-251 457 0
458 -223 0
458 -230 0
458 -236 0
-241 458 0
-245 458 0
-248 458 0
458 -250 0
-252 458 0
-224 459 0
-231 459 0
-237 459 0
459 -242 0
-246 459 0
-249 459 0
-251 459 0
-252 459 0
-459 242 231 224 252 249 251 246 237 0
274 276 269 270 264 258 259 260 256 254 255 253 257 262 263 265 266 268 267 272 273 271 275 261 277 278 279 280 281 282 283 284 285 286 287 288 0
-253 741 0
-741 742 0
-254 -741 0
-254 742 0
-742 743 0
-255 743 0
-743 744 0
-256 744 0
-744 745 0
-257 745 0
-745 746 0
-258 746 0
-746 747 0
-259 747 0
-747 748 0
-260 748 0
-748 749 0
-748 -261 0
749 -261 0
-749 750 0
-262 -749 0
-262 750 0
-750 751 0
-263 -750 0
-263 751 0
-751 752 0
-264 -751 0
-264 752 0
-752 753 0
-753 754 0
-754 755 0
-267 -754 0
-755 756 0
-755 -268 0
757 -756 0
-756 -269 0
-270 -757 0
-253 460 0
-254 460 0
-255 460 0
-256 460 0
-257 460 0
-258 460 0
-259 460 0
-260 460 0
-460 258 253 259 260 255 256 254 257 0
-253 461 0
-261 461 0
-262 461 0
-263 461 0
-264 461 0
-265 461 0
-266 461 0
-267 461 0
-461 262 253 261 264 265 263 267 266 0
-261 462 0
-268 462 0
-269 462 0
-270 462 0
-271 462 0
-272 462 0
-273 462 0
-462 269 273 261 254 272 271 270 268 0
463 -262 0
-463 262 268 255 278 274 277 275 276 0
-263 464 0
-464 279 269 256 280 274 281 263 282 0
465 -264 0
-465 283 270 257 279 275 284 264 285 0
466 -265 0
467 -266 0
-467 281 272 259 266 286 284 277 288 0
-267 468 0
-468 282 273 260 285 278 267 287 288 0
293 292 308 307 289 294 295 296 291 290 297 300 301 302 303 299 298 306 311 310 309 305 304 312 313 314 315 316 317 318 319 320 321 322 323 324 0
776 -289 0
-776 777 0
-290 -776 0
-777 778 0
-778 779 0
-779 780 0
-780 781 0
-781 782 0
-782 783 0
-783 784 0
-783 -297 0
784 -297 0
785 -784 0
-298 -784 0
-785 786 0
-299 -785 0
-786 787 0
-300 -786 0
-787 788 0
-301 -787 0
-788 789 0
-302 -788 0
-789 790 0
-303 -789 0
-790 791 0
-304 -790 0
-791 792 0
-305 -791 0
-792 793 0
-306 -792 0
794 -793 0
-793 -307 0
795 -794 0
-308 -794 0
796 -795 0
-309 -795 0
797 -796 0
-310 -796 0
798 -797 0
-311 -797 0
799 -798 0
-312 -798 0
800 -799 0
-313 -799 0
801 -800 0
-314 -800 0
802 -801 0
-315 -801 0
803 -802 0
-316 -802 0
804 -803 0
-317 -803 0
805 -804 0
-318 -804 0
806 -805 0
-319 -805 0
807 -806 0
-320 -806 0
808 -807 0
-321 -807 0
809 -808 0
-322 -808 0
-323 -809 0
469 -289 0
-290 469 0
-291 469 0
-292 469 0
-293 469 0
-294 469 0
-295 469 0
-296 469 0
-469 294 289 290 292 291 293 295 296 0
470 -289 0
470 -297 0
-298 470 0
-299 470 0
-300 470 0
-301 470 0
-302 470 0
-303 470 0
301 289 -470 297 299 300 298 302 303 0
-304 471 0
-305 471 0
-306 471 0
-307 471 0
-308 471 0
-309 471 0
297 290 307 -471 305 306 304 309 308 0
-472 310 298 304 314 291 311 313 312 0
-473 310 292 305 299 315 317 316 318 0
-293 474 0
-300 474 0
-306 474 0
-311 474 0
-315 474 0
-474 311 293 306 300 315 321 320 319 0
-294 475 0
-301 475 0
-475 294 307 301 312 322 316 319 323 0
-476 295 308 302 313 324 317 322 320 0
-477 296 309 303 314 324 318 321 323 0
335 336 352 351 327 328 329 330 347 326 331 332 337 338 339 333 334 342 343 344 345 340 341 325 346 348 349 350 353 354 355 356 357 358 359 360 0
811 -325 0
-326 -811 0
478 -325 0
-326 478 0
-327 478 0
-328 478 0
-329 478 0
-330 478 0
-331 478 0
-332 478 0
325 -478 327 326 328 329 330 331 332 0
479 -325 0
-333 479 0
-334 479 0
-335 479 0
-336 479 0
-337 479 0
-338 479 0
-339 479 0
333 334 -479 325 335 336 337 338 339 0
-333 480 0
480 -340 0
-341 480 0
-342 480 0
-343 480 0
-344 480 0
-345 480 0
344 -480 333 343 326 340 341 342 345 0
-347 481 0
340 327 346 334 -481 347 348 349 350 0
482 -351 0
-483 336 351 329 342 347 355 356 357 0
846 -361 0
-362 -846 0
-361 487 0
-362 487 0
-363 487 0
-365 487 0
-369 488 0
-370 488 0
-372 488 0
-488 369 370 361 371 372 373 374 375 0
-376 489 0
369 379 362 378 -489 376 377 380 381 0
383 363 376 370 -490 382 384 385 386 0
-492 372 378 383 365 387 391 392 393 0
-881 0
-980 0
-882 0
-981 0
-884 0
885 0
-887 0
-888 0
-889 0
-989 -1 881 0
-24 -989 884 0
-28 989 887 -885 0
-891 989 882 0
894 989 -885 0
989 -896 887 0
989 -897 888 0
-898 989 889 0
-909 918 425 0
-918 927 434 0
-926 935 442 0
-927 936 443 0
-935 944 451 0
-936 945 452 0
-944 953 460 0
-945 954 461 0
-953 962 469 0
-954 963 470 0
-962 971 478 0
-963 972 479 0
487 -971 980 0
488 -972 981 0
-1000 0
-1099 0
-1001 0
-1100 0
-1002 0
-1003 0
-1004 0
-1005 0
-1006 0
1007 0
-1008 0
1107 0
-1108 -1 1000 0
-1108 -2 1000 0
-1108 -3 1000 0
-1108 -4 1000 0
-1108 -5 1000 0
-1108 -6 1000 0
-1108 -7 -1007 0
-1108 -8 1000 0
-1108 -9 1001 0
-1108 -10 1001 0
-1108 -11 1001 0
-1108 -12 1001 0
-1108 -13 1001 0
-1108 -14 1001 0
-1108 -15 1001 0
-1108 -16 1002 0
-1108 -17 1002 0
-1108 -18 1002 0
-1108 -19 1002 0
-1108 -20 1002 0
-1108 -21 1002 0
-1108 -22 1003 0
-1108 -23 1003 0
-1108 -24 1003 0
-1108 -25 1003 0
-1108 -26 1003 0
-1108 -27 1004 0
-1108 -28 1004 0
-1108 -29 1004 0
-1108 -30 1004 0
-1108 -31 1005 0
-1108 -32 1005 0
-1108 -33 1005 0
-1108 -34 1006 0
-35 -1108 1006 0
-1010 1108 1001 0
1016 1108 -1007 0
-1017 1108 1008 0
-1026 414 1017 0
423 -1035 1026 0
-1028 1037 425 0
-1044 432 1035 0
-1037 1046 434 0
-1053 441 1044 0
-1045 1054 442 0
-1046 1055 443 0
-1062 1053 450 0
-1054 1063 451 0
-1055 1064 452 0
-1071 1062 459 0
-1063 1072 460 0
-1064 1073 461 0
-1080 1071 468 0
-1072 1081 469 0
-1073 1082 470 0
-1089 1080 477 0
-1081 1090 478 0
-1082 1091 479 0
-1098 486 1089 0
487 -1090 1099 0
488 -1091 1100 0
1098 495 -1107 0
-1119 0
-1218 0
-1120 0
-1219 0
1125 0
-1127 0
-1227 -1 1119 0
1227 -1129 1120 0
1227 1134 -1125 0
1227 -1136 1127 0
-1147 1156 425 0
-1156 1165 434 0
-1164 1173 442 0
-1165 1174 443 0
-1173 1182 451 0
-1174 1183 452 0
-1182 1191 460 0
-1183 1192 461 0
-1191 1200 469 0
-1192 1201 470 0
-1200 1209 478 0
-1201 1210 479 0
487 -1209 1218 0
488 -1210 1219 0
-1238 0
-1337 0
-1239 0
-1338 0
1241 0
-1243 0
-1244 0
-1245 0
-1346 -1 1238 0
1346 -24 1244 -1241 0
-31 -1346 1243 0
-1248 1346 1239 0
1250 1346 -1241 0
1346 -1252 1243 0
1346 -1254 1245 0
-1266 1275 425 0
-1275 1284 434 0
-1283 1292 442 0
-1284 1293 443 0
-1292 1301 451 0
-1293 1302 452 0
-1301 1310 460 0
-1302 1311 461 0
-1310 1319 469 0
-1311 1320 470 0
-1319 1328 478 0
-1320 1329 479 0
487 -1328 1337 0
488 -1329 1338 0
1361 0
1365 0
-30 -1465 -1365 0
1370 1465 -1361 0
1374 1465 -1365 0
1383 414 -1374 0
423 1392 -1383 0
1401 432 -1392 0
1410 -1401 441 0
1419 -1410 450 0
1428 -1419 459 0
1437 -1428 468 0
1446 -1437 477 0
1455 486 -1446 0
-1595 0
-1694 0
-1596 0
-1695 0
-1597 0
1600 0
-1699 0
-1602 0
-1703 -1 1595 0
-1604 397 1595 0
-1605 398 1596 0
-1605 1703 1596 0
399 -1606 1597 0
1609 402 -1600 0
-1611 1703 1602 0
-1613 406 1604 0
-1614 407 1605 0
-1615 408 1606 0
1618 411 -1609 0
-1622 1613 415 0
-1623 1614 416 0
-1624 1615 417 0
1627 -1618 420 0
-1631 424 1622 0
-1623 1632 425 0
-1632 1623 425 0
-1633 1624 426 0
1636 429 -1627 0
-1640 1631 433 0
-1632 1641 434 0
-1641 1632 434 0
-1642 1633 435 0
1645 -1636 438 0
-1640 1649 442 0
-1649 1640 442 0
-1641 1650 443 0
-1650 1641 443 0
-1651 1642 444 0
-1645 1654 447 0
-1709 -226 1650 0
-1649 1658 451 0
-1658 1649 451 0
-1650 1659 452 0
-1659 1709 1650 0
-1660 1651 453 0
-1654 1663 456 0
-1710 -261 1659 0
-1658 1667 460 0
-1667 1658 460 0
-1659 1668 461 0
-1669 1710 1660 0
-1663 1672 1710 0
-1711 1667 -289 0
-1667 1676 469 0
-1668 1677 470 0
-1678 1711 1669 0
-1672 1681 474 0
-342 -1712 -1681 0
-347 -1712 -1681 0
-1712 -351 -1681 0
-1676 1685 478 0
-1677 1686 479 0
1690 -1681 483 0
-1681 1690 1712 0
-378 -1713 -1690 0
-383 -1713 -1690 0
-387 -1713 -1690 0
487 -1685 1694 0
488 -1686 1695 0
-1690 492 1699 0
1713 -1690 1699 0
-1952 0
-2051 0
-1953 0
-2052 0
1958 0
-1959 0
-2060 -1 1952 0
-1962 2060 1953 0
1967 2060 -1958 0
-1968 2060 1959 0
-1980 1989 425 0
-1989 1998 434 0
-1997 2006 442 0
-1998 2007 443 0
-2006 2015 451 0
-2007 2016 452 0
-2015 2024 460 0
-2016 2025 461 0
-2024 2033 469 0
-2025 2034 470 0
-2033 2042 478 0
-2034 2043 479 0
487 -2042 2051 0
488 -2043 2052 0
-2191 0
-2195 0
-2200 398 2191 0
-2204 402 2195 0
-2209 407 2200 0
-2218 2209 416 0
-2227 2218 425 0
-2236 2227 434 0
-2245 2236 443 0
-2304 -226 2245 0
-2254 2304 2245 0
-2305 -261 2254 0
-2547 0
-2646 0
2548 0
-2647 0
-2549 0
2550 0
2552 0
2555 0
-2655 -1 -2548 0
-2556 397 2547 0
2557 398 -2548 0
2557 2655 -2548 0
-2558 2655 2549 0
2559 2655 -2550 0
2561 2655 -2552 0
2564 2655 -2555 0
-2656 -46 -2559 0
-2565 406 2556 0
2656 2566 -2557 0
-2574 2565 415 0
-2566 2575 416 0
-2658 -109 2574 0
-2575 2584 425 0
-2575 2658 2584 0
-2584 2593 434 0
-2592 2601 442 0
-2593 2602 443 0
-2601 2610 451 0
-2602 2611 452 0
-2610 2619 460 0
-2611 2620 461 0
-2619 2628 469 0
-2620 2629 470 0
-2628 2637 478 0
-2629 2638 479 0
487 -2637 2646 0
488 -2638 2647 0
-3122 0
3024 0
-3123 0
3030 0
-3131 -1 -3024 0
3033 3131 -3024 0
3039 3131 -3030 0
-3132 -50 -3039 0
3132 3042 -3033 0
-3042 3051 416 0
-3051 3060 425 0
-3060 3069 434 0
-3068 3077 442 0
-3069 3078 443 0
-3077 3086 451 0
-3078 3087 452 0
-3086 3095 460 0
-3087 3096 461 0
-3095 3104 469 0
-3096 3105 470 0
-3104 3113 478 0
-3105 3114 479 0
487 -3113 3122 0
488 -3114 3123 0
-3142 0
3144 0
-3243 0
-3147 0
3246 0
-3151 397 3142 0
399 3153 -3144 0
-3156 402 3147 0
-3160 406 3151 0
3162 408 -3153 0
-3165 411 3156 0
-3169 3160 415 0
3171 -3162 417 0
-3174 3165 420 0
-3178 424 3169 0
3180 -3171 426 0
-3183 429 3174 0
-3187 3178 433 0
3189 -3180 435 0
-3192 3183 438 0
-3255 -3189 -189 0
-3196 3187 442 0
-3189 3198 444 0
3255 3198 -3189 0
-3201 3192 447 0
-3205 3196 451 0
3207 453 -3198 0
-3210 3201 456 0
-3257 -261 -3207 0
-3214 3205 460 0
3216 -3207 462 0
-3219 3210 3257 0
-3258 -297 -3216 0
-3223 3214 469 0
3258 -3223 3214 0
3225 -3216 471 0
3258 3225 -3216 0
-3228 3219 474 0
-3259 3223 -325 0
-3259 -3225 -333 0
3234 480 -3225 0
3234 -3225 3259 0
3228 -3237 483 0
-3260 -369 -3234 0
-391 -3260 3237 0
-392 -3260 3237 0
-393 -3260 3237 0
489 -3234 3243 0
3260 -3234 3243 0
3260 3237 -3246 0
-3717 0
-3663 3672 442 0
-3672 3681 451 0
-3681 3690 460 0
-3690 3699 469 0
-3699 3708 478 0
487 -3708 3717 0
-3975 0
-4074 0
3977 0
3980 0
-3984 397 3975 0
399 3986 -3977 0
3989 402 -3980 0
-3993 406 3984 0
3995 408 -3986 0
3998 411 -3989 0
-4002 3993 415 0
4004 -3995 417 0
4007 -3998 420 0
-4011 424 4002 0
4013 -4004 426 0
4016 429 -4007 0
-4020 4011 433 0
4022 -4013 435 0
4025 -4016 438 0
-4029 4020 442 0
4031 -4022 444 0
4034 -4025 447 0
-4038 4029 451 0
4040 -4031 453 0
4043 -4034 456 0
-4090 -4040 -261 0
-4047 4090 4038 0
4049 4090 -4040 0
4052 -4043 4090 0
-4091 4047 -469 4056 0
4091 4058 -4049 0
4061 -4052 474 0
-4056 4065 478 0
487 -4065 4074 0
-4094 0
-4193 0
4095 0
-4194 0
4096 0
4097 0
4098 0
4099 0
-4100 0
4101 0
4102 0
-4202 -1 -4095 0
-4202 -9 -4096 0
-10 -4202 -4097 0
-11 -4202 -4098 0
-4202 -12 -4099 0
4202 -13 4100 -4095 0
-14 -4202 -4101 0
-15 -4202 -4102 0
-16 -4202 -4097 0
-17 -4202 -4098 0
-18 -4202 -4099 0
4202 -19 4100 -4096 0
-20 -4202 -4101 0
-21 -4202 -4102 0
-22 -4202 -4098 0
-23 -4202 -4099 0
4202 -24 4100 -4097 0
-25 -4202 -4101 0
-26 -4202 -4102 0
-27 -4202 -4099 0
4202 -28 4100 -4098 0
-29 -4202 -4101 0
-30 -4202 -4102 0
-31 4202 4100 -4099 0
-32 -4202 -4101 0
-33 -4202 -4102 0
-34 -4202 -4101 0
-35 -4202 -4102 0
-36 -4202 -4102 0
-4103 397 4094 0
4104 398 -4095 0
4104 4202 -4095 0
399 4105 -4096 0
4105 4202 -4096 0
400 4106 -4097 0
4106 4202 -4097 0
401 4107 -4098 0
4107 4202 -4098 0
4108 402 -4099 0
4108 4202 -4099 0
-4109 403 4100 0
-4109 4202 4100 0
4109 -403 -4202 4100 0
4110 404 -4101 0
4110 4202 -4101 0
4111 405 -4102 0
4111 4202 -4102 0
-37 -4203 4103 0
-45 -4203 -4105 0
-4203 -46 -4106 0
-47 -4203 -4107 0
-4203 -48 -4108 0
-58 -4203 -4107 0
-59 -4203 -4108 0
-60 -4203 -4109 0
-60 4203 -4106 4109 0
-61 -4203 -4110 0
-62 -4203 -4111 0
-63 -4203 -4108 0
-64 -4203 -4109 0
-64 4203 4109 -4107 0
-65 -4203 -4110 0
-66 -4203 -4111 0
-67 -4203 -4109 0
-67 4203 4109 -4108 0
-68 -4203 -4110 0
-69 -4203 -4111 0
-4203 -70 -4110 0
-71 -4203 -4111 0
-4203 -72 -4111 0
-4112 406 4103 0
4113 407 -4104 0
4203 4113 -4104 0
4114 408 -4105 0
4115 409 -4106 0
4115 4203 -4106 0
4116 4203 -4107 0
4116 -4203 4107 -410 0
-4116 -4203 -4107 -410 0
4117 411 -4108 0
4117 4203 -4108 0
4117 -4203 4108 -411 0
4118 412 -4109 0
4118 4203 -4109 0
-4118 4203 4109 0
4118 -4203 -412 4109 0
4119 413 -4110 0
4119 4203 -4110 0
4120 414 -4111 0
4120 4203 -4111 0
-4204 -73 4112 0
-4204 -4114 -81 0
-82 -4204 -4115 0
-83 -4204 -4116 0
-84 -4204 -4117 0
-4118 -4204 -85 0
-4204 -4119 -86 0
-87 -4204 -4120 0
-95 -4204 -4117 0
-98 -4204 -4120 0
-4121 4112 415 0
-4113 4122 416 0
-4113 4204 4122 0
4123 -4114 417 0
4124 -4115 418 0
4124 -4115 4204 0
4126 -4117 420 0
-4205 -109 4121 0
-4205 -4123 -117 0
-118 -4205 -4124 0
-131 -4205 -4126 0
-4130 424 4121 0
-4122 4131 425 0
-4122 4205 4131 0
4132 -4123 426 0
4133 -4124 4205 0
-4206 -153 -4132 0
-4133 -4206 -154 0
-4139 4130 433 0
-4206 -433 4139 4130 0
-4131 4140 434 0
-4131 4206 4140 0
4141 -4132 435 0
-4207 4139 -181 0
-4207 -189 -4141 0
-190 -4142 -4207 0
-4139 4148 442 0
-4148 4139 442 0
-4140 4149 443 0
-4140 4149 4207 0
4150 -4141 444 0
-4208 -217 4148 0
-4208 -4149 -217 0
-4208 -4150 -225 0
-4148 4157 451 0
-4157 4148 451 0
-4149 4158 452 0
4208 -4149 4158 0
-4209 -4158 -253 0
-254 -4209 4157 0
-255 -4209 4157 0
-256 -4209 4157 0
-257 -4209 4157 0
-258 -4209 4157 0
-259 -4209 4157 0
-260 -4209 4157 0
-4157 4166 460 0
-4166 4157 460 0
4209 -4166 4157 0
-4209 -460 4157 4166 0
-4158 4167 461 0
4209 -4158 4167 0
-4210 -4167 -289 0
-4166 4175 469 0
-4167 4176 470 0
4210 -4167 4176 0
-4175 4184 478 0
-4176 4185 479 0
487 -4184 4193 0
488 -4185 4194 0
4453 0
-4552 0
-4553 0
399 4462 -4453 0
4471 -4462 408 0
4480 -4471 417 0
4489 -4480 426 0
4498 -4489 435 0
4507 -4498 444 0
4516 -4507 453 0
4525 -4516 462 0
-4567 -4525 -297 0
4567 4534 -4525 0
-4534 4543 480 0
-4544 -4569 -376 0
-4543 4569 4552 0
-490 -4569 4544 4553 0
-4927 0
-5026 0
4928 0
-5027 0
4929 0
5028 0
4930 0
5029 0
4931 0
5030 0
-4932 0
5031 0
4933 0
4934 0
4935 0
-5035 -1 -4928 0
-5035 -9 -4929 0
-5035 -10 -4930 0
-5035 -11 -4931 0
-12 5035 4932 -4928 0
-13 -5035 -4933 0
-14 -5035 -4934 0
-15 -5035 -4935 0
-16 -5035 -4930 0
-17 -5035 -4931 0
-18 5035 4932 -4929 0
-19 -5035 -4933 0
-20 -5035 -4934 0
-21 -5035 -4935 0
-5035 -22 -4931 0
-23 5035 4932 -4930 0
-5035 -24 -4933 0
-5035 -25 -4934 0
-5035 -26 -4935 0
-27 5035 4932 -4931 0
-28 -5035 -4933 0
-5035 -29 -4934 0
-5035 -30 -4935 0
-31 -5035 -4933 0
-5035 -32 -4934 0
-5035 -33 -4935 0
-34 -5035 -4934 0
-35 -5035 -4935 0
-5035 -36 -4935 0
-4936 397 4927 0
4937 398 -4928 0
399 4938 -4929 0
400 4939 -4930 0
4939 5035 -4930 0
-4939 -5035 -400 -4930 0
401 4940 -4931 0
4940 5035 -4931 0
-401 -5035 -4940 -4931 0
-4941 402 4932 0
-4941 5035 4932 0
-402 -5035 4941 4932 0
403 4942 -4933 0
4942 5035 -4933 0
404 4943 -4934 0
4943 5035 -4934 0
405 4944 -4935 0
4944 5035 -4935 0
-5036 -46 -4939 0
-47 -5036 -4940 0
-49 -5036 -4942 0
-50 -5036 -4943 0
-51 -5036 -4944 0
-59 -5036 -4941 0
-60 -5036 -4942 0
-63 -5036 4940 0
-63 5036 4941 -4940 0
-64 -5036 -4942 0
-65 -5036 -4943 0
-66 -5036 -4944 0
-67 -5036 -4942 0
-68 -5036 4941 0
-68 -5036 -4943 0
-69 -5036 4941 0
-69 -5036 -4944 0
-5036 -70 -4943 0
-71 -5036 -4944 0
-5036 -72 -4944 0
-4945 406 4936 0
4946 407 -4937 0
5036 4946 -4937 0
4947 -4938 408 0
4948 409 -4939 0
-4948 409 4939 0
4948 5036 -4939 0
-4948 -409 -5036 -4939 0
4949 410 -4940 0
4949 5036 -4940 0
-4949 5036 4940 0
-4949 -5036 -4940 -410 0
-4950 411 4941 0
4950 5036 -4941 0
-4950 5036 4941 0
4950 -5036 -411 4941 0
4951 5036 -4942 0
4952 5036 -4943 0
4953 5036 -4944 0
-5037 -4947 -81 0
-82 -5037 -4948 0
-4949 -83 -5037 0
-4950 -84 -5037 0
-4951 -5037 -85 0
-5037 -4949 -94 0
-95 -4950 -5037 0
-96 -5037 -4951 0
-97 -5037 -4952 0
-99 -5037 4949 0
-99 4950 5037 -4949 0
-100 -5037 -4951 0
-101 -5037 -4952 0
-102 -5037 -4953 0
-103 -5037 4950 0
-104 -5037 4950 0
-5037 4950 -105 0
-106 -5037 -4952 0
-107 -5037 -4953 0
-108 -5037 -4953 0
-4954 4945 415 0
-4946 4955 416 0
-4946 5037 4955 0
4956 -4947 417 0
4957 -4948 418 0
-4957 4948 418 0
4957 -4948 5037 0
-4958 419 4949 0
4958 -4949 5037 0
-5037 -4958 -419 -4949 0
-4959 4950 420 0
-4959 4950 5037 0
4960 -4951 5037 0
4961 -4952 5037 0
4962 -4953 5037 0
-5038 -109 4954 0
-5038 -4956 -117 0
-118 -5038 -4957 0
-130 -5038 -4958 0
-131 -5038 -4959 0
-132 -5038 -4960 0
-133 -5038 -4961 0
-134 -5038 -4962 0
-135 -5038 4958 0
-139 -5038 4959 0
-140 -5038 4959 0
-141 -5038 4959 0
-4963 424 4954 0
-4955 4964 425 0
-4955 5038 4964 0
4965 -4956 426 0
4966 427 -4957 0
4966 -4957 5038 0
-4967 4958 428 0
-428 -5038 -4958 -4967 0
-4968 429 4959 0
-4968 5038 4959 0
-5039 -145 4963 0
-5039 -153 -4965 0
-4966 -5039 -154 0
-166 -5039 -4967 0
-167 -5039 -4968 0
-4969 -168 -5039 0
-4970 -169 -5039 0
-4971 -170 -5039 0
-171 -5039 4967 0
-175 4968 -5039 0
-176 4968 -5039 0
-177 4968 -5039 0
-4972 4963 433 0
-4964 4973 434 0
-4964 5039 4973 0
4974 -4965 435 0
4975 -4966 436 0
4975 -4966 5039 0
-4976 4967 437 0
-4976 -5039 -4967 -437 0
-4977 4968 438 0
-4977 4968 5039 0
-5040 4972 -181 0
-5040 -189 -4974 0
-190 -4975 -5040 0
-4977 -203 -5040 0
-4972 4981 442 0
-4981 4972 442 0
-4973 4982 443 0
-4973 4982 5040 0
4983 -4974 444 0
4984 -4975 5040 0
-4985 4976 446 0
4977 -4986 447 0
-5041 -217 4981 0
-5041 -4983 -225 0
-5041 -226 -4984 0
-4981 4990 451 0
-4990 4981 451 0
-4982 4991 452 0
-4982 5041 4991 0
4992 -4983 453 0
4984 -5041 4993 -454 0
-4994 4985 455 0
4986 -4995 456 0
-5042 -4992 -261 0
-4990 4999 460 0
-4999 5042 4990 0
-5042 -460 4990 4999 0
-4991 5000 461 0
5042 -4991 5000 0
5001 -4992 5042 0
5002 -4993 463 0
-5003 4994 464 0
-5003 4994 5042 0
4995 -5004 465 0
4995 -5004 5042 0
-4999 5008 469 0
-5043 4999 -469 5008 0
-5000 5009 470 0
5043 -5000 5009 0
5010 5043 -5001 0
5011 -5002 5043 0
-5012 5003 473 0
-5012 5043 5003 0
-5013 5004 474 0
5004 -5013 5043 0
5012 -351 -5044 0
-355 -5044 5013 0
-356 -5044 5013 0
-357 -5044 5013 0
-5008 5017 478 0
-5009 5018 479 0
-5044 -5019 -480 -5010 0
-5044 -5020 -481 -5011 0
482 5012 -5021 0
-482 -5044 -5012 -5021 0
5013 -5022 483 0
5013 -5022 5044 0
487 -5017 5026 0
488 -5018 5027 0
5045 5019 -5028 0
5045 5020 -5029 0
5021 491 -5030 0
5022 492 -5031 0
-5022 -5045 -492 -5031 0
-5264 0
-5210 5219 442 0
-5219 5228 451 0
-5228 5237 460 0
-5237 5246 469 0
-5246 5255 478 0
487 -5255 5264 0
-5403 0
-5404 0
-5503 0
5405 0
-5504 0
-5406 0
5505 0
-5412 397 5403 0
-5413 398 5404 0
399 5414 -5405 0
-5415 400 5406 0
-5421 406 5412 0
-5422 407 5413 0
5423 -5414 408 0
-5424 409 5415 0
-5430 5421 415 0
-5431 5422 416 0
5432 -5423 417 0
-5433 5424 418 0
-5439 424 5430 0
-5440 5431 425 0
5441 -5432 426 0
-5442 427 5433 0
-5448 5439 433 0
-5449 5440 434 0
5450 -5441 435 0
-5451 5442 436 0
-5457 5448 442 0
-5458 5449 443 0
5459 -5450 444 0
-5460 5451 445 0
-5517 -238 5460 0
-239 -5517 5460 0
-5517 -240 5460 0
-5517 -241 5460 0
-5517 5460 -242 0
-5466 5457 451 0
-5467 5458 452 0
5468 -5459 453 0
-5469 5460 5517 0
-5475 5466 460 0
-5518 -461 5467 5476 0
5477 -5468 462 0
-5478 5469 5518 0
-5519 -5477 -297 0
-5484 5475 469 0
-5476 5519 5485 0
5519 5486 -5477 0
-5487 5478 5519 0
-5520 5484 -325 0
-5485 5520 5494 0
-5486 5495 480 0
5487 5520 -5496 0
-382 5496 -5521 0
-383 -5521 5496 0
-384 -5521 5496 0
-385 -5521 5496 0
-386 -5521 5496 0
488 -5494 5503 0
-5495 5521 5504 0
490 5496 -5505 0
-5522 0
-5621 0
5523 0
-5622 0
5524 0
5623 0
-5525 0
5624 0
5526 0
5625 0
5527 0
5626 0
5528 0
5627 0
5529 0
5628 0
5530 0
5629 0
-5630 -9 -5524 0
-5630 -11 -5526 0
-5630 -12 -5527 0
-5630 -13 -5528 0
-5630 -14 -5529 0
-5630 -15 -5530 0
-5630 -17 -5526 0
-5630 -18 -5527 0
-5630 -19 -5528 0
-5630 -20 -5529 0
-5630 -21 -5530 0
-5630 -22 -5526 0
-5630 -23 -5527 0
-5630 -24 5525 0
-5630 -25 -5529 0
-5630 -26 -5530 0
-5630 -27 -5527 0
-5630 -28 -5528 0
-5630 -29 -5529 0
-5630 -30 -5530 0
-31 -5630 -5528 0
-5630 -32 -5529 0
-5630 -33 -5530 0
-5630 -34 -5529 0
-35 -5630 -5530 0
-5630 -36 -5530 0
-5531 397 5522 0
398 5532 -5523 0
5532 5630 -5523 0
399 5533 -5524 0
-5534 400 5525 0
-5534 5630 5525 0
5535 5630 -5526 0
5536 402 -5527 0
5536 5630 -5527 0
5537 403 -5528 0
-45 -5631 -5533 0
-5631 -48 -5536 0
-58 -5631 5534 0
-59 -5631 5534 0
-60 -5631 5534 0
-61 -5631 5534 0
-62 -5631 5534 0
-63 -5631 -5536 0
-64 -5631 -5537 0
-67 -5631 -5537 0
-5631 -5538 -70 0
-71 -5631 -5539 0
-5540 406 5531 0
5541 407 -5532 0
5631 5541 -5532 0
5542 -5533 408 0
-5543 409 5534 0
-5543 5631 5534 0
5544 5631 -5535 0
5545 5631 -5536 0
5546 5631 -5537 0
-5632 -73 5540 0
-5632 -5542 -81 0
-5543 -5632 -82 0
-5544 -83 -5632 0
-5545 -84 -5632 0
-5546 -5632 -85 0
-5632 5543 -94 0
-95 -5632 5543 0
-96 -5632 5543 0
-97 -5632 5543 0
-98 -5632 5543 0
-5549 5540 415 0
-5541 5550 416 0
-5541 5632 5550 0
5551 -5542 417 0
-5552 5543 418 0
-5552 5543 5632 0
-5633 -109 5549 0
-5633 -5551 -117 0
-5633 -130 5552 0
-5633 -131 5552 0
-5633 -132 5552 0
-133 -5633 5552 0
-134 -5633 5552 0
-5558 424 5549 0
-5550 5559 425 0
-5550 5633 5559 0
5560 -5551 426 0
-5561 427 5552 0
-5561 5552 5633 0
-5634 -153 -5560 0
-5634 -166 5561 0
-5562 -166 -5634 0
-167 -5634 5561 0
-168 -5634 5561 0
-169 -5634 5561 0
-5634 -170 5561 0
-170 -5566 -5634 0
-5567 5558 433 0
-5634 -433 5567 5558 0
-5559 5568 434 0
-5559 5634 5568 0
5569 -5560 435 0
5569 5634 -5560 0
5561 -5570 436 0
-5561 5634 5570 0
5561 -5570 5634 0
-5634 -5561 -5570 -436 0
5571 -5562 5634 0
-5566 5575 5634 0
5567 -5635 -181 0
-189 -5569 -5635 0
-190 -5570 -5635 0
-5571 -191 -5635 0
-5575 -195 -5635 0
-202 -5635 5570 0
-203 -5635 5570 0
-204 -5635 5570 0
-205 -5635 5570 0
-206 -5635 5570 0
-5567 5576 442 0
-5576 5567 442 0
-5568 5577 443 0
-5568 5577 5635 0
5578 -5569 444 0
-5579 5570 445 0
5635 -5579 5570 0
-217 5576 -5636 0
-5577 -217 -5636 0
-218 -5578 -5636 0
-219 -5636 -5579 0
-220 -5580 -5636 0
-221 -5581 -5636 0
-222 -5582 -5636 0
-223 -5583 -5636 0
-224 -5584 -5636 0
-5578 -225 -5636 0
-226 -5636 -5579 0
-227 -5580 -5636 0
-5581 -228 -5636 0
-229 -5582 -5636 0
-5583 -230 -5636 0
-231 -5584 -5636 0
-5636 -232 -5579 0
-5580 -233 -5636 0
-234 -5581 -5636 0
-235 -5582 -5636 0
-236 -5583 -5636 0
-237 -5584 -5636 0
-238 5579 -5636 0
-238 -5580 -5636 0
-239 5579 -5636 0
-239 -5581 -5636 0
-240 5579 -5636 0
-240 -5582 -5636 0
-241 5579 -5636 0
-5583 -241 -5636 0
-242 -5636 5579 0
-5584 -242 -5636 0
-243 5580 -5636 0
-243 -5581 -5636 0
-244 5580 -5636 0
-244 -5582 -5636 0
-245 5580 -5636 0
-245 -5583 -5636 0
-246 5580 -5636 0
-246 -5584 -5636 0
-247 5581 -5636 0
-247 -5582 -5636 0
5581 -248 -5636 0
-248 -5583 -5636 0
-249 5581 -5636 0
-5584 -249 -5636 0
-249 5636 5584 -5581 0
5582 -250 -5636 0
-5583 -250 -5636 0
-251 5582 -5636 0
-251 -5584 -5636 0
-252 5583 -5636 0
-5584 -252 -5636 0
-5576 5585 451 0
-5585 5576 451 0
-5577 5586 452 0
-5577 5636 5586 0
5587 -5578 453 0
-5578 -5587 -5636 -453 0
454 -5588 5579 0
5636 5588 -5579 0
5636 -5588 5579 0
-5636 5588 5579 -454 0
-454 -5579 -5636 -5588 0
-5580 5589 5636 0
-5580 -455 -5636 -5589 0
5581 -5590 456 0
5590 -5581 5636 0
5581 -5590 5636 0
-5581 -456 -5636 -5590 0
5591 -5582 5636 0
-5591 -5582 -5636 -457 0
-5583 5592 5636 0
5583 -5592 5636 0
5583 -458 -5636 5592 0
-5583 -5592 -5636 -458 0
-5593 459 5584 0
5593 -5584 5636 0
-261 -5587 -5637 0
-262 -5637 -5588 0
-5589 -263 -5637 0
-264 -5590 -5637 0
-5591 -265 -5637 0
-266 -5592 -5637 0
-267 -5593 -5637 0
5587 -268 -5637 0
5587 -5637 -269 0
-270 5587 -5637 0
5587 -271 -5637 0
-272 5587 -5637 0
-273 5587 -5637 0
-274 5588 -5637 0
-275 5588 -5637 0
-276 5588 -5637 0
-277 5588 -5637 0
-278 5588 -5637 0
-5585 5594 460 0
-5594 5585 460 0
-5594 5637 5585 0
-460 5585 -5637 5594 0
-5586 5595 461 0
5637 -5586 5595 0
5596 -5587 462 0
5587 -5596 462 0
5596 5637 -5587 0
5637 5587 -5596 0
-5637 -5587 -462 -5596 0
5588 -5597 463 0
5637 5588 -5597 0
5589 -5598 464 0
5590 -5599 465 0
466 -5600 5591 0
-5601 5592 467 0
5593 -5602 468 0
-5596 -5638 -297 0
5596 -304 -5638 0
-305 5596 -5638 0
-306 5596 -5638 0
5596 -5638 -307 0
-308 5596 -5638 0
5596 -309 -5638 0
-310 -5638 5597 0
-311 -5638 5597 0
-312 -5638 5597 0
-313 -5638 5597 0
-314 -5638 5597 0
-5594 5603 469 0
-5603 5594 469 0
5594 -5638 -469 5603 0
-5595 5604 470 0
5638 -5595 5604 0
5596 -5605 471 0
5638 5605 -5596 0
5638 5596 -5605 0
-5596 -5605 -471 -5638 0
-5606 5597 472 0
5638 5597 -5606 0
5598 -5607 473 0
5599 -5608 474 0
5600 -5609 475 0
5601 -5610 476 0
5602 -5611 477 0
5603 -5639 -325 0
5605 -340 -5639 0
-340 -5606 -5639 0
-341 5605 -5639 0
-342 5605 -5639 0
5605 -343 -5639 0
5605 -344 -5639 0
-345 5605 -5639 0
-346 -5639 5606 0
-347 -5639 5606 0
-348 -5639 5606 0
-349 -5639 5606 0
-350 -5639 5606 0
-5603 5612 478 0
-5604 5613 479 0
-5604 5639 5613 0
5605 480 -5614 0
5639 5605 -5614 0
-5605 -480 -5639 -5614 0
481 5606 -5615 0
5639 5606 -5615 0
5607 -5616 5639 0
5608 -5617 5639 0
5609 -5618 5639 0
5610 -5619 5639 0
5611 -5620 5639 0
5614 -376 -5640 0
-376 -5615 -5640 0
-377 5614 -5640 0
-378 5614 -5640 0
-379 5614 -5640 0
-380 5614 -5640 0
-381 5614 -5640 0
-382 -5640 5615 0
-383 -5640 5615 0
-384 -5640 5615 0
-385 -5640 5615 0
-386 -5640 5615 0
487 -5612 5621 0
488 -5613 5622 0
5614 489 -5623 0
5640 5614 -5623 0
-5640 -5614 -489 -5623 0
5615 490 -5624 0
5615 5640 -5624 0
5640 5616 -5625 0
5640 5617 -5626 0
5640 5618 -5627 0
5640 5619 -5628 0
5640 5620 -5629 0
-5641 0
-5740 0
5642 0
-5741 0
-5643 0
5742 0
5644 0
5645 0
5646 0
5647 0
5648 0
5649 0
-5749 -1 -5642 0
-5749 -2 5641 0
-5749 -3 -5644 0
-5749 -4 -5645 0
-5749 -5 -5646 0
-5749 -6 -5647 0
-5749 -7 -5648 0
-5749 -8 -5649 0
5749 -9 5643 -5642 0
-5749 -10 -5644 0
-5749 -11 -5645 0
-5749 -12 -5646 0
-5749 -13 -5647 0
-5749 -14 -5648 0
-5749 -15 -5649 0
-5749 -16 -5644 0
-5749 -17 -5645 0
-5749 -18 -5646 0
-5749 -19 -5647 0
-5749 -20 -5648 0
-5749 -21 -5649 0
-5749 -22 -5645 0
-5749 -23 -5646 0
-5749 -24 -5647 0
-5749 -25 -5648 0
-5749 -26 -5649 0
-5749 -27 -5646 0
-5749 -28 -5647 0
-5749 -29 -5648 0
-5749 -30 -5649 0
-31 -5749 -5647 0
-5749 -32 -5648 0
-5749 -33 -5649 0
-5749 -34 -5648 0
-35 -5749 -5649 0
-5749 -36 -5649 0
-5650 397 5641 0
-5650 5749 5641 0
-397 -5749 5650 5641 0
5651 5749 -5642 0
-398 -5749 -5651 -5642 0
-5652 399 5643 0
-5652 5749 5643 0
-399 -5749 5652 5643 0
5653 5749 -5644 0
5654 401 -5645 0
5654 5749 -5645 0
5655 402 -5646 0
5655 5749 -5646 0
5656 403 -5647 0
5656 5749 -5647 0
5657 404 -5648 0
5657 5749 -5648 0
405 5658 -5649 0
5658 5749 -5649 0
-37 -5750 5650 0
-38 -5750 5650 0
-39 -5750 5650 0
-40 -5750 5650 0
-41 -5750 5650 0
-42 -5750 5650 0
-43 -5750 5650 0
-44 -5750 5650 0
5651 -45 -5750 0
-45 5750 5652 -5651 0
-46 5651 -5750 0
-46 -5750 -5653 0
5651 -47 -5750 0
-47 -5750 -5654 0
5651 -48 -5750 0
-48 -5750 -5655 0
5651 -49 -5750 0
-49 -5750 -5656 0
5651 -50 -5750 0
-50 -5750 -5657 0
-51 5651 -5750 0
-51 -5750 -5658 0
-52 -5750 -5653 0
-53 -5750 -5654 0
-54 -5750 -5655 0
-55 -5750 -5656 0
-56 -5750 -5657 0
-57 -5750 -5658 0
-58 -5750 -5654 0
-59 -5750 -5655 0
-60 -5750 -5656 0
-61 -5750 -5657 0
-62 -5750 -5658 0
-63 -5750 -5655 0
-64 -5750 -5656 0
-65 -5750 -5657 0
-66 -5750 -5658 0
-67 -5750 -5656 0
-68 -5750 -5657 0
-69 -5750 -5658 0
-70 -5750 -5657 0
-71 -5750 -5658 0
-72 -5750 -5658 0
-5659 406 5650 0
-5659 5750 5650 0
-406 -5750 5650 5659 0
5651 -5660 407 0
5660 5750 -5651 0
5750 5651 -5660 0
-407 -5750 -5660 -5651 0
408 -5661 5652 0
5750 -5661 5652 0
-5652 -5750 -5661 -408 0
5662 5750 -5653 0
5663 5750 -5654 0
5664 5750 -5655 0
5665 5750 -5656 0
5666 5750 -5657 0
5667 5750 -5658 0
-73 5659 -5751 0
-73 -5660 -5751 0
-74 -5751 5659 0
-75 5659 -5751 0
-76 5659 -5751 0
-77 5659 -5751 0
-78 5659 -5751 0
-79 5659 -5751 0
-79 -5666 -5751 0
-80 5659 -5751 0
-80 -5667 -5751 0
5660 -81 -5751 0
-82 -5662 -5751 0
-83 -5663 -5751 0
-84 -5664 -5751 0
-85 -5665 -5751 0
-86 -5666 -5751 0
-87 -5667 -5751 0
-88 -5751 5661 0
-89 -5751 5661 0
-90 -5751 5661 0
-91 -5751 5661 0
-92 -5751 5661 0
-93 -5751 5661 0
-94 -5663 -5751 0
-95 -5664 -5751 0
-96 -5665 -5751 0
-97 -5666 -5751 0
-98 -5667 -5751 0
-99 -5664 -5751 0
-100 -5665 -5751 0
-101 -5666 -5751 0
-102 -5667 -5751 0
-103 -5665 -5751 0
-104 -5666 -5751 0
-105 -5667 -5751 0
-106 -5666 -5751 0
-107 -5667 -5751 0
-108 -5667 -5751 0
5668 -5659 415 0
-5668 5659 415 0
5751 -5668 5659 0
-415 5668 -5751 5659 0
5669 -5660 416 0
5660 416 -5669 0
5751 -5660 5669 0
5751 5660 -5669 0
-5660 -5669 -5751 -416 0
417 5661 -5670 0
5751 5661 -5670 0
5671 5751 -5662 0
5672 5751 -5663 0
5673 5751 -5664 0
5674 5751 -5665 0
5675 5751 -5666 0
5676 5751 -5667 0
-109 5668 -5752 0
-109 -5669 -5752 0
-110 -5752 5668 0
-111 5668 -5752 0
-112 5668 -5752 0
-113 5668 -5752 0
-114 5668 -5752 0
-115 5668 -5752 0
-116 5668 -5752 0
5669 -117 -5752 0
-5669 5752 -117 5670 0
-118 5669 -5752 0
-118 -5671 -5752 0
-119 5669 -5752 0
-5672 -119 -5752 0
-120 5669 -5752 0
-5673 -120 -5752 0
-121 5669 -5752 0
-121 -5674 -5752 0
-122 5669 -5752 0
-122 -5675 -5752 0
-123 5669 -5752 0
-123 -5676 -5752 0
-124 -5752 5670 0
-125 -5752 5670 0
-126 -5752 5670 0
-127 -5752 5670 0
-128 -5752 5670 0
-129 -5752 5670 0
-5668 424 5677 0
-5677 424 5668 0
-5677 5752 5668 0
-424 5668 -5752 5677 0
-5669 425 5678 0
5669 425 -5678 0
-5669 5752 5678 0
5752 5669 -5678 0
-425 5669 -5752 5678 0
-5678 -425 -5752 -5669 0
426 5670 -5679 0
5752 5670 -5679 0
-145 5677 -5753 0
-146 5677 -5753 0
-147 5677 -5753 0
-148 5677 -5753 0
-149 5677 -5753 0
-150 5677 -5753 0
-151 5677 -5753 0
-152 5677 -5753 0
-153 -5753 5678 0
-160 -5753 5679 0
-161 -5753 5679 0
-162 -5753 5679 0
-163 -5753 5679 0
-164 -5753 5679 0
-165 -5753 5679 0
-5677 5686 433 0
-5686 5677 433 0
5753 -5686 5677 0
-433 5677 -5753 5686 0
5687 434 -5678 0
-5687 5678 434 0
5753 5678 -5687 0
-434 -5678 -5753 -5687 0
435 -5688 5679 0
5753 5679 -5688 0
5686 -181 -5754 0
-182 5686 -5754 0
-183 5686 -5754 0
-184 5686 -5754 0
-185 5686 -5754 0
-186 5686 -5754 0
-187 5686 -5754 0
-188 5686 -5754 0
5687 -189 -5754 0
-190 5687 -5754 0
-191 5687 -5754 0
-192 5687 -5754 0
5687 -193 -5754 0
-194 5687 -5754 0
-195 5687 -5754 0
-196 5688 -5754 0
-197 5688 -5754 0
-198 5688 -5754 0
-199 5688 -5754 0
-200 5688 -5754 0
-201 5688 -5754 0
-5686 5695 442 0
-5695 5686 442 0
5754 -5695 5686 0
5695 5686 -442 -5754 0
5696 -5687 443 0
5687 -5696 443 0
5754 5687 -5696 0
-5696 -443 -5754 -5687 0
444 5688 -5697 0
5754 5688 -5697 0
-5755 -217 5695 0
-5755 -5696 -217 0
-218 -5755 5695 0
-219 -5755 5695 0
-220 -5755 5695 0
-221 -5755 5695 0
-222 -5755 5695 0
-223 -5755 5695 0
-224 -5755 5695 0
-5755 -225 5696 0
-232 -5755 5697 0
-233 -5755 5697 0
-234 -5755 5697 0
-235 -5755 5697 0
-236 -5755 5697 0
-237 -5755 5697 0
-5695 5704 451 0
-5704 5695 451 0
5755 -5695 5704 0
5755 -5704 5695 0
-5755 -451 5695 5704 0
5705 -5696 452 0
-5705 5696 452 0
-5755 -452 5696 5705 0
-5755 -5705 -5696 -452 0
453 5697 -5706 0
5755 -5706 5697 0
-5756 -253 5704 0
-254 -5756 5704 0
-255 -5756 5704 0
-256 -5756 5704 0
-257 -5756 5704 0
-258 -5756 5704 0
-259 -5756 5704 0
-260 -5756 5704 0
-5756 -268 5706 0
-5756 -269 5706 0
-270 -5756 5706 0
-271 -5756 5706 0
-272 -5756 5706 0
-273 -5756 5706 0
-5704 5713 460 0
-5713 5704 460 0
5756 -5713 5704 0
-5756 -460 5704 5713 0
-5705 5714 461 0
5705 -5714 461 0
462 -5715 5706 0
5756 -5715 5706 0
5713 -289 -5757 0
-290 -5757 5713 0
-291 5713 -5757 0
-292 5713 -5757 0
-293 5713 -5757 0
-294 5713 -5757 0
-295 5713 -5757 0
-296 5713 -5757 0
5714 -297 -5757 0
-304 -5757 5715 0
-305 -5757 5715 0
-306 -5757 5715 0
-307 -5757 5715 0
-308 -5757 5715 0
-309 -5757 5715 0
-5713 5722 469 0
-5722 5713 469 0
5757 -5722 5713 0
-469 5722 -5757 5713 0
5723 470 -5714 0
-5723 5714 470 0
5757 -5723 5714 0
-5723 -470 -5757 -5714 0
471 -5724 5715 0
5757 -5724 5715 0
-5758 5722 -325 0
-5723 -5758 -325 0
-326 -5758 5722 0
-327 -5758 5722 0
-328 -5758 5722 0
-329 -5758 5722 0
-330 -5758 5722 0
-331 -5758 5722 0
-332 -5758 5722 0
-333 -5758 5723 0
-5758 -340 5724 0
-341 -5758 5724 0
-342 -5758 5724 0
-343 -5758 5724 0
-344 -5758 5724 0
-345 -5758 5724 0
-5722 5731 478 0
478 5722 -5731 0
-5722 5731 5758 0
-5731 5722 5758 0
5731 5722 -478 -5758 0
-5723 5732 479 0
-5732 5723 479 0
-5732 5723 5758 0
480 -5733 5724 0
5724 -5733 5758 0
-361 5731 -5759 0
-5732 -361 -5759 0
-362 -5759 5731 0
-376 -5759 5733 0
-377 -5759 5733 0
-378 -5759 5733 0
-379 5733 -5759 0
-380 -5759 5733 0
-381 -5759 5733 0
487 -5731 5740 0
-5759 -487 5731 5740 0
488 -5732 5741 0
5759 -5732 5741 0
489 5733 -5742 0
5733 5759 -5742 0
5760 0
-5859 0
5761 0
5860 0
-5762 0
5861 0
5763 0
5764 0
5765 0
5766 0
5767 0
5768 0
-5868 -1 -5761 0
-5868 -3 -5763 0
-5868 -4 -5764 0
-5868 -5 -5765 0
-5868 -6 -5766 0
-5868 -7 -5767 0
-5868 -8 -5768 0
-9 5868 5762 -5761 0
-5868 -11 -5764 0
-5868 -13 -5766 0
-5868 -14 -5767 0
-5868 -15 -5768 0
-5868 -16 -5763 0
-5868 -17 -5764 0
-5868 -18 -5765 0
-5868 -19 -5766 0
-5868 -20 -5767 0
-5868 -21 -5768 0
-5868 -22 -5764 0
-5868 -23 -5765 0
-5868 -24 -5766 0
-5868 -25 -5767 0
-5868 -26 -5768 0
-5868 -27 -5765 0
-5868 -28 -5766 0
-5868 -29 -5767 0
-5868 -30 -5768 0
-5868 -31 -5766 0
-5868 -32 -5767 0
-5868 -33 -5768 0
-5868 -34 -5767 0
-5868 -35 -5768 0
-5868 -36 -5768 0
5769 397 -5760 0
5769 5868 -5760 0
398 5770 -5761 0
5770 5868 -5761 0
-5868 -5770 -398 -5761 0
-5771 399 5762 0
5772 5868 -5763 0
5773 5868 -5764 0
5774 5868 -5765 0
5775 403 -5766 0
5775 5868 -5766 0
5776 404 -5767 0
5776 5868 -5767 0
405 5777 -5768 0
5777 5868 -5768 0
-37 -5869 -5770 0
-5869 5770 -45 0
-46 5770 -5869 0
5770 -5869 -47 0
-47 -5869 -5773 0
5770 -5869 -48 0
-49 -5869 -5775 0
-50 -5869 -5776 0
-51 -5869 -5777 0
-52 -5869 5771 0
-53 -5869 5771 0
-54 -5869 5771 0
-55 -5869 5771 0
-56 -5869 5771 0
-57 -5869 5771 0
5778 406 -5769 0
5869 5778 -5769 0
-5779 5770 407 0
5779 5869 -5770 0
-5780 408 5771 0
5781 5869 -5772 0
5782 5869 -5773 0
5783 5869 -5774 0
5784 5869 -5775 0
5785 5869 -5776 0
5786 5869 -5777 0
-5870 -73 -5779 0
-82 -5781 -5870 0
-83 -5870 -5782 0
-84 -5783 -5870 0
-5784 -5870 -85 0
-86 -5870 -5785 0
-87 -5870 -5786 0
-88 -5870 5780 0
-5870 5780 -89 0
-90 -5870 5780 0
-91 -5870 5780 0
-92 -5870 5780 0
-93 -5870 5780 0
5787 -5778 415 0
5870 5787 -5778 0
5779 -5788 416 0
5870 -5779 5788 0
5779 -5870 -416 5788 0
-5789 5780 417 0
-5788 -5871 -109 0
-5871 5788 -117 0
5789 5871 -117 -5788 0
-118 -5871 5788 0
-119 -5871 5788 0
-120 5788 -5871 0
-121 -5871 5788 0
-122 -5871 5788 0
-123 -5871 5788 0
-124 5789 -5871 0
-125 5789 -5871 0
-126 5789 -5871 0
-127 5789 -5871 0
-128 5789 -5871 0
5789 -5871 -129 0
5796 424 -5787 0
5871 5796 -5787 0
-5797 5788 425 0
5797 -5871 5788 -425 0
-5788 -5871 -425 -5797 0
-5798 5789 426 0
-145 -5872 -5797 0
5872 -153 -5797 5798 0
5805 -5796 433 0
5872 5805 -5796 0
5797 -5806 434 0
5797 5806 -434 -5872 0
-5872 -5797 -434 -5806 0
-5807 5798 435 0
5873 -5806 -189 5807 0
5814 -5805 442 0
5806 -5815 443 0
-5873 -5806 -443 -5815 0
-5816 5807 444 0
-5874 -5815 -217 0
-225 -5874 5815 0
5874 -225 5816 -5815 0
-226 -5874 5815 0
-227 -5874 5815 0
-5874 5815 -228 0
-229 -5874 5815 0
-5874 5815 -230 0
-231 -5874 5815 0
5823 -5814 451 0
5874 5823 -5814 0
5815 -5824 452 0
5874 5815 -5824 0
5824 5815 -452 -5874 0
-5874 -5815 -452 -5824 0
-5825 5816 453 0
-5875 -253 -5824 0
5875 -261 -5824 5825 0
5825 -271 -5875 0
-272 5825 -5875 0
-273 5825 -5875 0
-5823 5832 460 0
5875 -5823 5832 0
5824 -5833 461 0
5833 5824 -461 -5875 0
-5875 -461 -5824 -5833 0
-5834 5825 462 0
5876 -5833 -297 5834 0
-5876 5834 -304 0
-305 5834 -5876 0
-306 5834 -5876 0
-5876 5834 -307 0
-308 -5876 5834 0
-309 -5876 5834 0
-5832 5841 469 0
5876 -5832 5841 0
5833 -5842 470 0
-5876 -5833 -470 -5842 0
-5843 5834 471 0
5876 5834 -5843 0
-5834 -5876 -471 -5843 0
5842 -5877 -333 0
5843 -5877 -340 0
-341 5843 -5877 0
-342 5843 -5877 0
-343 5843 -5877 0
5843 -5877 -344 0
-345 5843 -5877 0
-5841 5850 478 0
5877 -5841 5850 0
5842 -5851 479 0
-5877 -5842 -479 -5851 0
5843 480 -5852 0
5877 5843 -5852 0
-5877 -5843 -480 -5852 0
-5878 5852 -376 0
-377 5852 -5878 0
-378 5852 -5878 0
-5878 5852 -379 0
-380 5852 -5878 0
-381 5852 -5878 0
-5850 487 5859 0
5878 -5850 5859 0
488 5851 -5860 0
5852 489 -5861 0
5852 5878 -5861 0
-5852 -5878 -489 -5861 0
5879 0
-5978 0
-5880 0
5979 0
5881 0
5882 0
5883 0
5884 0
5885 0
5886 0
5887 0
5987 -1 5880 -5879 0
-5987 -2 -5881 0
-5987 -3 -5882 0
-5987 -4 -5883 0
-5987 -5 -5884 0
-5987 -6 -5885 0
-5987 -7 -5886 0
-5987 -8 -5887 0
-9 -5987 -5881 0
-10 -5987 5880 0
-11 -5987 5880 0
-12 -5987 5880 0
-13 -5987 5880 0
-14 -5987 5880 0
-15 -5987 5880 0
-16 -5987 -5882 0
-17 -5987 -5883 0
-18 -5987 -5884 0
-19 -5987 -5885 0
-20 -5987 -5886 0
-21 -5987 -5887 0
-22 -5987 -5883 0
-23 -5987 -5884 0
-5987 -24 -5885 0
-25 -5987 -5886 0
-26 -5987 -5887 0
-27 -5987 -5884 0
-5987 -28 -5885 0
-5987 -29 -5886 0
-5987 -30 -5887 0
-5987 -31 -5885 0
-32 -5987 -5886 0
-33 -5987 -5887 0
-34 -5987 -5886 0
-35 -5987 -5887 0
-36 -5987 -5887 0
5888 397 -5879 0
5888 5987 -5879 0
-5889 5987 5880 0
5890 5987 -5881 0
5891 5987 -5882 0
5892 5987 -5883 0
5893 5987 -5884 0
5894 5987 -5885 0
5895 5987 -5886 0
5896 5987 -5887 0
-38 -5988 -5890 0
-39 -5988 -5891 0
-40 -5988 -5892 0
-41 -5988 -5893 0
-42 -5988 -5894 0
-43 -5988 -5895 0
-44 -5988 -5896 0
-45 -5988 5889 0
-5988 -46 5889 0
-5988 -47 5889 0
-5988 -48 5889 0
-5988 -49 5889 0
-5988 -50 5889 0
-5988 -51 5889 0
-52 -5988 -5891 0
-53 -5988 -5892 0
-54 -5988 -5893 0
-55 -5988 -5894 0
-56 -5988 -5895 0
-57 -5988 -5896 0
-58 -5988 -5892 0
-59 -5988 -5893 0
-60 -5988 -5894 0
-61 -5988 -5895 0
-62 -5988 -5896 0
-63 -5988 -5893 0
-64 -5988 -5894 0
-65 -5988 -5895 0
-66 -5988 -5896 0
-67 -5988 -5894 0
-68 -5988 -5895 0
-69 -5988 -5896 0
-5988 -70 -5895 0
-71 -5988 -5896 0
-5988 -72 -5896 0
5897 406 -5888 0
5988 5897 -5888 0
-5898 407 5889 0
-5898 5988 5889 0
-5898 -5988 -5889 -407 0
5899 408 -5890 0
-74 -5989 -5899 0
-5989 5898 -81 0
-82 -5989 5898 0
-83 -5989 5898 0
-84 -5989 5898 0
-5989 5898 -85 0
-5989 5898 -86 0
-87 -5989 5898 0
5906 -5897 415 0
5898 -5907 416 0
5989 5898 -5907 0
5908 -5899 417 0
-110 -5908 -5990 0
-5990 5907 -117 0
-118 5907 -5990 0
-119 5907 -5990 0
-120 5907 -5990 0
-121 5907 -5990 0
-122 5907 -5990 0
-123 5907 -5990 0
5915 424 -5906 0
5990 5915 -5906 0
-5916 5907 425 0
5907 5990 -5916 0
-5990 5916 -425 5907 0
-5907 -5990 -425 -5916 0
5917 -5908 426 0
-5991 -153 5916 0
-5991 -153 -5917 0
-154 -5991 5916 0
-155 -5991 5916 0
-156 -5991 5916 0
-157 -5991 5916 0
-158 -5991 5916 0
-159 -5991 5916 0
5924 -5915 433 0
5916 -5925 434 0
5991 5916 -5925 0
5926 -5917 435 0
-5991 -5926 -435 -5917 0
-189 -5992 5925 0
5926 -5925 -189 5992 0
-190 -5992 5925 0
-191 -5992 5925 0
-192 -5992 5925 0
-193 -5992 5925 0
-194 -5992 5925 0
-195 -5992 5925 0
5933 -5924 442 0
443 5925 -5934 0
5992 5925 -5934 0
-5992 -5925 -443 -5934 0
5935 -5926 444 0
-225 -5993 5934 0
-226 -5993 5934 0
-227 -5993 5934 0
-228 -5993 5934 0
-229 -5993 5934 0
-5993 -230 5934 0
-231 -5993 5934 0
5942 -5933 451 0
5993 5942 -5933 0
5943 452 -5934 0
5934 -5943 452 0
5993 5934 -5943 0
-5993 5943 -452 5934 0
5944 -5935 5993 0
5994 -253 5943 -5942 0
-261 -5994 5943 0
-262 -5994 5943 0
-263 -5994 5943 0
-264 -5994 5943 0
-265 -5994 5943 0
-266 -5994 5943 0
-267 -5994 5943 0
-5942 5951 460 0
5994 -5942 5951 0
-5943 5952 461 0
5943 -5952 461 0
5994 5943 -5952 0
-5994 -461 5952 5943 0
5953 -5944 5994 0
-290 -5953 -5995 0
-5995 5952 -297 0
-5953 -5995 -297 0
-298 -5995 5952 0
-299 -5995 5952 0
-300 -5995 5952 0
-301 -5995 5952 0
-302 -5995 5952 0
-303 -5995 5952 0
-5951 5960 469 0
5995 -5951 5960 0
5952 -5961 470 0
5995 5952 -5961 0
-333 -5996 5961 0
-334 -5996 5961 0
-335 -5996 5961 0
-336 -5996 5961 0
-337 -5996 5961 0
-338 -5996 5961 0
-339 -5996 5961 0
-5960 5969 478 0
479 -5970 5961 0
5996 5961 -5970 0
-5997 5970 -369 0
-370 -5997 5970 0
-371 -5997 5970 0
-372 -5997 5970 0
-373 -5997 5970 0
-374 -5997 5970 0
-375 -5997 5970 0
487 -5969 5978 0
5970 488 -5979 0
5970 5997 -5979 0
-432 6121 0
6122 -441 0
6123 -450 0
-6121 6135 0
6136 -6122 -6135 0
-6136 -6123 0
6186 -401 -1361 0
6187 -410 -1370 0
6188 -1383 -423 0
-432 6189 -1392 0
-441 -1401 6190 0
-450 -1410 6191 0
-1419 6192 -459 0
-468 -1428 6193 0
-477 -1437 6194 0
-486 -1446 6195 0
-495 -1455 6196 0
6197 -6186 0
6199 -6187 -6197 0
6200 -6199 0
-6188 -6199 0
6202 -6200 0
-6189 -6200 0
6204 -6202 0
-6190 -6202 0
6206 -6204 0
-6191 -6204 0
6208 -6206 0
-6192 -6206 0
6210 -6208 0
-6193 -6208 0
6212 -6210 0
-6194 -6210 0
6214 -6212 0
-6195 -6212 0
-6196 -6214 0
7700 -403 4100 0
7701 -410 4107 0
7701 -411 4108 0
7701 -412 4109 0
4115 7702 -418 0
4116 7702 -419 0
4117 7702 -420 0
7702 4118 -421 0
7703 4122 -425 0
7704 -433 4130 0
7711 -7700 0
7713 -7701 -7711 0
7715 -7702 -7713 0
7717 -7715 -7703 0
-7717 -7704 0
8245 -402 4932 0
8246 -410 4940 0
8246 -411 4941 0
8247 4949 -419 0
8247 4950 -420 0
8248 4955 -425 0
8248 -427 4957 0
-428 8248 4958 0
8248 -429 4959 0
8249 -433 4963 0
8249 4964 -434 0
8249 -436 4966 0
8249 -437 4967 0
4968 8249 -438 0
4969 -439 8249 0
4970 -440 8249 0
8249 4971 -441 0
8250 4972 -442 0
8250 4973 -443 0
8250 4975 -445 0
8250 4976 -446 0
4977 -447 8250 0
8251 4982 -452 0
8251 4984 -454 0
8252 -460 4990 0
8252 -461 4991 0
-464 4994 8252 0
8253 4999 -469 0
-473 5003 8253 0
-474 5004 8253 0
-482 5012 8254 0
-483 5013 8254 0
-491 5021 8255 0
-492 5022 8255 0
8256 -8245 0
8257 -8256 0
8258 -8246 -8256 0
8259 -8258 0
8260 -8247 -8258 0
-8260 8262 -8248 0
-8262 -8249 0
8257 -8246 0
8264 -8257 0
8259 -8247 -8257 0
8265 -8259 0
8261 -8259 -8248 0
-8261 8266 0
-8261 8263 -8249 0
-8263 -8250 0
8264 -8247 0
8268 -8264 0
8265 -8248 -8264 0
8269 -8265 0
8266 -8249 -8265 0
-8266 -8250 8267 0
-8267 -8251 0
8268 -8248 0
8272 -8268 0
8269 -8249 -8268 0
8273 -8269 0
-8250 8270 -8269 0
-8270 -8251 8271 0
8275 -8271 0
-8271 -8252 0
8272 -8249 0
8276 -8272 0
8273 -8250 -8272 0
8274 -8251 -8273 0
8275 -8274 -8252 0
8279 -8275 0
-8253 -8275 0
8276 -8250 0
8277 -8251 -8276 0
8278 -8277 -8252 0
-8253 -8278 8279 0
8283 -8279 0
-8254 -8279 0
8280 -8251 0
8281 -8252 -8280 0
8282 -8253 -8281 0
-8254 -8282 8283 0
-8255 -8283 0
8470 -400 0
8471 -409 0
8473 -427 0
8474 -434 0
8475 -443 0
8476 -452 0
8477 -462 0
8478 -471 0
8479 -480 0
8480 -489 0
8481 -8470 0
8483 -8471 -8481 0
8484 -8483 0
8486 -8484 -8473 0
8488 -8486 -8474 0
-8488 8490 -8475 0
-8490 -8476 8492 0
-8492 8498 0
-8492 -8477 0
-8498 8504 0
-8498 -8478 0
-8504 8510 0
-8504 -8479 0
-8510 -8480 0
8682 -400 5525 0
8683 -409 5534 0
5535 8683 -410 0
5537 8683 -412 0
5538 8683 -413 0
5539 8683 -414 0
8684 5543 -418 0
8684 5544 -419 0
8684 5545 -420 0
8684 5546 -421 0
8685 5550 -425 0
8685 -427 5552 0
8686 5559 -434 0
8686 5561 -436 0
5562 -437 8686 0
5566 -441 8686 0
8687 5567 -442 0
8687 5568 -443 0
8687 -445 5570 0
5571 -446 8687 0
5575 -450 8687 0
8688 -451 5576 0
8688 5577 -452 0
5578 8688 -453 0
8688 -454 5579 0
5580 8688 -455 0
5581 8688 -456 0
-457 5582 8688 0
8688 5583 -458 0
5584 8688 -459 0
8689 -460 5585 0
8689 -461 5586 0
8689 -463 5588 0
5589 -464 8689 0
-465 5590 8689 0
-466 5591 8689 0
-467 5592 8689 0
5593 -468 8689 0
8690 5594 -469 0
8690 5595 -470 0
8690 5596 -471 0
8691 5603 -478 0
8693 -8682 0
8694 -8693 0
8695 -8683 -8693 0
8696 -8695 0
8697 -8695 -8684 0
-8685 -8697 8699 0
-8699 -8686 0
8694 -8683 0
8701 -8694 0
8696 -8684 -8694 0
8698 -8685 -8696 0
-8698 8703 0
-8698 -8686 8700 0
-8700 -8687 0
8701 -8684 0
8705 -8701 0
8702 -8685 -8701 0
8703 -8686 -8702 0
-8703 -8687 8704 0
-8704 -8688 0
8705 -8685 0
8709 -8705 0
8706 -8686 -8705 0
8707 -8706 -8687 0
-8707 8708 -8688 0
-8708 -8689 0
8709 -8686 0
8713 -8709 0
8710 -8687 -8709 0
8711 -8710 -8688 0
-8711 -8689 8712 0
-8712 -8690 0
8713 -8687 0
8714 -8688 -8713 0
8715 -8714 -8689 0
-8715 -8690 8716 0
-8716 -8691 0
8791 -397 5641 0
8791 -399 5643 0
-406 8792 5650 0
5651 -407 8792 0
-408 8792 5652 0
-415 5659 8793 0
5660 -416 8793 0
-417 8793 5661 0
-424 5668 8794 0
-425 5669 8794 0
-426 8794 5670 0
-433 5677 8795 0
-434 5678 8795 0
-435 8795 5679 0
5686 -442 8796 0
5687 -443 8796 0
-444 8796 5688 0
-451 5695 8797 0
-452 5696 8797 0
-453 8797 5697 0
-460 5704 8798 0
-461 5705 8798 0
-462 8798 5706 0
5713 -469 8799 0
-470 5714 8799 0
-471 8799 5715 0
5722 8800 -478 0
8800 5723 -479 0
5724 8800 -480 0
-487 5731 8801 0
5732 -488 8801 0
8801 -489 5733 0
8802 -8791 0
8803 -8802 0
-8792 8804 -8802 0
-8804 8805 0
-8804 -8793 0
-8792 8803 0
8806 -8803 0
8805 -8793 -8803 0
-8805 8807 0
-8805 -8794 0
8806 -8793 0
8808 -8806 0
8807 -8794 -8806 0
-8807 8809 0
-8807 -8795 0
8808 -8794 0
8810 -8808 0
8809 -8795 -8808 0
-8809 8811 0
-8809 -8796 0
8810 -8795 0
8812 -8810 0
8811 -8796 -8810 0
-8811 8813 0
-8797 -8811 0
8812 -8796 0
8814 -8812 0
-8797 8813 -8812 0
-8813 8815 0
-8798 -8813 0
-8797 8814 0
8816 -8814 0
-8798 8815 -8814 0
-8815 8817 0
-8799 -8815 0
-8798 8816 0
8818 -8816 0
-8799 8817 -8816 0
8819 -8817 0
-8817 -8800 0
-8799 8818 0
8819 -8800 -8818 0
-8819 -8801 0
8855 -397 0
8855 -398 0
8856 -406 0
8856 -407 0
8857 -415 0
8857 -416 0
-424 8858 0
8858 -425 0
-433 8859 0
8859 -434 0
-442 8860 0
8860 -443 0
8861 -451 0
8861 -452 0
-460 8862 0
-461 8862 0
8863 -469 0
8863 -470 0
8864 -478 0
8864 -479 0
-487 8865 0
8865 -488 0
8866 -8855 0
8867 -8866 0
-8856 8868 -8866 0
-8868 8869 0
-8868 -8857 8870 0
-8870 8871 0
-8870 -8858 0
8867 -8856 0
8872 -8867 0
8869 -8857 -8867 0
-8869 8873 0
-8869 -8858 8871 0
-8871 8874 0
-8859 -8871 0
8872 -8857 0
8875 -8872 0
8873 -8858 -8872 0
8876 -8873 0
-8873 -8859 8874 0
-8874 8877 0
-8874 -8860 0
8875 -8858 0
8878 -8875 0
8876 -8859 -8875 0
8879 -8876 0
-8876 -8860 8877 0
-8877 8880 0
-8877 -8861 0
8878 -8859 0
8881 -8878 0
8879 -8860 -8878 0
8882 -8879 0
-8861 -8879 8880 0
-8880 8883 0
-8862 -8880 0
8881 -8860 0
8884 -8881 0
8882 -8861 -8881 0
8885 -8882 0
-8862 -8882 8883 0
-8883 8886 0
-8883 -8863 0
8884 -8861 0
8887 -8884 0
8885 -8862 -8884 0
8888 -8885 0
-8863 -8885 8886 0
-8886 8889 0
-8886 -8864 0
8887 -8862 0
8888 -8863 -8887 0
-8888 -8864 8889 0
-8889 -8865 0
-443 8895 5925 0
-8895 -8909 0
8925 -397 0
8926 -406 0
8927 -415 0
8928 -424 0
-433 8929 0
8930 -442 0
8931 -451 0
8932 -460 0
8933 -469 0
8934 -478 0
8935 -487 0
8936 -8925 0
8937 -8936 0
8937 -8926 0
8940 -8937 0
8940 -8927 0
8942 -8940 0
8942 -8928 0
8944 -8942 0
-8929 8943 -8942 0
-8943 8945 0
-8943 -8930 0
8944 -8929 0
8946 -8944 0
8945 -8930 -8944 0
-8945 8947 0
-8945 -8931 0
8948 -8946 0
-8931 8947 -8946 0
-8947 8949 0
-8947 -8932 0
8950 -8948 0
-8932 8949 -8948 0
-8949 8951 0
-8949 -8933 0
-8933 8951 -8950 0
8953 -8951 0
-8951 -8934 0
-8935 -8953 0
-37 -17 0
-37 -18 0
-37 -19 0
-37 -20 0
-37 -21 0
-37 -22 0
-45 -22 0
-37 -23 0
-45 -23 0
-37 -24 0
-45 -24 0
-37 -25 0
-45 -25 0
-37 -26 0
-45 -26 0
-37 -27 0
-39 -27 0
-45 -27 0
-46 -27 0
-52 -27 0
-60 -27 0
-61 -27 0
-62 -27 0
-28 -37 0
-28 -45 0
-29 -37 0
-29 -45 0
-29 -60 0
-37 -30 0
-45 -30 0
-60 -30 0
-37 -31 0
-45 -31 0
-58 -31 0
-37 -32 0
-45 -32 0
-60 -32 0
-37 -33 0
-45 -33 0
-60 -33 0
-34 -37 0
-34 -45 0
-37 -35 0
-45 -35 0
-37 -36 0
-45 -36 0
-60 -36 0
-64 -36 0
-52 -73 0
-53 -73 0
-54 -73 0
-55 -73 0
-56 -73 0
-73 -57 0
-58 -73 0
-58 -81 0
-84 -58 0
-58 -85 0
-59 -73 0
-59 -81 0
-59 -83 0
-59 -85 0
-60 -73 0
-60 -81 0
-83 -60 0
-84 -60 0
-60 -86 0
-87 -60 0
-61 -73 0
-61 -81 0
-61 -84 0
-61 -85 0
-62 -73 0
-62 -81 0
-62 -84 0
-62 -85 0
-63 -73 0
-63 -81 0
-63 -82 0
-63 -85 0
-96 -63 0
-97 -63 0
-64 -73 0
-64 -81 0
-64 -82 0
-64 -84 0
-64 -86 0
-64 -87 0
-65 -73 0
-65 -81 0
-65 -84 0
-65 -85 0
-66 -73 0
-66 -81 0
-66 -84 0
-66 -85 0
-67 -73 0
-67 -81 0
-83 -67 0
-68 -73 0
-68 -81 0
-68 -85 0
-69 -73 0
-69 -81 0
-69 -85 0
-73 -70 0
-70 -81 0
-84 -70 0
-71 -73 0
-71 -81 0
-84 -71 0
-73 -72 0
-74 -72 0
-75 -72 0
-76 -72 0
-77 -72 0
-78 -72 0
-72 -81 0
-82 -72 0
-83 -72 0
-84 -72 0
-85 -72 0
-88 -72 0
-72 -89 0
-90 -72 0
-91 -72 0
-72 -94 0
-95 -72 0
-96 -72 0
-99 -72 0
-100 -72 0
-103 -72 0
-111 -81 0
-112 -81 0
-113 -81 0
-114 -81 0
-115 -81 0
-116 -81 0
-88 -109 0
-109 -89 0
-90 -109 0
-91 -109 0
-92 -109 0
-93 -109 0
-109 -94 0
-94 -117 0
-95 -109 0
-95 -117 0
-96 -109 0
-96 -117 0
-97 -109 0
-97 -117 0
-98 -109 0
-98 -117 0
-99 -109 0
-99 -117 0
-118 -99 0
-132 -99 0
-133 -99 0
-134 -99 0
-100 -109 0
-100 -117 0
-100 -118 0
-101 -109 0
-101 -117 0
-101 -118 0
-102 -109 0
-102 -117 0
-118 -102 0
-103 -109 0
-103 -117 0
-103 -118 0
-104 -109 0
-104 -117 0
-104 -118 0
-105 -109 0
-105 -117 0
-118 -105 0
-119 -105 0
-121 -105 0
-122 -105 0
-106 -109 0
-106 -117 0
-106 -118 0
-107 -109 0
-107 -117 0
-107 -118 0
-108 -109 0
-108 -117 0
-108 -118 0
-124 -145 0
-125 -145 0
-126 -145 0
-127 -145 0
-128 -145 0
-145 -129 0
-130 -145 0
-130 -153 0
-131 -145 0
-131 -153 0
-132 -145 0
-132 -153 0
-133 -145 0
-133 -153 0
-134 -145 0
-134 -153 0
-135 -145 0
-135 -153 0
-135 -154 0
-135 -170 0
-136 -145 0
-136 -153 0
-136 -154 0
-136 -167 0
-136 -170 0
-137 -145 0
-137 -153 0
-137 -154 0
-137 -167 0
-137 -170 0
-138 -145 0
-138 -153 0
-138 -154 0
-138 -167 0
-139 -145 0
-139 -153 0
-139 -154 0
-139 -170 0
-140 -145 0
-140 -153 0
-140 -154 0
-140 -170 0
-141 -145 0
-141 -153 0
-141 -154 0
-142 -145 0
-142 -153 0
-142 -154 0
-142 -167 0
-142 -170 0
-143 -145 0
-143 -153 0
-143 -154 0
-143 -167 0
-144 -145 0
-144 -153 0
-144 -154 0
-144 -167 0
-160 -181 0
-161 -181 0
-162 -181 0
-163 -181 0
-164 -181 0
-165 -181 0
-166 -181 0
-166 -189 0
-192 -166 0
-166 -193 0
-194 -166 0
-195 -166 0
-167 -181 0
-167 -189 0
-168 -181 0
-168 -189 0
-169 -181 0
-169 -189 0
-170 -181 0
-170 -189 0
-191 -170 0
-192 -170 0
-170 -193 0
-194 -170 0
-171 -181 0
-171 -189 0
-171 -190 0
-204 -171 0
-171 -205 0
-206 -171 0
-172 -181 0
-172 -189 0
-172 -190 0
-172 -203 0
-173 -181 0
-173 -189 0
-173 -190 0
-173 -203 0
-174 -181 0
-174 -189 0
-174 -190 0
-174 -203 0
-175 -181 0
-175 -189 0
-175 -190 0
-176 -181 0
-176 -189 0
-176 -190 0
-177 -181 0
-177 -189 0
-177 -190 0
-178 -181 0
-178 -189 0
-178 -190 0
-178 -203 0
-179 -181 0
-179 -189 0
-179 -190 0
-179 -203 0
-180 -181 0
-180 -189 0
-180 -190 0
-180 -203 0
-196 -217 0
-197 -217 0
-198 -217 0
-199 -217 0
-200 -217 0
-201 -217 0
-202 -217 0
-202 -225 0
-203 -217 0
-203 -225 0
-204 -217 0
-204 -225 0
-217 -205 0
-225 -205 0
-206 -217 0
-206 -225 0
-207 -217 0
-207 -225 0
-207 -226 0
-208 -217 0
-208 -225 0
-208 -226 0
-209 -217 0
-209 -225 0
-209 -226 0
-210 -217 0
-210 -225 0
-210 -226 0
-211 -217 0
-211 -225 0
-211 -226 0
-212 -217 0
-212 -225 0
-212 -226 0
-213 -217 0
-213 -225 0
-213 -226 0
-214 -217 0
-214 -225 0
-214 -226 0
-215 -217 0
-215 -225 0
-215 -226 0
-216 -217 0
-216 -225 0
-216 -226 0
-232 -253 0
-266 -232 0
-233 -253 0
-266 -233 0
-234 -253 0
-234 -266 0
-235 -253 0
-235 -266 0
-236 -253 0
-237 -253 0
-237 -266 0
-238 -253 0
-238 -261 0
-264 -238 0
-238 -265 0
-238 -266 0
-238 -267 0
-239 -253 0
-239 -261 0
-239 -263 0
-239 -265 0
-239 -266 0
-239 -267 0
-240 -253 0
-240 -261 0
-240 -263 0
-264 -240 0
-240 -266 0
-240 -267 0
-241 -253 0
-241 -261 0
-263 -241 0
-264 -241 0
-265 -241 0
-267 -241 0
-253 -242 0
-261 -242 0
-263 -242 0
-264 -242 0
-265 -242 0
-266 -242 0
-243 -253 0
-243 -261 0
-262 -243 0
-243 -265 0
-243 -266 0
-243 -267 0
-244 -253 0
-244 -261 0
-262 -244 0
-264 -244 0
-244 -266 0
-244 -267 0
-245 -253 0
-245 -261 0
-262 -245 0
-264 -245 0
-245 -265 0
-245 -267 0
-246 -253 0
-246 -261 0
-262 -246 0
-264 -246 0
-246 -265 0
-246 -266 0
-247 -253 0
-247 -261 0
-262 -247 0
-247 -263 0
-247 -266 0
-247 -267 0
-248 -253 0
-248 -261 0
-262 -248 0
-248 -263 0
-265 -248 0
-267 -248 0
-249 -253 0
-249 -261 0
-262 -249 0
-249 -263 0
-265 -249 0
-249 -266 0
-250 -253 0
-250 -261 0
-262 -250 0
-263 -250 0
-264 -250 0
-267 -250 0
-251 -253 0
-251 -261 0
-262 -251 0
-251 -263 0
-264 -251 0
-251 -266 0
-252 -253 0
-252 -261 0
-262 -252 0
-252 -263 0
-264 -252 0
-265 -252 0
-291 -261 0
-292 -261 0
-293 -261 0
-268 -289 0
-269 -289 0
-270 -289 0
-271 -289 0
-272 -289 0
-273 -289 0
-274 -289 0
-274 -297 0
-275 -289 0
-275 -297 0
-276 -289 0
-276 -297 0
-277 -289 0
-277 -297 0
-278 -289 0
-278 -297 0
-279 -289 0
-279 -297 0
-280 -289 0
-280 -297 0
-281 -289 0
-281 -297 0
-282 -289 0
-282 -297 0
-283 -289 0
-283 -297 0
-284 -289 0
-284 -297 0
-285 -289 0
-285 -297 0
-286 -289 0
-286 -297 0
-287 -289 0
-287 -297 0
-288 -289 0
-288 -297 0
-327 -297 0
-328 -297 0
-329 -297 0
-330 -297 0
-331 -297 0
-332 -297 0
-304 -325 0
-305 -325 0
-306 -325 0
-307 -325 0
-308 -325 0
-309 -325 0
-310 -325 0
-310 -333 0
-311 -325 0
-311 -333 0
-312 -325 0
-312 -333 0
-313 -325 0
-313 -333 0
-314 -325 0
-314 -333 0
-315 -325 0
-315 -333 0
-316 -325 0
-316 -333 0
-317 -325 0
-317 -333 0
-318 -325 0
-318 -333 0
-319 -325 0
-319 -333 0
-320 -325 0
-320 -333 0
-321 -325 0
-321 -333 0
-322 -325 0
-322 -333 0
-323 -325 0
-323 -333 0
-324 -325 0
-324 -333 0
-361 -340 0
-341 -361 0
-342 -361 0
-343 -361 0
-344 -361 0
-345 -361 0
-346 -361 0
-346 -369 0
-347 -361 0
-347 -369 0
-348 -361 0
-348 -369 0
-349 -361 0
-349 -369 0
-350 -361 0
-350 -369 0
-351 -361 0
-351 -369 0
-352 -361 0
-352 -369 0
-353 -361 0
-353 -369 0
-354 -361 0
-354 -369 0
-355 -361 0
-355 -369 0
-356 -361 0
-356 -369 0
-357 -361 0
-357 -369 0
-358 -361 0
-358 -369 0
-359 -361 0
-359 -369 0
-360 -361 0
-360 -369 0
