p cnf 9405 1838
9 36 10 2 12 31 5 16 3 4 1 6 7 8 15 11 30 13 17 18 21 19 14 22 23 26 24 34 28 27 20 25 33 32 35 29 0
397 -1 0
397 -2 0
397 -3 0
397 -4 0
397 -5 0
397 -6 0
397 -7 0
397 -8 0
1 7 -397 3 2 4 8 5 6 0
-9 398 0
-10 398 0
398 -11 0
-12 398 0
398 -13 0
-14 398 0
398 -15 0
9 14 10 1 -398 12 15 11 13 0
399 -16 0
400 -10 0
400 -16 0
-401 28 11 17 22 30 29 4 27 0
-402 27 5 12 23 32 31 18 33 0
404 -7 0
404 -14 0
404 -20 0
404 -25 0
404 -29 0
404 -32 0
404 -34 0
405 -8 0
405 -15 0
-405 15 35 30 36 21 26 33 8 0
52 62 40 37 42 43 50 44 38 47 41 48 49 46 51 39 53 54 55 56 57 58 59 60 61 45 63 64 65 66 67 68 69 70 71 72 0
-38 532 0
533 -532 0
-39 533 0
534 -533 0
-40 534 0
535 -534 0
-41 535 0
536 -535 0
-42 536 0
537 -536 0
-43 537 0
538 -537 0
-44 538 0
539 -538 0
540 -539 0
-46 540 0
541 -540 0
542 -541 0
-48 542 0
543 -542 0
-50 -543 0
-50 544 0
545 -544 0
-544 -51 0
546 -545 0
-52 -545 0
547 -546 0
548 -547 0
-54 -547 0
549 -548 0
550 -549 0
551 -550 0
-57 -550 0
552 -551 0
-58 -551 0
553 -552 0
-59 -552 0
554 -553 0
-60 -553 0
555 -554 0
-61 -554 0
556 -555 0
-62 -555 0
557 -556 0
-63 -556 0
558 -557 0
559 -558 0
560 -559 0
-66 -559 0
561 -560 0
-67 -560 0
562 -561 0
-68 -561 0
563 -562 0
-69 -562 0
564 -563 0
565 -564 0
-71 -564 0
-72 -565 0
-37 406 0
-38 406 0
-39 406 0
-40 406 0
-41 406 0
-42 406 0
-43 406 0
-44 406 0
39 -406 37 38 41 40 42 43 44 0
407 -37 0
-45 407 0
-46 407 0
-47 407 0
-48 407 0
-49 407 0
407 -50 0
407 -51 0
45 46 37 -407 50 48 49 47 51 0
408 -45 0
-52 408 0
409 -46 0
-52 409 0
-58 409 0
-59 409 0
-60 409 0
-61 409 0
-62 409 0
-409 61 46 39 52 58 60 59 62 0
-410 65 47 40 66 53 58 63 64 0
-411 69 48 41 68 54 59 63 67 0
-412 70 49 42 71 55 60 64 67 0
413 -50 0
-413 70 50 43 56 61 68 65 72 0
-414 72 51 44 69 57 62 66 71 0
88 89 73 82 81 75 79 74 76 77 78 87 85 83 84 80 86 90 91 92 93 94 95 96 97 98 99 100 101 102 103 104 105 106 107 108 0
566 -73 0
567 -566 0
568 -567 0
-75 -567 0
569 -568 0
570 -569 0
571 -570 0
572 -571 0
573 -572 0
574 -573 0
575 -574 0
576 -575 0
577 -576 0
578 -577 0
579 -578 0
580 -579 0
581 -580 0
-88 -580 0
582 -581 0
583 -582 0
584 -583 0
585 -584 0
586 -585 0
587 -586 0
-94 -586 0
588 -587 0
-95 -587 0
589 -588 0
-96 -588 0
590 -589 0
-97 -589 0
-98 -590 0
-73 415 0
-74 415 0
-75 415 0
-76 415 0
-77 415 0
-78 415 0
-79 415 0
-80 415 0
79 -415 73 75 74 76 77 78 80 0
416 -73 0
-81 416 0
-82 416 0
-83 416 0
-84 416 0
-85 416 0
-86 416 0
-87 416 0
81 83 73 -416 82 87 85 84 86 0
417 -81 0
-88 417 0
418 -82 0
-88 418 0
-94 418 0
-95 418 0
-96 418 0
-97 418 0
-98 418 0
-418 97 82 88 98 75 94 95 96 0
-421 106 85 103 91 96 100 78 107 0
-422 92 97 79 86 104 101 106 108 0
125 124 111 109 113 114 115 116 110 112 118 117 119 120 121 122 123 126 127 128 129 130 131 132 133 134 135 136 137 138 139 140 141 142 143 144 0
601 -109 0
-601 602 0
-110 -601 0
-602 603 0
-111 -602 0
-603 604 0
-604 605 0
-605 606 0
-606 607 0
-115 -606 0
-607 608 0
-116 -607 0
-608 609 0
-117 -608 0
-609 610 0
-610 611 0
-611 612 0
-612 613 0
-613 614 0
-122 -613 0
615 -614 0
-614 -123 0
616 -615 0
-124 -615 0
617 -616 0
-125 -616 0
618 -617 0
-126 -617 0
619 -618 0
-127 -618 0
620 -619 0
-128 -619 0
621 -620 0
-129 -620 0
622 -621 0
623 -622 0
624 -623 0
625 -624 0
-133 -624 0
626 -625 0
-134 -625 0
627 -626 0
628 -627 0
629 -628 0
630 -629 0
-138 -629 0
631 -630 0
632 -631 0
633 -632 0
-141 -632 0
634 -633 0
635 -634 0
-143 -634 0
-144 -635 0
-109 424 0
-110 424 0
-111 424 0
-112 424 0
-113 424 0
-114 424 0
-115 424 0
-116 424 0
-117 425 0
-118 425 0
123 122 109 -425 118 121 117 120 119 0
-124 426 0
-426 129 110 117 125 124 126 128 127 0
-118 427 0
-427 134 111 118 124 131 130 133 132 0
-431 144 115 122 128 133 137 142 140 0
-432 143 116 123 129 134 138 141 144 0
-145 433 0
-147 433 0
-145 434 0
-154 434 0
153 154 145 -434 155 156 157 158 159 0
-160 435 0
-154 436 0
166 -436 160 147 154 167 168 169 170 0
197 213 181 192 193 184 185 186 187 182 183 188 190 194 195 189 191 196 202 198 201 212 203 204 205 206 207 208 209 210 199 211 200 214 215 216 0
671 -181 0
-671 672 0
-672 673 0
-183 -672 0
-673 674 0
-674 675 0
-675 676 0
-676 677 0
-677 678 0
-678 679 0
-679 680 0
-680 681 0
-681 682 0
-682 683 0
-683 684 0
-684 685 0
686 -685 0
-685 -196 0
687 -686 0
688 -687 0
689 -688 0
690 -689 0
691 -690 0
692 -691 0
-202 -691 0
693 -692 0
-203 -692 0
694 -693 0
-204 -693 0
695 -694 0
-205 -694 0
-206 -695 0
-181 442 0
-182 442 0
-183 442 0
-184 442 0
-185 442 0
-186 442 0
-187 442 0
-188 442 0
-181 443 0
-189 443 0
-190 443 0
-191 443 0
-192 443 0
-193 443 0
-194 443 0
-195 443 0
191 -443 189 181 190 192 193 194 195 0
-196 444 0
-196 445 0
-202 445 0
-203 445 0
-204 445 0
-205 445 0
-206 445 0
-445 202 190 183 196 206 203 205 204 0
233 232 224 217 219 220 221 222 223 218 226 228 229 230 231 225 227 234 235 236 237 238 239 240 241 242 243 244 245 246 247 248 249 250 251 252 0
-217 706 0
-706 707 0
-218 -706 0
-707 708 0
-219 -707 0
-708 709 0
-709 710 0
-710 711 0
-711 712 0
-712 713 0
-713 714 0
715 -714 0
716 -715 0
717 -716 0
718 -717 0
719 -718 0
720 -719 0
721 -720 0
-232 -720 0
722 -721 0
-233 -721 0
723 -722 0
-234 -722 0
724 -723 0
-235 -723 0
725 -724 0
-236 -724 0
726 -725 0
-237 -725 0
727 -726 0
-238 -726 0
728 -727 0
-239 -727 0
729 -728 0
-240 -728 0
730 -729 0
-241 -729 0
-242 -730 0
-217 451 0
-218 451 0
-219 451 0
-220 451 0
-221 451 0
-222 451 0
-223 451 0
-224 451 0
-217 452 0
-225 452 0
-226 452 0
-227 452 0
-228 452 0
-229 452 0
-230 452 0
-231 452 0
225 -452 217 226 227 228 229 230 231 0
-225 453 0
-232 453 0
-453 237 225 218 232 234 233 236 235 0
-226 454 0
-454 242 226 219 240 232 239 238 241 0
741 -253 0
742 -741 0
743 -742 0
-255 -742 0
744 -743 0
745 -744 0
746 -745 0
747 -746 0
748 -747 0
749 -748 0
750 -749 0
751 -750 0
752 -751 0
753 -752 0
754 -753 0
755 -754 0
756 -755 0
-268 -755 0
757 -756 0
758 -757 0
759 -758 0
760 -759 0
761 -760 0
762 -761 0
-274 -761 0
763 -762 0
-275 -762 0
764 -763 0
-276 -763 0
765 -764 0
-277 -764 0
-278 -765 0
-253 460 0
-255 460 0
-262 461 0
261 263 253 262 -461 264 265 266 267 0
-268 462 0
-463 278 255 262 276 268 275 274 277 0
776 -289 0
777 -776 0
778 -777 0
-291 -777 0
779 -778 0
780 -779 0
781 -780 0
782 -781 0
783 -782 0
784 -783 0
785 -784 0
786 -785 0
787 -786 0
788 -787 0
789 -788 0
790 -789 0
791 -790 0
-304 -790 0
792 -791 0
793 -792 0
794 -793 0
795 -794 0
796 -795 0
797 -796 0
-310 -796 0
798 -797 0
-311 -797 0
799 -798 0
-312 -798 0
800 -799 0
-313 -799 0
-314 -800 0
-289 469 0
-291 469 0
-298 470 0
299 297 289 -470 298 300 301 302 303 0
-304 471 0
-472 313 298 291 304 314 311 310 312 0
354 350 327 329 328 330 331 332 325 326 334 336 337 338 339 335 333 340 343 344 345 341 347 348 349 342 351 352 353 346 355 356 357 358 359 360 0
811 -325 0
812 -811 0
-327 -812 0
-325 478 0
-326 478 0
-327 478 0
-328 478 0
-329 478 0
-330 478 0
-331 478 0
-332 478 0
-333 479 0
-334 479 0
-335 479 0
-336 479 0
-337 479 0
-338 479 0
-339 479 0
335 336 325 -479 333 334 338 337 339 0
-333 480 0
-340 480 0
-341 480 0
-342 480 0
-343 480 0
-344 480 0
-345 480 0
481 -334 0
-346 481 0
-350 481 0
340 350 327 334 -481 347 346 348 349 0
482 -335 0
483 -336 0
483 -351 0
-357 483 0
484 -337 0
-359 484 0
-338 485 0
-349 485 0
-353 485 0
-356 485 0
-358 485 0
-360 485 0
-339 486 0
-354 486 0
-361 487 0
-362 487 0
-363 487 0
-369 488 0
-370 488 0
370 369 361 -488 375 372 373 371 374 0
-369 489 0
-376 489 0
377 -489 362 369 376 378 379 380 381 0
382 370 363 -490 376 383 384 385 386 0
491 -371 0
-374 494 0
-375 495 0
-881 0
-882 0
-883 0
-884 0
-886 0
-887 0
-888 0
-889 0
988 0
-989 -8 881 0
-989 -15 882 0
-989 -21 883 0
-989 -26 884 0
-989 -33 886 0
-35 -989 887 0
-36 -989 888 0
-898 405 889 0
989 -898 889 0
-907 414 898 0
-916 423 907 0
916 -925 432 0
925 -934 441 0
934 -943 450 0
943 -952 459 0
952 -961 468 0
961 -970 477 0
970 486 -979 0
495 979 -988 0
-1000 0
-1001 0
-1004 0
-1005 0
-1008 0
1107 0
-1108 -30 1004 0
-32 -1108 1005 0
397 -1009 1000 0
398 -1010 1001 0
1108 -1017 1008 0
-1109 -50 1010 0
-1018 1009 406 0
-1026 414 1017 0
-1026 1109 1017 0
-1027 1018 415 0
-1035 423 1026 0
-1111 -109 1027 0
1035 -1044 432 0
1044 -1053 441 0
1053 -1062 450 0
1062 -1071 459 0
1071 -1080 468 0
1080 -1089 477 0
1089 -1098 486 0
495 1098 -1107 0
1239 0
-1243 0
-12 1346 1243 -1239 0
-1358 0
398 -1367 1358 0
-1466 -50 1367 0
-4451 0
-4550 0
4454 0
-4553 0
397 -4460 4451 0
400 4463 -4454 0
-4469 4460 406 0
4472 -4463 409 0
-4478 4469 415 0
4481 -4472 418 0
-4487 4478 424 0
4490 -4481 427 0
-4496 4487 433 0
4499 -4490 436 0
-4505 4496 442 0
4508 -4499 445 0
-4565 -217 4505 0
4517 -4508 454 0
4526 -4517 463 0
-4523 4532 469 0
4535 -4526 472 0
-4532 4541 478 0
481 -4535 4544 0
-4569 -4544 -370 0
-4541 487 4550 0
-4544 4569 4553 0
5284 0
-5383 0
5285 0
-5384 0
5286 0
5385 0
-5287 0
5386 0
5288 0
5290 0
5291 0
-5392 -2 -5286 0
-5392 -4 -5288 0
-5392 -6 -5290 0
-9 -5392 -5286 0
-5392 -11 -5288 0
-5392 -13 -5290 0
397 5293 -5284 0
5294 398 -5285 0
5392 5294 -5285 0
400 -5296 5287 0
404 5300 -5291 0
-5393 -37 -5294 0
-5393 -50 -5300 0
-50 -5294 5300 5393 0
5302 -5293 406 0
5393 5302 -5293 0
5393 5303 -5294 0
5303 -5393 -407 5294 0
-5303 -5393 -5294 -407 0
-5305 5296 409 0
5309 5393 -5300 0
-5394 -73 -5303 0
5394 -73 5303 -5302 0
-86 -5309 -5394 0
-5302 5311 415 0
5394 -5302 5311 0
5312 416 -5303 0
5312 5394 -5303 0
-5394 5312 5303 -416 0
-5314 5305 418 0
5318 -5309 422 0
-5395 -109 -5312 0
-137 -5318 -5395 0
-140 -5318 -5395 0
-142 -5318 -5395 0
-5311 5320 424 0
5395 -5311 5320 0
5321 425 -5312 0
5321 5312 -425 -5395 0
-5323 5314 427 0
-5396 -145 -5321 0
-5320 5329 433 0
5396 -5320 5329 0
5330 434 -5321 0
5321 5330 -434 -5396 0
-5332 5323 436 0
-5397 -181 -5330 0
-5329 5338 442 0
5397 -5329 5338 0
5339 -5330 443 0
-5397 5330 -443 5339 0
-5341 5332 445 0
-5398 -217 -5339 0
-5338 5347 451 0
5398 -5338 5347 0
5348 452 -5339 0
-5398 5339 -452 5348 0
-253 -5399 -5348 0
-5347 5356 460 0
5399 -5347 5356 0
5357 461 -5348 0
5348 5357 -461 -5399 0
-5400 -289 -5357 0
-5356 5365 469 0
5400 -5356 5365 0
5366 470 -5357 0
-5400 5366 -470 5357 0
-325 -5401 -5366 0
-5368 -340 -5401 0
-5365 5374 478 0
5401 -5365 5374 0
479 -5366 5375 0
5366 -479 5375 -5401 0
5368 -481 -5401 5377 0
-5375 -361 -5402 0
5376 -376 -5402 0
-377 5376 -5402 0
-378 5376 -5402 0
-379 5376 -5402 0
-380 5376 -5402 0
-381 5376 -5402 0
-382 5377 -5402 0
-383 5377 -5402 0
-384 5377 -5402 0
-385 5377 -5402 0
-386 5377 -5402 0
-5374 487 5383 0
5402 -5374 5383 0
488 -5375 5384 0
-5375 5402 5384 0
-5402 -488 5375 5384 0
5376 489 -5385 0
5402 5376 -5385 0
-5402 -5376 -489 -5385 0
5377 490 -5386 0
5402 5377 -5386 0
-5402 -5377 -490 -5386 0
-5760 0
-5859 0
5761 0
-5860 0
5762 0
5861 0
-5763 0
5862 0
5764 0
5765 0
5864 0
5766 0
5865 0
5767 0
5866 0
5768 0
-5868 -1 5760 0
-5868 -2 5760 0
-5868 -3 5760 0
-5868 -4 5760 0
-5868 -5 5760 0
-5868 -6 5760 0
-5868 -7 5760 0
-5868 -8 5760 0
-5868 -9 -5762 0
-10 5868 5763 -5761 0
-5868 -11 -5764 0
-12 -5868 -5765 0
-5868 -13 -5766 0
-14 -5868 -5767 0
-15 -5868 -5768 0
-16 5868 5763 -5762 0
-17 -5868 -5764 0
-18 -5868 -5765 0
-19 -5868 -5766 0
-20 -5868 -5767 0
-21 -5868 -5768 0
-22 -5868 -5764 0
-23 -5868 -5765 0
-24 -5868 -5766 0
-25 -5868 -5767 0
-26 -5868 -5768 0
-27 -5868 -5765 0
-28 -5868 -5766 0
-29 -5868 -5767 0
-30 -5868 -5768 0
-31 -5868 -5766 0
-32 -5868 -5767 0
-33 -5868 -5768 0
-34 -5868 -5767 0
-35 -5868 -5768 0
-36 -5868 -5768 0
-5769 397 5760 0
-5769 5868 5760 0
5770 398 -5761 0
5770 5868 -5761 0
-5770 -5868 -398 -5761 0
5771 5868 -5762 0
-399 -5868 -5771 -5762 0
-5772 400 5763 0
-5772 5868 5763 0
-400 -5868 5772 5763 0
5773 5868 -5764 0
5774 5868 -5765 0
5775 5868 -5766 0
5776 5868 -5767 0
5777 5868 -5768 0
-5869 -37 5769 0
-38 -5869 -5771 0
-39 -5869 5769 0
-40 -5869 5769 0
-41 -5869 5769 0
-42 -5869 5769 0
-43 -5869 5769 0
-44 -5869 5769 0
-5869 -45 -5771 0
-46 5869 5772 -5770 0
-47 -5869 -5773 0
-48 -5869 -5774 0
-49 -5869 -5775 0
-5869 -50 5770 0
-5869 -50 -5776 0
-5869 -51 -5777 0
-52 -5869 -5772 0
-52 5869 5772 -5771 0
-53 -5869 -5773 0
-54 -5869 -5774 0
-55 -5869 -5775 0
-56 -5869 -5776 0
-57 -5869 -5777 0
-58 -5869 5772 0
-59 -5869 5772 0
-60 -5869 5772 0
-61 -5869 5772 0
-62 -5869 5772 0
-63 -5869 -5774 0
-64 -5869 -5775 0
-65 -5869 -5776 0
-66 -5869 -5777 0
-67 -5869 -5775 0
-68 -5869 -5776 0
-69 -5869 -5777 0
-70 -5869 -5776 0
-71 -5869 -5777 0
-72 -5869 -5777 0
-5778 406 5769 0
-5778 5869 5769 0
-5779 407 5770 0
5779 5869 -5770 0
-5779 5869 5770 0
-5869 -5779 -407 -5770 0
-5780 408 5771 0
5780 5869 -5771 0
-5869 -5780 -408 -5771 0
-5781 409 5772 0
-5781 5869 5772 0
-409 -5869 5781 5772 0
5782 410 -5773 0
5782 5869 -5773 0
5783 411 -5774 0
5783 5869 -5774 0
5784 412 -5775 0
5784 5869 -5775 0
5785 413 -5776 0
5785 5869 -5776 0
5786 414 -5777 0
5786 5869 -5777 0
-5870 -73 5778 0
-74 -5870 5778 0
-75 5778 -5870 0
-76 -5870 5778 0
-77 -5870 5778 0
-78 -5870 5778 0
-79 -5870 5778 0
-80 -5870 5778 0
-5870 5779 -81 0
-5870 -5780 -81 0
-5870 -82 5779 0
-5870 -82 -5781 0
-82 5781 5870 -5779 0
-83 -5870 5779 0
-83 -5870 -5782 0
-84 -5870 5779 0
-84 -5870 -5783 0
-85 -5870 5779 0
-85 -5870 -5784 0
-86 -5870 5779 0
-86 -5870 -5785 0
-5870 -87 5779 0
-5870 -87 -5786 0
-88 -5870 -5781 0
-88 -5780 5870 5781 0
-89 -5870 -5782 0
-90 -5870 -5783 0
-91 -5870 -5784 0
-92 -5870 -5785 0
-93 -5870 -5786 0
-94 -5870 5781 0
-94 -5870 -5782 0
-95 -5870 5781 0
-95 -5870 -5783 0
-96 -5870 5781 0
-96 -5870 -5784 0
-97 -5870 5781 0
-97 -5870 -5785 0
-98 -5870 5781 0
-98 -5870 -5786 0
-99 -5870 -5783 0
-100 -5870 -5784 0
-101 -5870 -5785 0
-102 -5870 -5786 0
-103 -5870 -5784 0
-104 -5870 -5785 0
-105 -5870 -5786 0
-106 -5870 -5785 0
-107 -5870 -5786 0
-108 -5870 -5786 0
-5787 5778 415 0
-5778 5870 5787 0
-5787 5870 5778 0
-5788 5779 416 0
5788 -5779 5870 0
-5788 5779 5870 0
-5870 5779 -416 5788 0
-5788 -5870 -416 -5779 0
417 5780 -5789 0
5789 -5780 5870 0
-5789 5780 5870 0
-5789 -5870 -417 -5780 0
5790 418 -5781 0
-5790 5781 418 0
5790 5870 -5781 0
-5790 5781 5870 0
5790 -5870 -418 5781 0
5791 5870 -5782 0
5792 5870 -5783 0
5793 -5784 5870 0
5794 -5785 5870 0
5795 5870 -5786 0
-5871 -109 5787 0
-110 -5871 5787 0
-111 -5871 5787 0
-117 -5871 5788 0
-117 -5871 -5789 0
-118 -5871 5788 0
-118 5790 5871 -5788 0
-119 -5871 5788 0
-119 -5871 -5791 0
-120 -5871 5788 0
-120 -5871 -5792 0
-121 -5871 5788 0
-121 -5871 -5793 0
-122 -5871 5788 0
-122 -5871 -5794 0
-5871 5788 -123 0
-5871 -5795 -123 0
-124 -5871 5789 0
-125 -5871 5789 0
-126 -5871 5789 0
-127 -5871 5789 0
-128 -5871 5789 0
-129 -5871 5789 0
-130 -5871 5790 0
-131 -5871 5790 0
-132 -5871 5790 0
-133 -5871 5790 0
-134 -5871 5790 0
-5787 5796 424 0
-5796 5787 424 0
5797 -5788 425 0
-5797 425 5788 0
5797 -5788 5871 0
-5797 5871 5788 0
-5871 -5788 -425 -5797 0
-5798 5789 426 0
5798 -5789 5871 0
-5798 5789 5871 0
-426 -5871 -5789 -5798 0
-5799 5790 427 0
-5799 5790 5871 0
-427 -5871 5790 5799 0
-427 -5799 -5790 -5871 0
-145 -5872 5796 0
-154 -5872 5797 0
-160 -5872 5798 0
-166 -5872 5799 0
-167 -5872 5799 0
-168 -5872 5799 0
-169 -5872 5799 0
-170 -5872 5799 0
-5796 5805 433 0
-5805 5796 433 0
-5806 5797 434 0
5872 -5806 5797 0
-5806 -5872 -434 -5797 0
-5807 435 5798 0
5872 -5807 5798 0
-435 -5872 -5807 -5798 0
-5808 436 5799 0
5872 -5808 5799 0
-181 -5873 5805 0
-189 -5873 5806 0
-190 -5873 5806 0
-191 -5873 5806 0
-192 -5873 5806 0
-193 -5873 5806 0
-194 -5873 5806 0
-195 -5873 5806 0
-196 -5873 5807 0
-202 -5873 5808 0
-203 -5873 5808 0
-204 -5873 5808 0
-205 -5873 5808 0
-206 -5873 5808 0
-5805 5814 442 0
-5814 5805 442 0
-5815 5806 443 0
5873 -5815 5806 0
-5806 -5873 -443 -5815 0
-5816 444 5807 0
5873 -5816 5807 0
-5807 -444 -5873 -5816 0
-5817 445 5808 0
5873 -5817 5808 0
-217 -5874 5814 0
-5874 -226 5815 0
-5874 -5817 -226 0
-232 -5874 5816 0
-238 -5874 5817 0
-239 -5874 5817 0
-240 -5874 5817 0
-241 -5874 5817 0
-242 -5874 5817 0
-5814 5823 451 0
-5823 5814 451 0
-5824 452 5815 0
5874 -5824 5815 0
-5874 -5824 -452 -5815 0
-5825 453 5816 0
5874 -5825 5816 0
-453 -5874 -5816 -5825 0
5826 -5817 454 0
-5826 454 5817 0
-5817 5826 5874 0
5874 -5826 5817 0
-5875 -253 5823 0
-262 -5875 5824 0
-268 -5875 5825 0
-274 -5875 5826 0
-275 -5875 5826 0
-276 -5875 5826 0
-277 -5875 5826 0
-278 -5875 5826 0
-5823 5832 460 0
-5832 5823 460 0
-5833 5824 461 0
5875 -5833 5824 0
-5875 -5824 -461 -5833 0
-5834 462 5825 0
-5834 5875 5825 0
-462 -5875 -5825 -5834 0
-5835 463 5826 0
5835 -5826 5875 0
-5835 5875 5826 0
-298 -5876 5833 0
-304 -5876 5834 0
-310 -5876 5835 0
-311 -5876 5835 0
-312 -5876 5835 0
-313 -5876 5835 0
-314 -5876 5835 0
-5832 5841 469 0
-5841 5832 469 0
-5842 5833 470 0
5876 -5833 5842 0
-5876 -5842 -470 -5833 0
-5843 471 5834 0
-5876 -5834 -471 -5843 0
-5844 472 5835 0
-5844 5876 5835 0
-5835 -472 -5844 -5876 0
-5843 -333 -5877 0
-5844 -334 -5877 0
-5845 -5877 -335 0
-5846 -336 -5877 0
-5847 -337 -5877 0
-5848 -338 -5877 0
-5849 -339 -5877 0
-5877 -340 5843 0
-346 -5877 5844 0
-347 -5877 5844 0
-347 -5846 -5877 0
-348 -5877 5844 0
-348 -5847 -5877 0
-349 -5877 5844 0
-350 -5877 5844 0
-351 -5846 -5877 0
-352 -5847 -5877 0
-354 -5849 -5877 0
-355 -5847 -5877 0
-5841 5850 478 0
-5877 -478 5841 5850 0
-5842 479 5851 0
-5851 5842 479 0
-5842 5877 5851 0
-5852 480 5843 0
5877 -5852 5843 0
-5843 -5877 -480 -5852 0
481 5844 -5853 0
5877 5844 -5853 0
-5844 -5877 -5853 -481 0
483 5846 -5855 0
-5846 -5877 -5855 -483 0
484 5847 -5856 0
-5847 -5877 -5856 -484 0
-5848 -485 -5857 -5877 0
-5852 -369 -5878 0
-5878 -370 -5853 0
-5854 -371 -5878 0
-372 -5855 -5878 0
-373 -5856 -5878 0
-5857 -374 -5878 0
-5858 -375 -5878 0
-5850 487 5859 0
488 -5851 5860 0
5878 -5851 5860 0
5852 489 -5861 0
5853 490 -5862 0
5855 492 -5864 0
5856 493 -5865 0
494 5857 -5866 0
5879 0
-5978 0
5880 0
5979 0
5881 0
5980 0
-5882 0
5981 0
5883 0
5884 0
5885 0
5886 0
5887 0
-5987 -1 -5880 0
-5987 -2 -5881 0
-3 5987 5882 -5879 0
-4 -5987 -5883 0
-5987 -5 -5884 0
-6 -5987 -5885 0
-7 -5987 -5886 0
-8 -5987 -5887 0
-5987 -9 -5881 0
-5987 -11 -5883 0
-5987 -12 -5884 0
-5987 -13 -5885 0
-5987 -14 -5886 0
-5987 -15 -5887 0
-16 5987 5882 -5881 0
-5987 -17 -5883 0
-5987 -18 -5884 0
-5987 -19 -5885 0
-5987 -20 -5886 0
-5987 -21 -5887 0
-5987 -22 -5883 0
-5987 -23 -5884 0
-5987 -24 -5885 0
-5987 -25 -5886 0
-5987 -26 -5887 0
-5987 -27 -5884 0
-5987 -28 -5885 0
-5987 -29 -5886 0
-5987 -30 -5887 0
-5987 -31 -5885 0
-5987 -32 -5886 0
-5987 -33 -5887 0
-5987 -34 -5886 0
-5987 -35 -5887 0
-5987 -36 -5887 0
397 5888 -5879 0
5888 5987 -5879 0
5889 398 -5880 0
5889 5987 -5880 0
5890 5987 -5881 0
-5891 400 5882 0
-5891 5987 5882 0
-400 -5987 5891 5882 0
5892 401 -5883 0
5892 5987 -5883 0
5893 402 -5884 0
5893 5987 -5884 0
5894 5987 -5885 0
404 5895 -5886 0
5895 5987 -5886 0
5896 405 -5887 0
5896 5987 -5887 0
-5988 -37 -5889 0
-45 -5988 -5890 0
-5988 -46 -5891 0
-47 -5988 -5892 0
-48 -5988 -5893 0
-49 -5988 -5894 0
-5988 -50 -5895 0
-51 -5988 -5896 0
-53 -5988 -5892 0
-54 -5988 -5893 0
-55 -5988 -5894 0
-56 -5988 -5895 0
-57 -5988 -5896 0
-58 -5988 5891 0
-59 -5988 5891 0
-60 -5988 5891 0
-61 -5988 5891 0
-63 -5988 -5893 0
-64 -5988 -5894 0
-65 -5988 -5895 0
-66 -5988 -5896 0
-67 -5988 -5894 0
-68 -5988 -5895 0
-69 -5988 -5896 0
-70 -5988 -5895 0
-71 -5988 -5896 0
-72 -5988 -5896 0
5897 406 -5888 0
5988 5897 -5888 0
5988 5898 -5889 0
5899 5988 -5890 0
-5900 409 5891 0
5901 5988 -5892 0
5902 411 -5893 0
5902 5988 -5893 0
5903 5988 -5894 0
5904 5988 -5895 0
5905 5988 -5896 0
-5989 -73 -5898 0
-5899 -5989 -81 0
-83 -5901 -5989 0
-84 -5989 -5902 0
-85 -5903 -5989 0
-86 -5904 -5989 0
-87 -5989 -5905 0
-89 -5901 -5989 0
-90 -5989 -5902 0
-91 -5903 -5989 0
-92 -5904 -5989 0
-93 -5989 -5905 0
-99 -5989 -5902 0
-100 -5903 -5989 0
-101 -5904 -5989 0
-102 -5989 -5905 0
-103 -5903 -5989 0
-104 -5904 -5989 0
-105 -5989 -5905 0
-106 -5904 -5989 0
-107 -5989 -5905 0
-108 -5989 -5905 0
5906 -5897 415 0
5989 5906 -5897 0
5907 416 -5898 0
5989 5907 -5898 0
-5989 -5898 -416 -5907 0
5908 5989 -5899 0
-5909 5900 418 0
5910 5989 -5901 0
5911 5989 -5902 0
5912 421 -5903 0
5912 5989 -5903 0
5913 5989 -5904 0
5914 5989 -5905 0
-5990 -109 -5907 0
-117 -5990 -5908 0
-119 -5910 -5990 0
-120 -5911 -5990 0
-121 -5912 -5990 0
-122 -5913 -5990 0
-5914 -5990 -123 0
5915 -5906 424 0
5990 5915 -5906 0
5916 425 -5907 0
5990 5916 -5907 0
-5918 5909 427 0
-5991 -145 -5916 0
5924 -5915 433 0
5991 5924 -5915 0
-5927 5918 436 0
-5992 -181 -5925 0
5933 -5924 442 0
5992 5933 -5924 0
5925 -5992 -443 5934 0
-5936 5927 445 0
-5993 -217 -5934 0
5993 -226 -5934 5936 0
5942 -5933 451 0
5993 5942 -5933 0
5934 -5993 -452 5943 0
-5943 -5934 -452 -5993 0
-5945 5936 454 0
-5994 -253 -5943 0
5943 -262 -5994 0
5994 -262 -5943 5945 0
5951 -5942 460 0
5994 5951 -5942 0
5943 -5952 461 0
5943 5994 -5952 0
5943 5952 -461 -5994 0
-5943 -5952 -461 -5994 0
-5954 5945 463 0
-5995 -289 -5952 0
5952 -298 -5995 0
-298 5995 -5952 5954 0
5960 -5951 469 0
5995 5960 -5951 0
5952 -5961 470 0
5952 5995 -5961 0
5952 -5995 5961 -470 0
-5995 -5961 -470 -5952 0
-5963 5954 472 0
-5996 -325 -5961 0
-334 5961 -5996 0
5963 5996 -5961 -334 0
-346 5963 -5996 0
-347 5963 -5996 0
-348 5963 -5996 0
-349 5963 -5996 0
-350 5963 -5996 0
5969 -5960 478 0
5996 5969 -5960 0
5961 -5970 479 0
5996 5961 -5970 0
-5996 -479 5970 5961 0
-5996 -479 -5970 -5961 0
481 5963 -5972 0
5971 -376 -5997 0
-382 -5997 5972 0
-383 -5997 5972 0
-384 -5997 5972 0
-385 -5997 5972 0
-386 -5997 5972 0
-5969 487 5978 0
488 5970 -5979 0
-5997 -5970 -488 -5979 0
-5997 -5971 -489 -5980 0
5972 490 -5981 0
5997 5972 -5981 0
5998 0
-6097 0
-6098 0
6001 0
6007 397 -5998 0
6010 400 -6001 0
6016 -6007 406 0
6019 -6010 409 0
-6016 6025 415 0
-6025 6034 424 0
-6034 6043 433 0
-6111 -181 -6044 0
-6043 6052 442 0
6111 -6043 6052 0
6044 -6111 -443 6053 0
-6052 6061 451 0
-6062 -6113 -253 0
-6061 6070 460 0
6113 -6061 6070 0
6071 6062 -461 -6113 0
-6070 6079 469 0
-6079 6088 478 0
-6088 487 6097 0
488 -6089 6098 0
6236 0
-6335 0
-6237 0
6336 0
6238 0
6239 0
6240 0
6241 0
6242 0
6243 0
6244 0
-6344 -9 -6238 0
-6344 -10 -6239 0
-6344 -11 -6240 0
-6344 -12 -6241 0
-6344 -13 -6242 0
-6344 -14 -6243 0
-6344 -15 -6244 0
6245 397 -6236 0
-6246 398 6237 0
-6246 6344 6237 0
6248 400 -6239 0
-45 -6345 6246 0
-46 -6345 6246 0
-47 -6345 6246 0
-48 -6345 6246 0
-49 -6345 6246 0
-50 -6345 6246 0
-51 -6345 6246 0
6254 -6245 406 0
407 -6255 6246 0
6345 -6255 6246 0
6257 -6248 409 0
-81 -6346 6255 0
-82 -6346 6255 0
-83 -6346 6255 0
-84 -6346 6255 0
-85 -6346 6255 0
-86 -6346 6255 0
-87 -6346 6255 0
6263 -6254 415 0
416 6255 -6264 0
6346 6255 -6264 0
6266 -6257 418 0
-117 -6347 6264 0
-118 -6347 6264 0
-119 -6347 6264 0
-120 -6347 6264 0
-121 -6347 6264 0
-122 -6347 6264 0
-123 -6347 6264 0
425 -6273 6264 0
6347 6264 -6273 0
6275 -6266 427 0
-153 -6348 6273 0
-154 -6348 6273 0
-155 -6348 6273 0
-156 -6348 6273 0
-157 -6348 6273 0
-158 -6348 6273 0
-159 -6348 6273 0
434 -6282 6273 0
6348 6273 -6282 0
6284 -6275 436 0
-189 -6349 6282 0
-190 -6349 6282 0
-191 -6349 6282 0
-192 -6349 6282 0
-193 -6349 6282 0
-194 -6349 6282 0
-195 -6349 6282 0
443 -6291 6282 0
6349 6282 -6291 0
6293 -6284 445 0
-225 -6350 6291 0
-226 -6350 6291 0
-227 -6350 6291 0
-228 -6350 6291 0
-229 -6350 6291 0
-230 -6350 6291 0
-231 -6350 6291 0
452 -6300 6291 0
6350 6291 -6300 0
-261 -6351 6300 0
-262 -6351 6300 0
-263 -6351 6300 0
-264 -6351 6300 0
-265 -6351 6300 0
-266 -6351 6300 0
-267 -6351 6300 0
461 -6309 6300 0
6351 6300 -6309 0
-297 -6352 6309 0
-298 -6352 6309 0
-299 -6352 6309 0
-300 -6352 6309 0
-301 -6352 6309 0
-302 -6352 6309 0
-303 -6352 6309 0
-6308 6317 469 0
470 -6318 6309 0
6352 6309 -6318 0
-333 -6353 6318 0
-334 -6353 6318 0
-335 -6353 6318 0
-336 -6353 6318 0
-337 -6353 6318 0
-338 -6353 6318 0
-339 -6353 6318 0
-6317 6326 478 0
479 -6327 6318 0
6353 6318 -6327 0
-369 -6354 6327 0
-370 -6354 6327 0
-371 -6354 6327 0
-372 -6354 6327 0
-373 -6354 6327 0
-374 -6354 6327 0
-375 -6354 6327 0
-6326 487 6335 0
6327 488 -6336 0
6327 6354 -6336 0
7216 -404 0
7216 -405 0
7217 -413 0
-423 7218 0
-432 7219 0
-441 7220 0
-450 7221 0
-459 7222 0
-468 7223 0
-477 7224 0
-486 7225 0
-495 7226 0
7227 -7216 0
7229 -7217 -7227 0
7230 -7229 0
-7218 -7229 0
7232 -7230 0
-7219 -7230 0
7234 -7232 0
-7220 -7232 0
7236 -7234 0
-7221 -7234 0
7238 -7236 0
-7222 -7236 0
7240 -7238 0
-7223 -7238 0
7242 -7240 0
-7224 -7240 0
7244 -7242 0
-7225 -7242 0
-7226 -7244 0
9088 -397 5760 0
-400 9088 5763 0
9089 -406 5769 0
9089 -407 5770 0
9089 -408 5771 0
-409 9089 5772 0
9090 -415 5778 0
5779 9090 -416 0
5780 9090 -417 0
-418 5781 9090 0
9091 -424 5787 0
5788 9091 -425 0
-426 5789 9091 0
-427 5790 9091 0
-433 5796 9092 0
5797 9092 -434 0
-435 5798 9092 0
-436 5799 9092 0
-442 5805 9093 0
5806 9093 -443 0
-444 5807 9093 0
-445 5808 9093 0
-451 5814 9094 0
5815 9094 -452 0
-453 5816 9094 0
-454 5817 9094 0
-460 5823 9095 0
5824 9095 -461 0
-462 5825 9095 0
-463 5826 9095 0
-469 5832 9096 0
5833 9096 -470 0
-471 5834 9096 0
-472 5835 9096 0
-478 9097 5841 0
5842 9097 -479 0
-480 5843 9097 0
-481 5844 9097 0
5845 9097 -482 0
5846 -483 9097 0
5847 -484 9097 0
5848 -485 9097 0
5849 -486 9097 0
9098 5851 -488 0
5852 9098 -489 0
5853 -490 9098 0
5854 -491 9098 0
-492 5855 9098 0
-493 5856 9098 0
5857 -494 9098 0
5858 -495 9098 0
9099 -9088 0
9100 -9099 0
-9089 9101 -9099 0
-9101 9102 0
-9090 -9101 0
9100 -9089 0
9103 -9100 0
-9090 9102 -9100 0
-9102 9104 0
-9091 -9102 0
9103 -9090 0
9105 -9103 0
-9091 9104 -9103 0
-9104 9106 0
-9092 -9104 0
9105 -9091 0
9107 -9105 0
-9092 9106 -9105 0
-9106 9108 0
-9093 -9106 0
-9092 9107 0
9109 -9107 0
-9093 9108 -9107 0
-9108 9110 0
-9094 -9108 0
-9093 9109 0
9111 -9109 0
-9094 9110 -9109 0
-9110 9112 0
-9095 -9110 0
-9094 9111 0
9113 -9111 0
-9095 9112 -9111 0
-9112 9114 0
-9096 -9112 0
-9095 9113 0
9115 -9113 0
-9096 9114 -9113 0
-9114 9116 0
-9097 -9114 0
-9096 9115 0
-9097 9116 -9115 0
-9116 -9098 0
9296 -398 0
9297 -407 0
9298 -416 0
9299 -425 0
9302 -452 0
9303 -461 0
9304 -470 0
9305 -479 0
9306 -488 0
9307 -9296 0
9309 -9297 -9307 0
9311 -9309 -9298 0
-9311 -9299 9313 0
-9313 9314 0
-9314 9318 0
-9318 9322 0
-9318 -9302 0
-9322 9326 0
-9322 -9303 0
-9326 9330 0
-9326 -9304 0
-9330 9334 0
-9330 -9305 0
-9334 -9306 0
9374 -397 0
-406 9375 0
-415 9376 0
-424 9377 0
-433 9378 0
-442 9379 0
-451 9380 0
-460 9381 0
-469 9382 0
-478 9383 0
-487 9384 0
9385 -9374 0
9386 -9385 0
-9375 -9385 0
-9375 9386 0
9387 -9386 0
-9376 -9386 0
-9376 9387 0
9388 -9387 0
-9377 -9387 0
-9377 9388 0
9389 -9388 0
-9378 -9388 0
-9378 9389 0
9390 -9389 0
-9379 -9389 0
-9379 9390 0
9391 -9390 0
-9380 -9390 0
-9380 9391 0
9392 -9391 0
-9381 -9391 0
-9381 9392 0
9393 -9392 0
-9382 -9392 0
-9382 9393 0
9394 -9393 0
-9383 -9393 0
-9383 9394 0
-9384 -9394 0
-38 -12 0
-16 -37 0
-47 -16 0
-48 -16 0
-49 -16 0
-50 -16 0
-17 -37 0
-17 -50 0
-18 -37 0
-18 -50 0
-19 -37 0
-19 -50 0
-20 -37 0
-21 -37 0
-21 -50 0
-22 -37 0
-22 -50 0
-23 -37 0
-23 -50 0
-24 -37 0
-24 -50 0
-25 -37 0
-26 -37 0
-26 -50 0
-27 -37 0
-27 -50 0
-28 -37 0
-28 -50 0
-29 -37 0
-30 -37 0
-50 -30 0
-31 -37 0
-31 -50 0
-32 -37 0
-33 -37 0
-33 -50 0
-34 -37 0
-35 -37 0
-35 -50 0
-36 -37 0
-74 -50 0
-75 -50 0
-76 -50 0
-77 -50 0
-78 -50 0
-80 -50 0
-52 -73 0
-53 -73 0
-54 -73 0
-55 -73 0
-56 -73 0
-57 -73 0
-58 -73 0
-59 -73 0
-60 -73 0
-61 -73 0
-62 -73 0
-63 -73 0
-64 -73 0
-65 -73 0
-66 -73 0
-67 -73 0
-68 -73 0
-68 -81 0
-68 -82 0
-83 -68 0
-85 -68 0
-68 -87 0
-69 -73 0
-70 -73 0
-71 -73 0
-72 -73 0
-88 -109 0
-89 -109 0
-90 -109 0
-91 -109 0
-92 -109 0
-93 -109 0
-94 -109 0
-95 -109 0
-96 -109 0
-97 -109 0
-98 -109 0
-99 -109 0
-100 -109 0
-101 -109 0
-102 -109 0
-103 -109 0
-104 -109 0
-105 -109 0
-106 -109 0
-107 -109 0
-108 -109 0
-145 -124 0
-145 -125 0
-126 -145 0
-127 -145 0
-128 -145 0
-129 -145 0
-130 -145 0
-131 -145 0
-132 -145 0
-133 -145 0
-134 -145 0
-135 -145 0
-136 -145 0
-137 -145 0
-138 -145 0
-139 -145 0
-140 -145 0
-141 -145 0
-142 -145 0
-143 -145 0
-144 -145 0
-181 -160 0
-166 -181 0
-167 -181 0
-168 -181 0
-169 -181 0
-170 -181 0
-217 -196 0
-227 -196 0
-228 -196 0
-229 -196 0
-230 -196 0
-231 -196 0
-197 -217 0
-197 -226 0
-198 -217 0
-198 -226 0
-199 -217 0
-199 -226 0
-200 -217 0
-200 -226 0
-201 -217 0
-201 -226 0
-202 -217 0
-203 -217 0
-204 -217 0
-205 -217 0
-206 -217 0
-207 -217 0
-207 -226 0
-208 -217 0
-208 -226 0
-209 -217 0
-209 -226 0
-210 -217 0
-210 -226 0
-211 -217 0
-211 -226 0
-212 -217 0
-212 -226 0
-213 -217 0
-213 -226 0
-214 -217 0
-214 -226 0
-215 -217 0
-215 -226 0
-216 -217 0
-216 -226 0
-232 -253 0
-233 -253 0
-234 -253 0
-235 -253 0
-236 -253 0
-237 -253 0
-238 -253 0
-239 -253 0
-240 -253 0
-241 -253 0
-242 -253 0
-243 -253 0
-244 -253 0
-245 -253 0
-246 -253 0
-247 -253 0
-248 -253 0
-249 -253 0
-250 -253 0
-251 -253 0
-252 -253 0
