p cnf 10264 1760
35 31 5 36 7 1 6 8 9 12 2 10 11 14 15 16 17 18 19 20 21 3 4 22 23 24 25 26 27 28 29 30 34 32 33 13 0
397 -1 0
397 -2 0
397 -3 0
397 -4 0
397 -5 0
397 -6 0
397 -7 0
397 -8 0
-397 8 4 3 2 1 5 6 7 0
398 -9 0
398 -10 0
398 -11 0
398 -12 0
398 -13 0
398 -14 0
398 -15 0
-398 15 1 10 14 9 12 11 13 0
-7 404 0
-14 404 0
-20 404 0
-25 404 0
-29 404 0
-32 404 0
-34 404 0
-36 404 0
-404 36 25 34 7 20 29 32 14 0
405 -8 0
405 -15 0
405 -21 0
405 -26 0
-30 405 0
405 -33 0
405 -35 0
-36 405 0
35 33 -405 8 15 36 21 30 26 0
52 44 47 56 39 48 40 41 43 38 53 37 51 50 42 49 71 69 54 72 55 58 59 60 61 46 63 64 65 57 67 68 62 70 66 45 0
-37 406 0
-38 406 0
-39 406 0
-40 406 0
-41 406 0
-42 406 0
-43 406 0
-44 406 0
-45 407 0
-46 407 0
-47 407 0
-48 407 0
-49 407 0
-50 407 0
-51 407 0
-407 51 37 46 47 48 49 50 45 0
-43 413 0
-50 413 0
-56 413 0
-61 413 0
-65 413 0
-68 413 0
-70 413 0
413 -72 0
61 -413 43 50 72 65 68 70 56 0
-44 414 0
-51 414 0
-57 414 0
-62 414 0
-66 414 0
-69 414 0
-71 414 0
72 57 51 -414 44 66 62 69 71 0
87 86 74 80 83 73 81 78 76 75 77 84 85 82 79 88 89 90 91 92 93 94 95 96 97 98 99 100 101 102 103 104 105 106 107 108 0
-73 566 0
-566 567 0
-567 568 0
-568 569 0
-569 570 0
-570 571 0
-571 572 0
-79 -571 0
-572 573 0
-80 -572 0
-573 574 0
-574 575 0
-575 576 0
-576 577 0
-577 578 0
-578 579 0
580 -579 0
581 -580 0
582 -581 0
583 -582 0
584 -583 0
585 -584 0
-92 -584 0
586 -585 0
-93 -585 0
587 -586 0
588 -587 0
589 -588 0
590 -589 0
-97 -589 0
591 -590 0
-98 -590 0
592 -591 0
593 -592 0
594 -593 0
-101 -593 0
595 -594 0
-102 -594 0
596 -595 0
597 -596 0
-104 -596 0
598 -597 0
-105 -597 0
599 -598 0
-106 -598 0
600 -599 0
-107 -599 0
-108 -600 0
-73 415 0
-74 415 0
-75 415 0
-76 415 0
-77 415 0
-78 415 0
-79 415 0
-80 415 0
-73 416 0
-81 416 0
-82 416 0
-83 416 0
-84 416 0
-85 416 0
-86 416 0
-87 416 0
82 83 73 -416 86 84 85 81 87 0
-79 422 0
-86 422 0
-92 422 0
-97 422 0
-101 422 0
-104 422 0
-106 422 0
-108 422 0
-422 108 86 92 97 101 104 106 79 0
-80 423 0
423 -87 0
-93 423 0
-98 423 0
-102 423 0
-105 423 0
-107 423 0
-108 423 0
-423 108 87 80 93 98 102 105 107 0
121 120 144 109 122 123 114 115 116 110 111 112 113 117 119 124 125 126 127 128 129 130 131 132 133 134 135 136 137 138 139 140 141 142 143 118 0
601 -109 0
602 -601 0
603 -602 0
604 -603 0
605 -604 0
606 -605 0
607 -606 0
-115 -606 0
608 -607 0
-116 -607 0
609 -608 0
610 -609 0
611 -610 0
612 -611 0
613 -612 0
614 -613 0
615 -614 0
616 -615 0
617 -616 0
618 -617 0
619 -618 0
620 -619 0
-128 -619 0
621 -620 0
622 -621 0
623 -622 0
624 -623 0
625 -624 0
-133 -624 0
626 -625 0
627 -626 0
628 -627 0
629 -628 0
-137 -628 0
630 -629 0
631 -630 0
632 -631 0
-140 -631 0
633 -632 0
-142 -633 0
-109 424 0
-110 424 0
-111 424 0
-112 424 0
-113 424 0
-114 424 0
-115 424 0
-116 424 0
118 -425 122 109 119 120 121 117 123 0
-122 431 0
-128 431 0
-133 431 0
-137 431 0
-140 431 0
-142 431 0
-144 431 0
-431 142 122 115 144 133 137 140 128 0
-116 432 0
-123 432 0
-129 432 0
-134 432 0
-138 432 0
-141 432 0
-143 432 0
-432 134 123 116 144 138 141 143 129 0
165 164 145 149 155 156 146 150 147 148 158 159 157 151 152 160 161 162 163 154 153 166 167 168 169 170 171 172 173 174 175 176 177 178 179 180 0
-145 636 0
-636 637 0
-637 638 0
-638 639 0
-639 640 0
-640 641 0
-641 642 0
-151 -641 0
-642 643 0
-642 -152 0
-643 644 0
-644 645 0
-645 646 0
-646 647 0
-647 648 0
-648 649 0
-649 650 0
-650 651 0
-651 652 0
-652 653 0
-653 654 0
-654 655 0
-164 -654 0
-655 656 0
-165 -655 0
-656 657 0
-657 658 0
-658 659 0
-659 660 0
-169 -659 0
-660 661 0
-170 -660 0
-661 662 0
-662 663 0
-663 664 0
-173 -663 0
-664 665 0
-174 -664 0
-665 666 0
-666 667 0
-176 -666 0
-667 668 0
-177 -667 0
-668 669 0
-178 -668 0
-669 670 0
-179 -669 0
-670 -180 0
-145 433 0
-146 433 0
-147 433 0
-148 433 0
-149 433 0
-150 433 0
-151 433 0
-152 433 0
-434 159 145 154 155 156 157 158 153 0
-151 440 0
-158 440 0
-164 440 0
-169 440 0
-173 440 0
-176 440 0
-178 440 0
-180 440 0
-440 180 151 158 169 173 176 178 164 0
-152 441 0
-159 441 0
-165 441 0
-170 441 0
-174 441 0
-177 441 0
-179 441 0
-441 180 152 159 165 170 174 177 179 0
200 196 190 191 185 186 187 183 181 182 184 192 193 188 189 194 197 198 199 195 201 202 203 204 205 206 207 208 209 210 211 212 213 214 215 216 0
-181 442 0
-182 442 0
-183 442 0
-184 442 0
-185 442 0
-186 442 0
-187 442 0
-188 442 0
190 194 -443 181 191 192 193 189 195 0
-187 449 0
-194 449 0
-200 449 0
-205 449 0
-209 449 0
-212 449 0
-214 449 0
-216 449 0
200 -449 194 216 187 205 209 212 214 0
-188 450 0
-195 450 0
-201 450 0
-206 450 0
-210 450 0
-213 450 0
-215 450 0
201 -450 188 195 206 210 213 215 216 0
232 233 223 224 221 222 218 217 219 220 225 226 227 228 229 230 231 234 235 236 237 238 239 240 241 242 243 244 245 246 247 248 249 250 251 252 0
-217 451 0
-218 451 0
-219 451 0
-220 451 0
-221 451 0
-222 451 0
-223 451 0
-224 451 0
225 230 -452 226 227 228 229 217 231 0
-223 458 0
-230 458 0
-236 458 0
-241 458 0
-245 458 0
-248 458 0
-250 458 0
-252 458 0
250 -458 245 252 230 236 248 241 223 0
-224 459 0
-231 459 0
-237 459 0
-242 459 0
-246 459 0
-249 459 0
-251 459 0
272 273 263 264 266 267 254 253 255 256 257 258 265 259 262 268 269 270 271 260 261 274 275 276 277 278 279 280 281 282 283 284 285 286 287 288 0
-253 460 0
-254 460 0
-255 460 0
-256 460 0
-257 460 0
-258 460 0
-259 460 0
-260 460 0
261 266 -461 262 263 264 265 253 267 0
-259 467 0
-266 467 0
-272 467 0
-277 467 0
-281 467 0
-284 467 0
-286 467 0
-288 467 0
277 -467 272 288 259 281 284 286 266 0
-260 468 0
-267 468 0
-273 468 0
-278 468 0
-282 468 0
-285 468 0
-287 468 0
273 -468 260 267 278 282 285 287 288 0
308 304 291 296 293 294 295 292 297 298 299 300 301 289 302 303 305 306 307 290 309 310 311 312 313 314 315 316 317 318 319 320 321 322 323 324 0
-289 469 0
-295 469 0
-296 469 0
297 303 -470 298 299 300 301 289 302 0
-295 476 0
-302 476 0
-308 476 0
-313 476 0
-317 476 0
-320 476 0
-322 476 0
-324 476 0
322 -476 324 295 302 313 317 320 308 0
-296 477 0
-303 477 0
-309 477 0
-314 477 0
-318 477 0
-321 477 0
-323 477 0
340 341 331 328 329 330 326 332 325 327 334 335 336 337 333 338 339 342 343 344 345 346 347 348 349 350 351 352 353 354 355 356 357 358 359 360 0
-325 811 0
-811 812 0
-812 813 0
-813 814 0
-814 815 0
-815 816 0
-816 -331 0
-325 478 0
-326 478 0
-327 478 0
-328 478 0
-329 478 0
-330 478 0
-331 478 0
-332 478 0
333 338 -479 334 335 336 337 325 339 0
-331 485 0
-338 485 0
-344 485 0
-349 485 0
-353 485 0
-356 485 0
-358 485 0
-360 485 0
-485 360 331 356 338 344 349 353 358 0
-332 486 0
-339 486 0
-345 486 0
-350 486 0
-354 486 0
-357 486 0
-359 486 0
-360 486 0
381 376 363 364 365 366 367 368 361 362 371 372 373 374 370 375 377 378 379 380 369 382 383 384 385 386 387 388 389 390 391 392 393 394 395 396 0
-361 487 0
-362 487 0
-363 487 0
-364 487 0
-365 487 0
-366 487 0
-367 487 0
-368 487 0
361 370 -488 375 371 372 373 374 369 0
-374 494 0
-380 494 0
-385 494 0
-389 494 0
-392 494 0
-394 494 0
-396 494 0
394 367 -494 380 396 385 389 392 374 0
-375 495 0
-381 495 0
-386 495 0
-390 495 0
-393 495 0
-395 495 0
-396 495 0
-881 0
-882 0
-883 0
-884 0
-886 0
-887 0
-888 0
-987 0
-889 0
988 0
-989 -8 881 0
-989 -15 882 0
-989 -21 883 0
-989 -26 884 0
-989 -33 886 0
-989 -35 887 0
-36 -989 888 0
397 -890 881 0
-897 404 888 0
989 -897 888 0
-898 405 889 0
989 -898 889 0
-990 -72 897 0
-899 406 890 0
-906 413 897 0
-990 -413 897 906 0
-907 414 898 0
990 -907 898 0
-991 -108 906 0
-908 899 415 0
-906 915 422 0
906 -915 422 0
991 -915 906 0
907 -916 423 0
991 907 -916 0
-992 -109 908 0
-992 -144 915 0
-915 924 431 0
915 -924 431 0
-992 -431 924 915 0
-925 916 432 0
916 -925 992 0
-180 -993 924 0
-924 933 440 0
924 -933 440 0
-993 -440 933 924 0
925 -934 441 0
993 925 -934 0
-216 -994 933 0
-933 942 449 0
933 -942 449 0
994 -942 933 0
-994 -449 933 942 0
934 -943 450 0
994 934 -943 0
-252 942 -995 0
-942 951 458 0
942 -951 458 0
-458 942 -995 951 0
943 -952 459 0
995 943 -952 0
-288 951 -996 0
-951 960 467 0
951 -960 467 0
996 -960 951 0
-467 951 -996 960 0
952 -961 468 0
996 952 -961 0
-295 -960 -997 0
-302 -960 -997 0
-308 -960 -997 0
-313 -960 -997 0
-317 -960 -997 0
-320 -960 -997 0
-322 -960 -997 0
-960 969 476 0
960 -969 476 0
960 -476 -997 969 0
961 -970 477 0
997 961 -970 0
-331 -969 -998 0
-338 -969 -998 0
-344 -969 -998 0
-349 -969 -998 0
-353 -969 -998 0
-356 -969 -998 0
-358 -969 -998 0
-969 485 978 0
969 485 -978 0
998 -969 978 0
998 969 -978 0
969 -485 -998 978 0
970 -979 486 0
998 970 -979 0
-486 970 979 -998 0
-374 -999 -978 0
-380 -999 -978 0
-385 -999 -978 0
-389 -978 -999 0
-392 -999 -978 0
-394 -999 -978 0
494 -978 987 0
999 -978 987 0
-999 -494 978 987 0
495 979 -988 0
979 999 -988 0
-979 -999 -495 -988 0
-1000 0
-1001 0
-1002 0
-1003 0
-1004 0
-1005 0
-1006 0
1007 0
-1106 0
-1008 0
1107 0
-1108 -1 1000 0
-1108 -2 1000 0
-1108 -3 1000 0
-1108 -4 1000 0
-1108 -5 1000 0
-1108 -6 1000 0
-1108 -7 1000 0
-1108 -8 1000 0
-1108 -9 1001 0
-1108 -10 1001 0
-1108 -11 1001 0
-1108 -12 1001 0
-1108 -13 1001 0
-1108 -14 1001 0
-1108 -15 1001 0
-1108 -16 1002 0
-1108 -17 1002 0
-1108 -18 1002 0
-1108 -19 1002 0
-1108 -20 1002 0
-1108 -21 1002 0
-1108 -22 1003 0
-1108 -23 1003 0
-1108 -24 1003 0
-1108 -25 1003 0
-1108 -26 1003 0
-1108 -27 1004 0
-1108 -28 1004 0
-1108 -29 1004 0
-1108 -30 1004 0
-1108 -31 1005 0
-1108 -32 1005 0
-1108 -33 1005 0
-1108 -34 1006 0
-1108 -35 1006 0
1108 -36 1008 -1007 0
-1009 397 1000 0
1108 -1009 1000 0
-1010 398 1001 0
1108 -1010 1001 0
1108 -1011 1002 0
1108 -1012 1003 0
1108 -1013 1004 0
1108 -1014 1005 0
1108 -1015 1006 0
404 1016 -1007 0
1108 1016 -1007 0
-1016 -404 -1108 -1007 0
-1017 405 1008 0
1108 -1017 1008 0
-37 -1109 1009 0
-38 -1109 1009 0
-39 -1109 1009 0
-40 -1109 1009 0
-41 -1109 1009 0
-42 -1109 1009 0
-43 -1109 1009 0
-45 -1109 1010 0
-46 -1109 1010 0
-47 -1109 1010 0
-48 -1109 1010 0
-49 -1109 1010 0
-50 -1109 1010 0
-51 -1109 1010 0
-52 -1109 1011 0
-53 -1109 1011 0
-54 -1109 1011 0
-55 -1109 1011 0
-56 -1109 1011 0
-57 -1109 1011 0
-58 -1109 1012 0
-59 -1109 1012 0
-60 -1109 1012 0
-61 -1109 1012 0
-62 -1109 1012 0
-63 -1109 1013 0
-64 -1109 1013 0
-65 -1109 1013 0
-66 -1109 1013 0
-67 -1109 1014 0
-68 -1109 1014 0
-69 -1109 1014 0
-70 -1109 1015 0
-71 -1109 1015 0
1109 -72 1017 -1016 0
-1018 406 1009 0
-1018 1109 1009 0
-1019 407 1010 0
-1019 1109 1010 0
-1020 1109 1011 0
-1021 1109 1012 0
-1022 1109 1013 0
-1023 1109 1014 0
413 1025 -1016 0
1016 -1025 413 0
1109 1025 -1016 0
-1109 -1025 -413 -1016 0
414 -1026 1017 0
-1110 -73 1018 0
-81 -1110 1019 0
-82 -1110 1019 0
-83 -1110 1019 0
-84 -1110 1019 0
-85 -1110 1019 0
-86 -1110 -1025 0
-88 -1110 1020 0
-89 -1110 1020 0
-90 -1110 1020 0
-91 -1110 1020 0
-92 -1110 -1025 0
-94 -1110 1021 0
-95 -1110 1021 0
-96 -1110 1021 0
-97 -1110 -1025 0
-99 -1110 1022 0
-100 -1110 1022 0
-101 -1110 -1025 0
-103 -1110 1023 0
-104 -1110 -1025 0
-106 -1110 -1025 0
-1027 1018 415 0
-1025 1034 422 0
1110 -1025 1034 0
1026 -1035 423 0
-1111 -109 1027 0
-122 -1111 -1034 0
-128 -1111 -1034 0
-133 -1111 -1034 0
-137 -1111 -1034 0
-140 -1111 -1034 0
-142 -1111 -1034 0
-144 1035 1111 -1034 0
-1036 1027 424 0
-1034 1043 431 0
-1034 1043 1111 0
-1111 -431 -1043 -1034 0
1035 -1044 432 0
-151 -1112 -1043 0
-158 -1112 -1043 0
-164 -1112 -1043 0
-169 -1112 -1043 0
-173 -1112 -1043 0
-176 -1112 -1043 0
-178 -1112 -1043 0
-1045 1036 433 0
-1043 1052 440 0
1112 -1043 1052 0
1044 -1053 441 0
-187 -1113 1045 0
-194 -1113 -1052 0
-200 -1113 -1052 0
-205 -1113 -1052 0
-209 -1113 -1052 0
-212 -1113 -1052 0
-214 -1113 -1052 0
-1052 1061 449 0
1113 -1052 1061 0
1053 -1062 450 0
-223 -1114 -1061 0
-230 -1114 -1061 0
-236 -1114 -1061 0
-241 -1114 -1061 0
-245 -1114 -1061 0
-248 -1114 -1061 0
-250 -1114 -1061 0
-1061 1070 458 0
1114 -1061 1070 0
1062 -1071 459 0
-259 -1115 -1070 0
-266 -1115 -1070 0
-272 -1115 -1070 0
-277 -1115 -1070 0
-281 -1115 -1070 0
-284 -1115 -1070 0
-286 -1115 -1070 0
-1070 1079 467 0
-1079 1070 467 0
1115 -1070 1079 0
1071 -1080 468 0
-295 -1116 -1079 0
-302 -1116 -1079 0
-308 -1116 -1079 0
-313 -1116 -1079 0
-317 -1116 -1079 0
-320 -1116 -1079 0
-322 -1116 -1079 0
-1079 1088 476 0
1116 -1079 1088 0
1080 -1089 477 0
-338 -1117 -1088 0
-344 -1117 -1088 0
-349 -1117 -1088 0
-353 -1117 -1088 0
-356 -1117 -1088 0
-358 -1117 -1088 0
-1088 1097 485 0
1117 -1088 1097 0
1089 -1098 486 0
-374 -1118 -1097 0
-380 -1118 -1097 0
-385 -1118 -1097 0
-389 -1118 -1097 0
-392 -1118 -1097 0
-394 -1118 -1097 0
494 -1097 1106 0
-1097 1118 1106 0
495 1098 -1107 0
-1119 0
-1122 0
-1123 0
1126 0
1225 0
-1127 0
1226 0
-1227 -22 1122 0
-1227 -23 1122 0
-1227 -24 1122 0
-1227 -25 1122 0
-30 -1227 1123 0
-36 1227 1127 -1126 0
-1128 397 1119 0
404 1135 -1126 0
1135 1227 -1126 0
-1135 -404 -1227 -1126 0
-1136 405 1127 0
1227 -1136 1127 0
1228 -72 1136 -1135 0
-1137 406 1128 0
1144 413 -1135 0
413 -1144 1135 0
-1228 -413 -1135 -1144 0
414 -1145 1136 0
-1146 1137 415 0
1153 -1144 422 0
1144 -1153 422 0
1145 -1154 423 0
-1230 -109 1146 0
-144 1154 1230 -1153 0
1162 -1153 431 0
1153 -1162 431 0
1153 -1162 1230 0
-1230 -431 -1162 -1153 0
1154 -1163 432 0
1171 -1162 440 0
1162 -1171 440 0
1163 -1172 441 0
-194 -1232 -1171 0
-200 -1232 -1171 0
-205 -1232 -1171 0
-209 -1232 -1171 0
-212 -1232 -1171 0
-214 -1232 -1171 0
1232 -216 1172 -1171 0
1180 -1171 449 0
1171 -1180 449 0
1232 1180 -1171 0
-1232 -449 -1171 -1180 0
1172 -1181 450 0
1232 1172 -1181 0
-1232 1172 -450 1181 0
-230 -1233 -1180 0
-236 -1233 -1180 0
-241 -1233 -1180 0
-1233 -245 -1180 0
-248 -1233 -1180 0
-250 -1233 -1180 0
-252 1180 -1233 0
-252 1233 -1180 1181 0
1189 -1180 458 0
1180 -1189 458 0
1233 1189 -1180 0
-1233 -458 -1189 -1180 0
1181 -1190 459 0
1233 1181 -1190 0
1198 -1189 467 0
1189 -1198 467 0
-1234 -467 -1189 -1198 0
1190 -1199 468 0
1234 1190 -1199 0
1235 1199 -324 -1198 0
1207 -1198 476 0
1198 -1207 476 0
1235 1207 -1198 0
-1235 -476 -1198 -1207 0
1208 -1199 477 0
1199 -1208 477 0
1235 1199 -1208 0
-1207 485 1216 0
1207 -1216 485 0
-1236 -485 -1207 -1216 0
-1208 486 1217 0
1208 -1217 486 0
1236 1208 -1217 0
-1237 -396 1216 0
-1237 -396 -1217 0
494 1216 -1225 0
1237 1216 -1225 0
-1216 -1237 -494 -1225 0
495 1217 -1226 0
1217 1237 -1226 0
-1238 0
-1239 0
-1240 0
-1242 0
-1243 0
-1244 0
-1245 0
1344 0
1246 0
1345 0
-1346 -8 1238 0
-1346 -9 1239 0
-1346 -10 1239 0
-1346 -11 1239 0
-1346 -12 1239 0
-1346 -13 1239 0
-1346 -14 1239 0
-1346 -15 1239 0
-1346 -16 1240 0
-1346 -17 1240 0
-1346 -18 1240 0
-1346 -19 1240 0
-1346 -20 1240 0
-1346 -21 1240 0
-1346 -26 -1246 0
-1346 -27 1242 0
-28 -1346 1242 0
-1346 -29 1242 0
-1346 -30 1242 0
-1346 -31 1243 0
-1346 -32 1243 0
-1346 -33 1243 0
-1346 -34 1244 0
-1346 -35 1244 0
-36 -1346 -1246 0
-1247 397 1238 0
-1254 404 1245 0
-1254 1346 1245 0
405 1255 -1246 0
1255 1346 -1246 0
-1347 -51 -1255 0
-57 -1347 -1255 0
-62 -1347 -1255 0
-66 -1347 -1255 0
-69 -1347 -1255 0
-71 -1347 -1255 0
-1347 -72 1254 0
-1256 406 1247 0
-1263 413 1254 0
1347 -1263 1254 0
1264 414 -1255 0
1264 1347 -1255 0
-1348 -1264 -87 0
-93 -1348 -1264 0
-98 -1348 -1264 0
-102 -1348 -1264 0
-105 -1348 -1264 0
-107 -1348 -1264 0
-108 -1348 1263 0
-1265 1256 415 0
1263 -1272 422 0
1348 1263 -1272 0
1273 -1264 423 0
-1349 -109 1265 0
-123 -1349 -1273 0
-129 -1349 -1273 0
-134 -1349 -1273 0
-138 -1349 -1273 0
-141 -1349 -1273 0
-143 -1349 -1273 0
-144 -1349 1272 0
-1274 1265 424 0
1272 -1281 431 0
1349 1272 -1281 0
1282 -1273 432 0
1282 -1273 1349 0
-145 1274 -1350 0
-159 -1350 -1282 0
-165 -1350 -1282 0
-170 -1350 -1282 0
-174 -1350 -1282 0
-177 -1350 -1282 0
-179 -1350 -1282 0
-180 -1350 -1282 0
-1283 1274 433 0
1281 -1290 440 0
1350 1281 -1290 0
1291 -1282 441 0
1291 1350 -1282 0
-188 1283 -1351 0
-195 -1351 -1291 0
-201 -1351 -1291 0
-206 -1351 -1291 0
-210 -1351 -1291 0
-213 -1351 -1291 0
-215 -1351 -1291 0
-1351 -216 1290 0
-216 -1351 -1291 0
1290 -1299 449 0
1351 1290 -1299 0
1300 -1291 450 0
1351 1300 -1291 0
-1352 -252 1299 0
1299 -1308 458 0
-1308 1299 1352 0
1309 -1300 459 0
1309 1352 -1300 0
-1352 -459 -1300 -1309 0
-260 -1353 -1309 0
-267 -1353 -1309 0
-273 -1353 -1309 0
-278 -1353 -1309 0
-282 -1353 -1309 0
-285 -1353 -1309 0
-287 -1353 -1309 0
-288 -1353 -1309 0
1308 -1317 467 0
1308 1353 -1317 0
1309 -1318 468 0
-1353 -468 -1309 -1318 0
-1317 1326 476 0
1317 -1326 476 0
1318 -1327 477 0
-360 -1355 1326 0
-1326 485 1335 0
1326 -1335 485 0
1355 1326 -1335 0
1327 -1336 486 0
-396 -1356 1335 0
494 1335 -1344 0
1335 1356 -1344 0
-1356 -1335 -494 -1344 0
495 1336 -1345 0
1356 1336 -1345 0
3499 0
-3598 0
-3599 0
3508 397 -3499 0
3517 406 -3508 0
3526 -3517 415 0
-3527 -3610 -109 0
3535 -3526 424 0
3610 3535 -3526 0
3536 3527 -425 -3610 0
3544 -3535 433 0
3545 434 -3536 0
3553 -3544 442 0
3554 443 -3545 0
3562 -3553 451 0
3563 -3554 452 0
3571 -3562 460 0
3572 -3563 461 0
3580 -3571 469 0
3581 -3572 470 0
3589 -3580 478 0
-3581 479 3590 0
-3590 -3617 -361 0
487 -3589 3598 0
-3589 3617 3598 0
488 -3590 3599 0
-488 -3617 3590 3599 0
3737 0
-3836 0
3738 0
3739 0
3740 0
3741 0
-3742 0
-3743 0
3744 0
3745 0
-3845 -2 -3739 0
-3845 -3 -3740 0
-3845 -4 -3741 0
-3845 -9 -3739 0
-3845 -10 -3740 0
-3845 -11 -3741 0
-3845 -14 -3744 0
-3845 -15 -3745 0
-18 3845 3742 -3739 0
-19 3845 3743 -3739 0
-21 -3845 -3745 0
-23 3845 3742 -3740 0
-24 3845 3743 -3740 0
-26 -3845 -3745 0
-27 3845 3742 -3741 0
-28 3845 3743 -3741 0
-3845 -30 -3745 0
-33 -3845 3742 0
-3845 -35 -3745 0
-36 -3845 -3745 0
3746 397 -3737 0
398 3747 -3738 0
3747 3845 -3738 0
404 3753 -3744 0
3753 3845 -3744 0
3754 405 -3745 0
3754 3845 -3745 0
-3754 -3845 -405 -3745 0
-37 -3846 -3747 0
-50 -3846 -3753 0
-56 -3846 -3753 0
-57 -3846 -3754 0
-61 -3846 -3753 0
-62 -3846 -3754 0
-65 -3846 -3753 0
-66 -3846 -3754 0
-68 -3846 -3753 0
-69 -3846 -3754 0
-70 -3846 -3753 0
-71 -3846 -3754 0
-72 -3846 -3754 0
3755 406 -3746 0
3755 3846 -3746 0
3756 407 -3747 0
3846 3756 -3747 0
3762 413 -3753 0
3846 3762 -3753 0
414 3763 -3754 0
3846 3763 -3754 0
-73 -3756 -3847 0
-86 -3762 -3847 0
-3763 -3847 -87 0
3764 -3755 415 0
3847 3764 -3755 0
3847 -3756 3765 0
3772 -3763 423 0
-3765 -3848 -109 0
-129 -3848 -3772 0
-134 -3848 -3772 0
-138 -3848 -3772 0
-141 -3848 -3772 0
-143 -3848 -3772 0
-144 -3848 -3772 0
3773 -3764 424 0
3848 3773 -3764 0
3782 -3773 433 0
3791 -3782 442 0
3800 -3791 451 0
3809 -3800 460 0
3818 -3809 469 0
3827 -3818 478 0
-3827 487 3836 0
5998 0
-6097 0
5999 0
6004 0
6005 0
-6106 -6 -6004 0
-6106 -13 -6004 0
6007 397 -5998 0
6008 6106 -5999 0
404 6014 -6005 0
-6107 -37 -6008 0
-6107 -50 -6014 0
6016 406 -6007 0
6016 6107 -6007 0
6107 6017 -6008 0
-6108 -73 -6017 0
6025 -6016 415 0
6108 6025 -6016 0
6034 -6025 424 0
6043 -6034 433 0
6052 -6043 442 0
6061 -6052 451 0
6070 -6061 460 0
6079 -6070 469 0
6088 -6079 478 0
487 -6088 6097 0
6712 0
-6811 0
6713 0
6717 0
6719 0
-1 -6820 -6713 0
-6820 -12 -6717 0
6721 397 -6712 0
6721 6820 -6712 0
6722 6820 -6713 0
6728 404 -6719 0
-6821 -37 -6722 0
-6821 -50 -6728 0
6730 406 -6721 0
6730 6821 -6721 0
6821 6731 -6722 0
-6822 -73 -6731 0
6739 -6730 415 0
6822 6739 -6730 0
6748 -6739 424 0
6757 -6748 433 0
6766 -6757 442 0
6775 -6766 451 0
6784 -6775 460 0
6793 -6784 469 0
6802 -6793 478 0
487 -6802 6811 0
-6832 0
6931 0
6833 0
6834 0
6835 0
6836 0
6837 0
6838 0
6839 0
-6939 -9 -6833 0
-6939 -10 -6834 0
-6939 -11 -6835 0
-6939 -12 -6836 0
-6939 -13 -6837 0
-6939 -14 -6838 0
-6939 -15 -6839 0
-6841 398 6832 0
-6841 6939 6832 0
6847 404 -6838 0
-45 -6940 6841 0
-46 -6940 6841 0
-47 -6940 6841 0
-48 -6940 6841 0
-49 -6940 6841 0
-50 -6940 6841 0
-50 -6847 -6940 0
-51 -6940 6841 0
407 -6850 6841 0
6940 -6850 6841 0
-81 -6941 6850 0
-82 -6941 6850 0
-83 -6941 6850 0
-84 -6941 6850 0
-85 -6941 6850 0
-86 -6941 6850 0
-87 -6941 6850 0
416 -6859 6850 0
6941 -6859 6850 0
-117 -6942 6859 0
-118 -6942 6859 0
-119 -6942 6859 0
-120 -6942 6859 0
-121 -6942 6859 0
-122 -6942 6859 0
-123 -6942 6859 0
425 -6868 6859 0
6942 -6868 6859 0
-153 -6943 6868 0
-154 -6943 6868 0
-155 -6943 6868 0
-156 -6943 6868 0
-157 -6943 6868 0
-158 -6943 6868 0
-159 -6943 6868 0
434 -6877 6868 0
6943 6868 -6877 0
-189 -6944 6877 0
-190 -6944 6877 0
-191 -6944 6877 0
-192 -6944 6877 0
-193 -6944 6877 0
-194 -6944 6877 0
-195 -6944 6877 0
443 -6886 6877 0
6944 -6886 6877 0
-225 -6945 6886 0
-226 -6945 6886 0
-227 -6945 6886 0
-228 -6945 6886 0
-229 -6945 6886 0
-230 -6945 6886 0
-231 -6945 6886 0
452 -6895 6886 0
6945 -6895 6886 0
-261 -6946 6895 0
-262 -6946 6895 0
-263 -6946 6895 0
-264 -6946 6895 0
-265 -6946 6895 0
-266 -6946 6895 0
-267 -6946 6895 0
461 -6904 6895 0
6946 -6904 6895 0
-297 -6947 6904 0
-298 -6947 6904 0
-299 -6947 6904 0
-300 -6947 6904 0
-301 -6947 6904 0
-302 -6947 6904 0
-303 -6947 6904 0
470 -6913 6904 0
6947 -6913 6904 0
-333 -6948 6913 0
-334 -6948 6913 0
-335 -6948 6913 0
-336 -6948 6913 0
-337 -6948 6913 0
-338 -6948 6913 0
-339 -6948 6913 0
479 6913 -6922 0
6948 6913 -6922 0
-369 -6949 6922 0
-370 -6949 6922 0
-371 -6949 6922 0
-372 -6949 6922 0
-373 -6949 6922 0
-374 -6949 6922 0
-375 -6949 6922 0
6922 488 -6931 0
6922 6949 -6931 0
7072 -405 0
7083 -7072 0
7084 -7083 0
7087 -7084 0
7089 -7087 0
7091 -7089 0
7093 -7091 0
7829 -404 0
7829 -405 0
-413 7830 0
7830 -414 0
-422 7831 0
7831 -423 0
-431 7832 0
-432 7832 0
-440 7833 0
-441 7833 0
-449 7834 0
-450 7834 0
-458 7835 0
-459 7835 0
-467 7836 0
-468 7836 0
-476 7837 0
-477 7837 0
-485 7838 0
-486 7838 0
7839 -494 0
-495 7839 0
7840 -7829 0
7841 -7840 0
-7830 7842 -7840 0
7843 -7842 0
-7842 -7831 0
7841 -7830 0
7844 -7841 0
7843 -7831 -7841 0
7845 -7843 0
-7832 -7843 0
7844 -7831 0
7846 -7844 0
-7832 7845 -7844 0
7847 -7845 0
-7833 -7845 0
-7832 7846 0
7848 -7846 0
-7833 7847 -7846 0
7849 -7847 0
-7834 -7847 0
7848 -7833 0
7850 -7848 0
-7834 7849 -7848 0
7851 -7849 0
-7835 -7849 0
7850 -7834 0
7852 -7850 0
7851 -7835 -7850 0
7853 -7851 0
-7836 -7851 0
7852 -7835 0
7854 -7852 0
7853 -7836 -7852 0
7855 -7853 0
-7837 -7853 0
7854 -7836 0
7856 -7854 0
7855 -7837 -7854 0
7857 -7855 0
-7838 -7855 0
-7837 7856 0
7857 -7838 -7856 0
-7839 -7857 0
10163 -398 0
10164 -407 0
10165 -416 0
10166 -425 0
10167 -434 0
10168 -443 0
10169 -452 0
10170 -461 0
10171 -470 0
10172 -479 0
10173 -488 0
10174 -10163 0
10175 -10174 0
10175 -10164 0
10177 -10165 -10175 0
-10177 -10166 10179 0
-10179 10182 0
-10179 -10167 0
-10182 10185 0
-10182 -10168 0
-10185 10188 0
-10185 -10169 0
-10188 10191 0
-10188 -10170 0
-10191 10194 0
-10191 -10171 0
-10194 10197 0
-10194 -10172 0
-10197 -10173 0
-397 10233 0
-406 10234 0
-415 10235 0
-424 10236 0
-433 10237 0
-442 10238 0
-451 10239 0
-460 10240 0
-469 10241 0
-478 10242 0
10243 -487 0
-10233 10244 0
-10244 10245 0
-10234 -10244 0
-10234 10245 0
-10245 10246 0
-10235 -10245 0
-10235 10246 0
-10246 10247 0
-10246 -10236 0
-10236 10247 0
-10247 10248 0
-10237 -10247 0
-10237 10248 0
-10248 10249 0
-10238 -10248 0
-10238 10249 0
-10249 10250 0
-10239 -10249 0
-10239 10250 0
-10250 10251 0
-10240 -10250 0
-10240 10251 0
-10251 10252 0
-10241 -10251 0
-10241 10252 0
-10252 10253 0
-10252 -10242 0
-10242 10253 0
-10253 -10243 0
-16 -37 0
-16 -50 0
-17 -37 0
-17 -50 0
-37 -18 0
-50 -18 0
-19 -37 0
-19 -50 0
-20 -37 0
-37 -21 0
-22 -37 0
-22 -50 0
-37 -23 0
-50 -23 0
-24 -37 0
-24 -50 0
-37 -25 0
-37 -26 0
-37 -27 0
-50 -27 0
-28 -37 0
-28 -50 0
-29 -37 0
-37 -30 0
-31 -37 0
-31 -50 0
-32 -37 0
-33 -37 0
-34 -37 0
-37 -35 0
-37 -36 0
-45 -36 0
-46 -36 0
-47 -36 0
-48 -36 0
-49 -36 0
-52 -36 0
-53 -36 0
-54 -36 0
-55 -36 0
-58 -36 0
-59 -36 0
-60 -36 0
-63 -36 0
-64 -36 0
-67 -36 0
-52 -73 0
-52 -86 0
-53 -73 0
-53 -86 0
-54 -73 0
-54 -86 0
-55 -73 0
-55 -86 0
-73 -56 0
-57 -73 0
-57 -86 0
-58 -73 0
-58 -86 0
-59 -73 0
-59 -86 0
-60 -73 0
-60 -86 0
-61 -73 0
-62 -73 0
-62 -86 0
-63 -73 0
-63 -86 0
-64 -73 0
-64 -86 0
-65 -73 0
-66 -73 0
-66 -86 0
-67 -73 0
-67 -86 0
-68 -73 0
-69 -73 0
-69 -86 0
-70 -73 0
-71 -73 0
-71 -86 0
-73 -72 0
-74 -72 0
-75 -72 0
-76 -72 0
-77 -72 0
-78 -72 0
-81 -72 0
-82 -72 0
-83 -72 0
-84 -72 0
-85 -72 0
-88 -72 0
-89 -72 0
-90 -72 0
-91 -72 0
-94 -72 0
-95 -72 0
-96 -72 0
-99 -72 0
-100 -72 0
-103 -72 0
-88 -109 0
-89 -109 0
-90 -109 0
-91 -109 0
-92 -109 0
-93 -109 0
-94 -109 0
-95 -109 0
-96 -109 0
-97 -109 0
-98 -109 0
-99 -109 0
-100 -109 0
-101 -109 0
-102 -109 0
-103 -109 0
-104 -109 0
-105 -109 0
-106 -109 0
-107 -109 0
-108 -109 0
-110 -108 0
-111 -108 0
-112 -108 0
-113 -108 0
-114 -108 0
-117 -108 0
-118 -108 0
-119 -108 0
-120 -108 0
-121 -108 0
-124 -108 0
-125 -108 0
-126 -108 0
-127 -108 0
-130 -108 0
-131 -108 0
-132 -108 0
-135 -108 0
-136 -108 0
-139 -108 0
-124 -145 0
-125 -145 0
-126 -145 0
-127 -145 0
-128 -145 0
-129 -145 0
-130 -145 0
-131 -145 0
-132 -145 0
-133 -145 0
-134 -145 0
-135 -145 0
-136 -145 0
-137 -145 0
-138 -145 0
-139 -145 0
-140 -145 0
-141 -145 0
-142 -145 0
-143 -145 0
-145 -144 0
-146 -144 0
-147 -144 0
-148 -144 0
-149 -144 0
-150 -144 0
-153 -144 0
-154 -144 0
-155 -144 0
-156 -144 0
-157 -144 0
-160 -144 0
-161 -144 0
-162 -144 0
-163 -144 0
-166 -144 0
-167 -144 0
-168 -144 0
-171 -144 0
-172 -144 0
-175 -144 0
-181 -180 0
-182 -180 0
-183 -180 0
-184 -180 0
-185 -180 0
-186 -180 0
-189 -180 0
-190 -180 0
-191 -180 0
-192 -180 0
-193 -180 0
-196 -180 0
-197 -180 0
-198 -180 0
-199 -180 0
-202 -180 0
-203 -180 0
-204 -180 0
-207 -180 0
-208 -180 0
-211 -180 0
-217 -216 0
-218 -216 0
-219 -216 0
-220 -216 0
-221 -216 0
-222 -216 0
-225 -216 0
-226 -216 0
-227 -216 0
-228 -216 0
-229 -216 0
-232 -216 0
-233 -216 0
-234 -216 0
-235 -216 0
-238 -216 0
-239 -216 0
-240 -216 0
-243 -216 0
-244 -216 0
-247 -216 0
-225 -259 0
-226 -259 0
-227 -259 0
-259 -228 0
-229 -259 0
-231 -259 0
-232 -259 0
-233 -259 0
-234 -259 0
-235 -259 0
-237 -259 0
-238 -259 0
-239 -259 0
-240 -259 0
-242 -259 0
-243 -259 0
-244 -259 0
-246 -259 0
-247 -259 0
-249 -259 0
-251 -259 0
-253 -252 0
-254 -252 0
-255 -252 0
-256 -252 0
-257 -252 0
-258 -252 0
-261 -252 0
-262 -252 0
-263 -252 0
-264 -252 0
-265 -252 0
-268 -252 0
-269 -252 0
-270 -252 0
-271 -252 0
-274 -252 0
-275 -252 0
-276 -252 0
-279 -252 0
-280 -252 0
-283 -252 0
-261 -295 0
-262 -295 0
-263 -295 0
-264 -295 0
-265 -295 0
-268 -295 0
-269 -295 0
-270 -295 0
-271 -295 0
-274 -295 0
-275 -295 0
-276 -295 0
-279 -295 0
-280 -295 0
-283 -295 0
-289 -288 0
-290 -288 0
-291 -288 0
-292 -288 0
-293 -288 0
-294 -288 0
-297 -288 0
-298 -288 0
-299 -288 0
-300 -288 0
-301 -288 0
-304 -288 0
-305 -288 0
-306 -288 0
-307 -288 0
-310 -288 0
-311 -288 0
-312 -288 0
-315 -288 0
-316 -288 0
-319 -288 0
-325 -324 0
-326 -324 0
-327 -324 0
-328 -324 0
-329 -324 0
-330 -324 0
-333 -324 0
-334 -324 0
-335 -324 0
-336 -324 0
-337 -324 0
-340 -324 0
-341 -324 0
-342 -324 0
-343 -324 0
-346 -324 0
-347 -324 0
-348 -324 0
-351 -324 0
-352 -324 0
-355 -324 0
-369 -360 0
-370 -360 0
-371 -360 0
-372 -360 0
-373 -360 0
-376 -360 0
-377 -360 0
-378 -360 0
-379 -360 0
-382 -360 0
-383 -360 0
-384 -360 0
-387 -360 0
-388 -360 0
-391 -360 0
