p cnf 9473 931
4 28 36 27 5 6 7 8 9 10 11 12 13 14 15 16 17 18 19 20 21 22 23 24 25 26 1 2 3 30 31 32 33 34 35 29 0
-397 1 8 2 3 4 5 6 7 0
-398 1 15 9 10 11 12 13 14 0
-399 2 21 9 16 17 18 19 20 0
39 40 44 51 41 42 43 37 45 46 47 48 49 50 38 52 53 54 55 56 57 58 59 60 61 62 63 64 65 66 67 68 69 70 71 72 0
-43 413 0
-50 413 0
-56 413 0
-61 413 0
-65 413 0
-68 413 0
-70 413 0
-72 413 0
72 -413 56 43 50 65 68 70 61 0
-44 414 0
-51 414 0
-57 414 0
-62 414 0
-66 414 0
-69 414 0
-71 414 0
77 78 79 80 87 93 74 73 81 82 83 84 85 86 75 88 89 90 91 92 76 94 95 96 97 98 99 100 101 102 103 104 105 106 107 108 0
-79 422 0
-86 422 0
-92 422 0
-97 422 0
-101 422 0
-104 422 0
-106 422 0
108 -422 86 92 97 101 104 106 79 0
-80 423 0
-87 423 0
-93 423 0
-98 423 0
-102 423 0
-105 423 0
-107 423 0
-108 423 0
113 114 122 116 123 144 111 112 109 118 119 120 121 117 115 124 125 126 127 128 129 130 131 132 133 134 135 136 137 138 139 140 141 142 143 110 0
-109 601 0
-601 602 0
-110 602 0
-602 603 0
-111 603 0
-603 604 0
-112 604 0
-604 605 0
-113 605 0
-605 606 0
-114 606 0
-606 607 0
-607 608 0
-116 608 0
-608 609 0
-609 610 0
-610 611 0
-611 612 0
-612 613 0
-613 614 0
-614 615 0
-615 616 0
-616 617 0
-617 618 0
-618 619 0
-619 620 0
-620 621 0
-621 622 0
-622 623 0
-623 624 0
-624 625 0
-625 626 0
-626 627 0
-627 628 0
-628 629 0
-629 630 0
-630 631 0
-631 632 0
-632 633 0
-633 634 0
-634 635 0
-635 -144 0
-115 431 0
-122 431 0
-128 431 0
-133 431 0
-137 431 0
-140 431 0
-142 431 0
-144 431 0
144 -431 128 122 133 137 140 142 115 0
-116 432 0
-123 432 0
-129 432 0
-134 432 0
-138 432 0
-141 432 0
-143 432 0
432 -144 0
147 148 152 159 149 150 146 145 153 154 155 156 157 158 151 160 161 162 163 164 165 166 167 168 169 170 171 172 173 174 175 176 177 178 179 180 0
-151 440 0
-158 440 0
-164 440 0
-169 440 0
-173 440 0
-176 440 0
-178 440 0
173 -440 151 180 169 164 176 178 158 0
-152 441 0
-159 441 0
-165 441 0
-170 441 0
-174 441 0
-177 441 0
-179 441 0
441 -180 0
184 183 187 188 185 186 182 181 189 190 191 192 193 194 195 196 197 198 199 200 201 202 203 204 205 206 207 208 209 210 211 212 213 214 215 216 0
-187 449 0
-194 449 0
-200 449 0
-205 449 0
-209 449 0
-212 449 0
-214 449 0
-216 449 0
-449 216 194 200 205 209 212 214 187 0
-188 450 0
-195 450 0
-201 450 0
-206 450 0
-210 450 0
-213 450 0
-215 450 0
-216 450 0
219 220 252 231 221 222 218 217 225 226 227 228 229 230 236 232 233 234 235 224 237 238 239 240 241 242 243 244 245 246 247 248 249 250 251 223 0
-223 458 0
-230 458 0
-236 458 0
-241 458 0
-245 458 0
-248 458 0
-250 458 0
458 -252 0
252 -458 241 236 230 245 248 250 223 0
-224 459 0
-231 459 0
-237 459 0
-242 459 0
-246 459 0
-249 459 0
-251 459 0
459 -252 0
260 259 254 256 257 258 262 255 261 253 263 264 265 266 267 268 269 270 271 272 273 274 275 276 277 278 279 280 281 282 283 284 285 286 287 288 0
-259 467 0
-266 467 0
-272 467 0
-277 467 0
-281 467 0
-284 467 0
-286 467 0
467 -288 0
272 277 288 259 -467 266 284 286 281 0
-260 468 0
-267 468 0
-273 468 0
-278 468 0
-282 468 0
-285 468 0
-287 468 0
291 289 295 292 293 294 290 296 297 298 299 300 301 302 303 304 305 306 307 308 309 310 311 312 313 314 315 316 317 318 319 320 321 322 323 324 0
782 -295 0
783 -782 0
-782 -296 0
784 -783 0
785 -784 0
786 -785 0
787 -786 0
788 -787 0
789 -788 0
790 -789 0
-303 -789 0
791 -790 0
792 -791 0
793 -792 0
794 -793 0
795 -794 0
796 -795 0
-309 -795 0
797 -796 0
798 -797 0
799 -798 0
800 -799 0
801 -800 0
-314 -800 0
802 -801 0
803 -802 0
804 -803 0
805 -804 0
-318 -804 0
806 -805 0
807 -806 0
808 -807 0
-321 -807 0
809 -808 0
-809 810 0
-323 -809 0
-810 -324 0
-295 476 0
-302 476 0
-308 476 0
-313 476 0
-317 476 0
-320 476 0
-322 476 0
-324 476 0
324 -476 295 313 308 317 320 322 302 0
-296 477 0
-303 477 0
-309 477 0
-314 477 0
-318 477 0
-321 477 0
-323 477 0
-477 323 296 303 309 314 318 321 324 0
327 328 331 332 329 330 326 325 333 334 335 336 337 338 339 340 341 342 343 344 345 346 347 348 349 350 351 352 353 354 355 356 357 358 359 360 0
-331 485 0
-338 485 0
-344 485 0
-349 485 0
-353 485 0
-356 485 0
-358 485 0
-360 485 0
360 -485 338 344 349 353 356 358 331 0
-332 486 0
-339 486 0
-345 486 0
-350 486 0
-354 486 0
-357 486 0
-359 486 0
364 363 367 374 365 366 368 362 369 370 371 372 373 375 361 376 377 378 379 380 381 382 383 384 385 386 387 388 389 390 391 392 393 394 395 396 0
-367 494 0
-374 494 0
-380 494 0
-385 494 0
-389 494 0
-392 494 0
-394 494 0
-396 494 0
380 374 -494 396 385 389 392 394 367 0
-368 495 0
-375 495 0
-381 495 0
-386 495 0
-390 495 0
-393 495 0
-395 495 0
-881 0
-882 0
-883 0
-888 0
-987 0
-889 0
988 0
-989 -1 881 0
-989 -2 881 0
-989 -3 881 0
-989 -4 881 0
-989 -5 881 0
-989 -6 881 0
-989 -7 881 0
-989 -8 881 0
-989 -9 882 0
-989 -10 882 0
-989 -11 882 0
-989 -12 882 0
-989 -13 882 0
-989 -14 882 0
-989 -15 882 0
-989 -16 883 0
-989 -17 883 0
-989 -18 883 0
-989 -19 883 0
-989 -20 883 0
-989 -21 883 0
397 -890 881 0
398 -891 882 0
399 -892 883 0
-897 404 888 0
989 -897 888 0
-404 -989 897 888 0
-898 405 889 0
989 -898 889 0
-990 -43 890 0
-50 -990 891 0
-56 -990 892 0
-61 -990 -897 0
-65 -990 -897 0
-68 -990 -897 0
-70 -990 -897 0
-990 -72 897 0
-906 897 413 0
990 -897 906 0
-906 990 897 0
-990 -413 906 897 0
-907 898 414 0
-907 990 898 0
-991 -108 906 0
-906 915 422 0
-915 906 422 0
-991 -422 915 906 0
-916 907 423 0
-916 991 907 0
-992 -144 915 0
-915 924 431 0
-924 915 431 0
-925 916 432 0
992 -925 916 0
-993 -180 924 0
-924 933 440 0
-933 924 440 0
-934 925 441 0
993 -934 925 0
-216 -994 933 0
-933 942 449 0
-942 933 449 0
-943 934 450 0
994 -943 934 0
-995 -942 -241 0
-995 942 -252 0
-942 951 458 0
-951 458 942 0
995 -942 951 0
-951 995 942 0
-995 951 -458 942 0
-952 459 943 0
-952 995 943 0
-996 -259 -951 0
-266 -951 -996 0
-951 -996 -272 0
-277 -951 -996 0
-281 -951 -996 0
-284 -951 -996 0
-286 -951 -996 0
-996 951 -288 0
-951 467 960 0
-960 951 467 0
-996 951 -467 960 0
468 952 -961 0
996 952 -961 0
-997 -960 -295 0
-302 -997 -960 0
-997 -960 -308 0
-313 -997 -960 0
-317 -997 -960 0
-320 -997 -960 0
-322 -997 -960 0
-997 -324 960 0
-960 969 476 0
-969 476 960 0
997 -960 969 0
-997 -476 960 969 0
961 -970 477 0
997 961 -970 0
-998 -360 969 0
-969 978 485 0
970 -979 486 0
998 970 -979 0
494 -978 987 0
495 979 -988 0
-1000 0
-1001 0
-1002 0
-1003 0
-1004 0
-1005 0
-1006 0
1007 0
-1106 0
-1008 0
-1108 -1 1000 0
-1108 -2 1000 0
-1108 -3 1000 0
-1108 -4 1000 0
-1108 -5 1000 0
-1108 -6 1000 0
-1108 -7 1000 0
-1108 -8 1000 0
-1108 -9 1001 0
-1108 -10 1001 0
-1108 -11 1001 0
-1108 -12 1001 0
-1108 -13 1001 0
-1108 -14 1001 0
-1108 -15 1001 0
-1108 -16 1002 0
-1108 -17 1002 0
-1108 -18 1002 0
-1108 -19 1002 0
-1108 -20 1002 0
-1108 -21 1002 0
-1108 -22 1003 0
-1108 -23 1003 0
-1108 -24 1003 0
-1108 -25 1003 0
-1108 -26 1003 0
-1108 -27 1004 0
-1108 -28 1004 0
-1108 -29 1004 0
-1108 -30 1004 0
-1108 -31 1005 0
-1108 -32 1005 0
-1108 -33 1005 0
-1108 -34 1006 0
-1108 -35 1006 0
404 1016 -1007 0
1108 1016 -1007 0
405 -1017 1008 0
-1109 -43 -1016 0
-50 -1109 -1016 0
-56 -1109 -1016 0
-61 -1109 -1016 0
-65 -1109 -1016 0
-68 -1109 -1016 0
-70 -1109 -1016 0
1025 -1016 413 0
1109 1025 -1016 0
-1026 1017 414 0
-79 -1110 -1025 0
-86 -1110 -1025 0
-92 -1110 -1025 0
-97 -1110 -1025 0
-101 -1110 -1025 0
-104 -1110 -1025 0
-106 -1110 -1025 0
1034 -1025 422 0
1110 1034 -1025 0
-115 -1111 -1034 0
-122 -1111 -1034 0
-128 -1111 -1034 0
-133 -1111 -1034 0
-137 -1111 -1034 0
-140 -1111 -1034 0
-142 -1111 -1034 0
1043 -1034 431 0
1034 -1043 431 0
1111 1043 -1034 0
-151 -1112 -1043 0
-158 -1112 -1043 0
-164 -1112 -1043 0
-169 -1112 -1043 0
-173 -1112 -1043 0
-176 -1112 -1043 0
-178 -1112 -1043 0
1052 -1043 440 0
1112 1052 -1043 0
-187 -1113 -1052 0
-1113 -194 -1052 0
-200 -1113 -1052 0
-205 -1113 -1052 0
-209 -1113 -1052 0
-212 -1113 -1052 0
-214 -1113 -1052 0
1061 -1052 449 0
1113 1061 -1052 0
-223 -1114 -1061 0
-230 -1114 -1061 0
-236 -1114 -1061 0
-1114 -241 -1061 0
-245 -1114 -1061 0
-248 -1114 -1061 0
-250 -1114 -1061 0
1070 458 -1061 0
1114 1070 -1061 0
-1115 -259 -1070 0
-266 -1115 -1070 0
-272 -1115 -1070 0
-277 -1115 -1070 0
-281 -1115 -1070 0
-284 -1115 -1070 0
-286 -1115 -1070 0
467 -1070 1079 0
1115 -1070 1079 0
-1116 -295 -1079 0
-302 -1116 -1079 0
-308 -1116 -1079 0
-313 -1116 -1079 0
-317 -1116 -1079 0
-320 -1116 -1079 0
-322 -1116 -1079 0
-1079 1088 476 0
1116 -1079 1088 0
-331 -1117 -1088 0
-338 -1117 -1088 0
-344 -1117 -1088 0
-349 -1117 -1088 0
-353 -1117 -1088 0
-356 -1117 -1088 0
-358 -1117 -1088 0
-1088 1097 485 0
1117 -1088 1097 0
-367 -1118 -1097 0
-374 -1118 -1097 0
-380 -1118 -1097 0
-385 -1118 -1097 0
-389 -1118 -1097 0
-392 -1118 -1097 0
-394 -1118 -1097 0
494 -1097 1106 0
-1097 1118 1106 0
1126 0
1225 0
-1127 0
1226 0
404 1135 -1126 0
-1135 -1227 -404 -1126 0
405 -1136 1127 0
-1136 1227 1127 0
1228 -72 1136 -1135 0
1144 -1135 413 0
-1144 413 1135 0
-1228 -413 -1144 -1135 0
-1145 1136 414 0
1228 -1145 1136 0
1153 -1144 422 0
1144 -1153 422 0
-1229 -422 -1153 -1144 0
-1154 1145 423 0
1229 -1154 1145 0
1230 -144 1154 -1153 0
1162 -1153 431 0
1153 -1162 431 0
-1230 -431 -1153 -1162 0
-1163 1154 432 0
1230 -1163 1154 0
-1230 -432 1163 1154 0
1231 -180 1163 -1162 0
1171 -1162 440 0
1162 -1171 440 0
1231 1162 -1171 0
-1171 -440 -1162 -1231 0
-1172 1163 441 0
1231 -1172 1163 0
-1231 -441 1172 1163 0
-1163 -1172 -441 -1231 0
-216 -1232 1171 0
1232 -216 -1171 1172 0
1180 -1171 449 0
1171 -1180 449 0
1232 1171 -1180 0
-1232 -449 -1171 -1180 0
-1181 1172 450 0
1232 -1181 1172 0
1181 -450 1172 -1232 0
-1232 -450 -1172 -1181 0
-1233 -241 -1180 0
1189 458 -1180 0
1180 -1189 458 0
1233 1180 -1189 0
-1189 -1233 -458 -1180 0
-1190 459 1181 0
1233 -1190 1181 0
-1233 -1181 -459 -1190 0
1189 467 -1198 0
-1234 -1189 -467 -1198 0
1190 468 -1199 0
1234 1190 -1199 0
1198 -1207 476 0
1199 -1208 477 0
1207 -1216 485 0
1208 -1217 486 0
-1237 -396 1216 0
-1216 -396 1217 1237 0
494 1216 -1225 0
1216 1237 -1225 0
-1216 -1237 -494 -1225 0
495 1217 -1226 0
1344 0
1345 0
1299 -1308 458 0
-1309 459 1300 0
1308 467 -1317 0
1309 468 -1318 0
1317 -1326 476 0
1318 -1327 477 0
1326 -1335 485 0
1327 -1336 486 0
494 1335 -1344 0
495 1336 -1345 0
-2435 0
2534 0
2436 0
2535 0
-36 -2536 -2436 0
404 -2444 2435 0
-2444 2536 2435 0
405 2445 -2436 0
-2537 -72 2444 0
-2453 2444 413 0
2537 -2453 2444 0
2454 -2445 414 0
-2538 -108 -2454 0
-2462 2453 422 0
2538 -2462 2453 0
2463 -2454 423 0
2463 2538 -2454 0
-116 -2539 -2463 0
-2471 2462 431 0
2539 -2471 2462 0
2472 -2463 432 0
-2539 -432 -2463 -2472 0
-2480 2471 440 0
2481 -2472 441 0
2472 -2481 441 0
-2489 2480 449 0
2490 -2481 450 0
2481 -2490 450 0
-2542 2489 -252 0
458 -2498 2489 0
-2498 2542 2489 0
2499 459 -2490 0
2490 -2499 459 0
-288 -2543 2498 0
467 2498 -2507 0
2543 2498 -2507 0
2508 -2499 468 0
2499 468 -2508 0
-324 -2544 2507 0
2507 -2516 476 0
2544 2507 -2516 0
2517 -2508 477 0
2508 -2517 477 0
2517 2544 -2508 0
-477 -2517 -2544 -2508 0
-2545 -360 -2517 0
2516 485 -2525 0
2545 2516 -2525 0
2517 486 -2526 0
2545 -2517 2526 0
-2517 -486 -2545 -2526 0
2525 -396 -2546 0
2546 -2525 2526 -396 0
494 2525 -2534 0
2525 2546 -2534 0
-2546 -2525 -494 -2534 0
495 2526 -2535 0
-2546 -2526 -495 -2535 0
-404 7125 0
-405 7125 0
-413 7126 0
-414 7126 0
-422 7127 0
-423 7127 0
-431 7128 0
-432 7128 0
-440 7129 0
-441 7129 0
-449 7130 0
-450 7130 0
7131 -458 0
7131 -459 0
7132 -467 0
-468 7132 0
-476 7133 0
-477 7133 0
-485 7134 0
-486 7134 0
7135 -494 0
7135 -495 0
-7125 7136 0
-7136 7137 0
-7136 -7126 7138 0
-7138 7139 0
-7138 -7127 0
-7126 7137 0
-7137 7140 0
-7127 -7137 7139 0
-7139 7141 0
-7139 -7128 0
-7127 7140 0
-7140 7142 0
-7128 -7140 7141 0
-7141 7143 0
-7141 -7129 0
-7128 7142 0
-7142 7144 0
-7142 -7129 7143 0
-7143 7145 0
-7143 -7130 0
-7129 7144 0
-7144 7146 0
-7130 -7144 7145 0
-7145 7147 0
-7145 -7131 0
-7130 7146 0
7148 -7146 0
-7146 -7131 7147 0
-7147 7149 0
-7147 -7132 0
7148 -7131 0
7150 -7148 0
-7148 -7132 7149 0
-7149 7151 0
-7133 -7149 0
7150 -7132 0
7152 -7150 0
-7133 -7150 7151 0
-7151 7153 0
-7134 -7151 0
7152 -7133 0
-7134 -7152 7153 0
-7153 -7135 0
-37 -36 0
-38 -36 0
-39 -36 0
-40 -36 0
-41 -36 0
-42 -36 0
-45 -36 0
-46 -36 0
-47 -36 0
-48 -36 0
-49 -36 0
-52 -36 0
-53 -36 0
-54 -36 0
-55 -36 0
-58 -36 0
-59 -36 0
-60 -36 0
-63 -36 0
-64 -36 0
-67 -36 0
-73 -72 0
-74 -72 0
-75 -72 0
-76 -72 0
-77 -72 0
-78 -72 0
-81 -72 0
-82 -72 0
-83 -72 0
-84 -72 0
-85 -72 0
-88 -72 0
-89 -72 0
-90 -72 0
-91 -72 0
-94 -72 0
-95 -72 0
-96 -72 0
-99 -72 0
-100 -72 0
-103 -72 0
-109 -108 0
-110 -108 0
-111 -108 0
-112 -108 0
-113 -108 0
-114 -108 0
-117 -108 0
-118 -108 0
-119 -108 0
-120 -108 0
-121 -108 0
-124 -108 0
-125 -108 0
-126 -108 0
-127 -108 0
-130 -108 0
-131 -108 0
-132 -108 0
-135 -108 0
-136 -108 0
-139 -108 0
-145 -144 0
-146 -144 0
-147 -144 0
-148 -144 0
-149 -144 0
-150 -144 0
-153 -144 0
-154 -144 0
-155 -144 0
-156 -144 0
-157 -144 0
-160 -144 0
-161 -144 0
-162 -144 0
-163 -144 0
-166 -144 0
-167 -144 0
-168 -144 0
-171 -144 0
-172 -144 0
-175 -144 0
-181 -180 0
-182 -180 0
-183 -180 0
-184 -180 0
-185 -180 0
-186 -180 0
-189 -180 0
-190 -180 0
-191 -180 0
-192 -180 0
-193 -180 0
-196 -180 0
-197 -180 0
-198 -180 0
-199 -180 0
-202 -180 0
-203 -180 0
-204 -180 0
-207 -180 0
-208 -180 0
-211 -180 0
-210 -241 0
-213 -241 0
-215 -241 0
-217 -216 0
-218 -216 0
-219 -216 0
-220 -216 0
-221 -216 0
-222 -216 0
-225 -216 0
-226 -216 0
-227 -216 0
-228 -216 0
-229 -216 0
-232 -216 0
-233 -216 0
-234 -216 0
-235 -216 0
-238 -216 0
-239 -216 0
-240 -216 0
-243 -216 0
-244 -216 0
-247 -216 0
-253 -252 0
-254 -252 0
-255 -252 0
-256 -252 0
-257 -252 0
-258 -252 0
-261 -252 0
-262 -252 0
-263 -252 0
-264 -252 0
-265 -252 0
-268 -252 0
-269 -252 0
-270 -252 0
-271 -252 0
-274 -252 0
-275 -252 0
-276 -252 0
-279 -252 0
-280 -252 0
-283 -252 0
-267 -295 0
-273 -295 0
-278 -295 0
-282 -295 0
-285 -295 0
-287 -295 0
-289 -288 0
-290 -288 0
-291 -288 0
-292 -288 0
-293 -288 0
-294 -288 0
-297 -288 0
-298 -288 0
-299 -288 0
-300 -288 0
-301 -288 0
-304 -288 0
-305 -288 0
-306 -288 0
-307 -288 0
-310 -288 0
-311 -288 0
-312 -288 0
-315 -288 0
-316 -288 0
-319 -288 0
-325 -324 0
-326 -324 0
-327 -324 0
-328 -324 0
-329 -324 0
-330 -324 0
-333 -324 0
-334 -324 0
-335 -324 0
-336 -324 0
-337 -324 0
-340 -324 0
-341 -324 0
-342 -324 0
-343 -324 0
-346 -324 0
-347 -324 0
-348 -324 0
-351 -324 0
-352 -324 0
-355 -324 0
-361 -360 0
-362 -360 0
-363 -360 0
-364 -360 0
-365 -360 0
-366 -360 0
-369 -360 0
-370 -360 0
-371 -360 0
-372 -360 0
-373 -360 0
-376 -360 0
-377 -360 0
-378 -360 0
-379 -360 0
-382 -360 0
-383 -360 0
-384 -360 0
-387 -360 0
-388 -360 0
-391 -360 0
