p cnf 9259 559
-1 397 0
10 -398 1 9 11 12 13 14 15 0
52 53 37 40 41 42 43 44 45 46 47 48 49 50 51 38 39 54 55 56 57 58 59 60 61 62 63 64 65 66 67 68 69 70 71 72 0
-37 406 0
-38 406 0
-39 406 0
-40 406 0
-41 406 0
-42 406 0
-43 406 0
-44 406 0
-45 407 0
-46 407 0
-47 407 0
-48 407 0
-49 407 0
-50 407 0
-51 407 0
46 -407 37 45 47 48 49 50 51 0
89 88 73 76 77 78 79 80 74 75 83 84 85 86 87 81 82 90 91 92 93 94 95 96 97 98 99 100 101 102 103 104 105 106 107 108 0
-73 415 0
-74 415 0
-75 415 0
-76 415 0
-77 415 0
-78 415 0
-79 415 0
-80 415 0
-81 416 0
-82 416 0
-83 416 0
-84 416 0
-85 416 0
-86 416 0
-87 416 0
73 -416 81 82 83 84 85 86 87 0
118 -425 109 117 119 120 121 122 123 0
161 160 147 148 149 150 151 152 153 154 155 156 157 158 159 145 146 162 163 164 165 166 167 168 169 170 171 172 173 174 175 176 177 178 179 180 0
433 -145 0
-146 433 0
-147 433 0
-148 433 0
-149 433 0
-150 433 0
-151 433 0
-152 433 0
-153 434 0
-154 434 0
-155 434 0
-156 434 0
-157 434 0
-158 434 0
-159 434 0
145 -434 153 154 155 156 157 158 159 0
197 196 183 184 185 186 187 188 189 190 191 192 193 194 195 181 182 198 199 200 201 202 203 204 205 206 207 208 209 210 211 212 213 214 215 216 0
-181 442 0
-182 442 0
-183 442 0
-184 442 0
-185 442 0
-186 442 0
-187 442 0
-188 442 0
-189 443 0
-190 443 0
-191 443 0
-192 443 0
-193 443 0
-194 443 0
-195 443 0
190 -443 189 181 191 192 193 194 195 0
233 232 219 220 221 222 223 224 225 226 227 228 229 230 231 217 218 234 235 236 237 238 239 240 241 242 243 244 245 246 247 248 249 250 251 252 0
-217 451 0
-218 451 0
-219 451 0
-220 451 0
-221 451 0
-222 451 0
-223 451 0
-224 451 0
-225 452 0
-226 452 0
-227 452 0
-228 452 0
-229 452 0
-230 452 0
-231 452 0
217 -452 225 226 227 228 229 230 231 0
-253 461 0
261 262 253 -461 263 264 265 266 267 0
305 304 291 292 293 294 295 296 297 298 299 300 301 302 303 289 290 306 307 308 309 310 311 312 313 314 315 316 317 318 319 320 321 322 323 324 0
469 -289 0
-290 469 0
-291 469 0
-292 469 0
-293 469 0
-294 469 0
-295 469 0
-296 469 0
-289 470 0
-297 470 0
-298 470 0
-299 470 0
-300 470 0
-301 470 0
-302 470 0
-303 470 0
297 -470 289 298 299 300 301 302 303 0
333 -479 325 334 335 336 337 338 339 0
361 369 370 -488 371 372 373 374 375 0
5522 0
-5621 0
5523 0
5622 0
-1 -5630 -5523 0
397 5531 -5522 0
5630 5531 -5522 0
398 5532 -5523 0
-5631 -37 -5532 0
5540 406 -5531 0
5631 5540 -5531 0
5541 407 -5532 0
-5540 5549 415 0
5550 416 -5541 0
-5549 5558 424 0
5559 425 -5550 0
-5634 -145 -5559 0
-5558 433 5567 0
5634 -5558 5567 0
5568 434 -5559 0
5559 -5568 434 0
-5567 442 5576 0
5577 -5568 443 0
5568 -5577 443 0
-5576 5585 451 0
5586 452 -5577 0
5577 -5586 452 0
-5585 460 5594 0
5595 461 -5586 0
5586 -5595 461 0
-5638 -5595 -289 0
-5594 469 5603 0
-5594 5638 5603 0
5595 -5604 470 0
-5603 5612 478 0
5604 -5613 479 0
487 -5612 5621 0
488 5613 -5622 0
5880 0
-5979 0
398 5889 -5880 0
-5988 -37 -5889 0
5898 407 -5889 0
5898 5988 -5889 0
-5989 -73 -5898 0
5907 416 -5898 0
5907 5989 -5898 0
-5990 -109 -5907 0
5916 425 -5907 0
5916 5990 -5907 0
-5991 -145 -5916 0
5925 434 -5916 0
5925 5991 -5916 0
-5992 -181 -5925 0
5934 -5925 443 0
5992 5934 -5925 0
-5993 -217 -5934 0
5943 452 -5934 0
5943 5993 -5934 0
-5994 -253 -5943 0
5952 461 -5943 0
5952 5994 -5943 0
-5995 -289 -5952 0
5961 -5952 470 0
5961 5995 -5952 0
-325 -5996 -5961 0
5970 -5961 479 0
5996 5970 -5961 0
-5997 -5970 -361 0
488 -5970 5979 0
-5970 5997 5979 0
6117 0
-6216 0
-6118 0
6217 0
6119 0
6120 0
6121 0
6122 0
6123 0
6124 0
6125 0
-6225 -9 -6119 0
-6225 -10 -6120 0
-6225 -11 -6121 0
-6225 -12 -6122 0
-6225 -13 -6123 0
-6225 -14 -6124 0
-6225 -15 -6125 0
-6225 -6126 -397 -6117 0
398 -6127 6118 0
-6127 6225 6118 0
6126 -37 -6226 0
-45 -6226 6127 0
-46 -6226 6127 0
-47 -6226 6127 0
-48 -6226 6127 0
-49 -6226 6127 0
-50 -6226 6127 0
-51 -6226 6127 0
6126 -6135 406 0
-406 -6126 -6226 -6135 0
-6136 407 6127 0
6226 -6136 6127 0
-81 -6227 6136 0
-82 -6227 6136 0
-83 -6227 6136 0
-84 -6227 6136 0
-85 -6227 6136 0
-86 -6227 6136 0
-87 -6227 6136 0
6135 -6144 415 0
-6145 416 6136 0
6227 -6145 6136 0
-117 -6228 6145 0
-118 -6228 6145 0
-119 -6228 6145 0
-120 -6228 6145 0
-121 -6228 6145 0
-122 -6228 6145 0
-123 -6228 6145 0
6144 424 -6153 0
6153 6228 -6144 0
-6154 425 6145 0
6228 -6154 6145 0
-6228 -425 -6145 -6154 0
6153 -145 -6229 0
-153 -6229 6154 0
-154 -6229 6154 0
-155 -6229 6154 0
-156 -6229 6154 0
-157 -6229 6154 0
-158 -6229 6154 0
-159 -6229 6154 0
6162 433 -6153 0
6153 433 -6162 0
-433 -6162 -6229 -6153 0
-6163 434 6154 0
6229 -6163 6154 0
-189 -6230 6163 0
-190 -6230 6163 0
-191 -6230 6163 0
-192 -6230 6163 0
-193 -6230 6163 0
-194 -6230 6163 0
-195 -6230 6163 0
-6162 6171 442 0
6162 442 -6171 0
6172 -6163 443 0
-6172 443 6163 0
6230 -6172 6163 0
-225 -6231 6172 0
-226 -6231 6172 0
-227 -6231 6172 0
-228 -6231 6172 0
-229 -6231 6172 0
-230 -6231 6172 0
-231 -6231 6172 0
6180 -6171 451 0
6171 -6180 451 0
-6172 452 6181 0
-6181 452 6172 0
6231 -6181 6172 0
-261 -6232 6181 0
-262 -6232 6181 0
-263 -6232 6181 0
-264 -6232 6181 0
-265 -6232 6181 0
-266 -6232 6181 0
-267 -6232 6181 0
6189 460 -6180 0
6180 460 -6189 0
461 -6181 6190 0
461 -6190 6181 0
6232 -6190 6181 0
6189 -289 -6233 0
-297 -6233 6190 0
-298 -6233 6190 0
-299 -6233 6190 0
-300 -6233 6190 0
-301 -6233 6190 0
-302 -6233 6190 0
-303 -6233 6190 0
469 -6189 6198 0
6189 469 -6198 0
-6198 -469 -6233 -6189 0
470 6199 -6190 0
470 -6199 6190 0
6233 -6199 6190 0
-333 -6234 6199 0
-334 -6234 6199 0
-335 -6234 6199 0
-336 -6234 6199 0
-337 -6234 6199 0
-338 -6234 6199 0
-339 -6234 6199 0
-6198 6207 478 0
6198 478 -6207 0
-6208 479 6199 0
6234 -6208 6199 0
-369 -6235 6208 0
-370 -6235 6208 0
-371 -6235 6208 0
-372 -6235 6208 0
-373 -6235 6208 0
-374 -6235 6208 0
-375 -6235 6208 0
487 -6207 6216 0
6208 488 -6217 0
6208 6235 -6217 0
-397 9164 0
-406 9165 0
9165 -407 0
-415 9166 0
9166 -416 0
-424 9167 0
9167 -425 0
-433 9168 0
9168 -434 0
-442 9169 0
9169 -443 0
-451 9170 0
9170 -452 0
-460 9171 0
9171 -461 0
-469 9172 0
9172 -470 0
-478 9173 0
-479 9173 0
-487 9174 0
9174 -488 0
9175 -9164 0
9176 -9175 0
-9165 -9175 9177 0
-9177 9178 0
-9177 -9166 0
9176 -9165 0
9179 -9176 0
-9166 -9176 9178 0
-9178 9180 0
-9178 -9167 0
9179 -9166 0
9181 -9179 0
-9167 -9179 9180 0
-9180 9182 0
-9180 -9168 0
9181 -9167 0
9183 -9181 0
-9168 -9181 9182 0
-9182 9184 0
-9182 -9169 0
9183 -9168 0
9185 -9183 0
-9169 -9183 9184 0
-9184 9186 0
-9184 -9170 0
9185 -9169 0
9187 -9185 0
-9170 -9185 9186 0
-9186 9188 0
-9186 -9171 0
9187 -9170 0
9189 -9187 0
9188 -9187 -9171 0
-9188 9190 0
-9188 -9172 0
9189 -9171 0
-9172 9190 -9189 0
-9190 9192 0
-9173 -9190 0
9191 -9172 0
-9173 9192 -9191 0
-9192 -9174 0
9193 -398 6118 0
-406 6126 9194 0
-407 6127 9194 0
6135 -415 9195 0
-416 6136 9195 0
6144 -424 9196 0
-425 6145 9196 0
6153 -433 9197 0
-434 6154 9197 0
6162 -442 9198 0
-443 6163 9198 0
6171 -451 9199 0
-452 6172 9199 0
6180 -460 9200 0
9200 -461 6181 0
6189 -469 9201 0
-470 6190 9201 0
-478 6198 9202 0
-479 6199 9202 0
-487 6207 9203 0
-488 6208 9203 0
-9193 9204 0
-9204 9205 0
-9194 -9204 0
-9194 9205 0
-9205 9206 0
-9195 -9205 0
-9195 9206 0
-9206 9207 0
-9196 -9206 0
-9196 9207 0
-9207 9208 0
-9197 -9207 0
-9197 9208 0
-9208 9209 0
-9198 -9208 0
-9198 9209 0
-9209 9210 0
-9199 -9209 0
-9199 9210 0
9211 -9210 0
-9210 -9200 0
9211 -9200 0
9212 -9211 0
-9201 -9211 0
-9201 9212 0
9213 -9212 0
-9202 -9212 0
-9202 9213 0
-9203 -9213 0
-52 -73 0
-53 -73 0
-54 -73 0
-55 -73 0
-56 -73 0
-57 -73 0
-58 -73 0
-59 -73 0
-60 -73 0
-61 -73 0
-62 -73 0
-63 -73 0
-64 -73 0
-65 -73 0
-66 -73 0
-67 -73 0
-68 -73 0
-69 -73 0
-70 -73 0
-71 -73 0
-72 -73 0
-88 -109 0
-89 -109 0
-90 -109 0
-91 -109 0
-92 -109 0
-93 -109 0
-94 -109 0
-95 -109 0
-96 -109 0
-97 -109 0
-98 -109 0
-99 -109 0
-100 -109 0
-101 -109 0
-102 -109 0
-103 -109 0
-104 -109 0
-105 -109 0
-106 -109 0
-107 -109 0
-108 -109 0
-160 -181 0
-161 -181 0
-162 -181 0
-163 -181 0
-164 -181 0
-165 -181 0
-166 -181 0
-167 -181 0
-168 -181 0
-169 -181 0
-170 -181 0
-171 -181 0
-172 -181 0
-173 -181 0
-174 -181 0
-175 -181 0
-176 -181 0
-177 -181 0
-178 -181 0
-179 -181 0
-180 -181 0
-196 -217 0
-197 -217 0
-198 -217 0
-199 -217 0
-200 -217 0
-201 -217 0
-202 -217 0
-203 -217 0
-204 -217 0
-205 -217 0
-206 -217 0
-207 -217 0
-208 -217 0
-209 -217 0
-210 -217 0
-211 -217 0
-212 -217 0
-213 -217 0
-214 -217 0
-215 -217 0
-216 -217 0
-232 -253 0
-233 -253 0
-234 -253 0
-235 -253 0
-236 -253 0
-237 -253 0
-238 -253 0
-239 -253 0
-240 -253 0
-241 -253 0
-242 -253 0
-243 -253 0
-244 -253 0
-245 -253 0
-246 -253 0
-247 -253 0
-248 -253 0
-249 -253 0
-250 -253 0
-251 -253 0
-252 -253 0
-304 -325 0
-305 -325 0
-306 -325 0
-307 -325 0
-308 -325 0
-309 -325 0
-310 -325 0
-311 -325 0
-312 -325 0
-313 -325 0
-314 -325 0
-315 -325 0
-316 -325 0
-317 -325 0
-318 -325 0
-319 -325 0
-320 -325 0
-321 -325 0
-322 -325 0
-323 -325 0
-324 -325 0
