p cnf 10081 2351
1 30 33 35 6 36 8 7 2 3 4 9 5 12 14 15 29 13 18 19 16 10 11 20 21 23 24 17 26 27 28 25 22 32 31 34 0
397 -1 0
397 -2 0
397 -3 0
397 -4 0
397 -5 0
397 -6 0
397 -7 0
397 -8 0
-397 7 8 2 6 3 4 1 5 0
398 -9 0
398 -10 0
398 -11 0
398 -12 0
398 -13 0
398 -14 0
398 -15 0
-398 13 14 15 1 9 10 11 12 0
399 -2 0
399 -9 0
399 -16 0
399 -17 0
399 -18 0
399 -19 0
399 -20 0
399 -21 0
-399 2 18 17 9 21 19 20 16 0
3 26 22 -400 10 23 24 25 16 0
-402 12 23 27 18 31 5 32 33 0
-403 6 19 35 24 28 31 34 13 0
-36 404 0
-404 7 29 36 20 25 32 34 14 0
-36 405 0
30 8 33 35 26 21 36 -405 15 0
60 44 42 49 56 40 62 51 37 38 39 43 45 48 72 61 58 59 54 52 41 46 47 55 67 57 53 64 65 63 66 68 69 70 71 50 0
-37 406 0
-38 406 0
-39 406 0
-40 406 0
-41 406 0
-42 406 0
-43 406 0
-44 406 0
-45 407 0
-46 407 0
-47 407 0
-48 407 0
-49 407 0
-50 407 0
-51 407 0
-407 37 45 46 47 48 49 50 51 0
-45 408 0
-52 408 0
408 -53 0
-54 408 0
-55 408 0
-56 408 0
-57 408 0
-408 52 45 53 38 57 55 54 56 0
411 -63 0
-50 413 0
-56 413 0
-61 413 0
-65 413 0
-68 413 0
-70 413 0
-72 413 0
-51 414 0
-57 414 0
-62 414 0
-66 414 0
-69 414 0
-71 414 0
66 -414 57 44 51 72 62 69 71 0
105 107 73 84 94 95 79 78 77 76 75 74 89 88 82 86 81 90 91 92 80 87 83 96 97 85 99 100 101 93 103 104 98 106 102 108 0
566 -73 0
567 -566 0
-74 -566 0
568 -567 0
569 -568 0
570 -569 0
571 -570 0
572 -571 0
573 -572 0
574 -573 0
575 -574 0
576 -575 0
577 -576 0
578 -577 0
579 -578 0
580 -579 0
581 -580 0
-88 -580 0
582 -581 0
-89 -581 0
583 -582 0
-90 -582 0
584 -583 0
-91 -583 0
585 -584 0
-92 -584 0
-93 -585 0
-73 415 0
-74 415 0
-75 415 0
-76 415 0
-77 415 0
-78 415 0
-79 415 0
-80 415 0
-415 80 73 75 74 77 78 79 76 0
-73 416 0
-81 416 0
-82 416 0
-83 416 0
-84 416 0
-85 416 0
-86 416 0
-87 416 0
83 84 -416 73 82 81 86 85 87 0
-74 417 0
-88 417 0
-89 417 0
-90 417 0
-91 417 0
-92 417 0
-93 417 0
-417 93 74 81 89 88 91 90 92 0
-86 422 0
-422 92 86 79 97 101 104 106 108 0
-80 423 0
423 -87 0
-93 423 0
-98 423 0
-102 423 0
-105 423 0
-107 423 0
-423 93 87 80 98 102 105 107 108 0
131 130 109 120 112 113 114 115 116 110 111 121 117 122 123 118 119 126 127 128 129 124 125 132 133 134 135 136 137 138 139 140 141 142 143 144 0
601 -109 0
602 -601 0
603 -602 0
604 -603 0
605 -604 0
606 -605 0
607 -606 0
-115 -606 0
608 -607 0
-116 -607 0
609 -608 0
610 -609 0
611 -610 0
612 -611 0
613 -612 0
614 -613 0
615 -614 0
616 -615 0
617 -616 0
618 -617 0
619 -618 0
620 -619 0
-128 -619 0
621 -620 0
-129 -620 0
622 -621 0
623 -622 0
624 -623 0
625 -624 0
-133 -624 0
626 -625 0
-134 -625 0
627 -626 0
628 -627 0
629 -628 0
-137 -628 0
630 -629 0
-138 -629 0
631 -630 0
632 -631 0
-140 -631 0
633 -632 0
-141 -632 0
634 -633 0
-142 -633 0
635 -634 0
-143 -634 0
-144 -635 0
-109 424 0
-110 424 0
-111 424 0
-112 424 0
-113 424 0
-114 424 0
-115 424 0
-116 424 0
-109 425 0
-117 425 0
-118 425 0
-119 425 0
-120 425 0
-121 425 0
-122 425 0
-123 425 0
117 118 109 -425 119 120 121 122 123 0
-124 426 0
-125 426 0
-126 426 0
-127 426 0
-128 426 0
-129 426 0
-426 127 129 117 110 124 125 126 128 0
144 -431 115 122 128 133 137 140 142 0
-432 143 116 123 129 134 138 141 144 0
166 167 145 148 147 150 149 152 151 146 153 156 157 158 159 154 155 162 163 164 165 160 161 168 169 170 171 172 173 174 175 176 177 178 179 180 0
-145 636 0
-636 637 0
-146 -636 0
-637 638 0
-638 639 0
-639 640 0
-640 641 0
-641 642 0
-642 643 0
-643 644 0
-644 645 0
-645 646 0
-646 647 0
-647 648 0
-648 649 0
-649 650 0
-650 651 0
-160 -650 0
-651 652 0
-161 -651 0
-652 653 0
-162 -652 0
-653 654 0
-163 -653 0
655 -654 0
-654 -164 0
-165 -655 0
-145 433 0
-146 433 0
-147 433 0
-148 433 0
-149 433 0
-150 433 0
-151 433 0
-152 433 0
-145 434 0
-153 434 0
-154 434 0
-155 434 0
-156 434 0
-157 434 0
-158 434 0
434 -159 0
153 155 -434 145 154 156 157 158 159 0
-146 435 0
-153 435 0
-160 435 0
-161 435 0
-162 435 0
-163 435 0
435 -164 0
-165 435 0
160 -435 153 146 164 165 161 162 163 0
-180 440 0
178 -440 151 158 164 169 173 176 180 0
-441 170 152 159 165 174 177 179 180 0
203 202 194 189 188 186 187 185 181 182 183 184 215 213 193 200 192 196 197 198 199 190 191 204 205 195 207 208 209 201 211 212 206 214 210 216 0
671 -181 0
-182 -671 0
-181 442 0
-182 442 0
-183 442 0
-184 442 0
-185 442 0
-186 442 0
-187 442 0
-188 442 0
-181 443 0
-189 443 0
-190 443 0
-191 443 0
-192 443 0
-193 443 0
-194 443 0
-195 443 0
189 -443 195 181 194 192 193 191 190 0
444 -189 0
-196 444 0
-197 444 0
-198 444 0
-199 444 0
-200 444 0
-201 444 0
-444 196 189 182 201 198 199 197 200 0
-187 449 0
-194 449 0
-200 449 0
-205 449 0
-209 449 0
-212 449 0
-214 449 0
-216 449 0
-449 216 187 194 200 209 212 214 205 0
-195 450 0
-201 450 0
-206 450 0
-210 450 0
-213 450 0
-215 450 0
238 239 219 220 224 217 221 222 223 218 229 225 252 228 230 226 227 249 251 236 231 235 234 240 241 237 243 244 233 232 245 242 247 248 246 250 0
706 -217 0
-218 -706 0
-217 451 0
-218 451 0
-219 451 0
-220 451 0
-221 451 0
-222 451 0
-223 451 0
-224 451 0
-225 452 0
-226 452 0
-227 452 0
-228 452 0
-229 452 0
-230 452 0
-231 452 0
225 -452 230 217 226 228 229 227 231 0
-225 453 0
-232 453 0
-233 453 0
-234 453 0
-235 453 0
-236 453 0
-237 453 0
-453 233 218 225 237 234 235 232 236 0
-230 458 0
-236 458 0
-241 458 0
-245 458 0
-248 458 0
-250 458 0
-252 458 0
-458 252 223 236 230 245 248 250 241 0
-231 459 0
-237 459 0
-242 459 0
-246 459 0
-249 459 0
-251 459 0
273 278 263 266 262 260 259 253 261 255 256 257 258 254 267 265 264 270 271 272 269 274 275 276 277 268 279 280 281 282 283 284 285 286 287 288 0
741 -253 0
742 -741 0
-254 -741 0
743 -742 0
744 -743 0
745 -744 0
746 -745 0
747 -746 0
748 -747 0
749 -748 0
750 -749 0
751 -750 0
752 -751 0
753 -752 0
754 -753 0
755 -754 0
756 -755 0
-268 -755 0
757 -756 0
-269 -756 0
758 -757 0
-270 -757 0
759 -758 0
-271 -758 0
760 -759 0
-272 -759 0
-273 -760 0
-253 460 0
-254 460 0
-255 460 0
-256 460 0
-257 460 0
-258 460 0
-259 460 0
-260 460 0
461 -253 0
-261 461 0
461 -262 0
-263 461 0
-264 461 0
-265 461 0
-266 461 0
-267 461 0
266 -461 253 261 263 264 265 262 267 0
-261 462 0
462 -268 0
-269 462 0
-270 462 0
-271 462 0
-272 462 0
-273 462 0
-462 273 261 254 268 272 269 270 271 0
-259 467 0
-266 467 0
-272 467 0
-277 467 0
-281 467 0
-284 467 0
-286 467 0
-288 467 0
286 -467 259 288 266 272 277 281 284 0
-267 468 0
-273 468 0
-278 468 0
-282 468 0
-285 468 0
-287 468 0
-288 468 0
305 306 290 302 303 297 295 296 289 293 294 292 308 300 301 299 298 309 307 291 304 310 311 312 313 314 315 316 317 318 319 320 321 322 323 324 0
776 -289 0
-290 -776 0
-289 469 0
-290 469 0
-291 469 0
-292 469 0
-293 469 0
-294 469 0
-295 469 0
-296 469 0
-469 293 295 289 290 292 294 291 296 0
-289 470 0
-297 470 0
-298 470 0
-299 470 0
-300 470 0
-301 470 0
-302 470 0
-303 470 0
297 -470 302 303 298 300 301 299 289 0
-304 471 0
-305 471 0
-306 471 0
-307 471 0
-308 471 0
-309 471 0
-471 304 308 297 309 305 306 307 290 0
-302 476 0
-308 476 0
-313 476 0
-317 476 0
-320 476 0
-322 476 0
-324 476 0
-476 317 295 324 302 313 320 322 308 0
-303 477 0
-309 477 0
-314 477 0
-318 477 0
-321 477 0
-323 477 0
332 341 338 339 336 335 331 337 330 329 327 328 340 326 325 333 334 342 343 344 345 346 347 348 349 350 351 352 353 354 355 356 357 358 359 360 0
811 -325 0
-326 -811 0
-325 478 0
-326 478 0
-327 478 0
-328 478 0
-329 478 0
-330 478 0
-331 478 0
-332 478 0
-333 479 0
-334 479 0
-335 479 0
479 -336 0
-337 479 0
-338 479 0
-339 479 0
338 -479 325 333 335 336 337 334 339 0
-333 480 0
-340 480 0
-341 480 0
-342 480 0
-343 480 0
-344 480 0
-345 480 0
-480 344 333 340 341 342 343 326 345 0
-331 485 0
-338 485 0
-344 485 0
-349 485 0
-353 485 0
-356 485 0
-358 485 0
-360 485 0
-485 360 331 353 344 338 356 358 349 0
-339 486 0
-345 486 0
-350 486 0
-354 486 0
-357 486 0
-359 486 0
-360 486 0
377 363 369 364 365 366 367 368 361 362 374 375 371 372 373 376 370 378 379 380 381 382 383 384 385 386 387 388 389 390 391 392 393 394 395 396 0
-361 487 0
-362 487 0
-363 487 0
-364 487 0
-365 487 0
-366 487 0
-367 487 0
-368 487 0
-369 488 0
-374 488 0
361 369 -488 374 375 372 373 371 370 0
-489 362 369 380 381 378 379 377 376 0
-374 494 0
-380 494 0
-385 494 0
-389 494 0
-392 494 0
-394 494 0
367 374 -494 396 380 389 392 394 385 0
-375 495 0
-381 495 0
-386 495 0
-390 495 0
-393 495 0
-395 495 0
-396 495 0
-881 0
-883 0
-884 0
885 0
-886 0
-887 0
-888 0
-987 0
-889 0
988 0
-989 -16 883 0
-989 -17 883 0
-989 -20 883 0
-989 -21 883 0
-989 -22 884 0
-989 -25 884 0
-989 -26 884 0
-29 989 888 -885 0
-30 989 889 -885 0
-31 -989 886 0
-32 -989 886 0
-33 -989 886 0
-34 -989 887 0
-35 -989 887 0
-36 -989 888 0
397 -890 881 0
-892 989 883 0
-893 989 884 0
-895 989 886 0
-896 989 887 0
-897 404 888 0
-897 989 888 0
-898 405 889 0
-898 989 889 0
898 -405 -989 889 0
-57 -990 892 0
-62 -990 893 0
-69 -990 895 0
-71 -990 896 0
-72 -990 897 0
-899 406 890 0
-906 413 897 0
990 -906 897 0
907 414 -898 0
414 -907 898 0
990 -907 898 0
-908 899 415 0
-915 906 422 0
-991 -422 915 906 0
-907 916 423 0
907 -916 423 0
991 907 -916 0
-109 -992 908 0
-915 924 431 0
-924 915 431 0
-915 924 992 0
-924 915 992 0
-916 925 432 0
916 -925 432 0
916 992 -925 0
-993 -180 924 0
-924 933 440 0
-933 924 440 0
993 -933 924 0
-925 934 441 0
925 -934 441 0
993 925 -934 0
-994 -216 933 0
-933 942 449 0
-942 933 449 0
994 -942 933 0
-994 -449 933 942 0
-934 943 450 0
934 -943 450 0
994 934 -943 0
-252 942 -995 0
-942 951 458 0
942 -951 458 0
995 -951 942 0
942 -458 -995 951 0
943 -952 459 0
995 943 -952 0
-288 951 -996 0
-951 960 467 0
951 -960 467 0
951 -467 -996 960 0
952 -961 468 0
996 952 -961 0
-324 960 -997 0
-960 969 476 0
960 -969 476 0
997 -969 960 0
960 -476 -997 969 0
961 -970 477 0
997 961 -970 0
-360 969 -998 0
-969 485 978 0
969 485 -978 0
969 -485 -998 978 0
970 486 -979 0
998 970 -979 0
494 -978 987 0
-494 -999 978 987 0
495 979 -988 0
979 999 -988 0
-1000 0
-1001 0
-1100 0
-1002 0
-1003 0
-1004 0
-1005 0
-1006 0
1007 0
-1106 0
-1008 0
1107 0
-1108 -1 1000 0
-1108 -2 1000 0
-1108 -3 1000 0
-1108 -4 1000 0
-1108 -5 1000 0
-1108 -6 1000 0
-1108 -7 1000 0
-1108 -8 1000 0
-1108 -9 1001 0
-1108 -10 1001 0
-1108 -11 1001 0
-1108 -12 1001 0
-1108 -13 1001 0
-1108 -14 1001 0
-1108 -15 1001 0
-1108 -16 1002 0
-1108 -17 1002 0
-1108 -18 1002 0
-1108 -19 1002 0
-1108 -20 1002 0
-1108 -21 1002 0
-1108 -22 1003 0
-1108 -23 1003 0
-1108 -24 1003 0
-1108 -25 1003 0
-1108 -26 1003 0
-1108 -27 1004 0
-1108 -28 1004 0
-1108 -29 1004 0
-1108 -30 1004 0
-1108 -31 1005 0
-1108 -32 1005 0
-1108 -33 1005 0
-1108 -34 1006 0
-1108 -35 1006 0
-36 1108 1008 -1007 0
-1009 397 1000 0
-1009 1108 1000 0
-1010 398 1001 0
-1010 1108 1001 0
-1011 1108 1002 0
-1012 1108 1003 0
-1013 1108 1004 0
-1014 1108 1005 0
-1015 1108 1006 0
1016 404 -1007 0
1016 1108 -1007 0
-404 -1108 -1016 -1007 0
-1017 405 1008 0
-1017 1108 1008 0
-37 -1109 1009 0
-38 -1109 1009 0
-39 -1109 1009 0
-40 -1109 1009 0
-41 -1109 1009 0
-42 -1109 1009 0
-45 -1109 1010 0
-46 -1109 1010 0
-47 -1109 1010 0
-48 -1109 1010 0
-49 -1109 1010 0
-50 -1109 1010 0
-51 -1109 1010 0
-52 -1109 1011 0
-53 -1109 1011 0
-54 -1109 1011 0
-55 -1109 1011 0
-56 -1109 1011 0
-57 -1109 1011 0
-58 -1109 1012 0
-59 -1109 1012 0
-1109 -60 1012 0
-61 -1109 1012 0
-62 -1109 1012 0
-1109 -63 1013 0
-1109 -64 1013 0
-65 -1109 1013 0
-1109 -66 1013 0
-67 -1109 1014 0
-68 -1109 1014 0
-69 -1109 1014 0
-70 -1109 1015 0
-71 -1109 1015 0
-1018 406 1009 0
-1019 407 1010 0
1025 413 -1016 0
1025 1109 -1016 0
-1026 414 1017 0
1109 -1026 1017 0
-81 -1110 1019 0
-1110 -82 1019 0
-1110 1019 -83 0
-1110 -84 1019 0
-1110 -85 1019 0
-1110 1019 -86 0
-1110 -86 -1025 0
-1110 1019 -87 0
-1027 1018 415 0
-1028 1110 1019 0
-1025 1034 422 0
1110 -1025 1034 0
1026 -1035 423 0
-1111 -109 1027 0
-1037 1028 1111 0
-1034 1043 431 0
-1034 1111 1043 0
1035 -1044 432 0
1035 1111 -1044 0
-1112 -164 -1043 0
-169 -1112 -1043 0
-173 -1112 -1043 0
-176 -1112 -1043 0
-178 -1112 -1043 0
1037 -1112 -434 1046 0
-1043 1052 440 0
1112 -1043 1052 0
1044 -1053 441 0
-194 -1113 -1052 0
-200 -1113 -1052 0
-205 -1113 -1052 0
-209 -1113 -1052 0
-212 -1113 -1052 0
-214 -1113 -1052 0
-1046 1055 443 0
-1052 1061 449 0
-1061 1052 449 0
1113 -1052 1061 0
1053 -1062 450 0
-230 -1114 -1061 0
-236 -1114 -1061 0
-241 -1114 -1061 0
-245 -1114 -1061 0
-248 -1114 -1061 0
-250 -1114 -1061 0
-1055 1064 452 0
-1061 1070 458 0
1114 -1061 1070 0
1062 -1071 459 0
-266 -1115 -1070 0
-272 -1115 -1070 0
-277 -1115 -1070 0
-281 -1115 -1070 0
-284 -1115 -1070 0
-286 -1115 -1070 0
-1064 1073 461 0
-1070 1079 467 0
1070 -1079 467 0
1115 -1070 1079 0
1071 -1080 468 0
-302 -1116 -1079 0
-308 -1116 -1079 0
-313 -1116 -1079 0
-317 -1116 -1079 0
-320 -1116 -1079 0
-322 -1116 -1079 0
-1073 1082 470 0
-1079 1088 476 0
1079 -1088 476 0
1116 -1079 1088 0
1080 -1089 477 0
-338 -1117 -1088 0
-344 -1117 -1088 0
-349 -1117 -1088 0
-353 -1117 -1088 0
-356 -1117 -1088 0
-358 -1117 -1088 0
-1082 479 1091 0
-1088 485 1097 0
1088 485 -1097 0
1117 -1088 1097 0
-1117 -485 1088 1097 0
1089 486 -1098 0
1117 1089 -1098 0
-374 -1118 -1097 0
-380 -1118 -1097 0
-385 -1118 -1097 0
-389 -1118 -1097 0
-392 -1118 -1097 0
-394 -1118 -1097 0
488 -1091 1100 0
494 -1097 1106 0
1118 -1097 1106 0
-494 -1118 1097 1106 0
495 1098 -1107 0
1118 1098 -1107 0
-1119 0
-1120 0
-1121 0
-1122 0
-1123 0
-1125 0
1126 0
1225 0
-1127 0
1226 0
-1227 -8 1119 0
-1227 -14 1120 0
-1227 -15 1120 0
-1227 -20 1121 0
-1227 -21 1121 0
-1227 -25 1122 0
-1227 -26 1122 0
-1227 -29 1123 0
-1227 -30 1123 0
-1227 -32 -1126 0
-1227 -34 1125 0
-1227 -35 1125 0
-36 1227 1127 -1126 0
-1128 397 1119 0
1135 404 -1126 0
1135 1227 -1126 0
-404 -1227 -1135 -1126 0
-1136 405 1127 0
-1136 1227 1127 0
-405 -1227 1136 1127 0
-1137 406 1128 0
1144 413 -1135 0
1135 -1144 413 0
1228 -1144 1135 0
-1228 -413 -1135 -1144 0
-1145 414 1136 0
1228 -1145 1136 0
-1145 -1136 -414 -1228 0
-1146 1137 415 0
-1144 1153 422 0
1144 -1153 422 0
-1229 -422 -1144 -1153 0
1145 -1154 423 0
1229 1145 -1154 0
-1230 -109 1146 0
-1153 1162 431 0
1162 -1153 1230 0
1153 1230 -1162 0
1154 -1163 432 0
1154 1230 -1163 0
-164 -1231 -1162 0
-169 -1231 -1162 0
-173 -1231 -1162 0
-176 -1231 -1162 0
-178 -1231 -1162 0
-180 1231 1163 -1162 0
-1162 1171 440 0
1162 -1171 440 0
1231 1171 -1162 0
-1231 -440 -1162 -1171 0
1163 -1172 441 0
1231 1163 -1172 0
1232 -216 -1171 1172 0
-1171 1180 449 0
1171 -1180 449 0
-1232 -449 -1171 -1180 0
1172 -1181 450 0
1232 1172 -1181 0
-252 1233 1181 -1180 0
-1180 1189 458 0
1180 -1189 458 0
-1233 -458 -1180 -1189 0
1181 -1190 459 0
1233 1181 -1190 0
1234 -288 1190 -1189 0
-1189 1198 467 0
1189 -1198 467 0
1234 1198 -1189 0
-1234 -467 -1189 -1198 0
1190 -1199 468 0
1234 1190 -1199 0
-1234 1199 -468 1190 0
-302 -1198 -1235 0
-1198 1207 476 0
1198 -1207 476 0
1235 1207 -1198 0
1235 1198 -1207 0
-1235 -476 -1207 -1198 0
1199 -1208 477 0
1235 1199 -1208 0
-1235 -477 -1199 -1208 0
-338 -1236 -1207 0
-344 -1236 -1207 0
-349 -1236 -1207 0
-353 -1236 -1207 0
-356 -1236 -1207 0
-358 -1236 -1207 0
1236 -360 1208 -1207 0
1207 -1216 485 0
1236 -1207 1216 0
-1236 -485 -1207 -1216 0
1208 486 -1217 0
1236 1208 -1217 0
-1236 -486 1217 1208 0
-396 -1237 1216 0
1216 494 -1225 0
1237 1216 -1225 0
-1237 -1216 -494 -1225 0
495 1217 -1226 0
1217 1237 -1226 0
-1217 -1237 -495 -1226 0
-1238 0
-1245 0
1344 0
1246 0
1345 0
-1346 -26 -1246 0
-1247 397 1238 0
-1254 404 1245 0
-1254 1346 1245 0
1255 1346 -1246 0
-1347 -72 1254 0
-1256 406 1247 0
-1263 413 1254 0
1347 -1263 1254 0
1264 414 -1255 0
-1265 1256 415 0
1263 -1272 422 0
1273 -1264 423 0
-1349 -109 1265 0
1272 -1281 431 0
1282 -1273 432 0
1281 -1290 440 0
1291 -1282 441 0
1290 -1299 449 0
1300 -1291 450 0
1299 -1308 458 0
-288 -1353 1308 0
1308 -1317 467 0
1353 1308 -1317 0
1309 -1318 468 0
-324 -1354 1317 0
1317 -1326 476 0
1354 1317 -1326 0
1318 -1327 477 0
1326 -1335 485 0
1327 -1336 486 0
-1356 1335 -396 0
494 1335 -1344 0
1335 1356 -1344 0
495 1336 -1345 0
3261 0
-3360 0
-3262 0
-3361 0
3263 0
-3362 0
3264 0
3265 0
-3266 0
-3267 0
3268 0
3367 0
3269 0
-18 3369 3266 -3263 0
-19 3369 3267 -3263 0
-3369 -21 -3269 0
-23 3369 3266 -3264 0
-24 3369 3267 -3264 0
-3369 -26 -3269 0
-27 3369 3266 -3265 0
-28 3369 3267 -3265 0
-30 -3369 -3269 0
-33 -3369 -3269 0
-3369 -35 -3269 0
-36 -3369 -3269 0
3270 397 -3261 0
-3271 398 3262 0
399 3272 -3263 0
3272 3369 -3263 0
3273 3369 -3264 0
3274 3369 -3265 0
-3275 3369 3266 0
-3276 3369 3267 0
404 3277 -3268 0
3277 3369 -3268 0
3278 405 -3269 0
3278 3369 -3269 0
-405 -3369 -3278 -3269 0
-54 3370 -3272 3275 0
-55 3370 -3272 3276 0
-59 3370 3275 -3273 0
3370 -60 3276 -3273 0
-63 3370 3275 -3274 0
-64 3370 3276 -3274 0
3279 406 -3270 0
-3280 407 3271 0
3281 408 -3272 0
3286 413 -3277 0
-3370 -413 -3286 -3277 0
3287 414 -3278 0
-3280 -3371 -73 0
3288 -3279 415 0
3371 3288 -3279 0
3280 -3371 -416 3289 0
3290 -3281 417 0
3295 -3286 422 0
3286 -3295 422 0
3296 -3287 423 0
3296 3371 -3287 0
-3289 -3372 -109 0
-117 -3372 -3290 0
3297 -3288 424 0
3372 3297 -3288 0
-3289 425 3298 0
3372 -3289 3298 0
3298 3289 -425 -3372 0
3299 426 -3290 0
3304 -3295 431 0
3295 -3304 431 0
3305 -3296 432 0
-145 -3298 -3373 0
-151 -3373 -3304 0
-153 3298 -3373 0
-158 -3373 -3304 0
-159 -3373 -3305 0
-164 -3373 -3304 0
-165 -3373 -3305 0
-169 -3373 -3304 0
-170 -3373 -3305 0
-173 -3373 -3304 0
-174 -3373 -3305 0
-176 -3373 -3304 0
-177 -3373 -3305 0
-178 -3373 -3304 0
-179 -3373 -3305 0
-180 -3305 -3373 0
3306 -3297 433 0
3373 3306 -3297 0
3307 434 -3298 0
3373 3307 -3298 0
3298 3307 -434 -3373 0
3308 -3299 435 0
3304 -3313 440 0
-3374 -181 -3307 0
-189 3307 -3374 0
-3308 -189 -3374 0
3315 -3306 442 0
3374 3315 -3306 0
-3307 3316 443 0
3374 -3307 3316 0
-3374 3307 -443 3316 0
3317 -3308 444 0
3313 -3322 449 0
-3375 -217 -3316 0
-3317 -3375 -225 0
3324 -3315 451 0
-3315 3324 3375 0
-3316 3325 452 0
-3316 3325 3375 0
-3375 3325 -452 3316 0
3326 -3317 453 0
3322 -3331 458 0
-3376 -253 -3325 0
-261 -3376 3325 0
-3326 -261 -3376 0
3333 -3324 460 0
3376 3333 -3324 0
-3325 3334 461 0
3376 -3325 3334 0
3325 3334 -461 -3376 0
3335 -3326 462 0
3331 -3340 467 0
-3377 -289 -3334 0
-297 -3335 -3377 0
3342 -3333 469 0
3377 3342 -3333 0
-3334 3343 470 0
3377 -3334 3343 0
3334 -3377 -470 3343 0
3344 -3335 471 0
3340 -3349 476 0
-3378 -325 -3343 0
-3344 -333 -3378 0
3351 -3342 478 0
3378 3351 -3342 0
-3343 479 3352 0
3378 -3343 3352 0
-3378 3343 -479 3352 0
3349 -3358 485 0
-361 -3379 -3352 0
-3353 -369 -3379 0
-3351 487 3360 0
-3351 3379 3360 0
488 -3352 3361 0
3379 -3352 3361 0
-3379 -488 3352 3361 0
-3379 -489 3353 3362 0
494 3358 -3367 0
4689 0
4691 0
4698 397 -4689 0
4700 399 -4691 0
4707 406 -4698 0
5879 0
-5978 0
5880 0
5979 0
5881 0
5882 0
5883 0
-5884 0
5885 0
5886 0
5985 0
5887 0
-5987 -1 -5880 0
-5987 -9 -5881 0
-5987 -10 -5882 0
-5987 -11 -5883 0
-5987 -13 -5885 0
-5987 -14 -5886 0
-5987 -15 -5887 0
-5987 -26 -5887 0
-5987 -30 -5887 0
5888 397 -5879 0
5888 5987 -5879 0
5889 398 -5880 0
5889 5987 -5880 0
5890 399 -5881 0
5891 400 -5882 0
5892 5987 -5883 0
-5893 402 5884 0
403 5894 -5885 0
5896 405 -5887 0
5896 5987 -5887 0
-37 -5988 -5889 0
-45 -5890 -5988 0
-5988 -53 -5892 0
-58 -5988 -5892 0
-63 5988 5893 -5892 0
-5988 -64 -5894 0
-5988 -67 -5894 0
5897 406 -5888 0
5988 5897 -5888 0
407 5898 -5889 0
5988 5898 -5889 0
5899 408 -5890 0
5899 5988 -5890 0
5900 5988 -5891 0
5901 5988 -5892 0
5902 -5988 5893 -411 0
5903 5988 -5894 0
414 5905 -5896 0
-5898 -5989 -73 0
-81 -5899 -5989 0
-5900 -82 -5989 0
-5901 -5989 -83 0
-5902 -84 -5989 0
-85 -5903 -5989 0
-5905 -87 -5989 0
5906 -5897 415 0
5989 5906 -5897 0
5989 5907 -5898 0
-5907 -5990 -109 0
5915 -5906 424 0
5990 5915 -5906 0
5916 5907 -425 -5990 0
5924 -5915 433 0
-5991 -5925 -434 -5916 0
5933 -5924 442 0
5925 -5934 443 0
5942 -5933 451 0
5934 -5943 452 0
5940 -5949 458 0
5951 -5942 460 0
5943 -5952 461 0
5949 -5958 467 0
5960 -5951 469 0
5952 -5961 470 0
5958 -5967 476 0
5969 -5960 478 0
5961 479 -5970 0
5967 -5976 485 0
487 -5969 5978 0
488 5970 -5979 0
494 5976 -5985 0
-6474 0
-6573 0
6475 0
-6476 0
6575 0
6477 0
6478 0
6479 0
6480 0
6481 0
6482 0
-6582 -2 6474 0
-6582 -3 -6477 0
-6582 -4 -6478 0
-6582 -5 -6479 0
-6582 -6 -6480 0
-6582 -7 -6481 0
-6582 -8 -6482 0
-6582 -10 -6477 0
-6582 -11 -6478 0
-6582 -12 -6479 0
-6582 -13 -6480 0
-6582 -14 -6481 0
-6582 -15 -6482 0
-6582 -16 -6477 0
-6582 -17 -6478 0
-6582 -18 -6479 0
-6582 -19 -6480 0
-6582 -20 -6481 0
-6582 -21 -6482 0
-6582 -22 -6478 0
-6582 -23 -6479 0
-6582 -24 -6480 0
-6582 -25 -6481 0
-6582 -26 -6482 0
-6582 -27 -6479 0
-6582 -28 -6480 0
-6582 -29 -6481 0
-6582 -30 -6482 0
-31 -6582 -6480 0
-6582 -32 -6481 0
-33 -6582 -6482 0
-34 -6582 -6481 0
-6582 -35 -6482 0
-6582 -36 -6482 0
-6483 397 6474 0
6484 398 -6475 0
-6484 -398 -6582 -6475 0
-6485 399 6476 0
-6485 6582 6476 0
6484 -45 -6583 0
-45 -6485 -6583 0
-52 -6583 6485 0
-6583 -53 6485 0
-54 -6583 6485 0
-55 -6583 6485 0
-56 -6583 6485 0
-57 -6583 6485 0
-6492 406 6483 0
6493 407 -6484 0
6484 -6493 407 0
-6583 -407 -6484 -6493 0
-6485 6494 408 0
-6494 408 6485 0
-6485 6494 6583 0
-6494 6583 6485 0
-6584 -73 6492 0
-74 -6584 6492 0
-75 -6584 6492 0
-76 -6584 6492 0
-77 -6584 6492 0
-78 -6584 6492 0
-79 6492 -6584 0
-80 -6584 6492 0
6493 -81 -6584 0
-88 -6584 6494 0
-89 -6584 6494 0
-90 -6584 6494 0
-91 -6584 6494 0
-92 -6584 6494 0
-93 -6584 6494 0
-6501 6492 415 0
6502 -6493 416 0
6493 -6502 416 0
6493 -6502 6584 0
-6502 -6584 -416 -6493 0
-6503 6494 417 0
-6503 6494 6584 0
-124 -6585 6503 0
-125 -6585 6503 0
-126 -6585 6503 0
-127 -6585 6503 0
-128 -6585 6503 0
-129 -6585 6503 0
-6510 6501 424 0
6511 -6502 425 0
6502 425 -6511 0
-6512 426 6503 0
-6512 6585 6503 0
6511 -153 -6586 0
-160 -6586 6512 0
-161 -6586 6512 0
-162 -6586 6512 0
-163 -6586 6512 0
-6586 6512 -164 0
-165 -6586 6512 0
-6519 6510 433 0
-6586 -433 6519 6510 0
-6511 434 6520 0
6511 -6520 434 0
-6586 -6520 -434 -6511 0
-6521 6512 435 0
6512 -6521 6586 0
-6587 -181 6519 0
-6520 -189 6587 6521 0
-196 -6587 6521 0
-197 -6587 6521 0
-198 -6587 6521 0
-199 -6587 6521 0
-200 -6587 6521 0
-201 -6587 6521 0
-6519 6528 442 0
-6528 6519 442 0
-6520 6529 443 0
6520 -6529 443 0
6520 -6529 6587 0
6521 -6530 444 0
6587 6521 -6530 0
-6587 6521 6530 -444 0
6529 -225 -6588 0
-232 -6588 6530 0
-233 -6588 6530 0
-234 -6588 6530 0
-235 -6588 6530 0
-236 -6588 6530 0
-237 -6588 6530 0
-6528 6537 451 0
-6537 6528 451 0
-6538 6529 452 0
-6538 -6588 -6529 -452 0
-6539 6530 453 0
6588 6530 -6539 0
-6538 -6589 -253 0
-6589 -254 6537 0
-6589 6539 -268 0
-269 -6589 6539 0
-270 -6589 6539 0
-271 -6589 6539 0
-272 -6589 6539 0
-273 -6589 6539 0
-6537 6546 460 0
-6546 6537 460 0
-6589 -460 6537 6546 0
-6547 6538 461 0
-6547 6538 6589 0
6539 -6548 462 0
6539 6589 -6548 0
-6590 -289 6546 0
-290 -6590 6546 0
-291 -6590 6546 0
-292 -6590 6546 0
-6590 -293 6546 0
-294 -6590 6546 0
-295 -6590 6546 0
-296 -6590 6546 0
-297 -6590 6547 0
-304 -6590 6548 0
-305 -6590 6548 0
-306 -6590 6548 0
-307 -6590 6548 0
-308 -6590 6548 0
-309 -6590 6548 0
-6546 6555 469 0
-6555 6546 469 0
6547 -6556 470 0
-6547 -6590 -6556 -470 0
6548 -6557 471 0
6548 -6557 6590 0
-333 -6591 6556 0
-340 -6591 6557 0
-341 -6591 6557 0
-342 -6591 6557 0
-343 -6591 6557 0
-344 -6591 6557 0
-345 -6591 6557 0
-6555 6564 478 0
-6591 -478 6555 6564 0
-6565 6556 479 0
-6565 6556 6591 0
-6591 -6565 -6556 -479 0
6557 480 -6566 0
6591 6557 -6566 0
-376 -6592 6566 0
-377 -6592 6566 0
-378 -6592 6566 0
-379 -6592 6566 0
-380 -6592 6566 0
-381 -6592 6566 0
487 -6564 6573 0
6566 489 -6575 0
6592 6566 -6575 0
6593 0
-6692 0
6594 0
-6595 0
6597 0
6598 0
6599 0
6601 0
-6701 -12 -6598 0
-6701 -30 -6601 0
6602 397 -6593 0
6603 398 -6594 0
6603 6701 -6594 0
-6604 399 6595 0
6606 6701 -6597 0
6607 402 -6598 0
403 6608 -6599 0
-37 -6702 -6603 0
-6702 -63 -6607 0
-6702 -67 -6608 0
6611 406 -6602 0
6611 6702 -6602 0
6612 407 -6603 0
-6613 408 6604 0
6615 6702 -6606 0
6616 6702 -6607 0
-6703 -6615 -83 0
-84 -6703 -6616 0
6620 -6611 415 0
-6612 6621 416 0
6703 -6612 6621 0
-6622 6613 417 0
-6621 -6704 -109 0
6629 -6620 424 0
6704 6629 -6620 0
6630 -6621 425 0
-6631 426 6622 0
6638 -6629 433 0
6639 434 -6630 0
-6640 6631 435 0
-196 6640 -6706 0
-197 6640 -6706 0
-198 6640 -6706 0
-199 6640 -6706 0
-200 6640 -6706 0
6640 -201 -6706 0
6647 -6638 442 0
6706 6647 -6638 0
6648 -6639 443 0
-6649 6640 444 0
-232 6649 -6707 0
-233 6649 -6707 0
-234 6649 -6707 0
-235 6649 -6707 0
-236 6649 -6707 0
-237 6649 -6707 0
6656 -6647 451 0
6707 6656 -6647 0
-6648 6657 452 0
-6658 6649 453 0
-6708 -253 -6657 0
6665 -6656 460 0
6708 6665 -6656 0
-6667 6658 462 0
-304 6667 -6709 0
-305 6667 -6709 0
-306 6667 -6709 0
-307 6667 -6709 0
-308 6667 -6709 0
-309 6667 -6709 0
6674 -6665 469 0
6709 6674 -6665 0
6683 -6674 478 0
487 -6683 6692 0
6712 0
-6713 0
6812 0
6714 0
6715 0
6716 0
6717 0
6718 0
6719 0
6720 0
-6820 -9 -6714 0
-6820 -10 -6715 0
-6820 -11 -6716 0
-6820 -12 -6717 0
-6820 -13 -6718 0
-6820 -14 -6719 0
-6820 -15 -6720 0
6721 397 -6712 0
-6722 398 6713 0
-6722 6820 6713 0
6723 399 -6714 0
-45 -6821 6722 0
-46 -6821 6722 0
-47 -6821 6722 0
-48 -6821 6722 0
-49 -6821 6722 0
-50 -6821 6722 0
-51 -6821 6722 0
6730 406 -6721 0
407 -6731 6722 0
6821 -6731 6722 0
-81 -6822 6731 0
-82 -6822 6731 0
-83 -6822 6731 0
-84 -6822 6731 0
-85 -6822 6731 0
-86 -6822 6731 0
-87 -6822 6731 0
6739 -6730 415 0
416 -6740 6731 0
6822 -6740 6731 0
-117 -6823 6740 0
-118 -6823 6740 0
-119 -6823 6740 0
-120 -6823 6740 0
-121 -6823 6740 0
-122 -6823 6740 0
-123 -6823 6740 0
6748 -6739 424 0
425 -6749 6740 0
6823 -6749 6740 0
-153 -6824 6749 0
-154 -6824 6749 0
-155 -6824 6749 0
-156 -6824 6749 0
-157 -6824 6749 0
-158 -6824 6749 0
-159 -6824 6749 0
6757 -6748 433 0
434 6749 -6758 0
6824 6749 -6758 0
-189 -6825 6758 0
-190 -6825 6758 0
-191 -6825 6758 0
-192 -6825 6758 0
-193 -6825 6758 0
-194 -6825 6758 0
-195 -6825 6758 0
443 6758 -6767 0
6825 6758 -6767 0
-225 -6826 6767 0
-226 -6826 6767 0
-227 -6826 6767 0
-228 -6826 6767 0
-229 -6826 6767 0
-230 -6826 6767 0
-231 -6826 6767 0
452 -6776 6767 0
6826 6767 -6776 0
-261 -6827 6776 0
-262 -6827 6776 0
-263 -6827 6776 0
-264 -6827 6776 0
-265 -6827 6776 0
-266 -6827 6776 0
-267 -6827 6776 0
461 -6785 6776 0
6827 6776 -6785 0
-297 -6828 6785 0
-298 -6828 6785 0
-299 -6828 6785 0
-300 -6828 6785 0
-301 -6828 6785 0
-302 -6828 6785 0
-303 -6828 6785 0
470 6785 -6794 0
6828 6785 -6794 0
-333 -6829 6794 0
-334 -6829 6794 0
-335 -6829 6794 0
-336 -6829 6794 0
-337 -6829 6794 0
-338 -6829 6794 0
-339 -6829 6794 0
479 6794 -6803 0
6829 6794 -6803 0
-369 -6830 6803 0
-370 -6830 6803 0
-371 -6830 6803 0
-372 -6830 6803 0
-373 -6830 6803 0
-374 -6830 6803 0
-375 -6830 6803 0
6803 488 -6812 0
6803 6830 -6812 0
6953 -405 0
6954 -414 0
6955 -423 0
-441 6957 0
-450 6958 0
-459 6959 0
-468 6960 0
-477 6961 0
-486 6962 0
-495 6963 0
6964 -6953 0
6965 -6964 0
6966 -6954 -6964 0
6967 -6966 0
-6955 -6966 0
6968 -6965 0
6969 -6967 0
6970 -6968 0
6971 -6969 0
-6957 -6969 0
6972 -6970 0
6973 -6971 0
-6958 -6971 0
6974 -6972 0
6975 -6973 0
-6959 -6973 0
6976 -6974 0
6977 -6975 0
-6960 -6975 0
6979 -6977 0
-6961 -6977 0
6981 -6979 0
-6962 -6979 0
-6963 -6981 0
7634 -404 0
7634 -405 0
-413 7635 0
7635 -414 0
-422 7636 0
7636 -423 0
-431 7637 0
-432 7637 0
-440 7638 0
-441 7638 0
-449 7639 0
7639 -450 0
-458 7640 0
-459 7640 0
-467 7641 0
-468 7641 0
-476 7642 0
-477 7642 0
-485 7643 0
-486 7643 0
7644 -494 0
-495 7644 0
7645 -7634 0
7646 -7645 0
7647 -7635 -7645 0
-7647 7648 0
-7647 -7636 0
7646 -7635 0
7649 -7646 0
7648 -7636 -7646 0
7650 -7648 0
-7637 -7648 0
7649 -7636 0
7651 -7649 0
-7637 7650 -7649 0
7652 -7650 0
-7638 -7650 0
-7637 7651 0
7653 -7651 0
-7638 7652 -7651 0
7654 -7652 0
-7639 -7652 0
-7638 7653 0
7655 -7653 0
7654 -7639 -7653 0
7656 -7654 0
-7640 -7654 0
7655 -7639 0
7657 -7655 0
7656 -7640 -7655 0
7658 -7656 0
-7641 -7656 0
7657 -7640 0
7659 -7657 0
7658 -7641 -7657 0
7660 -7658 0
-7642 -7658 0
7659 -7641 0
7661 -7659 0
7660 -7642 -7659 0
7662 -7660 0
-7643 -7660 0
-7642 7661 0
7662 -7643 -7661 0
-7644 -7662 0
9916 -397 6474 0
9916 -399 6476 0
6484 9917 -407 0
9917 -408 6485 0
9918 -415 6492 0
6493 9918 -416 0
9918 -417 6494 0
6502 9919 -425 0
-426 9919 6503 0
9920 -433 6510 0
6511 9920 -434 0
6512 9920 -435 0
9921 -442 6519 0
9921 6520 -443 0
-444 6521 9921 0
-451 6528 9922 0
6529 9922 -452 0
-453 6530 9922 0
9923 -460 6537 0
-462 6539 9923 0
9924 -469 6546 0
9924 6547 -470 0
-471 6548 9924 0
9925 -478 6555 0
9925 6556 -479 0
-480 6557 9925 0
9926 6565 -488 0
6566 9926 -489 0
9927 -9916 0
9928 -9927 0
-9917 9929 -9927 0
-9929 9930 0
-9929 -9918 0
9928 -9917 0
9931 -9928 0
-9918 9930 -9928 0
-9930 9932 0
-9930 -9919 0
9931 -9918 0
9933 -9931 0
-9919 9932 -9931 0
-9932 9934 0
-9932 -9920 0
9933 -9919 0
9935 -9933 0
-9920 9934 -9933 0
-9934 9936 0
-9921 -9934 0
9935 -9920 0
9937 -9935 0
-9921 9936 -9935 0
-9936 9938 0
-9922 -9936 0
9937 -9921 0
9939 -9937 0
-9922 9938 -9937 0
-9938 9940 0
-9938 -9923 0
9939 -9922 0
9941 -9939 0
-9923 9940 -9939 0
-9940 9942 0
-9940 -9924 0
9941 -9923 0
9943 -9941 0
-9924 9942 -9941 0
-9942 9944 0
-9942 -9925 0
9943 -9924 0
-9925 9944 -9943 0
-9944 -9926 0
9980 -398 0
9981 -407 0
9982 -415 0
9982 -416 0
9983 -425 0
9984 -433 0
9984 -434 0
9985 -443 0
9986 -452 0
-460 9987 0
9987 -461 0
9988 -469 0
9988 -470 0
9989 -479 0
9990 -488 0
9991 -9980 0
9992 -9991 0
9993 -9981 -9991 0
-9993 9994 0
-9993 -9982 9995 0
-9995 9996 0
9992 -9981 0
9997 -9992 0
9994 -9982 -9992 0
-9994 9998 0
-9994 -9983 9996 0
-9996 9999 0
-9996 -9984 0
9997 -9982 0
10000 -9997 0
9998 -9983 -9997 0
10001 -9998 0
-9998 -9984 9999 0
-9999 10002 0
-9999 -9985 0
10000 -9983 0
10003 -10000 0
10001 -9984 -10000 0
10004 -10001 0
-10001 -9985 10002 0
-10002 10005 0
-10002 -9986 0
10003 -9984 0
10006 -10003 0
10004 -9985 -10003 0
10007 -10004 0
-10004 -9986 10005 0
-10005 10008 0
-10005 -9987 0
10006 -9985 0
10009 -10006 0
10007 -9986 -10006 0
10010 -10007 0
-10007 -9987 10008 0
-10008 10011 0
-10008 -9988 0
10009 -9986 0
10012 -10009 0
10010 -9987 -10009 0
10013 -10010 0
-10010 10011 -9988 0
-10011 10014 0
-10011 -9989 0
10012 -9987 0
10013 -10012 -9988 0
-10013 10014 -9989 0
-10014 -9990 0
-397 10050 0
-406 10051 0
-415 10052 0
-424 10053 0
-433 10054 0
-442 10055 0
-451 10056 0
-460 10057 0
-469 10058 0
-478 10059 0
10060 -487 0
-10050 10061 0
-10061 10062 0
-10051 -10061 0
-10051 10062 0
-10062 10063 0
-10062 -10052 0
-10052 10063 0
-10063 10064 0
-10053 -10063 0
-10053 10064 0
-10064 10065 0
-10054 -10064 0
-10054 10065 0
-10065 10066 0
-10055 -10065 0
-10055 10066 0
-10066 10067 0
-10056 -10066 0
-10056 10067 0
-10067 10068 0
-10057 -10067 0
-10057 10068 0
-10068 10069 0
-10058 -10068 0
-10058 10069 0
-10069 10070 0
-10059 -10069 0
-10059 10070 0
-10070 -10060 0
-22 -45 0
-45 -23 0
-24 -45 0
-25 -45 0
-45 -26 0
-45 -27 0
-28 -45 0
-45 -29 0
-45 -30 0
-52 -30 0
-54 -30 0
-55 -30 0
-59 -30 0
-60 -30 0
-31 -45 0
-45 -32 0
-45 -33 0
-34 -45 0
-45 -35 0
-37 -36 0
-38 -36 0
-39 -36 0
-40 -36 0
-41 -36 0
-42 -36 0
-45 -36 0
-46 -36 0
-47 -36 0
-48 -36 0
-49 -36 0
-52 -36 0
-53 -36 0
-54 -36 0
-55 -36 0
-58 -36 0
-59 -36 0
-60 -36 0
-63 -36 0
-64 -36 0
-67 -36 0
-52 -73 0
-52 -86 0
-53 -73 0
-82 -53 0
-84 -53 0
-85 -53 0
-53 -86 0
-53 -87 0
-54 -73 0
-54 -86 0
-55 -73 0
-55 -86 0
-56 -73 0
-57 -73 0
-57 -86 0
-58 -81 0
-84 -58 0
-85 -58 0
-58 -86 0
-59 -81 0
-59 -86 0
-81 -60 0
-60 -86 0
-61 -81 0
-62 -81 0
-62 -86 0
-63 -81 0
-63 -82 0
-85 -63 0
-63 -86 0
-64 -81 0
-64 -82 0
-84 -64 0
-64 -86 0
-65 -81 0
-81 -66 0
-86 -66 0
-81 -67 0
-82 -67 0
-67 -83 0
-67 -86 0
-68 -81 0
-69 -81 0
-69 -86 0
-70 -81 0
-71 -81 0
-71 -86 0
-72 -73 0
-74 -72 0
-75 -72 0
-76 -72 0
-77 -72 0
-78 -72 0
-81 -72 0
-82 -72 0
-72 -83 0
-84 -72 0
-85 -72 0
-88 -72 0
-89 -72 0
-90 -72 0
-91 -72 0
-94 -72 0
-95 -72 0
-96 -72 0
-99 -72 0
-100 -72 0
-103 -72 0
-88 -109 0
-89 -109 0
-90 -109 0
-91 -109 0
-92 -109 0
-93 -109 0
-94 -109 0
-94 -117 0
-95 -109 0
-95 -117 0
-96 -109 0
-96 -117 0
-97 -109 0
-97 -117 0
-98 -109 0
-98 -117 0
-99 -109 0
-99 -117 0
-100 -109 0
-100 -117 0
-101 -109 0
-101 -117 0
-102 -109 0
-102 -117 0
-103 -109 0
-103 -117 0
-104 -109 0
-104 -117 0
-105 -109 0
-105 -117 0
-106 -109 0
-106 -117 0
-109 -107 0
-117 -107 0
-108 -109 0
-108 -117 0
-124 -145 0
-125 -145 0
-126 -145 0
-127 -145 0
-128 -145 0
-129 -145 0
-130 -145 0
-130 -153 0
-131 -145 0
-131 -153 0
-132 -145 0
-132 -153 0
-133 -145 0
-133 -153 0
-134 -145 0
-134 -153 0
-135 -145 0
-135 -153 0
-136 -145 0
-136 -153 0
-137 -145 0
-137 -153 0
-138 -145 0
-138 -153 0
-139 -145 0
-139 -153 0
-140 -145 0
-140 -153 0
-141 -145 0
-141 -153 0
-142 -145 0
-142 -153 0
-143 -145 0
-143 -153 0
-144 -145 0
-144 -153 0
-160 -181 0
-161 -181 0
-162 -181 0
-163 -181 0
-181 -164 0
-165 -181 0
-166 -181 0
-166 -189 0
-167 -181 0
-167 -189 0
-168 -181 0
-168 -189 0
-169 -181 0
-169 -189 0
-170 -181 0
-170 -189 0
-171 -181 0
-171 -189 0
-172 -181 0
-172 -189 0
-173 -181 0
-173 -189 0
-174 -181 0
-174 -189 0
-175 -181 0
-175 -189 0
-176 -181 0
-176 -189 0
-177 -181 0
-177 -189 0
-178 -181 0
-178 -189 0
-179 -181 0
-179 -189 0
-181 -180 0
-189 -180 0
-190 -180 0
-191 -180 0
-192 -180 0
-193 -180 0
-196 -180 0
-197 -180 0
-198 -180 0
-199 -180 0
-202 -180 0
-203 -180 0
-204 -180 0
-207 -180 0
-208 -180 0
-211 -180 0
-196 -217 0
-197 -217 0
-198 -217 0
-199 -217 0
-200 -217 0
-201 -217 0
-202 -217 0
-202 -225 0
-203 -217 0
-203 -225 0
-204 -217 0
-204 -225 0
-205 -217 0
-205 -225 0
-206 -217 0
-206 -225 0
-207 -217 0
-207 -225 0
-208 -217 0
-208 -225 0
-209 -217 0
-209 -225 0
-210 -217 0
-210 -225 0
-211 -217 0
-211 -225 0
-212 -217 0
-212 -225 0
-213 -217 0
-213 -225 0
-214 -217 0
-214 -225 0
-217 -215 0
-225 -215 0
-217 -216 0
-225 -216 0
-226 -216 0
-227 -216 0
-228 -216 0
-229 -216 0
-232 -216 0
-233 -216 0
-234 -216 0
-235 -216 0
-238 -216 0
-239 -216 0
-240 -216 0
-243 -216 0
-244 -216 0
-247 -216 0
-255 -225 0
-256 -225 0
-257 -225 0
-258 -225 0
-259 -225 0
-260 -225 0
-232 -253 0
-233 -253 0
-234 -253 0
-235 -253 0
-236 -253 0
-237 -253 0
-238 -253 0
-238 -261 0
-239 -253 0
-239 -261 0
-240 -253 0
-240 -261 0
-241 -253 0
-241 -261 0
-242 -253 0
-242 -261 0
-243 -253 0
-243 -261 0
-244 -253 0
-244 -261 0
-245 -253 0
-245 -261 0
-246 -253 0
-246 -261 0
-247 -253 0
-247 -261 0
-248 -253 0
-248 -261 0
-249 -253 0
-249 -261 0
-250 -253 0
-250 -261 0
-253 -251 0
-261 -251 0
-253 -252 0
-254 -252 0
-255 -252 0
-256 -252 0
-257 -252 0
-258 -252 0
-261 -252 0
-262 -252 0
-263 -252 0
-264 -252 0
-265 -252 0
-268 -252 0
-269 -252 0
-270 -252 0
-271 -252 0
-274 -252 0
-275 -252 0
-276 -252 0
-279 -252 0
-280 -252 0
-283 -252 0
-268 -289 0
-269 -289 0
-270 -289 0
-271 -289 0
-272 -289 0
-273 -289 0
-274 -289 0
-274 -297 0
-275 -289 0
-275 -297 0
-276 -289 0
-276 -297 0
-277 -289 0
-277 -297 0
-278 -289 0
-278 -297 0
-279 -289 0
-279 -297 0
-280 -289 0
-280 -297 0
-281 -289 0
-281 -297 0
-282 -289 0
-282 -297 0
-283 -289 0
-283 -297 0
-284 -289 0
-284 -297 0
-285 -289 0
-285 -297 0
-286 -289 0
-286 -297 0
-287 -289 0
-287 -297 0
-289 -288 0
-290 -288 0
-291 -288 0
-292 -288 0
-293 -288 0
-294 -288 0
-297 -288 0
-298 -288 0
-299 -288 0
-300 -288 0
-301 -288 0
-304 -288 0
-305 -288 0
-306 -288 0
-307 -288 0
-310 -288 0
-311 -288 0
-312 -288 0
-315 -288 0
-316 -288 0
-319 -288 0
-310 -333 0
-311 -333 0
-312 -333 0
-313 -333 0
-314 -333 0
-315 -333 0
-316 -333 0
-317 -333 0
-318 -333 0
-319 -333 0
-320 -333 0
-321 -333 0
-322 -333 0
-323 -333 0
-325 -324 0
-326 -324 0
-327 -324 0
-328 -324 0
-329 -324 0
-330 -324 0
-333 -324 0
-334 -324 0
-335 -324 0
-336 -324 0
-337 -324 0
-340 -324 0
-341 -324 0
-342 -324 0
-343 -324 0
-346 -324 0
-347 -324 0
-348 -324 0
-351 -324 0
-352 -324 0
-355 -324 0
-346 -369 0
-347 -369 0
-348 -369 0
-349 -369 0
-350 -369 0
-351 -369 0
-352 -369 0
-353 -369 0
-354 -369 0
-355 -369 0
-356 -369 0
-357 -369 0
-358 -369 0
-359 -369 0
-369 -360 0
-370 -360 0
-371 -360 0
-372 -360 0
-373 -360 0
-376 -360 0
-377 -360 0
-378 -360 0
-379 -360 0
-382 -360 0
-383 -360 0
-384 -360 0
-387 -360 0
-388 -360 0
-391 -360 0
