p cnf 9720 926
2 1 34 36 3 4 5 6 7 8 9 10 11 12 13 14 15 16 17 18 19 20 21 22 23 24 25 26 29 27 28 30 31 32 33 35 0
40 41 43 56 57 42 38 37 45 46 47 48 49 50 39 52 53 54 55 44 51 58 59 60 61 62 63 64 65 66 67 68 69 70 71 72 0
537 -43 0
-537 538 0
-44 -537 0
-538 539 0
-539 540 0
-540 541 0
-541 542 0
-542 543 0
-543 544 0
-544 545 0
-51 -544 0
-545 546 0
-546 547 0
-547 548 0
-548 549 0
-549 550 0
-550 551 0
-57 -550 0
-551 552 0
-552 553 0
-553 554 0
-554 555 0
-555 556 0
-62 -555 0
-556 557 0
-557 558 0
-558 559 0
-559 560 0
-66 -559 0
-560 561 0
-561 562 0
-562 563 0
-69 -562 0
-563 564 0
-71 -564 0
-43 413 0
-50 413 0
-56 413 0
-61 413 0
-65 413 0
-68 413 0
-70 413 0
-72 413 0
72 -413 50 43 68 65 61 70 56 0
-44 414 0
-51 414 0
-57 414 0
-62 414 0
-66 414 0
-69 414 0
-71 414 0
71 -414 72 57 44 62 66 69 51 0
75 76 79 80 77 78 74 73 81 82 83 84 85 86 87 88 89 90 91 92 93 94 95 96 97 98 99 100 101 102 103 104 105 106 107 108 0
-79 422 0
-86 422 0
-92 422 0
-97 422 0
-101 422 0
-104 422 0
-106 422 0
-108 422 0
108 -422 79 86 92 101 104 106 97 0
-80 423 0
-87 423 0
-93 423 0
-98 423 0
-102 423 0
-105 423 0
-107 423 0
423 -108 0
112 111 115 116 113 114 110 109 117 118 119 120 121 122 123 124 125 126 127 128 129 130 131 132 133 134 135 136 137 138 139 140 141 142 143 144 0
-115 431 0
-122 431 0
-128 431 0
-133 431 0
-137 431 0
-140 431 0
-142 431 0
-144 431 0
133 -431 128 144 122 137 140 142 115 0
-116 432 0
-123 432 0
-129 432 0
-134 432 0
-138 432 0
-141 432 0
-143 432 0
147 148 152 159 149 150 146 145 153 154 155 156 157 158 151 160 161 162 163 164 165 166 167 168 169 170 171 172 173 174 175 176 177 178 179 180 0
-151 440 0
-158 440 0
-164 440 0
-169 440 0
-173 440 0
-176 440 0
-178 440 0
-180 440 0
-440 164 158 180 169 173 176 178 151 0
-152 441 0
-159 441 0
-165 441 0
-170 441 0
-174 441 0
-177 441 0
-179 441 0
183 184 194 195 185 186 182 181 189 190 191 192 193 216 187 196 197 198 199 200 201 202 203 204 205 206 207 208 209 210 211 212 213 214 215 188 0
-187 449 0
-194 449 0
-200 449 0
-205 449 0
-209 449 0
-212 449 0
-214 449 0
-216 449 0
216 -449 187 205 194 209 212 214 200 0
-188 450 0
-195 450 0
-201 450 0
-206 450 0
-210 450 0
-213 450 0
-215 450 0
450 -216 0
221 220 223 224 231 222 225 217 218 226 227 228 229 230 219 232 233 234 235 236 237 238 239 240 241 242 243 244 245 246 247 248 249 250 251 252 0
-223 458 0
-230 458 0
-236 458 0
-241 458 0
-245 458 0
-248 458 0
-250 458 0
-252 458 0
252 241 -458 223 236 245 248 250 230 0
-224 459 0
-231 459 0
-237 459 0
-242 459 0
-246 459 0
-249 459 0
-251 459 0
260 256 266 255 257 258 254 253 261 262 263 264 265 288 267 268 269 270 271 272 273 274 275 276 277 278 279 280 281 282 283 284 285 286 287 259 0
-259 467 0
-266 467 0
-272 467 0
-277 467 0
-281 467 0
-284 467 0
467 -286 0
-288 467 0
288 286 -467 272 277 281 284 259 266 0
-260 468 0
-267 468 0
-273 468 0
-278 468 0
-282 468 0
-285 468 0
-287 468 0
293 294 295 296 303 309 290 289 297 298 299 300 301 302 292 304 305 306 307 308 291 310 311 312 313 314 315 316 317 318 319 320 321 322 323 324 0
-295 476 0
-302 476 0
-308 476 0
-313 476 0
-317 476 0
-320 476 0
-322 476 0
-324 476 0
-476 308 295 302 313 317 320 322 324 0
-296 477 0
-303 477 0
-309 477 0
-314 477 0
-318 477 0
-321 477 0
-323 477 0
325 326 327 328 329 330 331 332 333 334 335 336 337 338 339 340 341 342 343 344 345 346 347 348 349 350 351 352 353 354 355 356 357 358 359 360 0
-331 485 0
-338 485 0
-344 485 0
-349 485 0
-353 485 0
-356 485 0
-358 485 0
-360 485 0
360 -485 344 338 349 353 356 358 331 0
-332 486 0
-339 486 0
-345 486 0
-350 486 0
-354 486 0
-357 486 0
-359 486 0
-486 339 332 345 350 354 357 359 360 0
364 363 367 368 365 366 362 361 369 370 371 372 373 374 375 376 377 378 379 380 381 382 383 384 385 386 387 388 389 390 391 392 393 394 395 396 0
-367 494 0
-374 494 0
-380 494 0
-385 494 0
-389 494 0
-392 494 0
-394 494 0
-396 494 0
396 374 -494 380 385 389 392 394 367 0
-368 495 0
-375 495 0
-381 495 0
-386 495 0
-390 495 0
-393 495 0
-395 495 0
-881 0
-882 0
-883 0
-884 0
-886 0
-887 0
-888 0
-987 0
-889 0
988 0
-989 -1 881 0
-989 -2 881 0
-989 -3 881 0
-989 -4 881 0
-989 -5 881 0
-989 -6 881 0
-989 -7 881 0
-989 -8 881 0
-989 -14 882 0
-989 -20 883 0
-989 -25 884 0
-989 -32 886 0
-989 -34 887 0
-36 -989 888 0
989 -891 882 0
-897 404 888 0
989 -897 888 0
-898 405 889 0
989 -898 889 0
-990 -50 891 0
-990 -72 897 0
-906 897 413 0
-906 990 897 0
-990 -413 906 897 0
-907 898 414 0
898 -907 990 0
-991 -108 906 0
-906 915 422 0
-915 422 906 0
-915 991 906 0
-991 -422 915 906 0
-916 423 907 0
991 -916 907 0
-992 -144 915 0
-915 924 431 0
-924 915 431 0
-992 -431 924 915 0
-925 916 432 0
992 -925 916 0
-993 -180 924 0
-924 933 440 0
-933 924 440 0
-934 925 441 0
993 -934 925 0
-994 -216 933 0
-933 942 449 0
-942 933 449 0
-943 934 450 0
994 -943 934 0
-995 -252 942 0
-942 951 458 0
-951 458 942 0
459 943 -952 0
995 -952 943 0
-288 951 -996 0
-951 467 960 0
-960 951 467 0
952 468 -961 0
996 952 -961 0
-997 -324 960 0
-960 969 476 0
-969 960 476 0
961 -970 477 0
997 961 -970 0
-998 -360 969 0
-969 978 485 0
970 -979 486 0
998 970 -979 0
494 -978 987 0
495 979 -988 0
-1000 0
-1001 0
-1002 0
-1003 0
-1004 0
-1005 0
-1006 0
1007 0
-1106 0
-1008 0
1107 0
-1108 -1 1000 0
-1108 -2 1000 0
-1108 -3 1000 0
-1108 -4 1000 0
-1108 -5 1000 0
-1108 -6 1000 0
-1108 -7 1000 0
-1108 -8 1000 0
-1108 -9 1001 0
-1108 -10 1001 0
-1108 -11 1001 0
-1108 -12 1001 0
-1108 -13 1001 0
-1108 -14 1001 0
-1108 -15 1001 0
-1108 -16 1002 0
-1108 -17 1002 0
-1108 -18 1002 0
-1108 -19 1002 0
-1108 -20 1002 0
-1108 -21 1002 0
-1108 -22 1003 0
-1108 -23 1003 0
-1108 -24 1003 0
-1108 -25 1003 0
-1108 -26 1003 0
-1108 -27 1004 0
-1108 -28 1004 0
-1108 -29 1004 0
-1108 -30 1004 0
-1108 -31 1005 0
-1108 -32 1005 0
-1108 -33 1005 0
-1108 -34 1006 0
-35 -1108 1006 0
404 1016 -1007 0
1108 1016 -1007 0
-1017 1108 1008 0
-43 -1109 -1016 0
-50 -1109 -1016 0
-56 -1109 -1016 0
-61 -1109 -1016 0
-65 -1016 -1109 0
-68 -1016 -1109 0
-70 -1109 -1016 0
1025 -1016 413 0
1109 1025 -1016 0
-1109 -413 1016 1025 0
-1026 1017 414 0
-1110 -79 -1025 0
-86 -1110 -1025 0
-92 -1110 -1025 0
-97 -1110 -1025 0
-101 -1110 -1025 0
-104 -1110 -1025 0
-106 -1110 -1025 0
1110 -108 -1025 1026 0
1034 422 -1025 0
1110 1034 -1025 0
-1110 -422 -1034 -1025 0
-1035 1026 423 0
-115 -1111 -1034 0
-122 -1111 -1034 0
-128 -1111 -1034 0
-133 -1111 -1034 0
-137 -1111 -1034 0
-140 -1111 -1034 0
-142 -1111 -1034 0
1043 -1034 431 0
1034 -1043 431 0
1111 1043 -1034 0
-1044 1035 432 0
-151 -1112 -1043 0
-158 -1112 -1043 0
-164 -1112 -1043 0
-169 -1112 -1043 0
-173 -1112 -1043 0
-176 -1112 -1043 0
-178 -1112 -1043 0
1052 440 -1043 0
1112 1052 -1043 0
-1053 1044 441 0
-187 -1113 -1052 0
-1113 -194 -1052 0
-200 -1113 -1052 0
-205 -1113 -1052 0
-209 -1113 -1052 0
-212 -1113 -1052 0
-214 -1113 -1052 0
1061 -1052 449 0
1113 1061 -1052 0
-1062 1053 450 0
-223 -1114 -1061 0
-1114 -230 -1061 0
-236 -1114 -1061 0
-241 -1114 -1061 0
-245 -1114 -1061 0
-248 -1114 -1061 0
-250 -1114 -1061 0
458 -1061 1070 0
1114 -1061 1070 0
-1071 459 1062 0
-259 -1115 -1070 0
-266 -1115 -1070 0
-272 -1115 -1070 0
-277 -1115 -1070 0
-281 -1115 -1070 0
-284 -1115 -1070 0
-1115 -286 -1070 0
1079 467 -1070 0
1115 -1070 1079 0
1071 468 -1080 0
-295 -1116 -1079 0
-302 -1116 -1079 0
-308 -1116 -1079 0
-313 -1116 -1079 0
-317 -1116 -1079 0
-320 -1116 -1079 0
-322 -1116 -1079 0
-1079 1088 476 0
1116 -1079 1088 0
1080 -1089 477 0
-331 -1117 -1088 0
-338 -1117 -1088 0
-344 -1117 -1088 0
-349 -1117 -1088 0
-353 -1117 -1088 0
-356 -1117 -1088 0
-358 -1117 -1088 0
-360 1089 -1088 1117 0
-1088 1097 485 0
1117 -1088 1097 0
-1117 -485 -1097 -1088 0
1089 -1098 486 0
-367 -1118 -1097 0
-374 -1118 -1097 0
-380 -1118 -1097 0
-385 -1118 -1097 0
-389 -1118 -1097 0
-392 -1118 -1097 0
-394 -1118 -1097 0
494 -1097 1106 0
1118 -1097 1106 0
495 1098 -1107 0
-1125 0
1126 0
1225 0
-1127 0
1226 0
-1227 -34 1125 0
404 1135 -1126 0
405 -1136 1127 0
-1136 1227 1127 0
-43 -1228 -1135 0
-50 -1228 -1135 0
-56 -1228 -1135 0
-61 -1228 -1135 0
-65 -1228 -1135 0
-1228 -68 -1135 0
-70 -1228 -1135 0
1144 -1135 413 0
1228 1144 -1135 0
-1228 -413 -1144 -1135 0
-1145 1136 414 0
1228 -1145 1136 0
-1229 -79 -1144 0
-86 -1229 -1144 0
-92 -1229 -1144 0
-97 -1229 -1144 0
-101 -1229 -1144 0
-104 -1229 -1144 0
-106 -1229 -1144 0
1229 -108 1145 -1144 0
1153 -1144 422 0
1144 -1153 422 0
1229 1153 -1144 0
-422 -1153 -1229 -1144 0
-1154 1145 423 0
1229 -1154 1145 0
-423 -1229 1145 1154 0
1230 -144 1154 -1153 0
1162 -1153 431 0
1153 -1162 431 0
-1230 -431 -1162 -1153 0
-1163 1154 432 0
1230 -1163 1154 0
1171 -1162 440 0
1162 -1171 440 0
-1231 -440 -1162 -1171 0
-1172 1163 441 0
1231 -1172 1163 0
-216 1232 -1171 1172 0
1180 -1171 449 0
1171 -1180 449 0
-1232 -449 -1180 -1171 0
-1181 1172 450 0
1232 -1181 1172 0
1189 458 -1180 0
1180 -1189 458 0
-1189 -1233 -458 -1180 0
-1190 459 1181 0
1233 -1190 1181 0
467 -1198 1189 0
-1234 -1189 -467 -1198 0
1190 468 -1199 0
1234 1190 -1199 0
1198 -1207 476 0
1199 -1208 477 0
1207 485 -1216 0
1208 -1217 486 0
-396 -1237 1216 0
-1237 -396 -1217 0
494 1216 -1225 0
1237 1216 -1225 0
-1237 -1216 -494 -1225 0
495 1217 -1226 0
1217 1237 -1226 0
-2309 0
-2310 0
-2311 0
-2312 0
-2313 0
-2314 0
-2316 0
2415 0
2317 0
2416 0
-2417 -1 2309 0
-2417 -2 2309 0
-2417 -3 2309 0
-2417 -4 2309 0
-2417 -5 2309 0
-2417 -6 2309 0
-2417 -7 2309 0
-2417 -8 2309 0
-2417 -9 2310 0
-2417 -10 2310 0
-2417 -11 2310 0
-2417 -12 2310 0
-2417 -13 2310 0
-2417 -14 2310 0
-2417 -15 2310 0
-2417 -16 2311 0
-2417 -17 2311 0
-2417 -18 2311 0
-2417 -19 2311 0
-2417 -20 2311 0
-2417 -21 2311 0
-2417 -22 2312 0
-2417 -23 2312 0
-2417 -24 2312 0
-2417 -25 2312 0
-2417 -26 2312 0
-2417 -27 2313 0
-2417 -28 2313 0
-2417 -29 2313 0
-2417 -30 2313 0
-2417 -31 2314 0
-2417 -32 2314 0
-2417 -33 2314 0
-2417 -35 -2317 0
-36 -2417 2316 0
-2325 404 2316 0
2417 -2325 2316 0
405 2326 -2317 0
-2418 -72 2325 0
-2334 2325 413 0
2418 -2334 2325 0
2335 -2326 414 0
-2343 2334 422 0
2344 -2335 423 0
-2420 -144 2343 0
-2352 2343 431 0
2420 -2352 2343 0
2353 -2344 432 0
2353 2420 -2344 0
-180 -2421 2352 0
-2361 2352 440 0
2421 -2361 2352 0
2362 -2353 441 0
2362 2421 -2353 0
-441 -2421 -2353 -2362 0
-2422 -216 2361 0
-2370 2361 449 0
2422 -2370 2361 0
2371 -2362 450 0
2362 -2371 450 0
2371 2422 -2362 0
-2422 -450 -2371 -2362 0
-2423 2370 -252 0
-2379 458 2370 0
-2379 2423 2370 0
2380 459 -2371 0
2371 -2380 459 0
2380 2423 -2371 0
-2423 -2380 -459 -2371 0
-288 -2424 -2380 0
467 -2388 2379 0
2424 -2388 2379 0
2389 468 -2380 0
2380 468 -2389 0
2424 2389 -2380 0
-2424 -468 -2380 -2389 0
-2425 -324 -2389 0
2388 -2397 476 0
2425 2388 -2397 0
2398 -2389 477 0
2389 -2398 477 0
2398 2425 -2389 0
-2425 -477 -2389 -2398 0
-332 -2398 -2426 0
-339 -2398 -2426 0
-345 -2398 -2426 0
-350 -2398 -2426 0
-354 -2398 -2426 0
-357 -2398 -2426 0
-359 -2398 -2426 0
-2426 2397 -360 0
2397 485 -2406 0
-2406 2397 2426 0
2398 -2407 486 0
-2398 2426 2407 0
-396 -2427 2406 0
494 2406 -2415 0
2406 2427 -2415 0
-2427 -2406 -494 -2415 0
2407 495 -2416 0
2427 2407 -2416 0
-2407 -2427 -495 -2416 0
-404 7281 0
-405 7281 0
-413 7282 0
-414 7282 0
-422 7283 0
-423 7283 0
-431 7284 0
-432 7284 0
-440 7285 0
-441 7285 0
-449 7286 0
-450 7286 0
7287 -458 0
-459 7287 0
7288 -467 0
7288 -468 0
-476 7289 0
-477 7289 0
-485 7290 0
-486 7290 0
7291 -494 0
-495 7291 0
-7281 7292 0
-7292 7293 0
-7292 -7282 7294 0
-7294 7295 0
-7294 -7283 0
-7282 7293 0
-7293 7296 0
-7293 -7283 7295 0
-7295 7297 0
-7295 -7284 0
-7283 7296 0
-7296 7298 0
-7284 -7296 7297 0
-7297 7299 0
-7285 -7297 0
-7284 7298 0
-7298 7300 0
-7285 -7298 7299 0
-7299 7301 0
-7286 -7299 0
-7285 7300 0
-7300 7302 0
-7286 -7300 7301 0
-7301 7303 0
-7301 -7287 0
7302 -7286 0
7304 -7302 0
-7302 -7287 7303 0
7305 -7303 0
-7303 -7288 0
7304 -7287 0
7306 -7304 0
7305 -7304 -7288 0
7307 -7305 0
-7289 -7305 0
7306 -7288 0
7308 -7306 0
-7289 7307 -7306 0
7309 -7307 0
-7290 -7307 0
7308 -7289 0
-7290 7309 -7308 0
-7291 -7309 0
-9 -43 0
-10 -43 0
-11 -43 0
-12 -43 0
-13 -43 0
-15 -43 0
-16 -43 0
-17 -43 0
-18 -43 0
-19 -43 0
-21 -43 0
-22 -43 0
-23 -43 0
-24 -43 0
-26 -43 0
-27 -43 0
-28 -43 0
-30 -43 0
-31 -43 0
-33 -43 0
-43 -35 0
-37 -36 0
-38 -36 0
-39 -36 0
-40 -36 0
-41 -36 0
-42 -36 0
-45 -36 0
-46 -36 0
-47 -36 0
-48 -36 0
-49 -36 0
-52 -36 0
-53 -36 0
-54 -36 0
-55 -36 0
-58 -36 0
-59 -36 0
-60 -36 0
-63 -36 0
-64 -36 0
-67 -36 0
-73 -72 0
-74 -72 0
-75 -72 0
-76 -72 0
-77 -72 0
-78 -72 0
-81 -72 0
-82 -72 0
-83 -72 0
-84 -72 0
-85 -72 0
-88 -72 0
-89 -72 0
-90 -72 0
-91 -72 0
-94 -72 0
-95 -72 0
-96 -72 0
-99 -72 0
-100 -72 0
-103 -72 0
-109 -108 0
-110 -108 0
-111 -108 0
-112 -108 0
-113 -108 0
-114 -108 0
-117 -108 0
-118 -108 0
-119 -108 0
-120 -108 0
-121 -108 0
-124 -108 0
-125 -108 0
-126 -108 0
-127 -108 0
-130 -108 0
-131 -108 0
-132 -108 0
-135 -108 0
-136 -108 0
-139 -108 0
-145 -144 0
-146 -144 0
-147 -144 0
-148 -144 0
-149 -144 0
-150 -144 0
-153 -144 0
-154 -144 0
-155 -144 0
-156 -144 0
-157 -144 0
-160 -144 0
-161 -144 0
-162 -144 0
-163 -144 0
-166 -144 0
-167 -144 0
-168 -144 0
-171 -144 0
-172 -144 0
-175 -144 0
-181 -180 0
-182 -180 0
-183 -180 0
-184 -180 0
-185 -180 0
-186 -180 0
-189 -180 0
-190 -180 0
-191 -180 0
-192 -180 0
-193 -180 0
-196 -180 0
-197 -180 0
-198 -180 0
-199 -180 0
-202 -180 0
-203 -180 0
-204 -180 0
-207 -180 0
-208 -180 0
-211 -180 0
-217 -216 0
-218 -216 0
-219 -216 0
-220 -216 0
-221 -216 0
-222 -216 0
-225 -216 0
-226 -216 0
-227 -216 0
-228 -216 0
-229 -216 0
-232 -216 0
-233 -216 0
-234 -216 0
-235 -216 0
-238 -216 0
-239 -216 0
-240 -216 0
-243 -216 0
-244 -216 0
-247 -216 0
-253 -252 0
-254 -252 0
-255 -252 0
-256 -252 0
-257 -252 0
-258 -252 0
-261 -252 0
-262 -252 0
-263 -252 0
-264 -252 0
-265 -252 0
-268 -252 0
-269 -252 0
-270 -252 0
-271 -252 0
-274 -252 0
-275 -252 0
-276 -252 0
-279 -252 0
-280 -252 0
-283 -252 0
-289 -288 0
-290 -288 0
-291 -288 0
-292 -288 0
-293 -288 0
-294 -288 0
-297 -288 0
-298 -288 0
-299 -288 0
-300 -288 0
-301 -288 0
-304 -288 0
-305 -288 0
-306 -288 0
-307 -288 0
-310 -288 0
-311 -288 0
-312 -288 0
-315 -288 0
-316 -288 0
-319 -288 0
-325 -324 0
-326 -324 0
-327 -324 0
-328 -324 0
-329 -324 0
-330 -324 0
-333 -324 0
-334 -324 0
-335 -324 0
-336 -324 0
-337 -324 0
-340 -324 0
-341 -324 0
-342 -324 0
-343 -324 0
-346 -324 0
-347 -324 0
-348 -324 0
-351 -324 0
-352 -324 0
-355 -324 0
-361 -360 0
-362 -360 0
-363 -360 0
-364 -360 0
-365 -360 0
-366 -360 0
-369 -360 0
-370 -360 0
-371 -360 0
-372 -360 0
-373 -360 0
-376 -360 0
-377 -360 0
-378 -360 0
-379 -360 0
-382 -360 0
-383 -360 0
-384 -360 0
-387 -360 0
-388 -360 0
-391 -360 0
