p cnf 10375 1758
2 1 3 5 4 7 -397 6 8 0
-398 1 10 9 14 15 11 13 12 0
-399 9 2 17 19 20 16 18 21 0
-400 3 10 22 16 23 24 25 26 0
-401 11 4 27 28 29 17 30 22 0
-402 12 5 27 18 33 32 31 23 0
-403 13 6 35 19 28 31 34 24 0
-404 14 36 7 20 29 32 34 25 0
-405 26 8 36 21 30 33 35 15 0
531 -37 0
-531 532 0
-38 -531 0
-532 533 0
-39 -532 0
-39 533 0
-533 534 0
-534 535 0
-535 536 0
-536 537 0
-537 538 0
-538 539 0
-45 -538 0
-45 539 0
-539 540 0
-539 -46 0
-540 541 0
-541 542 0
-48 -541 0
-48 542 0
-542 543 0
-49 -542 0
-49 543 0
-543 544 0
-50 -543 0
-50 544 0
-544 545 0
-544 -51 0
545 -51 0
546 -545 0
-52 -545 0
547 -546 0
-53 -546 0
548 -547 0
-54 -547 0
549 -548 0
-55 -548 0
550 -549 0
-56 -549 0
551 -550 0
-57 -550 0
552 -551 0
-58 -551 0
553 -552 0
-59 -552 0
554 -553 0
-60 -553 0
555 -554 0
-61 -554 0
-62 -555 0
40 -406 37 39 38 41 42 43 44 0
-407 49 51 37 45 46 47 48 50 0
38 -408 52 45 53 57 54 56 55 0
-409 39 46 52 62 58 61 59 60 0
566 -73 0
-566 567 0
-74 -566 0
-567 568 0
-567 -75 0
-75 568 0
-568 569 0
-569 570 0
-570 571 0
-571 572 0
-572 573 0
-573 574 0
-81 -573 0
-81 574 0
-574 575 0
-575 576 0
-83 -575 0
-83 576 0
-576 577 0
-84 -576 0
-84 577 0
-577 578 0
-85 -577 0
-85 578 0
-578 579 0
-578 -86 0
579 -86 0
580 -579 0
-87 -579 0
-87 580 0
581 -580 0
-88 -580 0
582 -581 0
-89 -581 0
583 -582 0
-90 -582 0
584 -583 0
-91 -583 0
585 -584 0
-92 -584 0
586 -585 0
-93 -585 0
587 -586 0
-94 -586 0
588 -587 0
-95 -587 0
589 -588 0
-96 -588 0
590 -589 0
-97 -589 0
-98 -590 0
-415 74 73 75 78 76 77 79 80 0
86 87 73 81 85 83 84 82 -416 0
74 -417 81 93 88 89 91 90 92 0
-418 98 82 88 96 75 95 94 97 0
601 -109 0
-601 602 0
-110 -601 0
-602 603 0
-111 -602 0
-111 603 0
-603 604 0
-604 605 0
-605 606 0
-606 607 0
-607 608 0
-608 609 0
-117 -608 0
609 -117 0
-609 610 0
610 -118 0
-610 611 0
-610 -119 0
611 -119 0
612 -611 0
-120 -611 0
-120 612 0
613 -612 0
-612 -121 0
613 -121 0
614 -613 0
-122 -613 0
-122 614 0
615 -614 0
-123 -614 0
-123 615 0
616 -615 0
-124 -615 0
617 -616 0
-125 -616 0
618 -617 0
-126 -617 0
619 -618 0
-127 -618 0
620 -619 0
-128 -619 0
621 -620 0
-129 -620 0
622 -621 0
-130 -621 0
623 -622 0
-131 -622 0
624 -623 0
-132 -623 0
625 -624 0
-133 -624 0
-134 -625 0
110 -424 109 111 112 113 114 115 116 0
119 121 118 109 120 122 117 -425 123 0
-426 110 129 117 124 125 126 127 128 0
-118 427 0
-427 134 118 124 133 111 130 131 132 0
-145 636 0
-636 637 0
-146 -636 0
-637 638 0
-147 -637 0
-147 638 0
-638 639 0
-639 640 0
-640 641 0
-641 642 0
-642 643 0
-643 644 0
-643 -153 0
-644 645 0
-645 646 0
-645 -155 0
-646 647 0
-156 -646 0
648 -647 0
-647 -157 0
649 -648 0
-158 -648 0
650 -649 0
-159 -649 0
651 -650 0
-160 -650 0
652 -651 0
-161 -651 0
653 -652 0
-162 -652 0
654 -653 0
-163 -653 0
655 -654 0
-164 -654 0
656 -655 0
-165 -655 0
657 -656 0
-166 -656 0
658 -657 0
-167 -657 0
659 -658 0
-168 -658 0
660 -659 0
-169 -659 0
-170 -660 0
-433 148 146 145 152 147 150 149 151 0
156 155 145 157 -434 154 153 158 159 0
-435 165 153 146 160 162 161 164 163 0
-436 160 154 147 170 166 167 168 169 0
-181 671 0
-671 672 0
-182 -671 0
-672 673 0
-183 -672 0
-183 673 0
-673 674 0
-674 675 0
-675 676 0
-676 677 0
-677 678 0
-678 679 0
-678 -189 0
-679 680 0
-680 681 0
-680 -191 0
682 -681 0
-681 -192 0
683 -682 0
-193 -682 0
684 -683 0
-683 -194 0
685 -684 0
-684 -195 0
686 -685 0
-196 -685 0
687 -686 0
688 -687 0
689 -688 0
690 -689 0
691 -690 0
692 -691 0
-202 -691 0
693 -692 0
-203 -692 0
694 -693 0
-204 -693 0
695 -694 0
-205 -694 0
-206 -695 0
184 -442 182 183 181 185 186 187 188 0
189 190 194 181 193 192 195 191 -443 0
201 182 189 -444 196 198 197 200 199 0
-445 190 206 183 196 203 202 204 205 0
706 -217 0
-706 707 0
-218 -706 0
-707 708 0
-707 -219 0
-219 708 0
-708 709 0
-709 710 0
-710 711 0
-711 712 0
-712 713 0
-713 714 0
-225 -713 0
-714 715 0
-715 716 0
-227 -715 0
-227 716 0
-716 717 0
-228 -716 0
-228 717 0
-717 718 0
-229 -717 0
-229 718 0
-718 719 0
-230 -718 0
-230 719 0
-719 720 0
-719 -231 0
720 -231 0
721 -720 0
-232 -720 0
722 -721 0
-233 -721 0
723 -722 0
-234 -722 0
724 -723 0
-235 -723 0
725 -724 0
-236 -724 0
726 -725 0
-237 -725 0
727 -726 0
-238 -726 0
728 -727 0
-239 -727 0
729 -728 0
-240 -728 0
730 -729 0
-241 -729 0
-242 -730 0
220 -451 219 218 217 221 222 223 224 0
229 -452 226 217 230 225 227 228 231 0
-453 218 233 232 234 237 225 236 235 0
-454 219 226 232 242 238 239 240 241 0
-253 741 0
-741 742 0
-254 -741 0
-254 742 0
-742 743 0
-255 -742 0
-255 743 0
-743 744 0
-744 745 0
-745 746 0
-746 747 0
-747 748 0
-748 749 0
-748 -261 0
-261 749 0
-749 750 0
-262 -749 0
750 -262 0
-750 751 0
-263 -750 0
-751 752 0
-264 -751 0
-752 753 0
-265 -752 0
754 -753 0
-753 -266 0
755 -754 0
-267 -754 0
756 -755 0
-268 -755 0
757 -756 0
-269 -756 0
758 -757 0
-270 -757 0
759 -758 0
-271 -758 0
760 -759 0
-272 -759 0
761 -760 0
-273 -760 0
762 -761 0
-274 -761 0
763 -762 0
-275 -762 0
764 -763 0
-276 -763 0
765 -764 0
-277 -764 0
-278 -765 0
-460 256 254 255 253 257 258 259 260 0
-461 264 265 262 261 253 267 263 266 0
-462 273 261 254 268 270 269 272 271 0
-463 278 262 255 268 274 275 276 277 0
-289 776 0
-776 777 0
-776 -290 0
777 -290 0
-777 778 0
-291 -777 0
-291 778 0
-778 779 0
780 -779 0
781 -780 0
782 -781 0
783 -782 0
784 -783 0
-297 -783 0
-297 784 0
785 -784 0
-298 -784 0
786 -785 0
-299 -785 0
787 -786 0
-300 -786 0
788 -787 0
-301 -787 0
789 -788 0
-302 -788 0
790 -789 0
-303 -789 0
791 -790 0
-304 -790 0
792 -791 0
-305 -791 0
793 -792 0
-306 -792 0
794 -793 0
-307 -793 0
795 -794 0
-308 -794 0
796 -795 0
-309 -795 0
797 -796 0
-310 -796 0
798 -797 0
-311 -797 0
799 -798 0
-312 -798 0
800 -799 0
-313 -799 0
-314 -800 0
295 292 296 290 -469 291 294 293 289 0
470 -289 0
-470 303 289 299 300 301 297 302 298 0
-471 309 290 297 304 305 306 308 307 0
-472 314 291 298 304 310 311 312 313 0
-325 811 0
-811 812 0
-811 -326 0
-326 812 0
-812 813 0
-327 -812 0
-327 813 0
-813 814 0
-328 814 0
-814 815 0
-329 815 0
-815 816 0
-330 816 0
-816 817 0
-331 817 0
-817 818 0
-332 818 0
-818 819 0
-333 -818 0
-333 819 0
-819 820 0
-334 -819 0
821 -820 0
822 -821 0
823 -822 0
824 -823 0
825 -824 0
826 -825 0
827 -826 0
828 -827 0
829 -828 0
830 -829 0
831 -830 0
832 -831 0
-346 -831 0
833 -832 0
-347 -832 0
834 -833 0
-348 -833 0
835 -834 0
-349 -834 0
-350 -835 0
-478 326 325 332 331 328 327 329 330 0
338 336 325 -479 333 334 335 337 339 0
-480 340 333 326 345 341 342 343 344 0
340 -481 327 334 350 346 347 348 349 0
351 335 -482 341 328 346 352 353 354 0
-485 338 349 331 344 353 356 358 360 0
846 -361 0
-846 847 0
847 -362 0
-847 848 0
-847 -363 0
848 -363 0
849 -848 0
-848 -364 0
849 -364 0
850 -849 0
850 -365 0
851 -850 0
-850 -366 0
851 -366 0
852 -851 0
-367 -851 0
852 -367 0
853 -852 0
853 -368 0
854 -853 0
-853 -369 0
854 -369 0
855 -854 0
-854 -370 0
856 -855 0
857 -856 0
858 -857 0
859 -858 0
860 -859 0
861 -860 0
862 -861 0
863 -862 0
864 -863 0
-863 -379 0
865 -864 0
866 -865 0
867 -866 0
868 -867 0
-867 -383 0
869 -868 0
-868 -384 0
870 -869 0
871 -870 0
-870 -386 0
872 -871 0
873 -872 0
-872 -388 0
874 -873 0
875 -874 0
876 -875 0
-875 -391 0
877 -876 0
878 -877 0
879 -878 0
-878 -394 0
-395 -879 0
368 365 361 366 363 362 -487 367 364 0
372 369 374 361 371 -488 373 375 370 0
-489 381 362 369 376 378 377 380 379 0
363 -490 382 370 384 386 376 385 383 0
390 -491 364 371 382 387 377 389 388 0
393 365 -492 372 383 387 378 392 391 0
-493 366 373 394 395 379 384 388 391 0
-494 396 374 367 385 389 392 380 394 0
2285 0
-2286 0
-1 2295 -2285 0
-2295 -10 2286 0
-2295 -15 2286 0
3260 0
-3359 0
400 3269 -3260 0
3278 409 -3269 0
3287 -3278 418 0
3296 -3287 427 0
3305 436 -3296 0
3314 -3305 445 0
3323 -3314 454 0
3332 -3323 463 0
3341 -3332 472 0
481 -3341 3350 0
-327 -3341 3350 0
490 -3350 3359 0
-370 -3350 3359 0
-4437 0
488 -4428 4437 0
6173 0
-6272 0
-6174 0
-6273 0
6175 0
6274 0
-6176 0
6275 0
6177 0
6276 0
6178 0
6277 0
6179 0
6278 0
6180 0
6279 0
6181 0
6182 397 -6173 0
398 -6183 6174 0
399 6184 -6175 0
400 -6185 6176 0
401 6186 -6177 0
402 6187 -6178 0
403 6188 -6179 0
404 6189 -6180 0
405 6190 -6181 0
-1 -6182 6174 0
-1 6183 -6173 0
-2 6182 -6173 -6175 0
-2 6184 -6175 0
-3 -6182 6176 0
6185 -3 -6173 0
-4 6182 -6173 -6177 0
-5 6182 -6173 -6178 0
-6 6182 -6173 -6179 0
-7 6182 -6173 -6180 0
-8 6182 -6173 -6181 0
-9 -6183 6174 0
-9 6184 -6175 0
-10 -6183 6174 0
-6185 -10 6174 6176 0
-11 -6183 6174 0
-12 -6183 6174 0
-13 -6183 6174 0
-14 -6183 6174 0
-15 -6183 6174 0
-16 -6184 6176 0
-16 6185 -6175 0
-17 6184 -6175 -6177 0
-18 6184 -6175 -6178 0
-19 6184 -6175 -6179 0
-20 6184 -6175 -6180 0
-21 6184 -6175 -6181 0
-6185 -22 6176 0
-6185 -23 6176 0
-24 -6185 6176 0
-25 -6185 6176 0
-26 -6185 6176 0
406 -6191 6182 0
-6192 407 6183 0
6192 407 -6183 0
408 -6193 6184 0
409 -6194 6185 0
6194 409 -6185 0
-6191 -37 6182 0
-6191 -37 6183 0
-37 6192 -6182 0
-37 -6192 6182 6183 0
-38 -6191 6182 0
-38 -6191 6184 0
-39 -6191 6182 0
-39 -6191 6185 0
-39 6194 -6182 0
-39 6194 -6185 0
-39 -6194 6182 6185 0
-40 -6191 6182 0
-41 -6191 6182 0
-42 -6191 6182 0
-43 -6191 6182 0
-44 -6191 6182 0
-45 -6192 6183 0
-45 6192 -6184 -6183 0
-45 -6193 6184 6183 0
-46 -6192 6183 0
-46 -6192 6185 0
-46 6194 -6185 0
-46 -6194 6185 6183 0
-47 -6192 6183 0
-47 6192 -6183 -6186 0
-48 -6192 6183 0
-48 6192 -6183 -6187 0
-49 -6192 6183 0
-49 6192 -6183 -6188 0
-50 -6192 6183 0
-50 6192 -6183 -6189 0
-51 -6192 6183 0
-51 6192 -6183 -6190 0
-52 -6193 6184 0
-52 -6193 6185 0
-52 6194 -6184 0
-52 6194 -6185 0
-53 -6193 6184 0
-54 -6193 6184 0
-55 -6193 6184 0
-56 -6193 6184 0
-57 -6193 6184 0
-58 -6194 6185 0
-58 6194 -6185 -6186 0
-59 -6194 6185 0
-59 6194 -6185 -6187 0
-60 -6194 6185 0
-60 6194 -6185 -6188 0
-61 -6194 6185 0
-61 6194 -6185 -6189 0
-62 -6194 6185 0
-62 6194 -6185 -6190 0
415 -6200 6191 0
416 -6201 6192 0
6193 -6202 417 0
-6203 6194 418 0
-73 -6200 6191 0
-73 -6200 6192 0
-73 -6201 6191 6192 0
-74 -6200 6191 0
-75 -6200 6191 0
-75 -6200 6194 0
-75 -6191 6203 0
-75 -6203 6191 6194 0
-76 -6200 6191 0
-77 -6200 6191 0
-78 -6200 6191 0
-79 -6200 6191 0
-80 -6200 6191 0
-81 6192 -6201 0
-82 -6201 6192 0
-82 6194 -6201 0
-82 6203 -6192 0
-82 -6203 6192 6194 0
-83 -6201 6192 0
-84 -6201 6192 0
-85 -6201 6192 0
-6201 -86 6192 0
-87 -6201 6192 0
6193 -6202 -88 0
-6202 -88 6194 0
-89 6193 -6202 0
-90 6193 -6202 0
-91 6193 -6202 0
-92 6193 -6202 0
-93 6193 -6202 0
-94 -6203 6194 0
-95 -6203 6194 0
-96 -6203 6194 0
-97 -6203 6194 0
-98 -6203 6194 0
424 -6209 6200 0
425 -6210 6201 0
-6211 426 6202 0
6203 -6212 427 0
6212 -6203 427 0
-109 6200 -6209 0
-109 -6209 6201 0
-109 -6200 6210 0
6200 -109 6201 -6210 0
-110 -6209 6200 0
-110 -6211 6202 6200 0
-111 -6209 6200 0
-111 -6209 6203 0
-111 -6212 6203 6200 0
-112 -6209 6200 0
-113 -6209 6200 0
-114 -6209 6200 0
-115 -6209 6200 0
-116 -6209 6200 0
-117 -6210 6201 0
-118 -6210 6201 0
-118 6203 -6210 0
-6212 -118 6201 6203 0
-119 -6210 6201 0
-120 -6210 6201 0
-121 -6210 6201 0
-122 -6210 6201 0
-123 -6210 6201 0
-124 -6211 6202 0
-124 -6211 6203 0
-125 -6211 6202 0
-126 -6211 6202 0
-127 -6211 6202 0
-128 -6211 6202 0
-129 -6211 6202 0
-130 -6212 6203 0
-131 -6212 6203 0
-132 -6212 6203 0
-133 -6212 6203 0
-134 -6212 6203 0
433 6209 -6218 0
433 -6209 6218 0
434 6210 -6219 0
435 6211 -6220 0
436 6212 -6221 0
-145 6209 -6218 0
-145 -6218 6210 0
-145 -6209 6219 0
-145 -6210 6219 0
-145 6209 -6219 6210 0
-146 6209 -6218 0
-146 -6211 -6209 6218 0
-146 6211 6209 -6220 0
-147 6209 -6218 0
-147 6212 -6218 0
-147 -6209 -6212 6218 0
-147 6209 -6221 6212 0
-148 6209 -6218 0
-6213 -148 -6209 6218 0
-149 6209 -6218 0
-6214 -149 -6209 6218 0
-150 6209 -6218 0
-6215 -150 -6209 6218 0
-151 6209 -6218 0
-6216 -151 -6209 6218 0
-152 6209 -6218 0
-6217 -152 -6209 6218 0
-153 6210 -6219 0
-153 6211 6210 -6220 0
-154 6210 -6219 0
-154 6212 -6219 0
-154 -6210 6221 0
-154 6210 -6221 6212 0
-155 6210 -6219 0
-156 6210 -6219 0
-157 6210 -6219 0
-158 6210 -6219 0
-159 6210 -6219 0
-160 6211 -6220 0
-160 6212 -6220 0
-161 6211 -6220 0
-162 6211 -6220 0
-163 6211 -6220 0
-164 6211 -6220 0
-165 6211 -6220 0
-166 6212 -6221 0
-167 6212 -6221 0
-168 6212 -6221 0
-169 6212 -6221 0
-170 6212 -6221 0
442 -6227 6218 0
443 -6228 6219 0
443 -6219 6228 0
444 6220 -6229 0
-6230 6221 445 0
-181 -6227 6218 0
-181 -6227 6219 0
-181 -6218 6228 0
-181 -6228 6219 6218 0
-182 -6227 6218 0
-182 6220 6218 -6229 0
-183 -6227 6218 0
-183 -6227 6221 0
-183 -6218 6230 0
-183 -6230 6218 6221 0
-184 -6227 6218 0
-185 -6227 6218 0
-186 -6227 6218 0
-187 -6227 6218 0
-188 -6227 6218 0
-189 -6228 6219 0
-189 -6220 -6219 6228 0
6220 -189 6219 -6229 0
-190 -6228 6219 0
-190 6221 -6228 0
-6221 -190 -6219 6228 0
-6230 -190 6219 6221 0
-191 -6228 6219 0
-6222 -191 -6219 6228 0
-192 -6228 6219 0
-6223 -192 -6219 6228 0
-193 -6228 6219 0
-6224 -193 -6219 6228 0
-194 -6228 6219 0
-6225 -194 -6219 6228 0
-6228 -195 6219 0
-6226 -195 -6219 6228 0
-196 6220 -6229 0
-196 6221 -6229 0
-197 6220 -6229 0
-198 6220 -6229 0
-199 6220 -6229 0
-200 6220 -6229 0
-201 6220 -6229 0
-202 6221 -6230 0
-203 6221 -6230 0
-204 6221 -6230 0
-205 6221 -6230 0
-206 6221 -6230 0
451 -6236 6227 0
451 6236 -6227 0
-6237 452 6228 0
453 6229 -6238 0
454 6230 -6239 0
6227 -217 -6236 0
-6236 -217 6228 0
-217 -6227 6237 0
-217 6227 -6237 6228 0
-218 -6236 6227 0
-218 6229 6227 -6238 0
-219 -6236 6227 0
-6236 -219 6230 0
-219 6230 6227 -6239 0
-220 -6236 6227 0
-221 -6236 6227 0
-222 -6236 6227 0
-223 -6236 6227 0
-224 -6236 6227 0
-225 -6237 6228 0
-225 -6229 6238 0
-225 6229 6228 -6238 0
-226 -6237 6228 0
-226 6230 -6237 0
-226 6230 6228 -6239 0
-227 -6237 6228 0
-228 -6237 6228 0
-229 -6237 6228 0
-230 -6237 6228 0
-231 -6237 6228 0
-232 6229 -6238 0
-232 -6238 6230 0
-232 6229 6230 -6239 0
-233 6229 -6238 0
-234 6229 -6238 0
-235 6229 -6238 0
-236 6229 -6238 0
-237 6229 -6238 0
-238 6230 -6239 0
-239 6230 -6239 0
-240 6230 -6239 0
-241 6230 -6239 0
-242 6230 -6239 0
460 6236 -6245 0
461 6237 -6246 0
462 6238 -6247 0
463 6239 -6248 0
-253 6237 -6245 0
-253 -6236 -6237 6245 0
-253 -6236 6246 0
-253 6237 -6246 6236 0
-254 6236 -6245 0
-254 6236 -6247 6238 0
-255 6236 -6245 0
-255 6239 -6245 0
-255 6236 -6248 6239 0
-256 6236 -6245 0
-257 6236 -6245 0
-258 6236 -6245 0
-259 6236 -6245 0
-260 6236 -6245 0
-261 6237 -6246 0
-261 6238 6237 -6247 0
-262 6237 -6246 0
-262 6239 -6246 0
-262 6237 -6248 6239 0
-263 6237 -6246 0
-264 6237 -6246 0
-265 6237 -6246 0
6237 -266 -6246 0
-267 6237 -6246 0
-268 6238 -6247 0
-268 6239 -6247 0
-269 6238 -6247 0
-270 6238 -6247 0
-271 6238 -6247 0
-272 6238 -6247 0
-273 6238 -6247 0
-274 6239 -6248 0
-275 6239 -6248 0
-276 6239 -6248 0
-277 6239 -6248 0
-278 6239 -6248 0
469 6245 -6254 0
469 6254 -6245 0
470 6246 -6255 0
6247 471 -6256 0
-6247 6256 471 0
472 6248 -6257 0
-289 6245 -6254 0
-289 6246 -6254 0
-289 -6245 -6246 6254 0
6255 -289 -6246 0
6245 -289 -6255 6246 0
-290 6245 -6254 0
-290 6247 -6254 0
-6247 6254 -290 -6245 0
-6247 6256 -290 0
-290 6247 6245 -6256 0
-291 6245 -6254 0
-291 6254 -6248 -6245 0
6245 -291 6248 -6257 0
-292 6245 -6254 0
-6249 -292 -6245 6254 0
-293 6245 -6254 0
-6250 -293 -6245 6254 0
-294 6245 -6254 0
-6251 -294 -6245 6254 0
-295 6245 -6254 0
-6252 -295 -6245 6254 0
-296 6245 -6254 0
-6253 -296 -6245 6254 0
-297 6246 -6255 0
-297 -6247 6256 0
-297 6246 -6256 6247 0
-298 6246 -6255 0
-298 6248 -6255 0
-298 6246 -6257 6248 0
-299 6246 -6255 0
-300 6246 -6255 0
-301 6246 -6255 0
-302 6246 -6255 0
-303 6246 -6255 0
-304 6248 -6256 0
-304 -6247 6257 0
-305 6247 -6256 0
-306 6247 -6256 0
-307 6247 -6256 0
-308 6247 -6256 0
-309 6247 -6256 0
-310 6248 -6257 0
-311 6248 -6257 0
-312 6248 -6257 0
-313 6248 -6257 0
-314 6248 -6257 0
6254 478 -6263 0
-6254 478 6263 0
-6264 479 6255 0
480 6256 -6265 0
481 6257 -6266 0
482 6258 -6267 0
485 6261 -6270 0
-325 6254 -6263 0
-325 6255 -6263 0
-325 -6254 -6255 6263 0
-325 -6254 6264 0
-325 6264 -6255 0
-326 6254 -6263 0
-326 -6254 -6256 6263 0
-326 6256 -6265 6254 0
-327 6254 -6263 0
-327 6257 -6263 0
-327 -6254 -6257 6263 0
-327 -6254 6266 0
-327 6257 6254 -6266 0
-328 6254 -6263 0
-328 -6254 -6258 6263 0
-329 6254 -6263 0
-6259 -329 -6254 6263 0
-330 6254 -6263 0
-6260 -330 -6254 6263 0
-331 6254 -6263 0
-331 -6261 -6254 6263 0
-332 -6262 -6254 6263 0
-333 -6264 6255 0
-333 6255 -6265 6256 0
-334 -6264 6255 0
-334 6255 -6266 6257 0
-335 -6264 6255 0
-6255 -335 -6258 6264 0
-336 -6264 6255 0
-337 6255 -6264 0
-338 -6264 6255 0
-339 -6264 6255 0
6256 -6265 -340 0
-6265 -340 6257 0
-341 6256 -6265 0
-342 6256 -6265 0
-343 6256 -6265 0
-344 6256 -6265 0
-345 6256 -6265 0
-346 6257 -6266 0
-347 6257 -6266 0
-348 6257 -6266 0
-349 6257 -6266 0
-350 6257 -6266 0
-6263 487 6272 0
-6264 488 6273 0
6265 489 -6274 0
6266 490 -6275 0
6267 491 -6276 0
6268 492 -6277 0
6269 493 -6278 0
6270 494 -6279 0
-6263 -361 6273 0
-6263 -6265 -362 6272 0
-362 6263 6265 -6274 0
-6266 -6263 -363 6272 0
-363 6266 6263 -6275 0
-6267 -364 -6263 6272 0
-6268 -365 -6263 6272 0
-6269 -366 -6263 6272 0
-6270 -367 -6263 6272 0
-6271 -368 -6263 6272 0
-6264 -369 -6265 6273 0
-6264 -6266 -370 6273 0
-370 6264 6266 -6275 0
-6264 -6267 -371 6273 0
-6264 -372 -6268 6273 0
-6269 -6264 -373 6273 0
-6270 -374 -6264 6273 0
-6271 -375 -6264 6273 0
-376 6265 -6274 0
6266 -376 -6274 0
-377 6265 -6274 0
6267 -377 -6274 0
-378 6265 -6274 0
6268 -378 -6274 0
-379 6265 -6274 0
-380 6265 -6274 0
6270 -380 -6274 0
-381 6265 -6274 0
-382 6266 -6275 0
6267 -382 -6275 0
-383 6266 -6275 0
6268 -383 -6275 0
-384 6266 -6275 0
-385 6266 -6275 0
6270 -385 -6275 0
-386 6266 -6275 0
6267 -387 -6276 0
6268 -387 -6276 0
6267 -388 -6276 0
6267 -389 -6276 0
6270 -389 -6276 0
6267 -390 -6276 0
6268 -391 -6277 0
6268 -392 -6277 0
6270 -392 -6277 0
6268 -393 -6277 0
6270 -394 -6278 0
6270 -396 -6279 0
6281 0
-6380 0
6282 0
6381 0
6283 0
-6284 0
6291 398 -6282 0
-6293 400 6284 0
6290 -1 -6281 -6282 0
-6302 409 6293 0
-58 -6302 6293 0
-59 -6302 6293 0
-60 -6302 6293 0
-61 -6302 6293 0
-62 -6302 6293 0
-6311 6302 418 0
-82 -6309 6302 0
6309 -6318 425 0
-6320 6311 427 0
-118 6311 -6318 0
-6317 6326 433 0
6318 -6327 434 0
-6329 436 6320 0
-154 6320 -6327 0
-6326 6335 442 0
6327 -6336 443 0
-6338 6329 445 0
-6336 6329 -190 0
-6335 6344 451 0
6336 -6345 452 0
-6347 6338 454 0
-6345 -226 6338 0
-6344 6353 460 0
6345 461 -6354 0
-6356 6347 463 0
-262 6347 -6354 0
-6353 469 6362 0
6354 -6363 470 0
-6365 6356 472 0
-6363 -298 6356 0
-6362 6371 478 0
6363 -6372 479 0
-334 6365 -6372 0
6365 -6373 -340 0
487 -6371 6380 0
488 6372 -6381 0
6373 -369 -6381 0
6606 0
-6705 0
6608 0
6609 0
6610 0
6611 0
6612 0
6613 0
6615 398 -6606 0
6617 400 -6608 0
6618 401 -6609 0
6615 -1 -6606 0
6618 -4 -6609 0
6615 -10 -6606 -6608 0
6615 -11 -6606 -6609 0
-11 6618 -6609 0
6615 -12 -6606 -6610 0
6615 -13 -6606 -6611 0
6615 -14 -6606 -6612 0
-15 6615 -6606 -6613 0
6618 -17 -6609 0
-22 6618 -6609 0
-27 6618 -6609 -6610 0
-28 6618 -6609 -6611 0
-29 6618 -6609 -6612 0
-30 6618 -6609 -6613 0
6624 407 -6615 0
6626 409 -6617 0
6624 -37 -6615 0
6624 -46 -6615 -6617 0
-47 6624 -6618 -6615 0
6633 -6624 416 0
6635 -6626 418 0
6633 -73 -6624 0
6642 -6633 425 0
6644 -6635 427 0
6642 -109 -6633 0
6651 -6642 434 0
6653 436 -6644 0
-145 -6642 6651 0
6660 -6651 443 0
6662 -6653 445 0
-181 -6651 6660 0
6669 -6660 452 0
6671 -6662 454 0
-6660 6669 -217 0
-6669 461 6678 0
6680 -6671 463 0
-253 -6669 6678 0
-6678 6687 470 0
6687 -6678 -289 0
-6687 6696 479 0
-6687 6696 -325 0
-6696 488 6705 0
-361 -6696 6705 0
6821 0
-6920 0
-6822 0
6921 0
6823 0
6824 0
-6831 398 6822 0
6833 400 -6824 0
-6830 -1 6822 0
-6831 -9 6822 0
-6831 -10 6822 0
-6831 -11 6822 0
-6831 -12 6822 0
-6831 -13 6822 0
-6831 -14 6822 0
-15 -6831 6822 0
407 -6840 6831 0
6842 409 -6833 0
-45 -6840 6831 0
-46 -6840 6831 0
-47 -6840 6831 0
-48 -6840 6831 0
-49 -6840 6831 0
-50 -6840 6831 0
-51 -6840 6831 0
-6849 6840 416 0
6851 -6842 418 0
6839 -73 -6849 6840 0
-6849 6840 -81 0
-82 -6849 6840 0
-83 -6849 6840 0
-84 -6849 6840 0
-85 -6849 6840 0
-6849 6840 -86 0
-87 -6849 6840 0
425 6849 -6858 0
6860 -6851 427 0
-117 -6858 6849 0
-118 -6858 6849 0
6849 -6858 -119 0
-120 6849 -6858 0
-121 6849 -6858 0
-122 6849 -6858 0
-123 6849 -6858 0
434 -6867 6858 0
6869 436 -6860 0
-6866 -145 6858 0
-153 6858 -6867 0
-154 -6867 6858 0
6858 -6867 -155 0
-156 6858 -6867 0
-157 6858 -6867 0
-158 6858 -6867 0
-159 6858 -6867 0
6866 -6875 442 0
443 -6876 6867 0
6878 -6869 445 0
6866 -181 6867 -6876 0
6867 -6876 -189 0
-6876 6867 -190 0
6867 -6876 -191 0
-192 6867 -6876 0
6867 -6876 -193 0
-194 6867 -6876 0
-195 6867 -6876 0
6875 -6884 451 0
452 -6885 6876 0
6887 -6878 454 0
-6884 -217 6876 0
-225 6876 -6885 0
-226 6876 -6885 0
-227 6876 -6885 0
-228 6876 -6885 0
-229 6876 -6885 0
-230 6876 -6885 0
-231 6876 -6885 0
6884 460 -6893 0
461 6885 -6894 0
6896 -6887 463 0
-253 6885 -6893 0
-253 -6885 6894 0
6884 -253 6885 -6894 0
-261 6885 -6894 0
-262 6885 -6894 0
-263 6885 -6894 0
-264 6885 -6894 0
-265 6885 -6894 0
-266 6885 -6894 0
-267 6885 -6894 0
6893 469 -6902 0
6894 -6903 470 0
6905 -6896 472 0
-6902 6894 -289 0
6893 6894 -289 -6903 0
6893 -6902 -290 0
6893 -291 -6902 0
6893 -6902 -292 0
-293 6893 -6902 0
-294 6893 -6902 0
6893 -6902 -295 0
-296 6893 -6902 0
-297 -6903 6894 0
-298 -6903 6894 0
-299 -6903 6894 0
-6903 -300 6894 0
-301 -6903 6894 0
-302 -6903 6894 0
-303 -6903 6894 0
6902 478 -6911 0
-6902 478 6911 0
6903 479 -6912 0
6902 6903 -325 -6912 0
-333 6903 -6912 0
-334 6903 -6912 0
6903 -6912 -335 0
-336 6903 -6912 0
-337 6903 -6912 0
-338 6903 -6912 0
-339 6903 -6912 0
487 -6911 6920 0
6912 488 -6921 0
-361 6911 6912 -6921 0
6912 -369 -6921 0
6912 -370 -6921 0
6912 -371 -6921 0
6912 -372 -6921 0
6912 -373 -6921 0
6912 -374 -6921 0
6912 -375 -6921 0
-7028 0
6930 0
6932 0
6939 398 -6930 0
6941 400 -6932 0
6948 407 -6939 0
6950 409 -6941 0
6957 -6948 416 0
6959 -6950 418 0
6966 -6957 425 0
6968 -6959 427 0
6975 -6966 434 0
6977 436 -6968 0
6984 -6975 443 0
6986 -6977 445 0
6993 -6984 452 0
6995 -6986 454 0
7002 -6993 461 0
7004 -6995 463 0
7011 -7002 470 0
-7010 7019 -7011 -325 0
487 -7019 7028 0
10054 -1 6174 0
10054 -3 6176 0
-4 -10054 -6173 -6177 0
-5 -10054 -6173 -6178 0
-6 -10054 -6173 -6179 0
-7 -10054 -6173 -6180 0
-8 -10054 -6173 -6181 0
-9 10054 6174 0
-10 10054 6176 0
-11 10054 6174 0
-12 10054 6174 0
-13 10054 6174 0
-14 10054 6174 0
-15 10054 6174 0
-16 10054 6176 0
-17 -10054 -6175 -6177 0
-18 -10054 -6175 -6178 0
-19 -10054 -6175 -6179 0
-20 -10054 -6175 -6180 0
-21 -10054 -6175 -6181 0
-22 10054 6176 0
-23 10054 6176 0
-24 10054 6176 0
-25 10054 6176 0
-26 10054 6176 0
-27 -10054 -6177 -6178 0
-28 -10054 -6177 -6179 0
-29 -10054 -6177 -6180 0
-30 -10054 -6177 -6181 0
-31 -10054 -6178 -6179 0
-32 -10054 -6178 -6180 0
-33 -10054 -6178 -6181 0
-34 -10054 -6179 -6180 0
-35 -10054 -6179 -6181 0
-36 -10054 -6180 -6181 0
-37 10055 6182 0
-37 10055 6183 0
-38 10055 6182 0
-38 10055 6184 0
-39 10055 6182 0
-39 10055 6185 0
-40 10055 6182 0
-41 10055 6182 0
-42 10055 6182 0
-43 10055 6182 0
-44 10055 6182 0
-45 10055 6183 0
10055 -46 6183 0
-46 10055 6185 0
-47 10055 6183 0
-48 10055 6183 0
-49 10055 6183 0
-50 10055 6183 0
10055 -51 6183 0
-52 10055 6184 0
-52 10055 6185 0
-58 10055 6185 0
-59 10055 6185 0
-60 10055 6185 0
-61 10055 6185 0
-62 10055 6185 0
-73 6191 10056 0
-73 10056 6192 0
-74 6191 10056 0
-74 6193 10056 0
-75 6191 10056 0
-75 6194 10056 0
-76 6191 10056 0
-77 6191 10056 0
-78 6191 10056 0
-79 6191 10056 0
-80 6191 10056 0
-81 10056 6192 0
-81 6193 10056 0
-82 10056 6192 0
-82 6194 10056 0
-83 10056 6192 0
-84 10056 6192 0
-85 10056 6192 0
-86 10056 6192 0
-87 10056 6192 0
-88 6194 10056 0
-94 6194 10056 0
-95 6194 10056 0
-96 6194 10056 0
-97 6194 10056 0
-98 6194 10056 0
-109 6200 10057 0
-109 10057 6201 0
-110 6202 10057 0
-111 6200 10057 0
-111 6203 10057 0
-117 10057 6201 0
-117 6202 10057 0
-118 10057 6201 0
-118 6203 10057 0
-119 10057 6201 0
-120 10057 6201 0
-121 10057 6201 0
-122 10057 6201 0
-123 10057 6201 0
-124 6202 10057 0
-124 6203 10057 0
-130 6203 10057 0
-131 6203 10057 0
-132 6203 10057 0
-133 6203 10057 0
-134 6203 10057 0
-145 6209 10058 0
-145 6210 10058 0
-146 6209 10058 0
-146 6211 10058 0
-147 6209 10058 0
-147 6212 10058 0
-148 6209 10058 0
6213 -148 10058 0
-149 6209 10058 0
6214 -149 10058 0
-150 6209 10058 0
6215 -150 10058 0
-151 6209 10058 0
6216 -151 10058 0
-152 6209 10058 0
6217 -152 10058 0
-153 10058 6210 0
-153 6211 10058 0
-154 10058 6210 0
-154 6212 10058 0
-155 10058 6210 0
-156 10058 6210 0
6210 -157 10058 0
-158 10058 6210 0
-159 10058 6210 0
-160 6212 10058 0
-166 6212 10058 0
-167 6212 10058 0
-168 6212 10058 0
-169 6212 10058 0
-170 6212 10058 0
-181 6218 10059 0
-181 6219 10059 0
-182 6218 10059 0
-182 6220 10059 0
-183 6218 10059 0
-183 6221 10059 0
-184 6218 10059 0
-185 6218 10059 0
-186 6218 10059 0
-187 6218 10059 0
-188 6218 10059 0
6219 -189 10059 0
6220 -189 10059 0
-190 6219 10059 0
6221 -190 10059 0
-191 6219 10059 0
6222 -191 10059 0
-192 6219 10059 0
6223 -192 10059 0
-193 6219 10059 0
6224 -193 10059 0
-194 6219 10059 0
6225 -194 10059 0
-195 6219 10059 0
6226 -195 10059 0
-196 6221 10059 0
-202 6221 10059 0
-203 6221 10059 0
-204 6221 10059 0
-205 6221 10059 0
-206 6221 10059 0
6227 -217 10060 0
-217 10060 6228 0
-218 6227 10060 0
-218 6229 10060 0
-219 6227 10060 0
-219 6230 10060 0
-220 6227 10060 0
-221 6227 10060 0
-222 6227 10060 0
-223 6227 10060 0
-224 6227 10060 0
-225 10060 6228 0
-225 6229 10060 0
-226 10060 6228 0
-226 6230 10060 0
-227 10060 6228 0
-228 10060 6228 0
-229 10060 6228 0
-230 10060 6228 0
-231 10060 6228 0
-232 6230 10060 0
-233 6229 10060 0
-234 6229 10060 0
-237 6229 10060 0
-238 6230 10060 0
-239 6230 10060 0
-240 6230 10060 0
-241 6230 10060 0
-242 6230 10060 0
-253 6236 10061 0
-253 6237 10061 0
-254 6236 10061 0
-254 6238 10061 0
-255 6236 10061 0
-255 6239 10061 0
-256 6236 10061 0
-257 6236 10061 0
-258 6236 10061 0
-259 6236 10061 0
-260 6236 10061 0
-261 6237 10061 0
-261 6238 10061 0
-262 6237 10061 0
-262 6239 10061 0
-263 6237 10061 0
-264 6237 10061 0
-265 6237 10061 0
-266 6237 10061 0
-267 6237 10061 0
-268 6239 10061 0
-274 6239 10061 0
-275 6239 10061 0
-276 6239 10061 0
-277 6239 10061 0
-278 6239 10061 0
6245 -289 10062 0
-289 6246 10062 0
-290 6245 10062 0
6247 -290 10062 0
-291 6245 10062 0
-291 6248 10062 0
-292 6245 10062 0
6249 -292 10062 0
-293 6245 10062 0
6250 -293 10062 0
-294 6245 10062 0
6251 -294 10062 0
-295 6245 10062 0
6252 -295 10062 0
-296 6245 10062 0
6253 -296 10062 0
-297 6246 10062 0
-297 6247 10062 0
-298 6246 10062 0
-298 6248 10062 0
-299 6246 10062 0
-300 6246 10062 0
-301 6246 10062 0
-302 6246 10062 0
-303 6246 10062 0
6247 -304 10062 0
-304 6248 10062 0
-310 6248 10062 0
-311 6248 10062 0
-312 6248 10062 0
-313 6248 10062 0
-314 6248 10062 0
-325 6254 10063 0
-325 6255 10063 0
-326 6254 10063 0
6256 -326 10063 0
-327 6254 10063 0
-327 6257 10063 0
-328 6254 10063 0
-328 6258 10063 0
-329 6254 10063 0
6259 -329 10063 0
-330 6254 10063 0
6260 -330 10063 0
-331 6254 10063 0
-331 6261 10063 0
-332 6254 10063 0
-332 6262 10063 0
-333 6255 10063 0
-333 6256 10063 0
-334 6255 10063 0
-334 6257 10063 0
6255 -335 10063 0
6258 -335 10063 0
-336 6255 10063 0
-337 6255 10063 0
-338 6255 10063 0
-338 6261 10063 0
-339 6255 10063 0
6256 -340 10063 0
-340 6257 10063 0
-341 6256 10063 0
-341 6258 10063 0
-342 6256 10063 0
-343 6256 10063 0
-344 6256 10063 0
-344 6261 10063 0
-345 6256 10063 0
-346 6257 10063 0
-346 6258 10063 0
-347 6257 10063 0
-348 6257 10063 0
-349 6257 10063 0
-349 6261 10063 0
-350 6257 10063 0
-351 6258 10063 0
-352 6258 10063 0
-353 6258 10063 0
-353 6261 10063 0
-354 6258 10063 0
-356 6261 10063 0
-358 6261 10063 0
-360 6261 10063 0
-361 10064 6263 0
-362 6263 10064 0
10064 6265 -362 0
-363 10064 6263 0
-363 10064 6266 0
-364 6263 10064 0
6267 -364 10064 0
-365 10064 6263 0
6268 -365 10064 0
-366 10064 6263 0
-366 6269 10064 0
-367 10064 6263 0
6270 -367 10064 0
-368 10064 6263 0
6271 -368 10064 0
10064 6264 -369 0
10064 6265 -369 0
10064 6264 -370 0
6266 10064 -370 0
10064 6264 -371 0
6267 10064 -371 0
10064 6264 -372 0
6268 10064 -372 0
10064 6264 -373 0
6269 10064 -373 0
10064 6264 -374 0
6270 10064 -374 0
10064 6264 -375 0
6271 10064 -375 0
-10064 -6265 -376 -6266 0
6269 10064 -379 0
-10064 -6266 -382 -6267 0
6269 10064 -384 0
-10064 -6266 -385 -6270 0
6269 10064 -388 0
6269 10064 -391 0
6269 10064 -394 0
-395 6269 10064 0
10065 -10054 0
10066 -10065 0
10067 -10055 -10065 0
-10067 10068 0
-10067 -10056 0
10066 -10055 0
10069 -10066 0
-10056 10068 -10066 0
-10068 10070 0
-10068 -10057 0
10069 -10056 0
10071 -10069 0
-10057 10070 -10069 0
-10070 10072 0
-10070 -10058 0
10071 -10057 0
10073 -10071 0
-10058 10072 -10071 0
-10072 10074 0
-10072 -10059 0
10073 -10058 0
10075 -10073 0
-10059 10074 -10073 0
-10074 10076 0
-10074 -10060 0
10075 -10059 0
10077 -10075 0
-10060 10076 -10075 0
-10076 10078 0
-10076 -10061 0
-10060 10077 0
10079 -10077 0
-10061 10078 -10077 0
10080 -10078 0
-10062 -10078 0
-10061 10079 0
10081 -10079 0
-10062 10080 -10079 0
10082 -10080 0
-10063 -10080 0
-10062 10081 0
10082 -10063 -10081 0
-10064 -10082 0
-10083 -1 -6281 -6282 0
-10083 -9 -6282 -6283 0
-22 10083 6284 0
-23 10083 6284 0
-24 10083 6284 0
-25 10083 6284 0
-26 10083 6284 0
10301 -1 6822 0
-3 -10301 -6821 -6824 0
-9 10301 6822 0
-11 10301 6822 0
-12 10301 6822 0
-13 10301 6822 0
-14 10301 6822 0
-15 10301 6822 0
-16 -10301 -6823 -6824 0
10306 -181 6867 0
-183 -6869 -10306 -6866 0
