p cnf 30 522
7 14 23 0
6 9 14 30 0
7 13 24 0
6 8 20 24 0
5 9 13 30 0
5 8 20 23 0
10 12 21 0
6 9 12 21 0
6 9 12 14 21 0
10 12 21 0
6 8 12 21 0
6 8 12 21 24 0
5 9 12 21 0
5 9 12 13 21 0
5 8 12 21 0
5 8 12 21 23 0
6 9 14 23 0
7 14 30 0
5 9 13 24 0
5 8 20 24 0
7 13 30 0
6 8 20 23 0
6 9 12 27 0
6 9 12 14 23 0
10 12 27 0
5 9 12 27 0
5 9 12 13 24 0
5 8 12 27 0
5 8 12 24 0
10 12 27 0
6 8 12 27 0
6 8 12 23 0
7 14 23 0
6 8 14 30 0
7 13 24 0
6 9 20 24 0
5 8 13 30 0
5 9 20 23 0
10 11 22 0
6 8 11 22 0
6 8 11 14 22 0
10 11 22 0
6 9 11 22 0
6 9 11 22 24 0
5 8 11 22 0
5 8 11 13 22 0
5 9 11 22 0
5 9 11 22 23 0
5 9 14 23 0
5 8 14 30 0
6 9 13 24 0
7 20 24 0
6 8 13 30 0
7 20 23 0
5 9 17 22 0
5 9 14 22 23 0
5 8 17 22 0
5 8 14 22 0
6 9 17 22 0
6 9 13 22 24 0
10 17 22 0
6 8 17 22 0
6 8 13 22 0
10 17 22 0
6 8 14 23 0
7 14 30 0
5 8 13 24 0
5 9 20 24 0
7 13 30 0
6 9 20 23 0
6 8 11 27 0
6 8 11 14 23 0
10 11 27 0
5 8 11 27 0
5 8 11 13 24 0
5 9 11 27 0
5 9 11 24 0
10 11 27 0
6 9 11 27 0
6 9 11 23 0
5 8 14 23 0
5 9 14 30 0
6 8 13 24 0
7 20 24 0
6 9 13 30 0
7 20 23 0
5 8 17 21 0
5 8 14 21 23 0
5 9 17 21 0
5 9 14 21 0
6 8 17 21 0
6 8 13 21 24 0
10 17 21 0
6 9 17 21 0
6 9 13 21 0
10 17 21 0
4 17 23 0
4 16 19 30 0
3 17 24 0
10 16 18 24 0
3 15 19 30 0
10 15 18 23 0
2 20 21 0
2 16 19 21 0
2 4 16 19 21 0
2 20 21 0
2 16 18 21 24 0
2 16 18 21 0
2 15 19 21 0
2 3 15 19 21 0
2 15 18 21 23 0
2 15 18 21 0
4 16 19 23 0
4 17 30 0
3 15 19 24 0
10 15 18 24 0
3 17 30 0
10 16 18 23 0
2 16 19 27 0
2 4 16 19 23 0
2 20 27 0
2 15 19 27 0
2 3 15 19 24 0
2 15 18 24 0
2 15 18 27 0
2 20 27 0
2 16 18 23 0
2 16 18 27 0
4 17 23 0
4 16 18 30 0
3 17 24 0
10 16 19 24 0
3 15 18 30 0
10 15 19 23 0
1 20 22 0
1 16 18 22 0
1 4 16 18 22 0
1 20 22 0
1 16 19 22 24 0
1 16 19 22 0
1 15 18 22 0
1 3 15 18 22 0
1 15 19 22 23 0
1 15 19 22 0
7 15 19 22 0
4 15 19 22 23 0
7 15 18 22 0
4 15 18 22 0
7 16 19 22 0
3 16 19 22 24 0
7 20 22 0
7 16 18 22 0
3 16 18 22 0
7 20 22 0
4 15 19 23 0
4 15 18 30 0
3 16 19 24 0
10 17 24 0
3 16 18 30 0
10 17 23 0
4 16 18 23 0
4 17 30 0
3 15 18 24 0
10 15 19 24 0
3 17 30 0
10 16 19 23 0
1 16 18 27 0
1 4 16 18 23 0
1 20 27 0
1 15 18 27 0
1 3 15 18 24 0
1 15 19 24 0
1 15 19 27 0
1 20 27 0
1 16 19 23 0
1 16 19 27 0
7 15 18 21 0
4 15 18 21 23 0
7 15 19 21 0
4 15 19 21 0
7 16 18 21 0
3 16 18 21 24 0
7 20 21 0
7 16 19 21 0
3 16 19 21 0
7 20 21 0
4 15 18 23 0
4 15 19 30 0
3 16 18 24 0
10 17 24 0
3 16 19 30 0
10 17 23 0
4 13 27 0
4 20 26 29 0
3 14 27 0
10 14 26 28 0
3 20 25 29 0
10 13 25 28 0
2 11 30 0
2 4 11 26 29 0
2 11 26 29 0
2 11 30 0
2 11 14 26 28 0
2 11 26 28 0
2 3 11 25 29 0
2 11 25 29 0
2 11 13 25 28 0
2 11 25 28 0
2 17 26 29 0
2 4 13 26 29 0
2 17 30 0
2 17 25 29 0
2 3 14 25 29 0
2 14 25 28 0
2 17 25 28 0
2 17 30 0
2 13 26 28 0
2 17 26 28 0
4 13 26 29 0
4 20 27 0
3 14 25 29 0
10 14 25 28 0
3 20 27 0
10 13 26 28 0
4 13 27 0
4 20 26 28 0
3 14 27 0
10 14 26 29 0
3 20 25 28 0
10 13 25 29 0
1 12 30 0
1 4 12 26 28 0
1 12 26 28 0
1 12 30 0
1 12 14 26 29 0
1 12 26 29 0
1 3 12 25 28 0
1 12 25 28 0
1 12 13 25 29 0
1 12 25 29 0
7 12 25 29 0
4 12 13 25 29 0
4 12 25 28 0
7 12 25 28 0
7 12 26 29 0
3 12 14 26 29 0
7 12 30 0
3 12 26 28 0
7 12 26 28 0
7 12 30 0
4 13 25 29 0
4 20 25 28 0
3 14 26 29 0
10 14 27 0
3 20 26 28 0
10 13 27 0
1 17 26 28 0
1 4 13 26 28 0
1 17 30 0
1 17 25 28 0
1 3 14 25 28 0
1 14 25 29 0
1 17 25 29 0
1 17 30 0
1 13 26 29 0
1 17 26 29 0
4 13 26 28 0
4 20 27 0
3 14 25 28 0
10 14 25 29 0
3 20 27 0
10 13 26 29 0
7 11 25 28 0
4 11 13 25 28 0
4 11 25 29 0
7 11 25 29 0
7 11 26 28 0
3 11 14 26 28 0
7 11 30 0
3 11 26 29 0
7 11 26 29 0
7 11 30 0
4 13 25 28 0
4 20 25 29 0
3 14 26 28 0
10 14 27 0
3 20 26 29 0
10 13 27 0
2 11 27 0
2 4 11 23 0
2 11 27 0
2 11 27 0
2 11 14 23 0
2 11 27 0
2 3 11 24 0
2 11 27 0
2 11 13 24 0
2 11 27 0
4 13 30 0
4 20 23 0
3 14 30 0
10 14 23 0
3 20 24 0
10 13 24 0
2 4 13 21 0
2 17 21 0
2 17 21 0
2 3 14 21 0
2 17 21 0
2 14 21 23 0
2 17 21 0
2 17 21 0
2 13 21 24 0
2 17 21 0
4 13 30 0
4 20 23 0
3 14 30 0
10 14 23 0
3 20 24 0
10 13 24 0
1 12 27 0
1 4 12 23 0
1 12 27 0
1 12 27 0
1 12 14 23 0
1 12 27 0
1 3 12 24 0
1 12 27 0
1 12 13 24 0
1 12 27 0
4 13 30 0
4 20 23 0
3 14 30 0
10 14 23 0
3 20 24 0
10 13 24 0
4 12 13 21 0
7 12 21 0
4 12 21 23 0
7 12 21 0
3 12 14 21 0
7 12 21 0
7 12 21 0
3 12 21 24 0
7 12 21 0
7 12 21 0
4 13 30 0
4 20 23 0
3 14 30 0
10 14 23 0
3 20 24 0
10 13 24 0
1 4 13 22 0
1 17 22 0
1 17 22 0
1 3 14 22 0
1 17 22 0
1 14 22 23 0
1 17 22 0
1 17 22 0
1 13 22 24 0
1 17 22 0
4 13 30 0
4 20 23 0
3 14 30 0
10 14 23 0
3 20 24 0
10 13 24 0
4 11 13 22 0
7 11 22 0
4 11 22 23 0
7 11 22 0
3 11 14 22 0
7 11 22 0
7 11 22 0
3 11 22 24 0
7 11 22 0
7 11 22 0
4 13 30 0
4 20 23 0
3 14 30 0
10 14 23 0
3 20 24 0
10 13 24 0
-1 -2 -3 0
-1 -2 -4 0
-1 -3 -4 0
-2 -3 -4 0
-11 -12 -13 0
-11 -12 -14 0
-11 -13 -14 0
-12 -13 -14 0
-21 -22 -23 0
-21 -22 -24 0
-21 -23 -24 0
-22 -23 -24 0
-1 -5 -6 0
-1 -5 -7 0
-1 -5 -8 0
-1 -6 -7 0
-1 -6 -8 0
-1 -7 -8 0
-5 -6 -7 0
-5 -6 -8 0
-5 -7 -8 0
-6 -7 -8 0
-11 -15 -16 0
-11 -15 -17 0
-11 -15 -18 0
-11 -16 -17 0
-11 -16 -18 0
-11 -17 -18 0
-15 -16 -17 0
-15 -16 -18 0
-15 -17 -18 0
-16 -17 -18 0
-21 -25 -26 0
-21 -25 -27 0
-21 -25 -28 0
-21 -26 -27 0
-21 -26 -28 0
-21 -27 -28 0
-25 -26 -27 0
-25 -26 -28 0
-25 -27 -28 0
-26 -27 -28 0
-2 -5 -6 0
-2 -5 -7 0
-2 -5 -9 0
-2 -6 -7 0
-2 -6 -9 0
-2 -7 -9 0
-5 -6 -7 0
-5 -6 -9 0
-5 -7 -9 0
-6 -7 -9 0
-12 -15 -16 0
-12 -15 -17 0
-12 -15 -19 0
-12 -16 -17 0
-12 -16 -19 0
-12 -17 -19 0
-15 -16 -17 0
-15 -16 -19 0
-15 -17 -19 0
-16 -17 -19 0
-22 -25 -26 0
-22 -25 -27 0
-22 -25 -29 0
-22 -26 -27 0
-22 -26 -29 0
-22 -27 -29 0
-25 -26 -27 0
-25 -26 -29 0
-25 -27 -29 0
-26 -27 -29 0
-1 -2 -10 0
-11 -12 -20 0
-21 -22 -30 0
-3 -5 -8 0
-3 -5 -9 0
-3 -5 -10 0
-3 -8 -9 0
-3 -8 -10 0
-3 -9 -10 0
-5 -8 -9 0
-5 -8 -10 0
-5 -9 -10 0
-8 -9 -10 0
-13 -15 -18 0
-13 -15 -19 0
-13 -15 -20 0
-13 -18 -19 0
-13 -18 -20 0
-13 -19 -20 0
-15 -18 -19 0
-15 -18 -20 0
-15 -19 -20 0
-18 -19 -20 0
-23 -25 -28 0
-23 -25 -29 0
-23 -25 -30 0
-23 -28 -29 0
-23 -28 -30 0
-23 -29 -30 0
-25 -28 -29 0
-25 -28 -30 0
-25 -29 -30 0
-28 -29 -30 0
-4 -6 -8 0
-4 -6 -9 0
-4 -6 -10 0
-4 -8 -9 0
-4 -8 -10 0
-4 -9 -10 0
-6 -8 -9 0
-6 -8 -10 0
-6 -9 -10 0
-8 -9 -10 0
-14 -16 -18 0
-14 -16 -19 0
-14 -16 -20 0
-14 -18 -19 0
-14 -18 -20 0
-14 -19 -20 0
-16 -18 -19 0
-16 -18 -20 0
-16 -19 -20 0
-18 -19 -20 0
-24 -26 -28 0
-24 -26 -29 0
-24 -26 -30 0
-24 -28 -29 0
-24 -28 -30 0
-24 -29 -30 0
-26 -28 -29 0
-26 -28 -30 0
-26 -29 -30 0
-28 -29 -30 0
-3 -4 -7 0
-13 -14 -17 0
-23 -24 -27 0
