p cnf 13909 2202
-631 0
-506 9 14 10 11 12 13 15 0
-632 1 0
-511 34 35 0
6 -637 13 19 24 28 31 0
-512 36 0
32 29 34 -638 7 14 20 25 0
-513 0
-639 36 15 21 26 30 33 35 8 0
-514 38 37 39 40 41 42 43 44 0
-640 0
-515 49 50 46 47 45 48 51 0
-641 37 0
-520 70 71 0
55 42 49 -646 60 64 67 0
-49 646 0
-521 72 0
-647 70 43 50 61 65 68 56 0
-522 0
-648 72 51 57 62 66 69 71 44 0
827 -73 0
-74 828 0
-827 828 0
-75 829 0
-828 829 0
-76 830 0
-829 830 0
-77 831 0
-830 831 0
-78 832 0
-831 832 0
-79 833 0
-832 833 0
834 -833 0
-81 835 0
835 -834 0
-82 836 0
836 -835 0
-83 837 0
837 -836 0
-84 838 0
838 -837 0
-85 839 0
839 -838 0
-86 840 0
840 -839 0
841 -840 0
842 -841 0
843 -842 0
844 -843 0
-91 845 0
845 -844 0
846 -845 0
847 -846 0
848 -847 0
849 -848 0
-96 850 0
850 -849 0
851 -850 0
852 -851 0
853 -852 0
-100 854 0
854 -853 0
855 -854 0
856 -855 0
857 -103 0
857 -856 0
858 -857 0
859 -858 0
860 -106 0
860 -859 0
-106 -859 0
861 -860 0
-108 -861 0
74 75 -523 73 76 77 78 79 80 0
-649 0
-524 81 86 83 84 85 82 87 0
-650 73 0
-529 106 107 0
103 100 -655 85 78 91 96 0
-85 655 0
-530 108 0
-108 530 0
-656 92 79 106 97 101 104 86 0
-531 0
108 -657 87 93 98 102 105 107 80 0
-109 862 0
-862 863 0
-863 864 0
-864 865 0
-865 866 0
-866 867 0
-867 868 0
-868 869 0
-117 870 0
-869 870 0
-118 871 0
-870 871 0
-119 872 0
-871 872 0
-120 873 0
-872 873 0
-873 874 0
-122 875 0
-874 875 0
-875 876 0
-876 877 0
-877 878 0
-878 879 0
-127 880 0
-879 880 0
-880 881 0
-881 882 0
-882 883 0
-883 884 0
-132 885 0
-884 885 0
-885 886 0
-886 887 0
-887 888 0
-136 889 0
-888 889 0
-889 890 0
-890 891 0
-139 892 0
-891 892 0
-892 893 0
-893 894 0
895 -142 0
-894 895 0
-894 -142 0
896 -895 0
-144 -896 0
-532 110 109 111 112 113 114 115 116 0
-658 0
-533 117 121 122 119 120 118 123 0
-659 109 0
-538 142 143 0
-664 114 136 121 127 132 139 0
-121 664 0
-539 144 0
-144 539 0
-665 115 142 128 133 137 140 122 0
-540 0
-666 144 123 129 134 138 141 143 116 0
-144 666 0
-145 897 0
-897 898 0
-898 899 0
-899 900 0
-900 901 0
-150 902 0
-901 902 0
-150 -901 0
-902 903 0
-903 904 0
-153 905 0
-904 905 0
-154 906 0
-905 906 0
-155 907 0
-906 907 0
-156 908 0
-907 908 0
-157 909 0
-908 909 0
-157 -908 0
-158 910 0
-909 910 0
-910 911 0
-911 912 0
-912 913 0
-913 914 0
-163 915 0
-914 915 0
-163 -914 0
-915 916 0
-164 -915 0
-916 917 0
-917 918 0
-918 919 0
-168 920 0
-919 920 0
-168 -919 0
-920 921 0
-169 -920 0
-921 922 0
-922 923 0
-172 924 0
-923 924 0
-172 -923 0
-924 925 0
-173 -924 0
-925 926 0
-175 927 0
-926 927 0
-175 -926 0
-927 928 0
-176 -927 0
-928 929 0
-178 930 0
-929 930 0
-929 -178 0
-930 931 0
-931 -180 0
-541 146 145 147 148 149 150 151 152 0
-667 0
-542 153 157 158 155 156 154 159 0
-668 145 0
-547 178 179 0
-673 150 157 175 163 168 172 0
-157 673 0
-548 180 0
-180 548 0
-674 151 158 178 176 173 169 164 0
-549 0
-675 180 159 165 170 174 177 179 152 0
-180 675 0
-181 932 0
-932 933 0
-933 934 0
-934 935 0
-935 936 0
-936 937 0
-937 938 0
-937 -187 0
-938 939 0
-189 940 0
-939 940 0
-190 941 0
-940 941 0
-191 942 0
-941 942 0
-192 943 0
-942 943 0
-193 944 0
-943 944 0
-194 945 0
-944 945 0
-194 -944 0
-945 946 0
-946 947 0
-947 948 0
-948 949 0
-949 950 0
-950 951 0
-200 -950 0
-951 952 0
-952 953 0
-953 954 0
-954 955 0
-955 956 0
-205 -955 0
-956 957 0
-957 958 0
-958 959 0
-959 960 0
-209 -959 0
-960 961 0
-961 962 0
-962 963 0
-962 -212 0
-963 964 0
-964 965 0
-214 -964 0
-965 966 0
-966 -216 0
182 -550 181 183 184 185 186 187 188 0
-676 0
-551 189 194 191 192 193 190 195 0
-677 181 0
-556 214 215 0
186 -682 193 199 204 208 211 0
-557 216 0
557 -216 0
-683 205 214 187 212 200 209 194 0
-194 683 0
-214 683 0
-558 0
-684 216 195 201 206 210 213 215 188 0
-216 684 0
-217 967 0
-967 968 0
-968 969 0
-969 970 0
-970 971 0
-971 972 0
-972 973 0
-223 -972 0
-973 974 0
-225 975 0
-974 975 0
-226 976 0
-975 976 0
-227 977 0
-976 977 0
-228 978 0
-977 978 0
-978 979 0
-230 980 0
-979 980 0
-980 981 0
-981 982 0
-982 983 0
-983 984 0
-984 985 0
-985 986 0
-236 -985 0
-986 987 0
-987 988 0
-988 989 0
-989 990 0
991 -990 0
-990 -241 0
992 -991 0
993 -992 0
994 -993 0
995 -994 0
-245 -994 0
996 -995 0
997 -996 0
998 -997 0
-248 -997 0
999 -998 0
-250 -999 0
218 -559 217 219 220 221 222 223 224 0
-685 0
-560 225 229 230 228 227 226 231 0
-230 560 0
-686 217 0
-565 250 251 0
-691 247 229 222 235 240 244 0
-229 691 0
-566 252 0
566 -252 0
241 248 -692 223 236 250 245 230 0
-223 692 0
-230 692 0
-250 692 0
-567 0
-693 252 231 237 242 246 249 251 224 0
-252 693 0
-253 1002 0
-1002 1003 0
-1003 1004 0
-1004 1005 0
-1005 1006 0
-1006 1007 0
-1007 1008 0
-259 -1007 0
-1008 1009 0
-261 1010 0
-1009 1010 0
-262 1011 0
-1010 1011 0
-263 1012 0
-1011 1012 0
-264 1013 0
-1012 1013 0
-265 1014 0
-1013 1014 0
-266 1015 0
-1014 1015 0
-266 -1014 0
-1015 1016 0
-1016 1017 0
-1017 1018 0
-1018 1019 0
-1019 1020 0
-1020 1021 0
-272 -1020 0
-1021 1022 0
-1022 1023 0
-1023 1024 0
-1024 1025 0
-1025 1026 0
-277 -1025 0
-1026 1027 0
-1027 1028 0
-1028 1029 0
-1029 1030 0
-281 -1029 0
-1030 1031 0
-1031 1032 0
-1032 1033 0
-284 -1032 0
-1033 1034 0
-286 1035 0
-1034 1035 0
-1034 -286 0
-1035 1036 0
-1036 -288 0
-568 254 253 259 256 257 258 255 260 0
-694 0
-569 261 266 265 263 264 262 267 0
-266 569 0
-695 253 0
-574 286 287 0
-575 288 0
575 -288 0
-701 259 266 286 284 272 277 281 0
-259 701 0
-266 701 0
701 -286 0
-576 0
-702 288 267 273 278 282 285 287 260 0
1037 -289 0
1038 -1037 0
1039 -1038 0
1040 -1039 0
1041 -1040 0
1042 -1041 0
1043 -1042 0
-295 -1042 0
1044 -1043 0
1045 -1044 0
1046 -1045 0
1047 -1046 0
1048 -1047 0
1049 -1048 0
1050 -1049 0
1051 -1050 0
1052 -1051 0
1053 -1052 0
1054 -1053 0
1055 -1054 0
1056 -1055 0
-308 -1055 0
1057 -1056 0
1058 -1057 0
1059 -1058 0
1060 -1059 0
1061 -1060 0
-313 -1060 0
1062 -1061 0
1063 -1062 0
1064 -1063 0
1065 -1064 0
-317 -1064 0
1066 -1065 0
1067 -1066 0
1068 -1067 0
-1067 -320 0
1069 -1068 0
-322 -1069 0
-577 290 289 291 292 293 294 295 296 0
-703 0
-578 298 302 299 297 301 300 303 0
-704 289 0
-583 322 323 0
-584 324 0
-324 584 0
-710 320 322 302 317 295 308 313 0
-302 710 0
-585 0
-711 324 303 309 314 318 321 323 296 0
-325 1072 0
-1072 1073 0
-1073 1074 0
-1074 1075 0
-1075 1076 0
-330 1077 0
-1076 1077 0
-1077 1078 0
-331 -1077 0
-1078 1079 0
-333 1080 0
-1079 1080 0
-334 1081 0
-1080 1081 0
-335 1082 0
-1081 1082 0
-336 1083 0
-1082 1083 0
-337 1084 0
-1083 1084 0
-1084 1085 0
-1085 1086 0
-1086 1087 0
-1087 1088 0
-1088 1089 0
-343 1090 0
-1089 1090 0
-1090 1091 0
-344 -1090 0
-1091 1092 0
-1092 1093 0
-1093 1094 0
-348 1095 0
-1094 1095 0
-1095 1096 0
-349 -1095 0
-1096 1097 0
-1097 1098 0
-352 1099 0
-1098 1099 0
-1099 1100 0
-353 -1099 0
-1100 1101 0
-355 1102 0
-1101 1102 0
-1102 1103 0
-1102 -356 0
-1103 1104 0
1105 -358 0
-1104 1105 0
-1104 -358 0
1106 -1105 0
-1106 -360 0
-586 326 325 331 328 329 330 327 332 0
-712 0
-587 333 338 336 335 337 334 339 0
-338 587 0
-713 325 0
358 -592 359 0
-718 330 355 343 337 348 352 0
360 -593 0
-360 593 0
-719 356 358 353 331 344 349 338 0
-338 719 0
-594 0
-720 360 339 345 350 354 357 359 332 0
720 -360 0
-361 1107 0
-1107 1108 0
-1108 1109 0
-1109 1110 0
-1110 1111 0
-1111 1112 0
-1112 1113 0
-367 -1112 0
-1113 1114 0
-369 1115 0
-1114 1115 0
-370 1116 0
-1115 1116 0
-371 1117 0
-1116 1117 0
-372 1118 0
-1117 1118 0
-373 1119 0
-1118 1119 0
-374 1120 0
-1119 1120 0
-1120 1121 0
-1121 1122 0
-1122 1123 0
-1123 1124 0
-1124 1125 0
-1125 1126 0
-380 -1125 0
-1126 1127 0
-1127 1128 0
-1128 1129 0
-1129 1130 0
-1130 1131 0
-385 -1130 0
-1131 1132 0
-1132 1133 0
-1133 1134 0
-1134 1135 0
-1134 -389 0
-1135 1136 0
-1136 1137 0
-1137 1138 0
-1137 -392 0
-1138 1139 0
-1139 1140 0
-1139 -394 0
-1140 1141 0
-1141 -396 0
-595 367 366 361 362 363 364 365 368 0
-721 0
-596 369 374 371 373 370 372 375 0
-374 596 0
-722 361 0
-601 394 395 0
-394 601 0
-602 396 0
602 -396 0
389 385 -728 374 394 367 392 380 0
-374 728 0
728 -394 0
-603 0
-729 396 375 381 386 390 393 395 368 0
729 -396 0
-397 1142 0
-1142 1143 0
-1143 1144 0
-1144 1145 0
-1145 1146 0
-1146 1147 0
-1147 1148 0
-403 -1147 0
-1148 1149 0
-1149 1150 0
-1150 1151 0
-1151 1152 0
-1152 1153 0
-1153 1154 0
-1154 1155 0
-410 -1154 0
-1155 1156 0
-1156 1157 0
-1157 1158 0
-1158 1159 0
-1159 1160 0
-1160 1161 0
-416 -1160 0
-1161 1162 0
-1162 1163 0
-1163 1164 0
-1164 1165 0
-1165 1166 0
-421 -1165 0
-1166 1167 0
-1167 1168 0
-1168 1169 0
-1169 1170 0
-425 -1169 0
-1170 1171 0
-1171 1172 0
-1172 1173 0
-428 -1172 0
-1173 1174 0
1175 -430 0
-1174 1175 0
-1174 -430 0
1176 -1175 0
-432 -1176 0
-604 398 403 397 400 401 402 399 404 0
-730 0
-605 405 406 407 408 409 410 411 0
-731 397 0
-610 430 431 0
402 427 -736 409 415 420 424 0
-611 432 0
-432 611 0
-737 403 430 428 425 410 416 421 0
-612 0
-738 432 411 417 422 426 429 431 404 0
-433 1177 0
-1177 1178 0
-1178 1179 0
-1179 1180 0
-1180 1181 0
-438 1182 0
-1181 1182 0
-1182 1183 0
-439 -1182 0
-1183 1184 0
-441 1185 0
-1184 1185 0
-442 1186 0
-1185 1186 0
-443 1187 0
-1186 1187 0
-444 1188 0
-1187 1188 0
-445 1189 0
-1188 1189 0
-1189 1190 0
-446 -1189 0
-1190 1191 0
-1191 1192 0
-1192 1193 0
-1193 1194 0
-451 1195 0
-1194 1195 0
-1195 1196 0
-452 -1195 0
-1196 1197 0
-1197 1198 0
-1198 1199 0
-456 1200 0
-1199 1200 0
-1200 1201 0
-457 -1200 0
-1201 1202 0
-1202 1203 0
-460 1204 0
-1203 1204 0
-1204 1205 0
-461 -1204 0
-1205 1206 0
-463 1207 0
-1206 1207 0
-1207 1208 0
-464 -1207 0
-1208 1209 0
-466 1210 0
-1209 1210 0
-1209 -466 0
-1210 1211 0
-1211 -468 0
-613 439 433 434 436 437 438 435 440 0
-739 0
-614 441 446 443 444 445 442 447 0
-740 433 0
-619 466 467 0
-745 438 445 451 456 460 463 0
-620 468 0
-468 620 0
-746 439 466 464 461 446 452 457 0
-446 746 0
-466 746 0
-621 0
-747 468 447 453 458 462 465 467 440 0
470 471 469 -622 472 473 474 475 476 0
-748 0
469 -749 0
-628 502 503 0
487 -754 481 474 492 496 499 0
-629 504 0
629 -504 0
488 475 482 -755 493 497 500 502 0
-630 0
-756 504 483 489 494 498 501 503 476 0
-1253 637 511 0
639 -1255 513 0
-1262 520 1253 646 0
648 -1264 1255 522 0
-1271 1262 529 655 0
-1271 1262 -529 0
657 -1273 1264 531 0
-1262 1272 -106 0
-1280 1271 538 664 0
-1282 666 1273 540 0
-1281 1272 -142 1271 0
-1281 -144 1273 0
-1272 -144 1282 0
-1290 1281 548 674 0
675 -1282 1291 549 0
-1291 675 1282 549 0
-1299 1290 557 683 0
684 -1291 1300 558 0
-1300 684 1291 558 0
-1290 -216 1300 0
-1308 692 566 1299 0
693 -1300 1309 567 0
-1309 693 1300 567 0
-1299 -252 1309 0
-1317 1308 575 701 0
702 -1309 1318 576 0
-1318 702 1309 576 0
711 -1318 1327 585 0
-1327 711 1318 585 0
-1317 -324 1327 0
720 -1327 1336 594 0
-1336 720 1327 594 0
729 -1336 1345 603 0
-1336 -729 1345 0
738 -1345 1354 612 0
747 -1354 1363 621 0
756 -1363 630 0
-1370 637 511 0
639 -1372 513 0
-20 -1371 0
-34 -1371 0
-1371 -36 0
-36 -1372 0
-1380 647 1371 521 0
648 -1381 1372 522 0
-1380 -70 1371 1370 0
-1380 -72 1372 0
-1381 1371 -72 1372 0
-1389 656 530 1380 0
657 -1390 1381 531 0
-108 1380 -1390 1381 0
1389 -1398 665 539 0
666 -1399 1390 540 0
1389 -1399 1390 -144 0
1398 -1407 548 674 0
675 -1408 1399 549 0
1398 -180 -1408 1399 0
-1416 1407 557 683 0
684 -1417 1408 558 0
1407 1408 -216 -1417 0
-1425 692 1416 566 0
693 -1426 1417 567 0
1425 -1434 701 575 0
702 -1435 1426 576 0
1425 -1435 1426 -288 0
711 -1444 1435 585 0
1434 -324 1435 -1444 0
-719 -1443 1452 0
720 -1453 1444 594 0
1443 -360 -1453 1444 0
728 -1452 602 1461 0
1461 -1452 -728 0
729 -1462 1453 603 0
1470 -1461 737 611 0
-737 -1461 1470 0
738 -1471 1462 612 0
746 -1470 620 1479 0
-746 -1470 1479 0
747 -1480 1471 621 0
755 -1479 629 0
-755 -1479 0
756 1480 630 0
-1487 637 511 0
638 -1488 512 0
639 -1489 513 0
-1488 -7 0
-25 -1488 0
-29 -1488 0
-1488 -32 0
-1496 520 1487 646 0
648 -1498 1489 522 0
-1497 -70 1488 1487 0
-1505 1496 -529 0
1497 -1506 530 656 0
657 -1507 1498 531 0
1497 -108 1498 -1507 0
-1514 1505 538 664 0
1506 -1515 665 539 0
666 -1516 1507 540 0
-1515 -144 1507 0
1506 -1516 1507 -144 0
1515 -1524 548 674 0
675 -1525 1516 549 0
-1524 -180 1516 0
1515 -180 -1525 1516 0
-1533 1524 557 683 0
684 -1534 1525 558 0
-1533 1525 -216 0
-1542 692 1533 566 0
693 -1543 1534 567 0
-1542 1534 -252 0
-1551 1542 701 575 0
702 -1552 1543 576 0
1542 -1552 1543 -288 0
711 -1561 1552 585 0
-1560 -324 1552 0
1551 -324 1552 -1561 0
1560 -1569 719 593 0
720 -1570 1561 594 0
-1569 1578 -728 0
729 -1579 1570 603 0
-1568 1578 -394 0
1569 -396 -1579 1570 0
1587 -1578 737 611 0
-737 -1578 1587 0
738 -1588 1579 612 0
746 -1587 620 1596 0
-746 -1587 1596 0
747 -1597 1588 621 0
629 -1596 755 0
-755 -1596 0
756 1597 630 0
-1599 506 632 0
637 1604 511 0
-637 1604 0
638 -1605 512 0
639 -1606 513 0
-7 -1605 0
-14 -1605 0
-20 -1605 0
-25 -1605 0
-29 -1605 0
-32 -1605 0
-34 -1604 0
-34 1605 0
-36 -1605 0
646 1613 520 -1604 0
-646 1613 -1604 0
1614 647 -1605 521 0
-1614 1605 -521 0
648 -1615 1606 522 0
-70 -1613 1605 0
1614 -70 -1604 0
-1614 -72 1606 0
-1615 1605 1606 -72 0
1622 -1613 529 655 0
1622 -1613 -655 0
-1614 1623 656 530 0
657 -1624 1615 531 0
1623 -106 -1613 0
664 -1622 1631 538 0
-1631 -538 1622 0
-664 -1622 1631 0
1632 665 539 -1623 0
1632 -665 -1623 0
666 -1633 1624 540 0
-142 -1623 1631 -1622 0
1632 -142 -1622 0
-1631 1640 547 673 0
-1640 1631 673 547 0
-673 1640 -1631 0
1641 -1632 548 674 0
-674 1641 -1632 0
675 -1642 1633 549 0
-178 1641 -1631 0
-1640 556 682 1649 0
-682 -1640 1649 0
-1641 1650 557 683 0
-1641 -683 1650 0
684 -1651 1642 558 0
-214 1650 -1640 0
1642 -1650 -216 0
-1649 1658 565 691 0
-691 1658 -1649 0
692 1659 566 -1650 0
1659 -1650 -692 0
693 -1660 1651 567 0
-250 1659 -1649 0
1651 -1659 -252 0
-1658 1667 574 700 0
-700 1667 -1658 0
-1659 1668 575 701 0
-1659 1668 -701 0
702 -1669 1660 576 0
1668 -286 -1658 0
1660 -1668 -288 0
1660 1659 -288 -1669 0
-1667 1676 583 709 0
-709 1676 -1667 0
-1668 1677 584 710 0
-710 -1668 1677 0
711 -1678 1669 585 0
-322 -1667 1677 0
-1676 1685 592 718 0
-718 1685 -1676 0
-1677 1686 593 719 0
-719 -1677 1686 0
720 -1687 1678 594 0
-1676 1686 -358 0
1694 -1685 601 727 0
1694 -1685 -727 0
-1686 1695 728 602 0
-1686 1695 -728 0
729 -1696 1687 603 0
-1685 1695 -394 0
1686 -396 1687 -1696 0
1703 -1694 736 610 0
1703 -1694 -736 0
-1695 1704 737 611 0
-737 -1695 1704 0
738 -1705 1696 612 0
-1694 1704 -430 0
-1704 -432 1696 0
-1703 745 1712 619 0
-745 -1703 1712 0
-1704 1713 620 746 0
-1704 -746 1713 0
747 -1714 1705 621 0
-1703 -466 1713 0
1704 -468 1705 -1714 0
-1713 755 629 0
-1713 -755 0
756 1714 630 0
-1712 -502 0
-1716 506 632 0
1721 637 511 0
639 -1723 513 0
-1725 515 1716 641 0
1730 520 -1721 646 0
648 -1732 1723 522 0
-1734 650 1725 524 0
1739 -1730 529 655 0
657 -1741 1732 531 0
1740 -1730 -106 0
-1740 -108 1732 0
-1743 659 1734 533 0
1748 -1739 538 664 0
1749 -1740 539 665 0
1740 -1749 665 539 0
666 -1750 1741 540 0
1749 -1739 -142 0
-1749 -144 1741 0
-1752 668 1743 542 0
1758 -1749 548 674 0
1749 674 548 -1758 0
675 -1759 1750 549 0
-158 -1758 1743 1749 0
-1748 -178 1758 0
-1758 -180 1750 0
-1761 677 1752 551 0
1767 -1758 683 557 0
-1767 1758 557 683 0
684 -1768 1759 558 0
-1767 1759 -216 0
-1770 560 1761 686 0
-1767 1776 566 692 0
-1776 692 1767 566 0
693 -1777 1768 567 0
1768 -1776 -252 0
-1779 695 1770 569 0
-1776 1785 575 701 0
1776 -1785 575 701 0
702 -1786 1777 576 0
-1785 -288 1777 0
-1788 704 1779 578 0
1785 -1794 584 710 0
-1785 -710 1794 0
711 -1795 1786 585 0
-302 -1794 1779 1785 0
-1794 -324 1786 0
-1803 719 593 1794 0
720 -1804 1795 594 0
-338 1788 -1803 1794 0
-1803 -360 1795 0
-1803 1812 602 728 0
-1812 1803 602 728 0
729 -1813 1804 603 0
-1812 -396 1804 0
-1821 1812 737 611 0
738 -1822 1813 612 0
-1821 -432 1813 0
1812 -432 -1822 1813 0
1821 -1830 746 620 0
747 -1831 1822 621 0
-1830 -468 1822 0
1830 755 629 0
-629 1830 0
1831 756 630 0
1831 -504 0
-1950 506 632 0
-1955 637 511 0
639 1957 513 0
1957 -639 0
-1956 -34 0
-1959 515 1950 641 0
-1964 520 1955 646 0
-1965 1956 647 521 0
648 -1957 1966 522 0
1966 -648 -1957 0
-1965 -70 1955 1956 0
-1968 650 1959 524 0
-1973 1964 529 655 0
-1974 1965 530 656 0
657 -1966 1975 531 0
-657 1975 -1966 0
-1973 1965 -106 0
-1974 1965 1964 -106 0
-1977 659 1968 533 0
-1982 1973 538 664 0
-1983 665 1974 539 0
-1983 -539 1974 0
-1975 666 1984 540 0
-666 1984 -1975 0
-1983 -142 1974 1973 0
-1986 668 1977 542 0
1983 -1992 548 674 0
-1992 1983 -548 0
-1984 1993 675 549 0
-675 1993 -1984 0
1983 -178 -1992 1982 0
-1995 677 1986 551 0
-2001 1992 683 557 0
-2001 1992 -557 0
-1993 684 2002 558 0
-684 2002 -1993 0
-2001 -214 1991 1992 0
-2004 560 1995 686 0
-2010 692 2001 566 0
-2010 2001 -566 0
-2002 693 2011 567 0
-693 2011 -2002 0
-2010 -250 2000 2001 0
-2013 695 2004 569 0
-2019 2010 575 701 0
-2019 2010 -575 0
-2011 702 2020 576 0
-702 -2011 2020 0
-2018 2010 -286 0
-2019 2009 -286 2010 0
-2028 2019 584 710 0
-2028 2019 -584 0
-2020 711 2029 585 0
-711 2029 -2020 0
-2037 2028 593 719 0
720 -2029 2038 594 0
2038 -720 -2029 0
729 -2038 2047 603 0
-2038 -729 2047 0
738 -2047 2056 612 0
-738 2056 -2047 0
747 -2056 2065 621 0
3125 637 511 0
-637 3125 0
3127 639 513 0
-639 3127 0
-14 -3126 0
-34 -3125 0
-34 3126 0
646 3134 520 -3125 0
-646 3134 -3125 0
647 3135 521 -3126 0
-647 -3126 3135 0
648 -3127 3136 522 0
-648 3136 -3127 0
-70 3126 -3134 0
-70 3135 -3125 0
-3126 3135 -3127 -72 0
3143 -3134 529 655 0
-655 3143 -3134 0
656 -3135 3144 530 0
-656 -3135 3144 0
657 -3136 3145 531 0
-657 3145 -3136 0
-3135 -106 -3134 3143 0
-106 3144 -3134 0
-108 -3135 -3136 3144 0
664 3152 538 -3143 0
-664 3152 -3143 0
665 539 3153 -3144 0
-3144 -665 3153 0
-3145 3154 666 540 0
-666 3154 -3145 0
-142 3144 -3152 0
-142 -3144 3152 -3143 0
-142 3153 -3143 0
-142 3144 3143 -3153 0
-144 3153 -3145 -3144 0
547 673 -3152 3161 0
-673 3161 -3152 0
674 -3153 548 3162 0
-674 -3153 3162 0
-3154 3163 675 549 0
-675 -3154 3163 0
-178 -3153 -3152 3161 0
-178 -3152 3162 0
-180 -3154 -3153 3162 0
556 682 -3161 3170 0
-682 3170 -3161 0
683 -3162 3171 557 0
-3171 3162 -557 0
-683 -3162 3171 0
-3163 3172 684 558 0
-684 -3163 3172 0
-214 -3170 3162 0
-214 -3161 -3162 3170 0
-214 -3161 3171 0
-3163 -216 3171 -3162 0
3163 3162 -3172 -216 0
565 691 -3170 3179 0
-691 3179 -3170 0
692 -3171 3180 566 0
-692 -3171 3180 0
-3172 3181 693 567 0
-693 -3172 3181 0
-250 -3179 3171 0
-250 -3170 -3171 3179 0
-250 -3170 3180 0
-252 3180 -3172 -3171 0
3172 -252 -3181 3171 0
700 -3179 574 3188 0
-700 3188 -3179 0
701 -3180 3189 575 0
-701 -3180 3189 0
-3181 3190 702 576 0
-702 3190 -3181 0
-286 -3180 -3179 3188 0
-286 -3179 3189 0
3189 -3181 -288 -3180 0
3180 3181 -3190 -288 0
583 709 -3188 3197 0
-709 3197 -3188 0
710 -3189 3198 584 0
-710 -3189 3198 0
-3190 3199 711 585 0
-711 3199 -3190 0
-322 3197 -3189 -3188 0
-322 -3188 3198 0
-324 3198 -3190 -3189 0
592 -3197 3206 718 0
-718 -3197 3206 0
719 -3198 593 3207 0
-719 -3198 3207 0
720 -3199 3208 594 0
3208 -720 -3199 0
-358 -3198 -3197 3206 0
-358 -3197 3207 0
-3199 -360 3207 -3198 0
601 727 -3206 3215 0
-727 3215 -3206 0
728 -3207 602 3216 0
-728 -3207 3216 0
729 -3208 3217 603 0
-729 -3208 3217 0
-394 -3206 -3207 3215 0
-394 -3206 3216 0
-3208 3216 -396 -3207 0
-396 -3217 3208 3207 0
736 3224 -3215 610 0
-736 3224 -3215 0
737 3225 611 -3216 0
-611 -3225 3216 0
-737 3225 -3216 0
738 -3217 3226 612 0
-3226 738 3217 612 0
-430 -3216 -3215 3224 0
3225 -430 -3215 0
3215 3216 -430 -3225 0
-432 -3217 3225 -3216 0
-3226 3216 3217 -432 0
745 3233 619 -3224 0
-745 -3224 3233 0
3234 -3225 620 746 0
-746 3234 -3225 0
747 -3235 3226 621 0
-466 3233 -3225 -3224 0
-468 3234 -3225 -3226 0
3225 -468 -3235 3226 0
754 -3233 628 0
-754 -3233 0
756 3235 630 0
-3234 -502 -3233 0
3234 3233 -502 0
-504 3235 0
6747 506 632 0
6756 515 -6747 641 0
6765 524 650 -6756 0
6774 659 -6765 533 0
6783 668 -6774 542 0
6792 551 -6783 677 0
6801 560 -6792 686 0
6810 569 -6801 695 0
6819 578 -6810 704 0
6828 587 -6819 713 0
6837 722 -6828 596 0
6846 731 -6837 605 0
6855 614 -6846 740 0
-749 -6855 0
7566 506 632 0
7575 515 -7566 641 0
7584 524 -7575 650 0
7593 659 -7584 533 0
7602 668 -7593 542 0
7611 677 -7602 551 0
7620 560 -7611 686 0
7629 569 -7620 695 0
7638 578 -7629 704 0
7647 587 -7638 713 0
7656 722 -7647 596 0
7665 731 -7656 605 0
7674 614 -7665 740 0
623 -7674 749 0
-8385 506 632 0
8390 637 511 0
638 8391 512 0
8391 -638 0
8735 -1 0
514 -8735 8744 640 0
-8744 523 8753 649 0
532 -8753 8762 658 0
541 -8762 8771 667 0
550 -8771 8780 676 0
559 -8780 8789 685 0
568 -8789 8798 694 0
577 -8798 8807 703 0
586 -8807 8816 712 0
595 -8816 8825 721 0
604 -8825 8834 730 0
613 -8834 8843 739 0
622 -8843 748 0
-10140 506 632 0
10145 637 511 0
639 10147 513 0
10146 -34 0
-10149 515 10140 641 0
10154 520 -10145 646 0
10155 647 521 -10146 0
-10147 648 10156 522 0
10155 -70 -10145 0
-10158 650 10149 524 0
10163 -10154 529 655 0
10164 -10155 530 656 0
657 -10156 10165 531 0
10164 -10154 -106 0
-10167 659 10158 533 0
10172 -10163 538 664 0
10173 -10164 539 665 0
-10165 10174 666 540 0
10173 -10163 -142 0
-10176 668 10167 542 0
10181 -10172 547 673 0
10182 -10173 548 674 0
-10174 10183 675 549 0
10182 -10172 -178 0
10182 -10173 -180 -10174 0
-10185 551 10176 677 0
-551 -10185 10176 0
10191 -10182 557 683 0
-10183 10192 684 558 0
10191 -10181 -214 0
10191 -10182 -216 -10183 0
-10194 560 10185 686 0
-560 -10194 10185 0
10200 692 566 -10191 0
10200 -10191 -252 -10192 0
-10203 569 10194 695 0
-569 -10203 10194 0
10209 -10200 575 701 0
-10212 704 10203 578 0
10218 -10209 584 710 0
-10221 587 10212 713 0
-587 -10221 10212 0
10227 -10218 593 719 0
-10230 596 10221 722 0
-596 -10230 10221 0
10236 -10227 602 728 0
-10374 506 632 0
-506 -10374 0
10379 637 511 0
639 10381 513 0
-10373 -1 0
10380 -34 0
514 -10382 10373 640 0
-10383 515 10374 641 0
-515 -10383 10374 0
10388 520 -10379 646 0
10389 647 521 -10380 0
-10381 10390 648 522 0
10389 -70 -10379 0
523 -10391 10382 649 0
-10392 524 650 10383 0
10397 -10388 529 655 0
10398 -10389 530 656 0
657 -10390 10399 531 0
10397 -10389 -106 -10388 0
10398 -10388 -106 0
532 -10400 10391 658 0
-10401 533 10392 659 0
-533 -10401 10392 0
10406 -10397 538 664 0
10407 -10398 665 539 0
-10399 10408 666 540 0
10407 -10397 -142 0
10407 -144 -10399 -10398 0
541 -10409 10400 667 0
-10410 668 10401 542 0
-542 -10410 10401 0
10415 -10406 547 673 0
10416 -10407 548 674 0
-10408 10417 675 549 0
-10409 -145 10401 0
-145 -10410 10400 10401 0
-151 -10400 -10407 10409 0
-10406 -178 10416 0
10416 -10407 -180 -10408 0
-10418 550 10409 676 0
-10419 551 10410 677 0
-551 -10419 10410 0
10424 556 682 -10415 0
10425 683 -10416 557 0
-10417 10426 684 558 0
10425 -10415 -214 0
10425 -10416 -216 -10417 0
-10427 559 10418 685 0
-10428 686 10419 560 0
-560 -10428 10419 0
10433 -10424 565 691 0
10434 692 566 -10425 0
-10426 10435 693 567 0
10434 -250 -10424 0
10434 -10426 -252 -10425 0
568 -10436 10427 694 0
-10437 695 10428 569 0
-569 -10437 10428 0
10443 701 -10434 575 0
-10435 10444 702 576 0
10427 -253 10428 -10437 0
-10433 10443 -286 0
10443 -10434 -288 -10435 0
577 -10445 10436 703 0
-10446 704 10437 578 0
-578 -10446 10437 0
10452 710 -10443 584 0
-10444 10453 711 585 0
10452 -324 -10443 -10444 0
-10454 586 10445 712 0
-10455 587 10446 713 0
-587 -10455 10446 0
10461 -10452 593 719 0
720 -10453 10462 594 0
10461 -10452 -360 -10453 0
595 -10463 10454 721 0
-10464 596 10455 722 0
-596 -10464 10455 0
-10469 10460 -601 0
10470 -10461 602 728 0
-10463 -361 10455 0
10454 -361 -10464 10455 0
-367 -10454 -10461 10463 0
604 -10472 10463 730 0
-10473 731 10464 605 0
-605 -10473 10464 0
-10478 10469 610 736 0
-10481 613 10472 739 0
-10482 614 10473 740 0
-614 -10482 10473 0
10478 745 -10487 619 0
623 749 10482 0
-623 10482 0
754 10487 628 0
-10481 -469 -10482 0
-10481 -475 -10488 0
-481 10487 0
-487 10487 0
-492 10487 0
-496 10487 0
-499 10487 0
-10490 505 631 0
-505 -10490 0
10496 637 511 0
639 10498 513 0
-10499 514 10490 640 0
-514 -10499 10490 0
10505 520 -10496 646 0
-10498 10507 648 522 0
-10508 10499 523 649 0
657 -10507 10516 531 0
10515 -10505 -106 0
10608 506 632 0
10613 637 511 0
10617 515 -10608 641 0
10622 520 -10613 646 0
10626 650 -10617 524 0
10631 -10623 -106 -10622 0
10632 -10622 -106 0
10635 659 -10626 533 0
10641 665 -10632 539 0
10644 668 -10635 542 0
10650 -10641 548 674 0
10653 677 -10644 551 0
10659 -10650 557 683 0
10662 560 -10653 686 0
10668 -10659 566 692 0
10671 695 -10662 569 0
10677 -10668 701 575 0
10676 -10667 -286 -10668 0
10724 -1 0
-34 -10724 0
-9 10842 0
-10842 -34 0
-10 -10921 0
-11 -10921 0
-12 -10921 0
10921 -34 0
-50 -10614 -10608 -10922 1599 1605 0
10922 -70 -1604 0
-13 -10987 0
10987 -34 0
11066 -36 0
-1956 -70 11067 0
10614 -70 11067 0
11067 -72 -1957 0
-1964 -106 11068 0
-1965 -106 11068 0
10622 -106 11068 0
10623 -106 11068 0
-108 11068 -1966 0
-121 -11069 -10626 -10631 1968 1973 0
-122 -11069 -10626 -10632 1968 1974 0
-1973 -142 11069 0
-1974 -142 11069 0
-11069 -10632 -142 -10631 1973 1974 0
-144 11069 -1975 0
-1982 -178 11070 0
-1983 -178 11070 0
-180 11070 -1984 0
-1991 -214 11071 0
-1992 -214 11071 0
11071 -216 -1993 0
-2000 -250 11072 0
-2001 -250 11072 0
11072 -252 -2002 0
-2003 -253 11073 0
-2009 -286 11073 0
-2010 -286 11073 0
10667 -286 11073 0
10668 -286 11073 0
-2011 11073 -288 0
-301 -10676 -11074 -10671 2013 2018 0
-302 -11074 -10677 -10671 2013 2019 0
-2020 -324 11074 0
-360 -2029 11075 0
-2038 11076 -396 0
-432 -2047 11077 0
-2056 -468 11078 0
-2065 11079 -504 0
-114 11109 10508 0
-11109 -144 -10515 -10516 1272 1273 0
-1 11159 0
-9 11159 0
-10 11159 0
-11 11159 0
-12 11159 0
-13 11159 0
-14 11159 0
-37 10373 11160 0
-37 10374 11160 0
-38 10373 11160 0
-39 10373 11160 0
-40 10373 11160 0
-41 10373 11160 0
-42 10373 11160 0
-43 10373 11160 0
-45 10374 11160 0
-46 10374 11160 0
-47 10374 11160 0
-48 10374 11160 0
-49 10374 11160 0
-50 10374 11160 0
10382 -73 11161 0
-73 10383 11161 0
10382 -74 11161 0
-75 10382 11161 0
-76 10382 11161 0
-77 10382 11161 0
-78 10382 11161 0
-79 10382 11161 0
-81 10383 11161 0
-82 10383 11161 0
-83 10383 11161 0
-84 10383 11161 0
-85 10383 11161 0
-86 10383 11161 0
-109 11162 10391 0
-109 10392 11162 0
-110 11162 10391 0
-111 11162 10391 0
-112 11162 10391 0
-113 11162 10391 0
-114 11162 10391 0
-115 11162 10391 0
-117 10392 11162 0
-118 10392 11162 0
-119 10392 11162 0
-120 10392 11162 0
-121 10392 11162 0
-122 10392 11162 0
-1272 -142 11162 0
-144 -10398 -11162 -10399 1272 1273 0
-145 11163 10400 0
-145 10401 11163 0
-146 11163 10400 0
-147 11163 10400 0
-148 11163 10400 0
-149 11163 10400 0
-150 11163 10400 0
-151 11163 10400 0
-153 10401 11163 0
-154 10401 11163 0
-155 10401 11163 0
-156 10401 11163 0
-157 10401 11163 0
-158 10401 11163 0
-11163 -178 -10407 -10406 1280 1281 0
10409 -181 11164 0
-181 10410 11164 0
-182 10409 11164 0
-183 10409 11164 0
-184 10409 11164 0
-185 10409 11164 0
-186 10409 11164 0
10409 -187 11164 0
-189 10410 11164 0
-190 10410 11164 0
-191 10410 11164 0
-192 10410 11164 0
-193 10410 11164 0
-194 10410 11164 0
10415 -214 11164 0
-11164 1290 -216 -10416 -10417 1291 0
10418 -217 11165 0
-217 10419 11165 0
-218 10418 11165 0
-219 10418 11165 0
-220 10418 11165 0
-221 10418 11165 0
-222 10418 11165 0
-223 10418 11165 0
-225 10419 11165 0
-226 10419 11165 0
-227 10419 11165 0
-228 10419 11165 0
-229 10419 11165 0
-230 10419 11165 0
-11165 1299 -252 -10425 -10426 1300 0
-253 10427 11166 0
-253 10428 11166 0
-254 10427 11166 0
-255 10427 11166 0
-256 10427 11166 0
-257 10427 11166 0
-258 10427 11166 0
-261 10428 11166 0
-262 10428 11166 0
-263 10428 11166 0
-264 10428 11166 0
-265 10428 11166 0
-266 10428 11166 0
10436 -289 11167 0
-289 10437 11167 0
-290 10436 11167 0
-291 10436 11167 0
-292 10436 11167 0
-293 10436 11167 0
-294 10436 11167 0
-297 10437 11167 0
-298 10437 11167 0
-299 10437 11167 0
-300 10437 11167 0
-301 10437 11167 0
-302 10437 11167 0
-11167 -324 -10443 -10444 1317 1318 0
10445 -325 11168 0
-325 10446 11168 0
-326 10445 11168 0
-327 10445 11168 0
-328 10445 11168 0
-329 10445 11168 0
-330 10445 11168 0
-333 10446 11168 0
-334 10446 11168 0
-335 10446 11168 0
-336 10446 11168 0
-337 10446 11168 0
-338 10446 11168 0
10452 -360 11168 0
-361 10454 11169 0
-361 10455 11169 0
-362 10454 11169 0
-363 10454 11169 0
-364 10454 11169 0
-365 10454 11169 0
-366 10454 11169 0
-369 10455 11169 0
-370 10455 11169 0
-371 10455 11169 0
-372 10455 11169 0
-373 10455 11169 0
-374 10455 11169 0
10461 -396 11169 0
10463 -397 11170 0
-397 10464 11170 0
-398 10463 11170 0
-399 10463 11170 0
-400 10463 11170 0
-401 10463 11170 0
-402 10463 11170 0
-405 10464 11170 0
-406 10464 11170 0
-407 10464 11170 0
-408 10464 11170 0
-409 10464 11170 0
-409 10469 11170 0
-410 10464 11170 0
-415 10469 11170 0
-420 10469 11170 0
-424 10469 11170 0
-427 10469 11170 0
10472 -433 11171 0
-433 10473 11171 0
-434 10472 11171 0
-435 10472 11171 0
-436 10472 11171 0
-437 10472 11171 0
-438 10472 11171 0
-441 10473 11171 0
-442 10473 11171 0
-443 10473 11171 0
-444 10473 11171 0
-445 10473 11171 0
-445 10478 11171 0
-446 10473 11171 0
-451 10478 11171 0
-456 10478 11171 0
-460 10478 11171 0
-463 10478 11171 0
10481 -469 11172 0
-469 11172 10482 0
-470 10481 11172 0
-471 10481 11172 0
-472 10481 11172 0
-473 10481 11172 0
-474 10481 11172 0
10481 -475 11172 0
10488 -475 11172 0
10389 11254 -106 0
11255 -144 -1975 0
11256 -145 10401 0
11259 -253 10428 0
-10427 -259 2010 -10434 -11259 2003 0
-11254 11270 0
-11270 -11255 11273 0
-11273 -11256 0
11345 -1 0
-6 11345 0
-9 11345 0
-10 11345 0
-11 11345 0
-12 11345 0
-13 11345 0
-14 11345 0
-19 11345 0
-24 11345 0
-28 11345 0
-31 11345 0
-34 11345 0
11345 -36 0
-37 10374 11346 0
-42 11346 -3125 0
-43 11346 -3126 0
-45 10374 11346 0
-46 10374 11346 0
-47 10374 11346 0
-48 10374 11346 0
-49 11346 -3125 0
-49 11346 10374 0
-50 11346 -3126 0
-50 10374 11346 0
-55 11346 -3125 0
-56 11346 -3126 0
-60 11346 -3125 0
-61 11346 -3126 0
-64 11346 -3125 0
-65 11346 -3126 0
-67 11346 -3125 0
-68 11346 -3126 0
-70 11346 -3125 0
-70 11346 -3126 0
11346 -72 -3127 0
11347 -73 10383 0
-78 11347 -3134 0
-79 -3135 11347 0
-81 11347 10383 0
-82 11347 10383 0
-83 11347 10383 0
-84 11347 10383 0
-85 11347 -3134 0
-85 11347 10383 0
-86 -3135 11347 0
-86 11347 10383 0
-91 11347 -3134 0
-92 -3135 11347 0
-96 11347 -3134 0
-97 -3135 11347 0
-100 11347 -3134 0
-101 -3135 11347 0
-103 11347 -3134 0
-104 -3135 11347 0
-106 11347 -3134 0
-106 -3135 11347 0
-108 11347 -3135 0
-108 11347 -3136 0
-109 11348 10392 0
-114 11348 -3143 0
-115 11348 -3144 0
-117 11348 10392 0
-118 11348 10392 0
-119 11348 10392 0
-120 11348 10392 0
-121 11348 10392 0
-122 11348 -3144 0
-122 10392 11348 0
-127 11348 -3143 0
-128 11348 -3144 0
-132 11348 -3143 0
-133 11348 -3144 0
-136 11348 -3143 0
-137 11348 -3144 0
-139 11348 -3143 0
-140 11348 -3144 0
-142 11348 -3143 0
-142 11348 -3144 0
-144 11348 -3145 0
-145 11349 10401 0
-150 11349 -3152 0
-151 11349 -3153 0
-153 11349 10401 0
-154 11349 10401 0
-155 11349 10401 0
-156 11349 10401 0
-157 11349 10401 0
-158 11349 -3153 0
-158 11349 10401 0
-163 11349 -3152 0
-164 11349 -3153 0
-168 11349 -3152 0
-169 11349 -3153 0
-172 11349 -3152 0
-173 11349 -3153 0
-175 11349 -3152 0
-176 11349 -3153 0
-178 11349 -3152 0
11349 -178 -3153 0
11349 -180 -3154 0
-181 10410 11350 0
-186 -3161 11350 0
-187 -3162 11350 0
-189 10410 11350 0
-190 10410 11350 0
-191 10410 11350 0
-192 10410 11350 0
-193 -3161 11350 0
-193 10410 11350 0
-194 -3162 11350 0
-194 10410 11350 0
-199 -3161 11350 0
-200 -3162 11350 0
-204 -3161 11350 0
-205 -3162 11350 0
-208 -3161 11350 0
-209 -3162 11350 0
-211 -3161 11350 0
-212 -3162 11350 0
-214 -3161 11350 0
-214 -3162 11350 0
-3162 -216 11350 0
-216 11350 -3163 0
-217 10419 11351 0
-222 -3170 11351 0
-223 -3171 11351 0
-225 10419 11351 0
-226 10419 11351 0
-227 10419 11351 0
-228 10419 11351 0
-229 10419 11351 0
-230 -3171 11351 0
-230 10419 11351 0
-235 -3170 11351 0
-236 -3171 11351 0
-240 -3170 11351 0
-241 -3171 11351 0
-244 -3170 11351 0
-245 -3171 11351 0
-247 -3170 11351 0
-248 -3171 11351 0
-250 -3170 11351 0
-250 -3171 11351 0
-3171 -252 11351 0
-252 11351 -3172 0
-253 10428 11352 0
-259 -3180 11352 0
-261 10428 11352 0
-262 10428 11352 0
-263 10428 11352 0
-264 10428 11352 0
-265 10428 11352 0
-266 -3180 11352 0
-272 -3180 11352 0
-277 -3180 11352 0
-281 -3180 11352 0
-284 -3180 11352 0
-286 -3179 11352 0
-286 -3180 11352 0
-3180 11352 -288 0
-3181 11352 -288 0
-289 11353 10437 0
-295 -3189 11353 0
-297 11353 10437 0
-298 10437 11353 0
-299 11353 10437 0
-300 11353 10437 0
-301 10437 11353 0
-302 -3189 11353 0
-308 -3189 11353 0
-313 -3189 11353 0
-317 -3189 11353 0
-320 -3189 11353 0
-322 11353 -3188 0
-322 11353 -3189 0
-324 -3189 11353 0
-324 11353 -3190 0
-325 11354 10446 0
-330 11354 -3197 0
-331 11354 -3198 0
-333 10446 11354 0
-334 10446 11354 0
-335 11354 10446 0
-336 10446 11354 0
-337 11354 -3197 0
-337 11354 10446 0
-338 11354 -3198 0
-343 11354 -3197 0
-344 11354 -3198 0
-348 11354 -3197 0
-349 11354 -3198 0
-352 11354 -3197 0
-353 11354 -3198 0
-355 11354 -3197 0
-356 11354 -3198 0
11354 -358 -3197 0
-358 11354 -3198 0
-360 11354 -3198 0
-360 11354 -3199 0
-361 11355 10455 0
-367 -3207 11355 0
-369 11355 10455 0
-370 10455 11355 0
-371 11355 10455 0
-372 10455 11355 0
-373 10455 11355 0
-374 -3207 11355 0
-380 -3207 11355 0
-385 -3207 11355 0
-389 -3207 11355 0
-392 -3207 11355 0
-394 11355 -3206 0
-394 11355 -3207 0
-3207 -396 11355 0
-396 11355 -3208 0
-397 11356 10464 0
-402 11356 -3215 0
-403 -3216 11356 0
-409 11356 -3215 0
-410 11356 -3216 0
-415 11356 -3215 0
-416 -3216 11356 0
-420 11356 -3215 0
-421 -3216 11356 0
-424 11356 -3215 0
-425 11356 -3216 0
-427 11356 -3215 0
-428 -3216 11356 0
-3215 11356 -430 0
11356 -3216 -430 0
-432 11356 -3216 0
-432 -3217 11356 0
-433 10473 11357 0
-438 11357 -3224 0
-439 11357 -3225 0
-445 11357 -3224 0
-446 11357 -3225 0
-451 11357 -3224 0
-452 11357 -3225 0
-456 11357 -3224 0
-457 11357 -3225 0
-460 11357 -3224 0
-461 11357 -3225 0
-463 11357 -3224 0
-464 11357 -3225 0
-466 11357 -3224 0
-466 11357 -3225 0
-468 11357 -3225 0
-468 -3226 11357 0
-482 -3234 11358 0
-488 -3234 11358 0
-493 -3234 11358 0
-497 -3234 11358 0
-500 -3234 11358 0
11358 -502 -3233 0
-3234 11358 -502 0
11358 -504 -3235 0
11359 -11345 0
11362 -11346 0
11362 -11359 0
11363 -11359 -11346 0
11365 -11347 0
11365 -11362 0
-11363 11366 0
-11347 11366 -11362 0
-11363 -11347 11367 0
11368 -11348 0
11368 -11365 0
-11366 11369 0
-11367 11370 0
-11348 11369 -11365 0
-11366 -11348 11370 0
11371 -11349 0
11371 -11368 0
-11369 11372 0
-11370 11373 0
-11349 11372 -11368 0
-11369 -11349 11373 0
11374 -11350 0
11374 -11371 0
-11372 11375 0
-11373 11376 0
-11350 11375 -11371 0
-11350 -11372 11376 0
11377 -11351 0
11377 -11374 0
-11375 11378 0
-11376 11379 0
11378 -11351 -11374 0
-11375 11379 -11351 0
11380 -11352 0
11380 -11377 0
-11378 11381 0
-11379 11382 0
-11352 11381 -11377 0
-11378 -11352 11382 0
11383 -11353 0
11383 -11380 0
-11381 11384 0
-11382 11385 0
11384 -11353 -11380 0
-11381 11385 -11353 0
11386 -11354 0
11386 -11383 0
-11384 11387 0
-11385 11388 0
11387 -11354 -11383 0
-11384 -11354 11388 0
11389 -11355 0
11389 -11386 0
11390 -11387 0
-11388 11391 0
11390 -11355 -11386 0
-11387 11391 -11355 0
11393 -11390 0
-11391 11394 0
-11356 11393 -11389 0
-11356 -11390 11394 0
11397 -11394 0
11397 -11393 -11357 0
-11367 -11348 0
-11370 -11349 0
-11373 -11350 0
-11376 -11351 0
-11379 -11352 0
-11382 -11353 0
-11385 -11354 0
-11388 -11355 0
-11391 -11356 0
-11394 -11357 0
-11358 -11397 0
-37 12597 8385 0
-45 12597 8385 0
-46 12597 8385 0
-47 12597 8385 0
-48 12597 8385 0
-12597 -70 -8391 1955 1956 -8390 0
12882 -361 10455 0
-10460 1568 1569 -10461 -12882 -394 0
13884 -11066 0
-11067 13885 0
13885 -13884 0
-11068 13886 0
13886 -13885 0
-11069 13887 0
13887 -13886 0
-11070 13888 0
13888 -13887 0
-11071 13889 0
13889 -13888 0
-11072 13890 0
13890 -13889 0
-11073 13891 0
13891 -13890 0
-11074 13892 0
13892 -13891 0
13893 -11075 0
13893 -13892 0
13894 -11076 0
13894 -13893 0
13895 -11077 0
13895 -13894 0
13896 -13895 0
-11068 -13885 0
-11069 -13886 0
-11070 -13887 0
-11071 -13888 0
-11072 -13889 0
-11073 -13890 0
-11074 -13891 0
-11075 -13892 0
-11076 -13893 0
-11077 -13894 0
-11078 -13895 0
-11079 -13896 0
-11159 13897 0
-11160 13898 0
-13897 13898 0
-11161 13899 0
-13898 13899 0
-11162 13900 0
-13899 13900 0
-11163 13901 0
-13900 13901 0
-11164 13902 0
-13901 13902 0
-11165 13903 0
-13902 13903 0
-11166 13904 0
-13903 13904 0
-11167 13905 0
-13904 13905 0
-11168 13906 0
-13905 13906 0
-11169 13907 0
-13906 13907 0
-11170 13908 0
-13907 13908 0
-11171 13909 0
-13908 13909 0
-11160 -13897 0
-11161 -13898 0
-13899 -11162 0
-11163 -13900 0
-11164 -13901 0
-11165 -13902 0
-11166 -13903 0
-11167 -13904 0
-11168 -13905 0
-11169 -13906 0
-11170 -13907 0
-11171 -13908 0
-11172 -13909 0
-8 0
-15 0
-21 0
-26 0
-30 0
-33 0
-35 0
-44 0
-51 0
-57 0
-62 0
-66 0
-69 0
-71 0
-80 0
-87 0
-93 0
-98 0
-102 0
-105 0
-107 0
-116 0
-123 0
-129 0
-134 0
-138 0
-141 0
-143 0
-152 0
-159 0
-165 0
-170 0
-174 0
-177 0
-179 0
-188 0
-195 0
-201 0
-206 0
-210 0
-213 0
-215 0
-224 0
-231 0
-237 0
-242 0
-246 0
-249 0
-251 0
-260 0
-267 0
-273 0
-278 0
-282 0
-285 0
-287 0
-296 0
-303 0
-309 0
-314 0
-318 0
-321 0
-323 0
-332 0
-339 0
-345 0
-350 0
-354 0
-357 0
-359 0
-368 0
-375 0
-381 0
-386 0
-390 0
-393 0
-395 0
-404 0
-411 0
-417 0
-422 0
-426 0
-429 0
-431 0
-440 0
-447 0
-453 0
-458 0
-462 0
-465 0
-467 0
-476 0
-483 0
-489 0
-494 0
-498 0
-501 0
-503 0
