p cnf 14000 2738
7 6 1 -505 4 2 3 5 8 0
-631 0
-506 10 9 14 11 12 13 15 0
-632 1 0
-511 34 35 0
-637 31 28 6 19 24 13 0
-13 637 0
-638 32 14 20 7 34 25 29 0
-513 0
-639 36 15 21 26 30 33 35 8 0
38 -514 37 39 40 41 42 43 44 0
-640 0
-515 45 46 47 48 49 50 51 0
-49 515 0
-641 37 0
-520 70 71 0
-646 67 49 55 60 42 64 0
-521 72 0
521 -72 0
65 68 -647 50 43 61 56 70 0
-522 0
-648 72 51 57 62 66 69 71 44 0
-73 827 0
-827 828 0
-828 829 0
-829 830 0
-830 831 0
-831 832 0
-78 -831 0
-832 833 0
-833 834 0
-81 835 0
-834 835 0
-82 836 0
-835 836 0
-83 837 0
-836 837 0
-84 838 0
-837 838 0
-838 839 0
-85 -838 0
-86 840 0
-839 840 0
-840 841 0
-841 842 0
-842 843 0
-843 844 0
-844 845 0
-91 -844 0
-845 846 0
-846 847 0
-847 848 0
-848 849 0
-849 850 0
-96 -849 0
-850 851 0
-851 852 0
-852 853 0
-853 854 0
-100 -853 0
-854 855 0
-855 856 0
-856 857 0
-103 -856 0
-857 858 0
-858 859 0
-106 860 0
-859 860 0
-106 -859 0
-860 861 0
-861 -108 0
75 74 73 -523 76 77 78 79 80 0
-649 0
-524 85 81 86 84 82 83 87 0
-650 73 0
-529 106 107 0
-655 103 85 78 91 96 100 0
-85 655 0
-530 108 0
-656 101 106 86 104 92 97 79 0
-531 0
-657 108 87 93 98 102 105 107 80 0
-108 657 0
862 -109 0
863 -862 0
864 -863 0
865 -864 0
866 -865 0
-114 867 0
867 -866 0
868 -867 0
-115 -867 0
869 -868 0
-117 870 0
870 -869 0
-118 871 0
871 -870 0
-119 872 0
872 -871 0
-120 873 0
873 -872 0
-121 874 0
874 -873 0
875 -874 0
-122 -874 0
876 -875 0
877 -876 0
878 -877 0
879 -878 0
-127 880 0
880 -879 0
881 -880 0
-128 -880 0
882 -881 0
883 -882 0
884 -883 0
-132 885 0
885 -884 0
886 -885 0
-133 -885 0
887 -886 0
888 -887 0
-136 889 0
889 -888 0
890 -889 0
-137 -889 0
891 -890 0
-139 892 0
892 -891 0
893 -892 0
-140 -892 0
894 -893 0
895 -894 0
-142 -894 0
896 -895 0
-144 -896 0
111 110 109 -532 112 113 114 115 116 0
-658 0
-533 117 122 120 119 121 118 123 0
-659 109 0
-538 142 143 0
-142 538 0
-664 139 114 121 127 132 136 0
-539 144 0
-665 142 128 122 137 140 133 115 0
-122 665 0
-142 665 0
-540 0
-666 144 123 129 134 138 141 143 116 0
-144 666 0
897 -145 0
-146 898 0
898 -897 0
-147 899 0
899 -898 0
-148 900 0
900 -899 0
-149 901 0
901 -900 0
-150 902 0
902 -901 0
-151 903 0
903 -902 0
-151 -902 0
904 -903 0
905 -904 0
906 -905 0
907 -906 0
908 -907 0
-157 909 0
909 -908 0
910 -909 0
-158 -909 0
911 -910 0
912 -911 0
913 -912 0
914 -913 0
-163 915 0
915 -914 0
916 -915 0
-164 -915 0
917 -916 0
918 -917 0
919 -918 0
-168 920 0
920 -919 0
921 -920 0
-169 -920 0
922 -921 0
923 -922 0
-172 924 0
924 -923 0
925 -924 0
-173 -924 0
926 -925 0
-175 927 0
927 -926 0
928 -927 0
-176 -927 0
929 -928 0
-178 930 0
930 -929 0
-178 -929 0
931 -930 0
-180 -931 0
-541 146 145 151 150 147 148 149 152 0
-667 0
-542 153 156 154 157 155 158 159 0
-668 145 0
-547 178 179 0
-673 163 150 157 175 168 172 0
-548 180 0
-674 178 151 158 176 173 169 164 0
-549 0
-675 180 159 165 170 174 177 179 152 0
-180 675 0
932 -181 0
-182 933 0
933 -932 0
-183 934 0
934 -933 0
-184 935 0
935 -934 0
-185 936 0
936 -935 0
-186 937 0
937 -936 0
-186 -936 0
938 -937 0
-187 -937 0
939 -938 0
-189 940 0
940 -939 0
-190 941 0
941 -940 0
-191 942 0
942 -941 0
-192 943 0
943 -942 0
-193 944 0
944 -943 0
-193 -943 0
-194 945 0
945 -944 0
-194 -944 0
946 -945 0
947 -946 0
948 -947 0
949 -948 0
-199 950 0
950 -949 0
-199 -949 0
951 -950 0
-200 -950 0
952 -951 0
953 -952 0
954 -953 0
-204 955 0
955 -954 0
-204 -954 0
956 -955 0
-205 -955 0
957 -956 0
958 -957 0
-208 959 0
959 -958 0
-208 -958 0
960 -959 0
-209 -959 0
961 -960 0
-211 962 0
962 -961 0
-211 -961 0
963 -962 0
-212 -962 0
964 -963 0
-214 965 0
965 -964 0
-214 -964 0
966 -965 0
-216 -966 0
-550 187 181 182 184 185 186 183 188 0
-676 0
-551 189 193 194 192 191 190 195 0
-677 181 0
-556 214 215 0
-682 211 186 193 199 204 208 0
-193 682 0
-557 216 0
-683 214 212 187 209 200 205 194 0
-187 683 0
-214 683 0
-558 0
-684 216 195 201 206 210 213 215 188 0
-217 967 0
-218 968 0
-967 968 0
-219 969 0
-968 969 0
-220 970 0
-969 970 0
971 -221 0
971 -970 0
-222 972 0
972 -971 0
-223 973 0
973 -972 0
-223 -972 0
974 -973 0
-225 975 0
975 -974 0
-226 976 0
976 -975 0
-227 977 0
977 -976 0
-228 978 0
978 -977 0
-229 979 0
979 -978 0
-230 980 0
980 -979 0
-230 -979 0
981 -980 0
982 -981 0
983 -982 0
984 -983 0
985 -984 0
986 -985 0
-236 -985 0
987 -986 0
988 -987 0
989 -988 0
990 -989 0
991 -990 0
-241 -990 0
992 -991 0
993 -992 0
994 -993 0
995 -994 0
-245 -994 0
996 -995 0
997 -996 0
998 -997 0
-248 -997 0
999 -998 0
1000 -999 0
-250 -999 0
1001 -1000 0
-252 -1001 0
221 218 -559 223 220 217 222 219 224 0
-685 0
-560 229 230 225 227 228 226 231 0
-686 217 0
-565 250 251 0
-691 247 229 222 235 240 244 0
-566 252 0
-252 566 0
250 223 -692 236 248 241 230 245 0
-567 0
-693 252 231 237 242 246 249 251 224 0
-252 693 0
258 256 262 253 266 261 286 260 288 259 263 264 265 255 267 268 269 270 271 272 273 274 275 276 277 278 279 280 281 282 283 284 285 254 287 257 0
-253 1002 0
-254 1003 0
-1002 1003 0
-255 1004 0
-1003 1004 0
-256 1005 0
-1004 1005 0
-257 1006 0
-1005 1006 0
-258 1007 0
-1006 1007 0
-258 -1006 0
-259 1008 0
-1007 1008 0
-259 -1007 0
1009 -1008 0
-261 1010 0
1010 -1009 0
-261 -1009 0
-262 1011 0
1011 -1010 0
-262 -1010 0
-263 1012 0
1012 -1011 0
-263 -1011 0
-264 1013 0
1013 -1012 0
-264 -1012 0
-265 1014 0
1014 -1013 0
-265 -1013 0
-266 1015 0
1015 -1014 0
-266 -1014 0
1016 -1015 0
1017 -1016 0
-268 -1016 0
1018 -1017 0
-269 -1017 0
1019 -1018 0
-270 -1018 0
1020 -1019 0
-271 -1019 0
1021 -1020 0
-272 -1020 0
1022 -1021 0
1023 -1022 0
-274 -1022 0
1024 -1023 0
-275 -1023 0
1025 -1024 0
-276 -1024 0
1026 -1025 0
-277 -1025 0
1027 -1026 0
1028 -1027 0
-279 -1027 0
1029 -1028 0
-280 -1028 0
1030 -1029 0
-281 -1029 0
1031 -1030 0
1032 -1031 0
-283 -1031 0
1033 -1032 0
-284 -1032 0
1034 -1033 0
1035 -1034 0
-286 -1034 0
1036 -1035 0
-288 -1036 0
254 255 -568 253 256 257 258 259 260 0
-253 568 0
-694 0
-569 264 266 265 261 262 263 267 0
-695 253 0
-574 286 287 0
-700 283 258 265 271 276 280 0
-265 700 0
-575 288 0
-288 575 0
-701 286 259 266 284 281 272 277 0
-266 701 0
-576 0
-702 288 267 273 278 282 285 287 260 0
-288 702 0
-289 1037 0
-1037 1038 0
-1038 1039 0
-1039 1040 0
-1040 1041 0
-1041 1042 0
-294 -1041 0
-1042 1043 0
-295 -1042 0
-1043 1044 0
-297 1045 0
-1044 1045 0
-298 1046 0
-1045 1046 0
-299 1047 0
-1046 1047 0
1048 -300 0
1048 -1047 0
1049 -301 0
1049 -1048 0
-301 -1048 0
-302 1050 0
1050 -1049 0
-302 -1049 0
1051 -1050 0
1052 -1051 0
1053 -1052 0
1054 -1053 0
1055 -1054 0
-307 -1054 0
1056 -1055 0
-308 -1055 0
1057 -1056 0
1058 -1057 0
1059 -1058 0
1060 -1059 0
-312 -1059 0
1061 -1060 0
-313 -1060 0
1062 -1061 0
1063 -1062 0
1064 -1063 0
-316 -1063 0
1065 -1064 0
-317 -1064 0
1066 -1065 0
1067 -1066 0
-319 -1066 0
1068 -1067 0
-320 -1067 0
1069 -1068 0
1070 -322 0
1070 -1069 0
-322 -1069 0
1071 -1070 0
-324 -1071 0
-577 292 289 291 290 293 294 295 296 0
-703 0
-578 301 300 297 299 298 302 303 0
-704 289 0
-583 322 323 0
-709 319 294 301 307 312 316 0
-584 324 0
-324 584 0
-710 322 295 317 320 308 313 302 0
-585 0
-711 324 303 309 314 318 321 323 296 0
-324 711 0
-325 1072 0
-326 1073 0
-1072 1073 0
1074 -327 0
1074 -1073 0
-328 1075 0
1075 -1074 0
-329 1076 0
1076 -1075 0
-330 1077 0
1077 -1076 0
-330 -1076 0
-331 1078 0
1078 -1077 0
-331 -1077 0
1079 -1078 0
-333 1080 0
1080 -1079 0
-334 1081 0
1081 -1080 0
-335 1082 0
1082 -1081 0
-336 1083 0
1083 -1082 0
-337 1084 0
1084 -1083 0
-337 -1083 0
-338 1085 0
1085 -1084 0
-338 -1084 0
1086 -1085 0
1087 -1086 0
1088 -1087 0
1089 -1088 0
1090 -1089 0
-343 -1089 0
1091 -1090 0
-344 -1090 0
1092 -1091 0
1093 -1092 0
1094 -1093 0
1095 -1094 0
-348 -1094 0
1096 -1095 0
-349 -1095 0
1097 -1096 0
1098 -1097 0
1099 -1098 0
-352 -1098 0
1100 -1099 0
-353 -1099 0
1101 -1100 0
1102 -1101 0
-355 -1101 0
1103 -1102 0
-356 -1102 0
1104 -1103 0
-358 1105 0
1105 -1104 0
-358 -1104 0
1106 -1105 0
-360 -1106 0
-586 327 325 326 329 328 330 331 332 0
-712 0
-587 333 338 336 335 337 334 339 0
-713 325 0
-592 358 359 0
-718 355 330 337 343 348 352 0
-593 360 0
-360 593 0
-719 358 344 331 338 356 353 349 0
-594 0
-720 360 339 345 350 354 357 359 332 0
1107 -361 0
-362 1108 0
1108 -1107 0
1109 -363 0
1109 -1108 0
-364 1110 0
1110 -1109 0
-365 1111 0
1111 -1110 0
1112 -1111 0
1113 -367 0
1113 -1112 0
-367 -1112 0
1114 -1113 0
-369 1115 0
1115 -1114 0
-370 1116 0
1116 -1115 0
-371 1117 0
1117 -1116 0
-372 1118 0
1118 -1117 0
1119 -1118 0
1120 -1119 0
-374 -1119 0
1121 -1120 0
1122 -1121 0
1123 -1122 0
1124 -1123 0
1125 -1124 0
1126 -1125 0
-380 -1125 0
1127 -1126 0
1128 -1127 0
1129 -1128 0
1130 -1129 0
1131 -1130 0
-385 -1130 0
1132 -1131 0
1133 -1132 0
1134 -1133 0
1135 -1134 0
-389 -1134 0
1136 -1135 0
1137 -1136 0
1138 -1137 0
-392 -1137 0
1139 -1138 0
1140 -394 0
1140 -1139 0
-394 -1139 0
1141 -1140 0
-396 -1141 0
366 -595 361 367 363 362 365 364 368 0
-721 0
-596 374 373 370 371 372 369 375 0
-722 361 0
-601 394 395 0
-727 391 366 373 379 384 388 0
-366 727 0
-373 727 0
-602 396 0
602 -396 0
-728 394 367 380 392 374 385 389 0
-374 728 0
-394 728 0
-603 0
-729 396 375 381 386 390 393 395 368 0
729 -396 0
1142 -397 0
1143 -1142 0
1144 -1143 0
1145 -1144 0
1146 -1145 0
1147 -1146 0
1148 -1147 0
-403 -1147 0
1149 -1148 0
-405 1150 0
1150 -1149 0
-406 1151 0
1151 -1150 0
-407 1152 0
1152 -1151 0
-408 1153 0
1153 -1152 0
-409 1154 0
1154 -1153 0
-410 1155 0
1155 -1154 0
-410 -1154 0
1156 -1155 0
1157 -1156 0
1158 -1157 0
1159 -1158 0
1160 -1159 0
1161 -1160 0
-416 -1160 0
1162 -1161 0
1163 -1162 0
1164 -1163 0
1165 -1164 0
1166 -1165 0
-421 -1165 0
1167 -1166 0
1168 -1167 0
1169 -1168 0
1170 -1169 0
-425 -1169 0
1171 -1170 0
1172 -1171 0
1173 -1172 0
-428 -1172 0
1174 -1173 0
1175 -430 0
1175 -1174 0
-430 -1174 0
1176 -1175 0
-432 -1176 0
-604 398 397 400 399 401 402 403 404 0
-730 0
-605 405 408 407 406 409 410 411 0
-731 397 0
-610 430 431 0
-611 432 0
611 -432 0
-737 430 425 403 410 416 428 421 0
-612 0
-738 432 411 417 422 426 429 431 404 0
738 -432 0
1177 -433 0
1178 -1177 0
1179 -1178 0
1180 -1179 0
1181 -1180 0
1182 -1181 0
1183 -1182 0
-439 -1182 0
1184 -1183 0
1185 -1184 0
1186 -1185 0
1187 -1186 0
1188 -1187 0
-445 1189 0
1189 -1188 0
1190 -1189 0
-446 -1189 0
1191 -1190 0
1192 -1191 0
1193 -1192 0
1194 -1193 0
-451 1195 0
1195 -1194 0
1196 -1195 0
-452 -1195 0
1197 -1196 0
1198 -1197 0
1199 -1198 0
-456 1200 0
1200 -1199 0
1201 -1200 0
-457 -1200 0
1202 -1201 0
1203 -1202 0
-460 1204 0
1204 -1203 0
1205 -1204 0
-461 -1204 0
1206 -1205 0
-463 1207 0
1207 -1206 0
1208 -1207 0
-464 -1207 0
1209 -1208 0
1210 -1209 0
-466 -1209 0
1211 -1210 0
-468 -1211 0
-613 434 439 438 433 436 437 435 440 0
-739 0
-614 441 442 443 444 445 446 447 0
-740 433 0
-619 466 467 0
-745 438 445 463 451 456 460 0
-620 468 0
620 -468 0
-746 466 439 457 446 464 452 461 0
-439 746 0
-466 746 0
-621 0
-747 468 447 453 458 462 465 467 440 0
1222 -479 0
-480 1223 0
-1222 1223 0
-481 1224 0
-1223 1224 0
-482 1225 0
-1224 1225 0
1226 -1225 0
1227 -1226 0
1228 -1227 0
1229 -1228 0
1230 -1229 0
1231 -1230 0
-488 -1230 0
1232 -1231 0
1233 -1232 0
1234 -1233 0
1235 -1234 0
1236 -1235 0
-493 -1235 0
1237 -1236 0
1238 -1237 0
1239 -1238 0
1240 -1239 0
-497 -1239 0
1241 -1240 0
1242 -1241 0
1243 -1242 0
-500 -1242 0
1244 -1243 0
-502 -1244 0
470 469 473 471 472 -622 474 475 476 0
-748 0
481 479 482 -623 477 478 480 483 0
-749 469 0
485 472 -752 479 490 0
-628 502 503 0
-754 474 499 487 492 496 481 0
504 -629 0
502 500 482 475 488 493 -755 497 0
-630 0
-756 504 483 489 494 498 501 503 476 0
-1253 637 511 0
639 -1255 513 0
-1262 646 1253 520 0
648 -1264 1255 522 0
-1271 1262 529 655 0
657 -1273 1264 531 0
-1280 1271 538 664 0
-1280 1271 -538 0
666 -1282 1273 540 0
-1271 1281 -142 0
-1289 1280 547 673 0
-1291 675 1282 549 0
-1281 -180 1291 0
-1298 1289 556 682 0
684 -1291 1300 558 0
-1300 684 1291 558 0
-1290 -216 1300 0
-1307 1298 565 691 0
693 -1300 1309 567 0
-1309 693 1300 567 0
-1308 1298 -250 1299 0
-1316 1307 574 700 0
-1317 1308 701 575 0
702 -1309 1318 576 0
-1318 702 1309 576 0
-1317 1307 -286 1308 0
-1326 1317 584 710 0
711 -1318 1327 585 0
-1327 711 1318 585 0
-1326 1316 -322 1317 0
-1317 -324 1327 0
-1335 1326 593 719 0
720 -1327 1336 594 0
-1335 1327 -360 0
-1344 1335 -602 0
729 -1336 1345 603 0
-1335 1345 -396 0
-1344 -737 1353 0
738 -1345 1354 612 0
-1343 -430 1353 0
747 -1354 1363 621 0
-1354 -747 1363 0
-1353 -468 1363 0
756 -1363 630 0
-1370 637 511 0
-1370 -511 0
639 -1372 513 0
-20 -1371 0
-1371 -34 0
647 -1380 521 1371 0
648 -1381 1372 522 0
-70 -1380 1370 1371 0
1380 -1389 530 656 0
657 -1390 1381 531 0
1380 -1390 1381 -108 0
-1398 1389 539 665 0
666 -1399 1390 540 0
-1399 1389 -144 1390 0
-1407 1398 674 548 0
675 -1408 1399 549 0
1398 -180 -1408 1399 0
684 -1417 1408 558 0
1407 -1417 -216 1408 0
693 -1426 1417 567 0
-1434 1425 701 575 0
702 -1435 1426 576 0
1434 -1443 710 584 0
711 -1444 1435 585 0
1434 -1444 1435 -324 0
720 -1453 1444 594 0
1443 -1453 1444 -360 0
729 -1462 1453 603 0
738 -1471 1462 612 0
747 -1480 1471 621 0
756 1480 630 0
-1487 637 511 0
-1488 512 638 0
-512 -1488 0
639 -1489 513 0
-1488 -7 0
-14 -1488 0
-25 -1488 0
-29 -1488 0
-32 -1488 0
-34 -1488 0
647 -1497 521 1488 0
648 -1498 1489 522 0
-1497 -70 1488 1487 0
-72 1488 -1498 1489 0
1497 -1506 530 656 0
657 -1507 1498 531 0
1497 -1507 1498 -108 0
1506 -1515 665 539 0
666 -1516 1507 540 0
1506 -1516 1507 -144 0
1515 -1524 674 548 0
675 -1525 1516 549 0
1515 -1525 1516 -180 0
684 -1534 1525 558 0
1524 -216 -1534 1525 0
693 -1543 1534 567 0
-1551 1542 701 575 0
702 -1552 1543 576 0
1551 -1560 710 584 0
711 -1561 1552 585 0
1551 -1561 1552 -324 0
720 -1570 1561 594 0
1560 -1570 1561 -360 0
729 -1579 1570 603 0
738 -1588 1579 612 0
747 -1597 1588 621 0
756 1597 630 0
-1598 -505 0
-1599 506 632 0
1604 637 511 0
-637 1604 0
639 -1606 513 0
-34 -1604 0
1605 -34 0
-1608 515 1599 641 0
1613 646 520 -1604 0
-646 1613 -1604 0
647 -1605 521 1614 0
-647 -1605 1614 0
648 -1615 1606 522 0
-70 -1613 1605 0
-70 1614 -1604 0
-1617 650 1608 524 0
1622 655 529 -1613 0
-655 1622 -1613 0
1623 -1614 656 530 0
-656 1623 -1614 0
657 -1624 1615 531 0
-106 1614 -1622 0
-106 -1614 -1613 1622 0
-106 1623 -1613 0
-1626 659 1617 533 0
-1622 664 538 1631 0
-664 -1622 1631 0
-1623 1632 665 539 0
-665 -1623 1632 0
666 -1633 1624 540 0
-142 -1623 1631 -1622 0
-142 1632 -1622 0
-1635 668 1626 542 0
673 1640 547 -1631 0
-673 -1631 1640 0
-1632 1641 674 548 0
-674 1641 -1632 0
675 -1642 1633 549 0
-178 1632 -1640 0
-178 -1632 -1631 1640 0
-178 1641 -1631 0
-1644 677 1635 551 0
1649 -1640 682 556 0
-682 1649 -1640 0
1650 -1641 683 557 0
-683 -1641 1650 0
684 -1651 1642 558 0
-214 -1641 1649 -1640 0
-214 1650 -1640 0
-1650 -216 1642 0
1641 -1651 -216 1642 0
-1653 560 1644 686 0
1658 -1649 565 691 0
-691 1658 -1649 0
-1650 1659 692 566 0
-1659 1650 692 566 0
-1659 1650 -566 0
-1650 1659 -692 0
693 -1660 1651 567 0
-250 1650 -1658 0
-250 -1649 -1650 1658 0
-250 -1649 1659 0
-1660 1650 -252 1651 0
-1662 695 1653 569 0
-1658 1667 574 700 0
-700 1667 -1658 0
-1659 1668 701 575 0
-1668 1659 701 575 0
-575 1659 -1668 0
-701 1668 -1659 0
702 -1669 1660 576 0
-1659 -286 -1658 1667 0
1668 -286 -1658 0
-1671 578 1662 704 0
-1667 1676 709 583 0
-709 1676 -1667 0
-1668 1677 710 584 0
-710 1677 -1668 0
711 -1678 1669 585 0
-322 -1667 -1668 1676 0
-322 -1667 1677 0
-324 1669 -1677 0
-1680 587 713 1671 0
1685 -1676 718 592 0
-718 1685 -1676 0
-1677 1686 719 593 0
1677 -1686 719 593 0
-719 1686 -1677 0
720 -1687 1678 594 0
-338 1677 1671 -1686 0
-358 1677 -1685 0
-358 -1677 -1676 1685 0
-358 1686 -1676 0
1678 -360 -1686 0
-1687 1677 -360 1678 0
727 1694 601 -1685 0
-727 1694 -1685 0
1695 -1686 728 602 0
-1695 1686 728 602 0
-1695 1686 -602 0
-728 1695 -1686 0
729 -1696 1687 603 0
-374 -1695 1680 1686 0
-394 -1686 -1685 1694 0
-394 1695 -1685 0
-1695 -396 1687 0
1686 -396 1687 -1696 0
736 -1694 610 1703 0
-736 -1694 1703 0
1704 -1695 737 611 0
1695 -1704 737 611 0
-737 -1695 1704 0
738 -1705 1696 612 0
-1695 -430 -1694 1703 0
-430 -1694 1704 0
-1695 -432 1705 0
1695 -432 1696 -1705 0
745 -1703 619 1712 0
-745 -1703 1712 0
-1704 746 1713 620 0
-746 -1704 1713 0
747 -1714 1705 621 0
-466 -1703 1713 0
-468 -1704 -1705 1713 0
-468 1704 -1714 1705 0
754 -1712 628 0
-754 -1712 0
-1713 755 629 0
-1713 -755 0
756 1714 630 0
-502 -1712 0
-1716 506 632 0
639 -1723 513 0
-1725 515 1716 641 0
648 -1732 1723 522 0
-1734 650 1725 524 0
657 -1741 1732 531 0
-1740 -108 1732 0
-1743 659 1734 533 0
-1749 1740 665 539 0
666 -1750 1741 540 0
-1749 1741 -144 0
-1758 674 1749 548 0
675 -1759 1750 549 0
-158 -1758 1749 1743 0
-1758 -180 1750 0
1758 683 -1767 557 0
684 -1768 1759 558 0
-216 1759 -1767 0
692 1776 566 -1767 0
-1776 1767 692 566 0
-692 1776 -1767 0
693 -1777 1768 567 0
-1776 1768 -252 0
-1785 701 1776 575 0
702 -1786 1777 576 0
-1785 -288 1777 0
-1794 1785 710 584 0
711 -1795 1786 585 0
-324 1786 -1794 0
1794 -1803 719 593 0
720 -1804 1795 594 0
-1803 1795 -360 0
-1812 1803 728 602 0
729 -1813 1804 603 0
-1812 -396 1804 0
1812 -1821 737 611 0
738 -1822 1813 612 0
-432 -1821 1813 0
1821 746 -1830 620 0
747 -1831 1822 621 0
-468 -1830 1822 0
1830 755 629 0
756 1831 630 0
1831 -504 0
-1950 506 632 0
-1955 637 511 0
639 1957 513 0
-639 1957 0
-1959 515 1950 641 0
-1964 646 520 1955 0
648 -1957 1966 522 0
-648 1966 -1957 0
-1968 650 1959 524 0
-1973 1964 529 655 0
657 -1966 1975 531 0
-657 1975 -1966 0
-1974 1965 1964 -106 0
-1977 659 1968 533 0
-1982 1973 538 664 0
-1983 1974 665 539 0
666 -1975 1984 540 0
-666 1984 -1975 0
-1983 1974 1973 -142 0
-1986 668 1977 542 0
-1991 1982 547 673 0
-1992 1983 -548 0
675 -1984 1993 549 0
-675 1993 -1984 0
-1995 677 1986 551 0
-2001 1992 557 683 0
684 -1993 2002 558 0
-684 2002 -1993 0
-2001 1992 1991 -214 0
-2004 560 1995 686 0
-2010 2001 566 692 0
-2010 2001 -566 0
693 -2002 2011 567 0
-693 2011 -2002 0
-2013 695 2004 569 0
-2019 2010 575 701 0
-2019 2010 -575 0
702 -2011 2020 576 0
-702 2020 -2011 0
-2022 578 2013 704 0
-2028 2019 584 710 0
-2028 2019 -584 0
711 -2020 2029 585 0
-711 2029 -2020 0
-2031 587 713 2022 0
-2037 2028 -593 0
720 -2029 2038 594 0
-720 2038 -2029 0
-2040 596 2031 722 0
729 -2038 2047 603 0
2047 -729 -2038 0
738 -2047 2056 612 0
2056 -738 -2047 0
747 -2056 2065 621 0
-504 2064 2065 0
-2423 637 511 0
-2432 646 520 2423 0
-2441 2432 529 655 0
-2450 2441 538 664 0
-2459 2450 547 673 0
-2468 2459 556 682 0
-2477 2468 691 565 0
-2486 2477 700 574 0
-2495 2486 583 709 0
-2504 2495 592 718 0
3125 637 511 0
3125 -637 0
-3126 512 638 0
-512 -3126 0
639 3127 513 0
3127 -639 0
-3126 -7 0
-14 -3126 0
-20 -3126 0
-25 -3126 0
-29 -3126 0
-32 -3126 0
-34 3126 0
3134 646 520 -3125 0
-646 3134 -3125 0
647 -3126 521 3135 0
3135 -647 -3126 0
648 -3127 3136 522 0
3136 -648 -3127 0
-70 -3134 3126 0
3135 -70 -3125 0
655 3143 529 -3134 0
-529 3134 -3143 0
-655 -3134 3143 0
3144 -3135 530 656 0
-656 3144 -3135 0
657 -3136 3145 531 0
3144 -106 -3134 0
3144 -3135 -108 -3136 0
3152 664 538 -3143 0
-3152 -538 3143 0
3152 -3143 -664 0
3153 -3144 665 539 0
3153 -3144 -665 0
666 -3145 3154 540 0
-3145 -666 3154 0
3153 -142 -3143 0
3153 -3144 -144 -3145 0
3161 -3152 673 547 0
-673 3161 -3152 0
3162 -3153 674 548 0
3162 -3153 -674 0
-3154 675 3163 549 0
3163 -675 -3154 0
-3161 3153 -178 0
-3152 3162 -178 0
3162 -3153 -180 -3154 0
3170 -3161 682 556 0
-682 3170 -3161 0
3171 -3162 557 683 0
-683 3171 -3162 0
684 -3163 3172 558 0
-3163 -684 3172 0
-214 3171 -3161 0
-214 3161 -3171 3162 0
3171 -3162 -216 -3163 0
-3170 3179 565 691 0
-691 3179 -3170 0
3180 -3171 692 566 0
3171 -3180 566 692 0
3171 -3180 -566 0
3180 -3171 -692 0
693 -3172 3181 567 0
3164 -223 -3180 3171 0
3165 -230 -3180 3171 0
3166 -236 -3180 3171 0
3167 -241 -3180 3171 0
3168 -245 -3180 3171 0
3169 -248 -3180 3171 0
3180 -3170 -250 0
3170 3171 -250 -3180 0
-3171 3180 -252 -3172 0
3188 -3179 700 574 0
-700 -3179 3188 0
3189 -3180 701 575 0
3189 -3180 -701 0
702 -3181 3190 576 0
3180 -3188 -286 0
3189 -3179 -286 0
3189 -288 -3181 -3180 0
-3188 3197 709 583 0
3197 -3188 -709 0
3198 -3189 710 584 0
3198 -710 -3189 0
711 -3190 3199 585 0
3199 -711 -3190 0
-3189 -322 3197 -3188 0
3198 -322 -3188 0
3198 -324 -3190 -3189 0
3206 -3197 592 718 0
-718 3206 -3197 0
3207 -3198 719 593 0
3207 -719 -3198 0
720 -3199 3208 594 0
3191 -331 -3207 3198 0
3198 -358 -3206 0
3207 -358 -3197 0
3198 -3207 3197 -358 0
3207 -3198 -360 -3199 0
3215 727 601 -3206 0
-727 3215 -3206 0
3216 -3207 602 728 0
3216 -728 -3207 0
729 -3208 3217 603 0
3216 -394 -3206 0
3216 -3208 -396 -3207 0
-3215 736 610 3224 0
-736 3224 -3215 0
3225 -3216 737 611 0
3225 -3216 -737 0
738 -3217 3226 612 0
3225 -3215 -430 0
3225 -3216 -432 -3217 0
3216 -432 3217 -3226 0
-3224 3233 619 745 0
-745 -3224 3233 0
3234 -3225 620 746 0
-3235 747 3226 621 0
3234 -3225 -3226 -468 0
-3233 754 628 0
-754 -3233 0
756 3235 630 0
6864 506 632 0
-6869 637 511 0
6873 515 -6864 641 0
-6878 646 520 6869 0
6882 650 -6873 524 0
-6887 6878 529 655 0
6891 659 -6882 533 0
-6896 6887 538 664 0
6900 668 -6891 542 0
-6905 6896 673 547 0
6909 677 -6900 551 0
-6914 6905 556 682 0
6918 560 -6909 686 0
6927 695 -6918 569 0
6936 578 -6927 704 0
6945 587 713 -6936 0
6954 596 -6945 722 0
6963 605 731 -6954 0
6972 -740 -6963 0
-6972 749 623 0
-477 -6972 0
-478 -6972 0
-482 -6972 -6978 0
-502 6978 0
7683 506 632 0
7692 515 641 -7683 0
7701 524 -7692 650 0
7710 659 -7701 533 0
7719 668 -7710 542 0
7728 677 -7719 551 0
7737 686 -7728 560 0
7746 695 -7737 569 0
7755 704 -7746 578 0
7764 587 -7755 713 0
7773 596 -7764 722 0
7782 605 -7773 731 0
7791 614 -7782 740 0
749 -7791 623 0
8736 506 632 0
8741 637 511 0
639 8743 513 0
8745 515 -8736 641 0
8750 646 520 -8741 0
648 -8743 8752 522 0
8754 650 -8745 524 0
8759 -8750 529 655 0
657 -8752 8761 531 0
8763 659 -8754 533 0
8768 -8759 538 664 0
666 -8761 8770 540 0
8772 668 -8763 542 0
8777 -8768 547 673 0
-8770 8779 675 549 0
8781 677 -8772 551 0
8786 -8777 556 682 0
684 -8779 8788 558 0
8787 -214 -8777 0
8790 560 -8781 686 0
8795 -8786 691 565 0
8796 -8787 566 692 0
693 -8788 8797 567 0
8799 695 -8790 569 0
8805 -8796 575 701 0
702 -8797 8806 576 0
8808 578 -8799 704 0
8814 -8805 584 710 0
711 -8806 8815 585 0
8817 587 713 -8808 0
8823 -8814 -360 -8815 0
8826 596 -8817 722 0
8835 605 -8826 731 0
8844 740 -8835 614 0
-749 -8844 0
505 8852 631 0
8853 506 632 0
8858 637 511 0
639 8860 513 0
-1 8852 0
8853 -1 0
-2 8852 0
-3 8852 0
-4 8852 0
-6 8852 0
-7 8852 0
514 -8852 8861 640 0
8862 515 -8853 641 0
8867 646 520 -8858 0
648 -8860 8869 522 0
-37 -8853 8861 -8852 0
523 -8861 8870 649 0
8871 650 -8862 524 0
8876 -8867 529 655 0
657 -8869 8878 531 0
532 -8870 8879 658 0
8880 659 -8871 533 0
8885 -8876 538 664 0
666 -8878 8887 540 0
541 -8879 8888 667 0
8889 668 -8880 542 0
8894 -8885 547 673 0
-8887 8896 675 549 0
550 -8888 8897 676 0
8898 677 -8889 551 0
8903 -8894 556 682 0
684 -8896 8905 558 0
559 -8897 8906 685 0
8907 560 -8898 686 0
8912 -8903 691 565 0
693 -8905 8914 567 0
568 -8906 8915 694 0
8916 695 -8907 569 0
8921 -8912 700 574 0
702 -8914 8923 576 0
577 -8915 8924 703 0
8925 578 -8916 704 0
8922 -584 -8931 0
711 -8923 8932 585 0
8924 -289 -8915 -8916 0
586 -8924 8933 712 0
8934 587 713 -8925 0
8931 -8940 719 593 0
595 -8933 8942 721 0
8940 -8949 602 728 0
604 -8942 8951 730 0
8949 -8958 737 611 0
613 -8951 8960 739 0
8958 620 -8967 746 0
622 -8960 748 0
755 629 8967 0
-629 8967 0
-482 8967 0
-488 8967 0
-493 8967 0
-497 8967 0
-500 8967 0
-502 8967 0
-10374 506 632 0
10379 637 511 0
639 10381 513 0
-10383 515 10374 641 0
10388 646 520 -10379 0
648 -10381 10390 522 0
-10392 650 10383 524 0
10397 -10388 529 655 0
657 -10390 10399 531 0
10398 -106 -10388 0
-10401 659 10392 533 0
10406 -10397 538 664 0
10407 -10398 665 539 0
666 -10399 10408 540 0
10407 -10397 -142 0
-10410 668 10401 542 0
10415 -10406 547 673 0
-10408 10417 675 549 0
10416 -10407 -180 -10408 0
-10419 677 10410 551 0
10425 -10416 557 683 0
684 -10417 10426 558 0
10425 -214 -10415 0
-10428 560 10419 686 0
10434 -10425 566 692 0
693 -10426 10435 567 0
10434 -10425 -252 -10426 0
-10437 695 10428 569 0
10443 -10434 575 701 0
702 -10435 10444 576 0
10443 -10434 -288 -10435 0
-10446 704 10437 578 0
-10446 -578 10437 0
10452 -10443 584 710 0
711 -10444 10453 585 0
10452 -10443 -10444 -324 0
-10455 587 713 10446 0
10461 -10452 -360 -10453 0
10490 505 631 0
-10491 632 506 0
-506 -10491 0
10496 637 511 0
639 10498 513 0
-1 -10490 0
-2 10490 0
-3 10490 0
-4 10490 0
-5 10490 0
-6 10490 0
-7 10490 0
-10490 514 10499 640 0
-10499 514 10490 640 0
-514 -10499 10490 0
-10500 515 641 10491 0
-515 -10500 10491 0
10505 646 520 -10496 0
-10498 648 10507 522 0
-37 10491 -10499 0
-42 -10490 10499 -10496 0
-10508 523 10499 649 0
-523 -10508 10499 0
-10509 524 10500 650 0
-524 -10509 10500 0
10514 -10505 529 655 0
-10507 657 10516 531 0
-73 -10508 10500 0
-73 10509 -10499 0
10514 -10506 -106 -10505 0
-10517 532 10508 658 0
-532 10508 -10517 0
-10518 533 10509 659 0
-533 -10518 10509 0
10523 -10514 538 664 0
666 -10516 10525 540 0
-109 -10517 10509 0
-109 10518 -10508 0
10524 -10515 -144 -10516 0
-10526 541 10517 667 0
-541 -10526 10517 0
-10527 542 10518 668 0
-542 -10527 10518 0
10532 -10523 547 673 0
-10525 10534 675 549 0
-145 10518 -10526 0
-145 -10517 10527 0
-145 10518 10517 -10527 0
-151 -10524 10526 -10517 0
10533 -10524 -180 -10525 0
550 -10535 10526 676 0
-550 -10535 10526 0
-10536 677 551 10527 0
-551 -10536 10527 0
10541 -10532 556 682 0
10542 -10533 557 683 0
10542 -683 -10533 0
684 -10534 10543 558 0
-181 -10535 10527 0
-181 10526 10527 -10536 0
10542 -10533 -10534 -216 0
-10535 559 10544 685 0
559 -10544 10535 685 0
-559 10535 -10544 0
-10545 560 10536 686 0
-560 -10545 10536 0
10550 -10541 565 691 0
10551 -10542 692 566 0
10551 -10542 -692 0
693 -10543 10552 567 0
-217 -10544 10536 0
-217 10544 -10535 -10536 0
-217 -10535 10545 0
-217 10536 10535 -10545 0
-10540 -221 -10535 10544 0
10551 -10542 -252 -10543 0
568 10553 -10544 694 0
-10553 568 10544 694 0
-568 -10553 10544 0
-10554 569 10545 695 0
-569 -10554 10545 0
10559 -10550 574 700 0
10560 -10551 701 575 0
702 -10552 10561 576 0
-253 -10553 10545 0
-253 -10544 10554 0
10544 -253 10545 -10554 0
10560 -10550 -286 0
10560 -288 -10552 -10551 0
577 -10562 10553 703 0
-577 -10562 10553 0
-10563 578 10554 704 0
-578 -10563 10554 0
10568 -10559 583 709 0
10569 -10560 584 710 0
10560 -584 -10569 0
711 -10561 10570 585 0
-289 -10562 10554 0
-289 10553 10554 -10563 0
10569 -10559 -322 0
10569 -324 -10561 -10560 0
-10562 586 10571 712 0
-10571 586 10562 712 0
-586 -10571 10562 0
-10572 587 10563 713 0
-587 -10572 10563 0
10577 -10568 592 718 0
10578 -10569 719 593 0
10569 -10578 719 593 0
720 -10570 10579 594 0
-325 10563 -10571 0
-325 10571 -10563 -10562 0
-325 10572 -10562 0
-325 -10572 10562 10563 0
10578 -10568 -358 0
10578 -10569 -360 -10570 0
-10571 595 10580 721 0
-10580 595 10571 721 0
-595 -10580 10571 0
-10581 596 10572 722 0
-596 -10581 10572 0
10586 -10577 601 727 0
10578 -10587 728 602 0
729 -10579 10588 603 0
-361 -10580 10572 0
-361 10581 -10571 0
-361 -10581 10571 10572 0
10587 -10578 -396 -10579 0
-10589 604 10580 730 0
-604 -10589 10580 0
-10590 605 731 10581 0
-605 -10590 10581 0
10587 -10596 737 611 0
738 -10588 10597 612 0
-397 -10589 10581 0
-10580 -397 10590 0
-397 -10590 10580 10581 0
10587 -10595 -430 0
10596 -10586 -430 0
613 -10598 10589 739 0
-613 10589 -10598 0
-10599 614 740 10590 0
-614 -10599 10590 0
10595 -10604 619 745 0
-433 -10598 10590 0
-433 -10599 10590 10589 0
749 623 10599 0
-623 10599 0
10604 754 628 0
10604 -628 0
-10601 -471 -10598 0
-10602 -10598 -472 0
-481 10604 0
-487 10604 0
-492 10604 0
-496 10604 0
-499 10604 0
10608 506 632 0
639 10615 513 0
10617 515 -10608 641 0
-10615 10624 648 522 0
10626 650 -10617 524 0
-10624 10633 657 531 0
10635 659 -10626 533 0
666 -10633 10642 540 0
10644 668 -10635 542 0
-10642 10651 675 549 0
10653 677 -10644 551 0
684 -10651 10660 558 0
10662 560 -10653 686 0
693 -10660 10669 567 0
10671 695 -10662 569 0
702 -10669 10678 576 0
10677 -10686 -584 0
-10670 10679 -289 -10671 0
586 -10679 10688 712 0
10686 -10695 593 719 0
595 -10688 10697 721 0
10695 -10704 602 728 0
604 -10697 10706 730 0
10704 -10713 611 737 0
613 -10706 10715 739 0
-461 10713 -10719 0
622 -10715 748 0
752 626 10719 0
-626 10719 0
-479 10719 0
-485 10719 0
-490 10719 0
10725 506 632 0
10724 -10733 -514 0
10734 515 -10725 641 0
-10742 10733 523 649 0
10743 650 -10734 524 0
-10751 10742 532 658 0
10752 659 -10743 533 0
541 -10760 10751 667 0
10761 668 -10752 542 0
-10769 550 10760 676 0
10770 677 -10761 551 0
-10778 10769 559 685 0
10779 560 -10770 686 0
-10787 10778 568 694 0
10788 695 -10779 569 0
577 -10796 10787 703 0
10797 578 -10788 704 0
586 -10805 10796 712 0
10806 587 713 -10797 0
595 -10814 10805 721 0
10815 596 -10806 722 0
604 -10823 10814 730 0
-10832 613 10823 739 0
622 10832 748 0
-11039 -37 -10724 -10725 1598 1599 0
-55 11039 -1604 0
-60 11039 -1604 0
-64 11039 -1604 0
-67 11039 -1604 0
-70 11039 -1604 0
-36 11170 0
-72 11171 -1957 0
-1964 -106 11172 0
-1965 -106 11172 0
-108 11172 -1966 0
-1973 -142 11173 0
-1974 -142 11173 0
-144 11173 -1975 0
-180 11174 -1984 0
-1991 -214 11175 0
-1992 -214 11175 0
-216 11175 -1993 0
-252 -2002 11176 0
-288 11177 -2011 0
-324 11178 -2020 0
-360 11179 -2029 0
-396 11180 -2038 0
-432 11181 -2047 0
-468 11182 -2056 0
-2064 -504 11183 0
-2065 -504 11183 0
11218 10670 -289 0
-324 -10677 -11218 -10678 1317 1318 0
-1 11263 0
-9 11263 0
-10 11263 0
-11 11263 0
-12 11263 0
-13 11263 0
-14 11263 0
-37 10491 11264 0
-38 10490 11264 0
-39 10490 11264 0
-40 10490 11264 0
-41 10490 11264 0
-42 10490 11264 0
-43 10490 11264 0
-45 10491 11264 0
-46 10491 11264 0
-47 10491 11264 0
-48 10491 11264 0
-49 10491 11264 0
-50 10491 11264 0
-73 10499 11265 0
-73 10500 11265 0
-74 10499 11265 0
-75 10499 11265 0
-76 10499 11265 0
-77 10499 11265 0
-78 10499 11265 0
-79 10499 11265 0
-81 10500 11265 0
-82 10500 11265 0
-83 10500 11265 0
-84 10500 11265 0
-85 10500 11265 0
-86 10500 11265 0
10505 -106 11265 0
10506 -106 11265 0
-109 10508 11266 0
-109 10509 11266 0
-110 10508 11266 0
-111 10508 11266 0
-112 10508 11266 0
-113 10508 11266 0
-114 10508 11266 0
-115 10508 11266 0
-117 10509 11266 0
-118 10509 11266 0
-119 10509 11266 0
-120 10509 11266 0
-121 10509 11266 0
-122 10509 11266 0
10515 -144 11266 0
-145 10517 11267 0
-145 10518 11267 0
-146 10517 11267 0
-147 10517 11267 0
-148 10517 11267 0
-149 10517 11267 0
-150 10517 11267 0
-151 10517 11267 0
-153 10518 11267 0
-154 10518 11267 0
-155 10518 11267 0
-156 10518 11267 0
-157 10518 11267 0
-158 10518 11267 0
10524 -180 11267 0
-181 10526 11268 0
-181 10527 11268 0
-182 10526 11268 0
-183 10526 11268 0
-184 10526 11268 0
-185 10526 11268 0
-186 10526 11268 0
-187 10526 11268 0
-189 10527 11268 0
-190 10527 11268 0
-191 10527 11268 0
-192 10527 11268 0
-193 10527 11268 0
-194 10527 11268 0
10533 -214 11268 0
10533 -216 11268 0
-217 11269 10535 0
-217 10536 11269 0
-218 11269 10535 0
-219 11269 10535 0
-220 11269 10535 0
-221 11269 10535 0
10540 -221 11269 0
-222 11269 10535 0
-223 11269 10535 0
-225 10536 11269 0
-226 10536 11269 0
-227 10536 11269 0
-228 10536 11269 0
-229 10536 11269 0
-230 10536 11269 0
-1298 -250 11269 0
-1299 -250 11269 0
10542 -250 11269 0
10542 -252 11269 0
-253 10544 11270 0
-253 10545 11270 0
-254 10544 11270 0
-255 10544 11270 0
-256 10544 11270 0
-257 10544 11270 0
-258 10544 11270 0
-259 10544 11270 0
-261 10545 11270 0
-262 10545 11270 0
-263 10545 11270 0
-264 10545 11270 0
-265 10545 11270 0
-266 10545 11270 0
-1307 -286 11270 0
-1308 -286 11270 0
10550 -286 11270 0
10551 -288 11270 0
-289 10553 11271 0
-289 10554 11271 0
-290 10553 11271 0
-291 10553 11271 0
-292 10553 11271 0
-293 10553 11271 0
-294 10553 11271 0
-295 10553 11271 0
-297 10554 11271 0
-298 10554 11271 0
-299 10554 11271 0
-300 10554 11271 0
-301 10554 11271 0
-302 10554 11271 0
-1316 -322 11271 0
-1317 -322 11271 0
10559 -322 11271 0
10560 -324 11271 0
-324 -10560 -11271 -10561 1317 1318 0
-325 10562 11272 0
-325 10563 11272 0
-326 10562 11272 0
-327 10562 11272 0
-328 10562 11272 0
-329 10562 11272 0
-330 10562 11272 0
-331 10562 11272 0
-333 10563 11272 0
-334 10563 11272 0
-335 10563 11272 0
-336 10563 11272 0
-337 10563 11272 0
-338 10563 11272 0
10569 -338 11272 0
-344 10569 11272 0
-349 10569 11272 0
-353 10569 11272 0
-356 10569 11272 0
10569 -358 11272 0
-361 10571 11273 0
-361 10572 11273 0
-362 10571 11273 0
-363 10571 11273 0
-364 10571 11273 0
-365 10571 11273 0
-366 10571 11273 0
-367 10571 11273 0
-369 10572 11273 0
-370 10572 11273 0
-371 10572 11273 0
-372 10572 11273 0
-373 10572 11273 0
-374 10572 11273 0
-374 10578 11273 0
10578 -380 11273 0
-385 10578 11273 0
-389 10578 11273 0
-392 10578 11273 0
10578 -394 11273 0
10578 -396 11273 0
-397 10580 11274 0
-397 10581 11274 0
-398 10580 11274 0
-399 10580 11274 0
-400 10580 11274 0
-401 10580 11274 0
-402 10580 11274 0
-403 10580 11274 0
-405 10581 11274 0
-406 10581 11274 0
-407 10581 11274 0
-408 10581 11274 0
-409 10581 11274 0
-410 10581 11274 0
-410 10587 11274 0
-416 10587 11274 0
-421 10587 11274 0
-425 10587 11274 0
-428 10587 11274 0
10587 -430 11274 0
-10586 -430 -11274 -10587 1343 1344 0
-433 11275 10589 0
-433 10590 11275 0
-434 11275 10589 0
-435 11275 10589 0
-436 11275 10589 0
-437 11275 10589 0
-438 11275 10589 0
-439 11275 10589 0
-441 10590 11275 0
-442 10590 11275 0
-443 10590 11275 0
-444 10590 11275 0
-445 10590 11275 0
-446 10590 11275 0
-446 10596 11275 0
-452 10596 11275 0
-457 10596 11275 0
-464 10596 11275 0
-466 10596 11275 0
-10596 -468 -11275 -10597 1353 1354 0
-469 10598 11276 0
-469 11276 10599 0
-470 10598 11276 0
10598 -471 11276 0
10601 -471 11276 0
10598 -472 11276 0
10602 -472 11276 0
-473 10598 11276 0
-474 10598 11276 0
-475 10598 11276 0
11311 8915 -289 0
-324 -8922 -11311 -8923 1317 1318 0
-5 -11396 0
-6 11396 0
-13 11396 0
-19 11396 0
-24 11396 0
-28 11396 0
-31 11396 0
-34 11396 0
11397 -37 10491 0
-42 11397 -1604 0
-43 -1605 11397 0
-45 11397 10491 0
-46 11397 10491 0
-47 11397 10491 0
-48 11397 10491 0
-49 11397 10491 0
-50 11397 10491 0
-55 11397 -1604 0
-56 -1605 11397 0
-60 11397 -1604 0
-61 -1605 11397 0
-64 11397 -1604 0
-65 -1605 11397 0
-67 11397 -1604 0
-68 -1605 11397 0
-70 11397 -1604 0
11398 -73 10500 0
-78 -1613 11398 0
-79 -1614 11398 0
-91 -1613 11398 0
-92 -1614 11398 0
-96 -1613 11398 0
-97 -1614 11398 0
-100 -1613 11398 0
-101 -1614 11398 0
-103 -1613 11398 0
-104 -1614 11398 0
-106 -1613 11398 0
-106 -1614 11398 0
-1614 11398 -108 0
11399 -109 10508 0
11399 -109 10509 0
-113 11399 10508 0
-114 11399 -1622 0
-115 11399 -1623 0
-127 11399 -1622 0
-128 11399 -1623 0
-132 11399 -1622 0
-133 11399 -1623 0
-136 11399 -1622 0
-137 11399 -1623 0
-139 11399 -1622 0
-140 11399 -1623 0
-142 11399 -1622 0
-142 11399 -1623 0
11399 -1623 -144 0
-145 11400 10517 0
-145 11400 10518 0
-146 11400 10517 0
-147 11400 10517 0
-148 11400 10517 0
-149 11400 10517 0
-150 11400 -1631 0
-150 11400 10517 0
-151 -1632 11400 0
-158 -1632 11400 0
-163 11400 -1631 0
-164 -1632 11400 0
-168 11400 -1631 0
-169 -1632 11400 0
-172 11400 -1631 0
-173 -1632 11400 0
-175 11400 -1631 0
-176 -1632 11400 0
-178 11400 -1631 0
-178 -1632 11400 0
-180 -1632 11400 0
-181 11401 10526 0
11401 -181 10527 0
-182 11401 10526 0
-183 11401 10526 0
-184 11401 10526 0
-185 11401 10526 0
-186 11401 -1640 0
-186 11401 10526 0
-187 -1641 11401 0
-193 11401 -1640 0
-199 11401 -1640 0
-204 11401 -1640 0
-208 11401 -1640 0
-211 11401 -1640 0
-214 -1640 11401 0
-214 -1641 11401 0
-1641 -216 11401 0
11402 -217 10536 0
-222 -1649 11402 0
-229 -1649 11402 0
-230 -1650 11402 0
-235 -1649 11402 0
-236 -1650 11402 0
-240 -1649 11402 0
-241 -1650 11402 0
-244 -1649 11402 0
-245 -1650 11402 0
-247 -1649 11402 0
-248 -1650 11402 0
-250 -1649 11402 0
-250 -1650 11402 0
-1650 11402 -252 0
11403 -253 10545 0
-258 11403 -1658 0
-259 -1659 11403 0
-265 11403 -1658 0
-271 11403 -1658 0
-272 -1659 11403 0
-276 11403 -1658 0
-277 -1659 11403 0
-280 11403 -1658 0
-281 -1659 11403 0
-283 11403 -1658 0
-284 -1659 11403 0
-286 -1658 11403 0
-286 -1659 11403 0
-288 -1659 11403 0
11404 -289 10554 0
-294 -1667 11404 0
-295 11404 -1668 0
-301 -1667 11404 0
-307 -1667 11404 0
-308 11404 -1668 0
-312 -1667 11404 0
-313 11404 -1668 0
-316 -1667 11404 0
-317 11404 -1668 0
-319 -1667 11404 0
-320 11404 -1668 0
-322 -1667 11404 0
-322 11404 -1668 0
-324 11404 -1668 0
11405 -325 10563 0
-326 11405 10562 0
-328 11405 10562 0
-329 11405 10562 0
-330 11405 10562 0
-331 11405 -1677 0
-331 11405 10562 0
-333 11405 10563 0
-334 11405 10563 0
-335 11405 10563 0
-336 11405 10563 0
-337 11405 -1676 0
-337 11405 10563 0
-338 11405 -1677 0
-338 11405 10563 0
-343 11405 -1676 0
-344 11405 -1677 0
-348 11405 -1676 0
-349 11405 -1677 0
-352 11405 -1676 0
-353 11405 -1677 0
-355 11405 -1676 0
-356 11405 -1677 0
-358 11405 -1676 0
-358 11405 -1677 0
11405 -360 -1677 0
11406 -361 10571 0
11406 -361 10572 0
-362 11406 10571 0
-364 11406 10571 0
-365 11406 10571 0
-366 11406 10571 0
-367 11406 10571 0
-369 11406 10572 0
-370 11406 10572 0
-371 11406 10572 0
-372 11406 10572 0
-373 11406 -1685 0
-373 11406 10572 0
-374 11406 -1686 0
-374 11406 10572 0
-379 11406 -1685 0
-380 11406 -1686 0
-384 11406 -1685 0
-385 11406 -1686 0
-388 11406 -1685 0
-389 11406 -1686 0
-391 11406 -1685 0
-392 11406 -1686 0
-394 11406 -1685 0
-394 -1686 11406 0
11406 -1686 -396 0
-397 11407 10580 0
11407 -397 10581 0
-398 11407 10580 0
-399 11407 10580 0
-400 11407 10580 0
-401 11407 10580 0
-402 11407 10580 0
-403 11407 10580 0
-410 -1695 11407 0
-416 -1695 11407 0
-421 -1695 11407 0
-425 -1695 11407 0
-428 -1695 11407 0
-430 -1694 11407 0
-430 -1695 11407 0
-1695 11407 -432 0
11408 -433 10589 0
11408 -433 10590 0
-434 11408 10589 0
-435 11408 10589 0
-436 11408 10589 0
-437 11408 10589 0
-438 11408 10589 0
-439 11408 10589 0
-446 11408 -1704 0
-452 -1704 11408 0
-457 11408 -1704 0
-461 11408 -1704 0
-464 -1704 11408 0
-466 11408 -1704 0
-468 11408 -1704 0
-468 11408 -1705 0
11409 -1713 -504 0
11410 -11396 0
11413 -11397 0
11413 -11410 0
-11397 11414 -11410 0
11416 -11398 0
11416 -11413 0
-11414 11417 0
-11398 11417 -11413 0
11419 -11399 0
11419 -11416 0
-11417 11420 0
11420 -11416 -11399 0
-11417 -11399 11421 0
11422 -11400 0
11422 -11419 0
11423 -11420 0
-11421 11424 0
11423 -11400 -11419 0
-11420 -11400 11424 0
11425 -11401 0
11425 -11422 0
11426 -11423 0
-11424 11427 0
11426 -11401 -11422 0
-11423 -11401 11427 0
11428 -11402 0
11428 -11425 0
11429 -11426 0
-11427 11430 0
11429 -11402 -11425 0
-11426 -11402 11430 0
11431 -11403 0
11431 -11428 0
11432 -11429 0
-11430 11433 0
11432 -11403 -11428 0
-11403 -11429 11433 0
11434 -11404 0
11434 -11431 0
11435 -11432 0
-11433 11436 0
11435 -11431 -11404 0
-11432 -11404 11436 0
11437 -11405 0
11437 -11434 0
11438 -11435 0
-11436 11439 0
11438 -11405 -11434 0
-11435 -11405 11439 0
11441 -11438 0
-11439 11442 0
11441 -11437 -11406 0
-11438 -11406 11442 0
-11442 11445 0
-11441 11445 -11407 0
11448 -11445 0
-11427 -11402 0
-11403 -11430 0
-11433 -11404 0
-11436 -11405 0
-11439 -11406 0
-11442 -11407 0
-11445 -11408 0
-11409 -11448 0
-6 11502 0
-9 11502 0
-10 11502 0
-11 11502 0
-12 11502 0
-13 11502 0
-14 11502 0
-19 11502 0
-24 11502 0
-28 11502 0
-31 11502 0
-34 11502 0
11502 -36 0
-37 11503 10491 0
-42 11503 -3125 0
-43 -3126 11503 0
-45 11503 10491 0
-46 11503 10491 0
-47 11503 10491 0
-48 11503 10491 0
-49 11503 10491 0
-50 11503 10491 0
-55 11503 -3125 0
-56 -3126 11503 0
-60 11503 -3125 0
-61 -3126 11503 0
-64 11503 -3125 0
-65 -3126 11503 0
-67 11503 -3125 0
-68 -3126 11503 0
-70 11503 -3125 0
-70 -3126 11503 0
11503 -72 -3127 0
-73 11504 10500 0
-78 -3134 11504 0
-79 -3135 11504 0
-81 11504 10500 0
-82 11504 10500 0
-83 11504 10500 0
-84 11504 10500 0
-85 -3134 11504 0
-86 -3135 11504 0
-86 11504 10500 0
-91 -3134 11504 0
-92 -3135 11504 0
-96 -3134 11504 0
-97 -3135 11504 0
-100 -3134 11504 0
-101 -3135 11504 0
-103 -3134 11504 0
-104 -3135 11504 0
-106 -3134 11504 0
-106 -3135 11504 0
-3135 11504 -108 0
11504 -108 -3136 0
11505 -109 10508 0
11505 -109 10509 0
-113 11505 10508 0
-114 11505 -3143 0
-115 11505 -3144 0
-121 11505 -3143 0
-122 11505 -3144 0
-127 11505 -3143 0
-128 11505 -3144 0
-132 11505 -3143 0
-133 11505 -3144 0
-136 11505 -3143 0
11505 -3144 -137 0
-139 11505 -3143 0
-140 11505 -3144 0
11505 -142 -3143 0
11505 -3144 -142 0
11505 -3144 -144 0
11505 -144 -3145 0
11506 -145 10517 0
11506 -145 10518 0
-146 11506 10517 0
-147 11506 10517 0
-148 11506 10517 0
-149 11506 10517 0
-150 -3152 11506 0
-150 11506 10517 0
-151 -3153 11506 0
-151 11506 10517 0
-157 -3152 11506 0
-158 -3153 11506 0
-163 -3152 11506 0
-164 -3153 11506 0
-168 -3152 11506 0
-169 -3153 11506 0
-172 -3152 11506 0
-173 -3153 11506 0
-175 -3152 11506 0
-176 -3153 11506 0
-3152 11506 -178 0
-3153 11506 -178 0
11506 -180 -3154 0
-181 11507 10526 0
11507 -181 10527 0
-182 11507 10526 0
-183 11507 10526 0
-184 11507 10526 0
-185 11507 10526 0
-186 11507 10526 0
-187 11507 -3162 0
-187 11507 10526 0
-194 11507 -3162 0
-200 11507 -3162 0
-205 11507 -3162 0
-209 11507 -3162 0
-212 11507 -3162 0
11507 -214 -3161 0
11507 -214 -3162 0
11507 -3162 -216 0
11507 -216 -3163 0
11508 -217 10536 0
-222 11508 -3170 0
-3164 -223 11508 0
-223 -3171 11508 0
-229 -3170 11508 0
-3165 -230 11508 0
-230 -3171 11508 0
-235 11508 -3170 0
-3166 -236 11508 0
-236 -3171 11508 0
-240 11508 -3170 0
-3167 -241 11508 0
-241 -3171 11508 0
-244 11508 -3170 0
-3168 -245 11508 0
-245 -3171 11508 0
-247 11508 -3170 0
-3169 -248 11508 0
-248 -3171 11508 0
11508 -3170 -250 0
-3171 11508 -250 0
-3171 11508 -252 0
11509 -253 10545 0
-258 11509 -3179 0
-259 -3180 11509 0
-265 -3179 11509 0
-266 -3180 11509 0
-271 11509 -3179 0
-272 -3180 11509 0
-276 11509 -3179 0
-277 -3180 11509 0
-280 11509 -3179 0
-281 -3180 11509 0
-283 11509 -3179 0
-284 -3180 11509 0
11509 -3179 -286 0
-3180 11509 -286 0
-3180 11509 -288 0
11509 -288 -3181 0
-289 11510 10553 0
11510 -289 10554 0
-290 11510 10553 0
-291 11510 10553 0
11510 -292 10553 0
-293 11510 10553 0
-294 11510 -3188 0
-294 11510 10553 0
-295 -3189 11510 0
-295 11510 10553 0
11510 -301 10554 0
-302 -3189 11510 0
-307 11510 -3188 0
-308 -3189 11510 0
-312 11510 -3188 0
-313 -3189 11510 0
-316 11510 -3188 0
-317 -3189 11510 0
-319 11510 -3188 0
-320 -3189 11510 0
11510 -322 -3188 0
-3189 11510 -322 0
-324 -3189 11510 0
11511 -325 10563 0
-330 11511 -3197 0
-3191 -331 11511 0
-331 11511 -3198 0
-333 11511 10563 0
-334 11511 10563 0
-335 11511 10563 0
-336 11511 10563 0
-337 11511 10563 0
-338 11511 -3198 0
-338 11511 10563 0
-343 11511 -3197 0
-344 11511 -3198 0
-348 11511 -3197 0
-349 11511 -3198 0
-352 11511 -3197 0
-353 11511 -3198 0
-355 11511 -3197 0
-356 11511 -3198 0
11511 -358 -3197 0
11511 -3198 -358 0
11511 -3198 -360 0
11511 -360 -3199 0
11512 -361 10571 0
11512 -361 10572 0
-362 11512 10571 0
11512 -363 10571 0
-364 11512 10571 0
-365 11512 10571 0
-366 -3206 11512 0
-366 11512 10571 0
-367 -3207 11512 0
-373 -3206 11512 0
-374 -3207 11512 0
-379 -3206 11512 0
-380 -3207 11512 0
-384 -3206 11512 0
-385 -3207 11512 0
-388 -3206 11512 0
-389 -3207 11512 0
-391 -3206 11512 0
-392 -3207 11512 0
-3206 -394 11512 0
-394 -3207 11512 0
-3207 11512 -396 0
-3208 11512 -396 0
11513 -397 10580 0
11513 -397 10581 0
-403 11513 -3216 0
-410 11513 -3216 0
-416 11513 -3216 0
-421 11513 -3216 0
-425 11513 -3216 0
-428 11513 -3216 0
11513 -3215 -430 0
11513 -3216 -430 0
-3216 11513 -432 0
-3217 11513 -432 0
11514 -433 10589 0
11514 -433 10590 0
-434 11514 10589 0
-435 11514 10589 0
-436 11514 10589 0
-437 11514 10589 0
-438 11514 10589 0
-439 11514 10589 0
-446 11514 -3225 0
-452 11514 -3225 0
-457 11514 -3225 0
-461 11514 -3225 0
-464 11514 -3225 0
-466 -3224 11514 0
-466 11514 -3225 0
11514 -3225 -468 0
11514 -468 -3226 0
-482 11515 -3234 0
-488 11515 -3234 0
-493 11515 -3234 0
-497 11515 -3234 0
-500 11515 -3234 0
-502 -3233 11515 0
-502 11515 -3234 0
11516 -11502 0
11519 -11503 0
11519 -11516 0
11520 -11503 -11516 0
11522 -11504 0
11522 -11519 0
11523 -11520 0
11523 -11504 -11519 0
-11520 -11504 11524 0
11525 -11505 0
11525 -11522 0
11526 -11523 0
-11524 11527 0
11526 -11522 -11505 0
-11523 -11505 11527 0
11528 -11506 0
11528 -11525 0
11529 -11526 0
-11527 11530 0
11529 -11506 -11525 0
-11526 -11506 11530 0
11531 -11507 0
11531 -11528 0
11532 -11529 0
-11530 11533 0
11532 -11507 -11528 0
-11529 -11507 11533 0
11534 -11508 0
11534 -11531 0
11535 -11532 0
-11533 11536 0
11535 -11508 -11531 0
-11532 -11508 11536 0
11537 -11509 0
11537 -11534 0
11538 -11535 0
-11536 11539 0
11538 -11509 -11534 0
-11535 -11509 11539 0
11540 -11510 0
11540 -11537 0
11541 -11538 0
-11539 11542 0
11541 -11537 -11510 0
-11538 -11510 11542 0
11543 -11511 0
11543 -11540 0
11544 -11541 0
-11542 11545 0
11544 -11511 -11540 0
-11541 -11511 11545 0
11546 -11512 0
11546 -11543 0
11547 -11544 0
-11545 11548 0
11547 -11543 -11512 0
-11544 -11512 11548 0
11550 -11547 0
-11548 11551 0
11550 -11546 -11513 0
-11547 11551 -11513 0
-11551 11554 0
-11550 11554 -11514 0
-11527 -11506 0
-11530 -11507 0
-11533 -11508 0
-11536 -11509 0
-11539 -11510 0
-11542 -11511 0
-11545 -11512 0
-11548 -11513 0
-11551 -11514 0
-11554 -11515 0
13975 -11170 0
-11171 13976 0
13976 -13975 0
-11172 13977 0
13977 -13976 0
13978 -11173 0
13978 -13977 0
-11174 13979 0
13979 -13978 0
-11175 13980 0
13980 -13979 0
13981 -11176 0
13981 -13980 0
-11177 13982 0
13982 -13981 0
-11178 13983 0
13983 -13982 0
13984 -11179 0
13984 -13983 0
13985 -11180 0
13985 -13984 0
13986 -11181 0
13986 -13985 0
-11182 13987 0
13987 -13986 0
-11171 -13975 0
-11172 -13976 0
-11173 -13977 0
-11174 -13978 0
-11175 -13979 0
-11176 -13980 0
-11177 -13981 0
-11178 -13982 0
-11179 -13983 0
-11180 -13984 0
-11181 -13985 0
-11182 -13986 0
-11183 -13987 0
-11263 13988 0
-11264 13989 0
-13988 13989 0
-11265 13990 0
-13989 13990 0
-11266 13991 0
-13990 13991 0
-11267 13992 0
-13991 13992 0
-11268 13993 0
-13992 13993 0
-11269 13994 0
-13993 13994 0
-11270 13995 0
-13994 13995 0
-11271 13996 0
-13995 13996 0
-11272 13997 0
-13996 13997 0
-11273 13998 0
-13997 13998 0
-11274 13999 0
-13998 13999 0
-11275 14000 0
-13999 14000 0
-11264 -13988 0
-11265 -13989 0
-13990 -11266 0
-11267 -13991 0
-11268 -13992 0
-11269 -13993 0
-11270 -13994 0
-13995 -11271 0
-11272 -13996 0
-13997 -11273 0
-13998 -11274 0
-11275 -13999 0
-11276 -14000 0
-8 0
-15 0
-21 0
-26 0
-30 0
-33 0
-35 0
-44 0
-51 0
-57 0
-62 0
-66 0
-69 0
-71 0
-80 0
-87 0
-93 0
-98 0
-102 0
-105 0
-107 0
-116 0
-123 0
-129 0
-134 0
-138 0
-141 0
-143 0
-152 0
-159 0
-165 0
-170 0
-174 0
-177 0
-179 0
-188 0
-195 0
-201 0
-206 0
-210 0
-213 0
-215 0
-224 0
-231 0
-237 0
-242 0
-246 0
-249 0
-251 0
-260 0
-267 0
-273 0
-278 0
-282 0
-285 0
-287 0
-296 0
-303 0
-309 0
-314 0
-318 0
-321 0
-323 0
-332 0
-339 0
-345 0
-350 0
-354 0
-357 0
-359 0
-368 0
-375 0
-381 0
-386 0
-390 0
-393 0
-395 0
-404 0
-411 0
-417 0
-422 0
-426 0
-429 0
-431 0
-440 0
-447 0
-453 0
-458 0
-462 0
-465 0
-467 0
-476 0
-483 0
-489 0
-494 0
-498 0
-501 0
-503 0
