p cnf 13779 2531
7 6 -505 1 2 3 4 5 8 0
-631 0
-506 14 9 10 11 12 13 15 0
-632 1 0
-507 19 20 16 17 18 21 0
-633 2 9 0
-508 24 25 22 23 26 0
-634 16 10 3 0
-509 28 29 27 30 0
-635 4 11 17 22 0
-510 31 32 33 0
-636 27 12 5 18 23 0
-511 34 35 0
-34 511 0
-637 6 13 28 19 24 31 0
-512 36 0
-638 7 14 34 32 25 29 20 0
-513 0
-639 36 15 21 26 30 33 35 8 0
-36 639 0
-37 792 0
793 -792 0
794 -793 0
795 -794 0
796 -795 0
797 -796 0
-796 -42 0
798 -797 0
799 -798 0
800 -799 0
801 -800 0
802 -801 0
803 -802 0
804 -803 0
805 -804 0
806 -805 0
807 -806 0
808 -807 0
809 -808 0
810 -809 0
-55 -809 0
811 -810 0
812 -811 0
813 -812 0
814 -813 0
815 -814 0
-60 -814 0
816 -815 0
817 -816 0
818 -817 0
819 -818 0
-64 -818 0
820 -819 0
821 -820 0
822 -821 0
-67 -821 0
823 -822 0
824 -823 0
-70 -824 0
38 43 -514 37 39 40 41 42 44 0
-37 514 0
-640 0
-515 46 45 47 48 49 50 51 0
-45 515 0
-641 37 0
-520 70 71 0
-646 42 49 67 55 60 64 0
-521 72 0
521 -72 0
-647 68 70 43 65 56 61 50 0
-70 647 0
-522 0
-648 72 51 57 62 66 69 71 44 0
-72 648 0
827 -73 0
828 -827 0
829 -828 0
830 -829 0
831 -830 0
832 -831 0
-832 833 0
-833 834 0
-81 835 0
-834 835 0
-82 836 0
-835 836 0
-83 837 0
-836 837 0
-84 838 0
-837 838 0
-838 839 0
-86 840 0
-839 840 0
-840 841 0
-841 842 0
-842 843 0
-843 844 0
-844 845 0
-845 846 0
-846 847 0
-847 848 0
-848 849 0
-849 850 0
-850 851 0
-851 852 0
-852 853 0
-853 854 0
-854 855 0
-855 856 0
-856 857 0
-857 858 0
-858 859 0
860 -859 0
-859 -106 0
861 -860 0
-108 -861 0
74 -523 73 75 76 77 78 79 80 0
-649 0
-524 85 81 86 84 83 82 87 0
-650 73 0
-529 106 107 0
-655 78 85 103 91 96 100 0
-85 655 0
-530 108 0
-108 530 0
-656 106 79 86 97 101 104 92 0
656 -106 0
-531 0
-657 108 87 93 98 102 105 107 80 0
-108 657 0
-109 862 0
-862 863 0
-863 864 0
-864 865 0
-865 866 0
-866 867 0
-867 868 0
-115 -867 0
-868 869 0
870 -117 0
-869 870 0
-118 871 0
871 -870 0
-119 872 0
872 -871 0
-120 873 0
873 -872 0
874 -873 0
-122 875 0
875 -874 0
876 -875 0
877 -876 0
878 -877 0
879 -878 0
880 -879 0
881 -880 0
-128 -880 0
882 -881 0
883 -882 0
884 -883 0
885 -884 0
886 -885 0
-133 -885 0
887 -886 0
888 -887 0
889 -888 0
890 -889 0
-137 -889 0
891 -890 0
892 -891 0
893 -892 0
-140 -892 0
894 -893 0
895 -894 0
-142 -894 0
896 -895 0
-144 -896 0
-532 110 109 115 114 111 112 113 116 0
-658 0
-533 122 117 118 121 120 119 123 0
533 -117 0
-122 533 0
-659 109 0
-538 142 143 0
-664 114 121 132 127 136 139 0
-121 664 0
-539 144 0
-144 539 0
-665 115 142 140 128 133 137 122 0
-540 0
-666 144 123 129 134 138 141 143 116 0
897 -145 0
898 -897 0
899 -898 0
900 -899 0
901 -900 0
902 -901 0
-150 -901 0
903 -902 0
-151 -902 0
904 -903 0
-153 905 0
905 -904 0
906 -154 0
906 -905 0
-155 907 0
907 -906 0
-156 908 0
908 -907 0
909 -908 0
-157 -908 0
-158 910 0
910 -909 0
-158 -909 0
911 -910 0
912 -911 0
913 -912 0
914 -913 0
915 -914 0
-163 -914 0
916 -915 0
-164 -915 0
917 -916 0
918 -917 0
919 -918 0
920 -919 0
-168 -919 0
921 -920 0
-169 -920 0
922 -921 0
923 -922 0
924 -923 0
-172 -923 0
925 -924 0
-173 -924 0
926 -925 0
927 -926 0
-175 -926 0
928 -927 0
-176 -927 0
929 -928 0
930 -929 0
-178 -929 0
931 -930 0
-180 -931 0
-541 146 145 150 147 148 149 151 152 0
-667 0
-542 155 154 158 156 153 157 159 0
-158 542 0
-668 145 0
-547 178 179 0
-178 547 0
-673 175 150 157 163 168 172 0
-157 673 0
-548 180 0
-180 548 0
-674 151 158 176 178 164 169 173 0
-178 674 0
-549 0
-675 180 159 165 170 174 177 179 152 0
-181 932 0
-182 933 0
-932 933 0
-183 934 0
-933 934 0
-184 935 0
-934 935 0
-185 936 0
-935 936 0
-186 937 0
-936 937 0
-187 938 0
-937 938 0
-187 -937 0
-938 939 0
-189 940 0
-939 940 0
-190 941 0
-940 941 0
-191 942 0
-941 942 0
-192 943 0
-942 943 0
-193 944 0
-943 944 0
-194 945 0
-944 945 0
-194 -944 0
-945 946 0
-946 947 0
-947 948 0
-948 949 0
-949 950 0
-950 951 0
-200 -950 0
-951 952 0
-952 953 0
-953 954 0
-954 955 0
-955 956 0
-205 -955 0
-956 957 0
-957 958 0
-958 959 0
-959 960 0
-209 -959 0
-960 961 0
-961 962 0
-962 963 0
-212 -962 0
-963 964 0
965 -214 0
965 -964 0
-964 -214 0
966 -965 0
-216 -966 0
-550 182 181 183 184 185 186 187 188 0
-676 0
-551 189 194 191 192 193 190 195 0
-677 181 0
-556 214 215 0
-682 199 193 186 211 204 208 0
-557 216 0
-216 557 0
212 -683 214 187 194 200 205 209 0
683 -214 0
-558 0
-684 216 195 201 206 210 213 215 188 0
-216 684 0
-217 967 0
-967 968 0
-968 969 0
-969 970 0
-970 971 0
-971 972 0
-972 973 0
-973 974 0
-225 975 0
-974 975 0
-226 976 0
-975 976 0
-227 977 0
-976 977 0
-228 978 0
-977 978 0
-229 979 0
-978 979 0
-230 980 0
-979 980 0
-980 981 0
-981 982 0
-982 983 0
-983 984 0
-984 985 0
-985 986 0
-236 -985 0
-986 987 0
-987 988 0
-988 989 0
-989 990 0
-990 991 0
-241 -990 0
-991 992 0
-992 993 0
-993 994 0
-994 995 0
-245 -994 0
-995 996 0
-996 997 0
-997 998 0
-248 -997 0
-998 999 0
-999 1000 0
-999 -250 0
1001 -1000 0
-1001 -252 0
-559 218 217 219 220 221 222 223 224 0
-685 0
-560 225 230 227 228 229 226 231 0
-230 560 0
-686 217 0
250 -565 251 0
-691 235 229 222 240 244 247 0
-229 691 0
-566 252 0
-252 566 0
-692 250 223 230 248 236 241 245 0
-230 692 0
-567 0
-693 252 231 237 242 246 249 251 224 0
-252 693 0
-253 1002 0
-254 1003 0
-1002 1003 0
-255 1004 0
-1003 1004 0
-256 1005 0
-1004 1005 0
-257 1006 0
-1005 1006 0
-258 1007 0
-1006 1007 0
-259 1008 0
-1007 1008 0
-259 -1007 0
-1008 1009 0
-261 1010 0
-1009 1010 0
-262 1011 0
-1010 1011 0
-263 1012 0
-1011 1012 0
-264 1013 0
-1012 1013 0
-265 1014 0
-1013 1014 0
-266 1015 0
-1014 1015 0
-1015 1016 0
-1016 1017 0
-1017 1018 0
-1018 1019 0
-1019 1020 0
-1020 1021 0
-272 -1020 0
-1021 1022 0
-1022 1023 0
-1023 1024 0
-1024 1025 0
-1025 1026 0
-277 -1025 0
-1026 1027 0
-1027 1028 0
-1028 1029 0
-1029 1030 0
-281 -1029 0
-1030 1031 0
-1031 1032 0
-1032 1033 0
-284 -1032 0
-1033 1034 0
1035 -286 0
-1034 1035 0
-1034 -286 0
1036 -1035 0
-288 -1036 0
-568 254 253 255 256 257 258 259 260 0
-253 568 0
-694 0
-569 261 266 264 262 265 263 267 0
-266 569 0
-695 253 0
-574 286 287 0
-700 271 283 265 258 276 280 0
-575 288 0
281 286 -701 284 266 259 272 277 0
-266 701 0
701 -286 0
-576 0
-702 288 267 273 278 282 285 287 260 0
-288 702 0
-289 1037 0
-1037 1038 0
-1038 1039 0
-1039 1040 0
-1040 1041 0
-1041 1042 0
-294 -1041 0
-1042 1043 0
-295 -1042 0
-1043 1044 0
-297 1045 0
-1044 1045 0
-298 1046 0
-1045 1046 0
-299 1047 0
-1046 1047 0
-300 1048 0
-1047 1048 0
-301 1049 0
-1048 1049 0
-1049 1050 0
-302 -1049 0
-1050 1051 0
-1051 1052 0
-1052 1053 0
-1053 1054 0
-1054 1055 0
-1055 1056 0
-308 -1055 0
-1056 1057 0
-1057 1058 0
-1058 1059 0
-1059 1060 0
-1060 1061 0
-313 -1060 0
-1061 1062 0
-1062 1063 0
-1063 1064 0
-1064 1065 0
-317 -1064 0
-1065 1066 0
-1066 1067 0
-1067 1068 0
-320 -1067 0
-1068 1069 0
1070 -1069 0
-1069 -322 0
1071 -1070 0
-324 -1071 0
-577 290 289 291 292 293 294 295 296 0
-703 0
-578 302 297 301 299 300 298 303 0
-704 289 0
-583 322 323 0
-709 294 301 307 312 316 319 0
-584 324 0
320 -710 295 302 322 308 313 317 0
-302 710 0
-585 0
-711 324 303 309 314 318 321 323 296 0
-325 1072 0
-1072 1073 0
-1073 1074 0
-1074 1075 0
-1075 1076 0
-1076 1077 0
-1077 1078 0
-1077 -331 0
-1078 1079 0
-333 1080 0
-1079 1080 0
-334 1081 0
-1080 1081 0
-335 1082 0
-1081 1082 0
-336 1083 0
-1082 1083 0
-337 1084 0
-1083 1084 0
-1084 1085 0
-1085 1086 0
-1086 1087 0
-1087 1088 0
-1088 1089 0
-1089 1090 0
-1090 1091 0
-344 -1090 0
-1091 1092 0
-1092 1093 0
-1093 1094 0
-1094 1095 0
-1095 1096 0
-349 -1095 0
-1096 1097 0
-1097 1098 0
-1098 1099 0
-1099 1100 0
-353 -1099 0
-1100 1101 0
-1101 1102 0
-1102 1103 0
-356 -1102 0
-1103 1104 0
-1104 1105 0
-1104 -358 0
1106 -1105 0
-1106 -360 0
-586 326 325 327 328 329 330 331 332 0
-712 0
-587 333 338 335 336 337 334 339 0
-338 587 0
-713 325 0
-592 358 359 0
-593 360 0
-360 593 0
-719 358 331 356 353 344 349 338 0
-338 719 0
-594 0
-720 360 339 345 350 354 357 359 332 0
-360 720 0
-361 1107 0
-1107 1108 0
-1108 1109 0
-1109 1110 0
-1110 1111 0
-1111 1112 0
-1112 1113 0
-1113 1114 0
-369 1115 0
-1114 1115 0
-370 1116 0
-1115 1116 0
-371 1117 0
-1116 1117 0
-372 1118 0
-1117 1118 0
-373 1119 0
-1118 1119 0
-374 1120 0
-1119 1120 0
-1120 1121 0
-1121 1122 0
-1122 1123 0
-1123 1124 0
-1124 1125 0
-1125 1126 0
-380 -1125 0
-1126 1127 0
-1127 1128 0
-1128 1129 0
-1129 1130 0
-1130 1131 0
-385 -1130 0
-1131 1132 0
-1132 1133 0
-1133 1134 0
-1134 1135 0
-389 -1134 0
-1135 1136 0
-1136 1137 0
-1137 1138 0
-1137 -392 0
-1138 1139 0
-1139 1140 0
-1139 -394 0
-1140 1141 0
-1141 -396 0
-595 362 361 363 364 365 366 367 368 0
-721 0
-596 370 369 374 373 372 371 375 0
-374 596 0
-722 361 0
-601 394 395 0
-373 727 0
-602 396 0
602 -396 0
-728 392 367 389 374 394 380 385 0
-374 728 0
-603 0
396 -729 375 381 386 390 393 395 368 0
-396 729 0
-397 1142 0
-398 1143 0
-1142 1143 0
-399 1144 0
-1143 1144 0
-400 1145 0
-1144 1145 0
-401 1146 0
-1145 1146 0
-402 1147 0
-1146 1147 0
-403 1148 0
-1147 1148 0
-403 -1147 0
-1148 1149 0
-405 1150 0
-1149 1150 0
-406 1151 0
-1150 1151 0
-407 1152 0
-1151 1152 0
-408 1153 0
-1152 1153 0
-409 1154 0
-1153 1154 0
-410 1155 0
-1154 1155 0
-410 -1154 0
-1155 1156 0
-1156 1157 0
-1157 1158 0
-1158 1159 0
-415 1160 0
-1159 1160 0
-1160 1161 0
-416 -1160 0
-1161 1162 0
-1162 1163 0
-1163 1164 0
-420 1165 0
-1164 1165 0
-1165 1166 0
-421 -1165 0
-1166 1167 0
-1167 1168 0
-424 1169 0
-1168 1169 0
-1169 1170 0
-425 -1169 0
-1170 1171 0
-427 1172 0
-1171 1172 0
-1172 1173 0
-428 -1172 0
-1173 1174 0
-430 1175 0
-1174 1175 0
-430 -1174 0
-1175 1176 0
-1176 -432 0
-604 398 397 399 400 401 402 403 404 0
-730 0
-605 408 406 407 405 409 410 411 0
-731 397 0
-610 430 431 0
-736 402 409 415 420 424 427 0
-611 432 0
611 -432 0
-737 428 430 410 403 416 421 425 0
-612 0
-738 432 411 417 422 426 429 431 404 0
-432 738 0
-433 1177 0
-1177 1178 0
-1178 1179 0
-1179 1180 0
-1180 1181 0
-438 1182 0
-1181 1182 0
-1182 1183 0
-439 -1182 0
-1183 1184 0
-1184 1185 0
-1185 1186 0
-1186 1187 0
-1187 1188 0
-445 1189 0
-1188 1189 0
-1189 1190 0
-446 -1189 0
-1190 1191 0
-1191 1192 0
-1192 1193 0
-1193 1194 0
-451 1195 0
-1194 1195 0
-1195 1196 0
-452 -1195 0
-1196 1197 0
-1197 1198 0
-1198 1199 0
-456 1200 0
-1199 1200 0
-1200 1201 0
-457 -1200 0
-1201 1202 0
-459 1203 0
-1202 1203 0
1204 -460 0
-1203 1204 0
-461 1205 0
1205 -1204 0
-461 -1204 0
1206 -1205 0
-463 1207 0
1207 -1206 0
1208 -1207 0
-464 -1207 0
1209 -1208 0
-466 1210 0
1210 -1209 0
-466 -1209 0
1211 -1210 0
-468 -1211 0
-613 434 433 435 436 437 438 439 440 0
-739 0
-614 441 442 443 444 445 446 447 0
-740 433 0
460 461 -617 459 462 0
-619 466 467 0
-745 438 445 451 456 460 463 0
-620 468 0
620 -468 0
-746 464 439 466 446 452 457 461 0
-621 0
-747 468 447 453 458 462 465 467 440 0
-468 747 0
470 469 -622 471 472 473 474 475 476 0
-748 0
469 -749 0
-626 495 496 497 498 0
-628 502 503 0
-629 504 0
-504 629 0
488 -755 482 475 493 497 500 502 0
-630 0
-756 504 483 489 494 498 501 503 476 0
-1253 637 511 0
639 -1255 513 0
-1262 646 1253 520 0
648 -1264 1255 522 0
-1271 1262 655 529 0
657 -1273 1264 531 0
-1272 1263 -106 1262 0
-1281 1272 539 665 0
-1282 666 1273 540 0
-1281 1272 1271 -142 0
675 -1282 1291 549 0
-1291 675 1282 549 0
-1281 -180 1291 0
-1290 1299 557 683 0
684 -1291 1300 558 0
-1300 684 1291 558 0
-1299 1290 1289 -214 0
-1299 1308 692 566 0
-1308 1299 692 566 0
693 -1300 1309 567 0
-1309 693 1300 567 0
-1300 1309 -693 0
-1299 -252 1309 0
-1308 1317 575 701 0
-1317 1308 575 701 0
-1308 1317 -701 0
702 -1309 1318 576 0
-1318 702 1309 576 0
-1317 1308 -286 1307 0
-1308 -288 1318 0
-1317 1326 710 584 0
-1326 1317 584 710 0
711 -1318 1327 585 0
-1327 711 1318 585 0
-1317 -324 1327 0
-1326 1335 719 593 0
720 -1327 1336 594 0
-1336 720 1327 594 0
1344 -1335 -728 0
729 -1336 1345 603 0
-1336 1345 -729 0
-1343 1335 -394 0
-1335 1345 -396 0
-1352 1343 610 736 0
-1353 1344 -611 0
738 -1345 1354 612 0
-1344 -432 1354 0
747 -1354 1363 621 0
756 -1363 630 0
-1366 507 633 0
-1370 637 511 0
-1370 -511 0
638 512 -1371 0
639 -1372 513 0
-6 1370 0
1371 -7 0
-20 -1371 0
-25 -1371 0
-29 -1371 0
-32 -1371 0
-34 -1371 0
-1380 647 521 1371 0
648 -1381 1372 522 0
-1380 -70 1370 1371 0
-1389 1380 530 656 0
657 -1390 1381 531 0
1380 -108 1381 -1390 0
1389 -1398 665 539 0
666 -1399 1390 540 0
1398 -1407 548 674 0
675 -1408 1399 549 0
1398 -1408 -180 1399 0
1407 -1416 683 557 0
684 -1417 1408 558 0
1407 -216 -1417 1408 0
1416 -1425 692 566 0
693 -1426 1417 567 0
1416 -1426 -252 1417 0
1425 -1434 575 701 0
702 -1435 1426 576 0
1425 -288 -1435 1426 0
-1434 1443 -710 0
711 -1444 1435 585 0
-1443 -324 1435 0
1434 -1444 1435 -324 0
720 -1453 1444 594 0
-728 -1452 1461 0
729 -1462 1453 603 0
-1461 -396 1453 0
1452 -396 1453 -1462 0
738 -1471 1462 612 0
747 -1480 1471 621 0
756 1480 630 0
505 -1481 631 0
-1482 506 632 0
-1484 508 634 0
-1485 509 635 0
-1486 510 636 0
-1487 637 511 0
-1487 -511 0
639 -1489 513 0
-1488 -7 0
-19 1487 0
-20 1488 0
-1488 -34 0
-1497 647 1488 521 0
648 -1498 1489 522 0
-1497 -70 1488 1487 0
-1498 -72 1488 1489 0
-1506 1497 656 530 0
657 -1507 1498 531 0
1506 -1515 665 539 0
666 -1516 1507 540 0
1506 -1516 1507 -144 0
1515 -1524 548 674 0
675 -1525 1516 549 0
1524 -1533 557 683 0
684 -1534 1525 558 0
1524 -216 1525 -1534 0
1533 -1542 692 566 0
693 -1543 1534 567 0
1533 -1543 -252 1534 0
1542 -1551 575 701 0
702 -1552 1543 576 0
1542 -288 -1552 1543 0
711 -1561 1552 585 0
1551 -324 -1561 1552 0
720 -1570 1561 594 0
729 -1579 1570 603 0
738 -1588 1579 612 0
747 -1597 1588 621 0
756 1597 630 0
-1599 506 632 0
1604 637 511 0
-637 1604 0
639 -1606 513 0
-14 -1605 0
-25 -1605 0
-29 -1605 0
-32 -1605 0
-34 1605 0
-1608 515 1599 641 0
1613 646 520 -1604 0
1613 -646 -1604 0
-1605 647 1614 521 0
-647 -1605 1614 0
648 -1615 1606 522 0
-70 1614 -1604 0
-1614 -72 1606 0
-1617 650 1608 524 0
-1613 1622 529 655 0
-655 1622 -1613 0
-1614 656 1623 530 0
-1614 -656 1623 0
657 -1624 1615 531 0
-106 1623 -1613 0
-108 -1623 1615 0
-1626 533 1617 659 0
1631 -1622 664 538 0
-664 -1622 1631 0
1632 -1623 665 539 0
-665 1632 -1623 0
666 -1633 1624 540 0
-142 1632 -1622 0
-1635 668 1626 542 0
1640 -1631 547 673 0
-673 -1631 1640 0
-1632 1641 674 548 0
-674 1641 -1632 0
675 -1642 1633 549 0
-178 -1631 1641 0
-180 1633 -1641 0
682 -1640 1649 556 0
-682 1649 -1640 0
683 1650 557 -1641 0
683 1641 -1650 557 0
-683 1650 -1641 0
684 -1651 1642 558 0
-214 1641 -1649 0
-214 -1640 1650 0
-216 1642 -1650 0
565 -1649 1658 691 0
-691 1658 -1649 0
692 -1650 566 1659 0
692 -1659 566 1650 0
-692 -1650 1659 0
693 -1660 1651 567 0
-250 -1649 -1650 1658 0
-250 -1649 1659 0
-252 1651 1650 -1660 0
574 700 -1658 1667 0
-700 -1658 1667 0
701 1668 575 -1659 0
701 1659 575 -1668 0
-701 -1659 1668 0
702 -1669 1660 576 0
-286 1659 -1667 0
-286 -1659 1667 -1658 0
-286 -1658 1668 0
-288 -1669 1660 1659 0
583 1676 -1667 709 0
-709 -1667 1676 0
710 1677 584 -1668 0
710 -1677 1668 584 0
-710 -1668 1677 0
711 -1678 1669 585 0
-1661 -295 1677 0
-322 -1667 -1668 1676 0
-322 -1667 1677 0
-324 1669 -1677 0
-324 1669 1668 -1678 0
-1676 1685 592 718 0
-718 -1676 1685 0
-1677 1686 593 719 0
-719 1686 -1677 0
720 -1687 1678 594 0
-358 -1676 -1677 1685 0
-358 -1676 1686 0
-360 1678 1677 -1687 0
727 1694 601 -1685 0
-727 -1685 1694 0
1695 602 728 -1686 0
-1695 1686 728 602 0
-728 1695 -1686 0
729 -1696 1687 603 0
-394 -1686 -1685 1694 0
-394 1695 -1685 0
1687 1686 -396 -1696 0
-1694 1703 736 610 0
-736 -1694 1703 0
1704 -1695 737 611 0
-737 1704 -1695 0
738 -1705 1696 612 0
-430 -1694 -1695 1703 0
1704 -430 -1694 0
1695 -1705 1696 -432 0
-1703 1712 619 745 0
-745 -1703 1712 0
-1704 1713 620 746 0
-746 -1704 1713 0
747 -1714 1705 621 0
-466 -1703 1713 0
1704 -1714 -468 1705 0
628 -1712 754 0
-754 -1712 0
-1713 755 629 0
-1713 -755 0
756 1714 630 0
-502 -1712 0
639 -1723 513 0
-28 1721 0
-1721 -34 0
-1723 -36 0
648 -1732 1723 522 0
657 -1741 1732 531 0
-1740 -108 1732 0
-1749 1740 665 539 0
666 -1750 1741 540 0
-1749 -144 1741 0
1749 -1758 674 548 0
675 -1759 1750 549 0
-1758 -180 1750 0
1758 -1767 683 557 0
684 -1768 1759 558 0
-1767 -216 1759 0
1767 -1776 692 566 0
1767 -1776 -566 0
-1767 1776 -692 0
693 -1777 1768 567 0
-1776 -252 1768 0
1767 -1777 -252 1768 0
1776 -1785 575 701 0
702 -1786 1777 576 0
-288 -1785 1777 0
1785 -1794 710 584 0
711 -1795 1786 585 0
-324 -1794 1786 0
1794 -1803 719 593 0
720 -1804 1795 594 0
-1803 -360 1795 0
1803 -1812 728 602 0
729 -1813 1804 603 0
-1812 1804 -396 0
1812 737 611 -1821 0
738 -1822 1813 612 0
-1821 -432 1813 0
1821 -1830 746 620 0
-1830 1821 -620 0
747 -1831 1822 621 0
-1830 -468 1822 0
755 1830 629 0
-629 1830 0
1831 756 630 0
-504 1831 0
505 -1949 631 0
-1949 -505 0
-1950 506 632 0
-1955 637 511 0
639 1957 513 0
1957 -639 0
648 -1957 1966 522 0
1966 -648 -1957 0
-1965 -70 1956 1955 0
-1974 1965 656 530 0
-1974 1965 -530 0
-1966 657 1975 531 0
1975 -657 -1966 0
-1974 1965 -106 1964 0
-1983 1974 665 539 0
-1983 -539 1974 0
666 -1975 1984 540 0
-666 1984 -1975 0
-1983 1974 -142 1973 0
-1992 1983 548 674 0
-1992 1983 -548 0
-1984 675 1993 549 0
-675 1993 -1984 0
-1992 1982 -178 1983 0
-2001 1992 683 557 0
-2001 -557 1992 0
-1993 2002 684 558 0
-684 2002 -1993 0
-2001 1992 -214 1991 0
-2010 2001 692 566 0
-2010 2001 -566 0
-2002 2011 693 567 0
2011 -693 -2002 0
-2010 2001 -250 2000 0
-2019 2010 575 701 0
-2019 -575 2010 0
-2011 2020 702 576 0
2020 -702 -2011 0
-2019 2010 -286 2009 0
-2028 2019 584 710 0
-2028 -584 2019 0
-2020 2029 711 585 0
2029 -711 -2020 0
-2037 2028 719 593 0
-2029 2038 720 594 0
2038 -720 -2029 0
-2046 2037 602 728 0
-2046 2037 -602 0
-2038 729 2047 603 0
-2038 -729 2047 0
-2046 2036 -394 2037 0
-2055 2046 -611 0
738 -2047 2056 612 0
2056 -738 -2047 0
617 743 -2052 2061 0
-743 -2052 2061 0
747 -2056 2065 621 0
626 -2061 752 0
-752 -2061 0
756 2065 630 0
-495 -2061 0
-496 -2061 0
-497 -2061 0
-2306 -511 0
-24 2306 0
-2540 -511 0
-31 2540 0
505 -3002 631 0
-3003 506 632 0
-3004 507 633 0
-3005 508 634 0
-3006 509 635 0
-3007 510 636 0
3008 637 511 0
-637 3008 0
-3009 638 512 0
639 3010 513 0
-3009 -7 0
-14 -3009 0
-20 -3009 0
-25 -3009 0
-29 -3009 0
-32 -3009 0
-3008 -34 0
-34 3009 0
3017 646 520 -3008 0
646 3008 520 -3017 0
-520 3008 -3017 0
-646 3017 -3008 0
3018 -3009 521 647 0
-3018 647 521 3009 0
-647 3018 -3009 0
648 -3010 3019 522 0
-648 3019 -3010 0
-42 -3017 3002 3008 0
-3018 -43 3009 3002 0
-49 3008 3003 -3017 0
-55 3008 3004 -3017 0
-56 -3018 3004 3009 0
-60 3008 3005 -3017 0
-61 -3018 3005 3009 0
-64 3008 -3017 3006 0
-65 -3018 3009 3006 0
-67 3008 -3017 3007 0
-68 -3018 3009 3007 0
-70 -3017 3009 0
-70 3018 -3008 0
655 3026 -3017 529 0
-655 3026 -3017 0
-3018 656 3027 530 0
3018 -530 -3027 0
-3018 3027 -656 0
-3019 3028 657 531 0
-657 3028 -3019 0
3018 -106 -3026 0
-3018 -106 3026 -3017 0
3027 -106 -3017 0
-3018 -108 -3019 3027 0
3035 -3026 538 664 0
-664 -3026 3035 0
3036 -3027 539 665 0
3027 -3036 665 539 0
-539 3027 -3036 0
3036 -3027 -665 0
666 -3028 3037 540 0
-666 3037 -3028 0
-3027 -142 -3026 3035 0
3036 -142 -3026 0
-144 -3027 -3028 3036 0
-3035 3044 547 673 0
-547 -3044 3035 0
-673 3044 -3035 0
3045 -3036 674 548 0
-674 3045 -3036 0
675 -3037 3046 549 0
-675 3046 -3037 0
-178 3036 -3044 0
-178 -3036 -3035 3044 0
-178 3045 -3035 0
-180 -3036 -3037 3045 0
556 3053 682 -3044 0
-682 3053 -3044 0
3054 683 -3045 557 0
3054 -3045 -683 0
684 -3046 3055 558 0
-684 3055 -3046 0
-3045 -214 3053 -3044 0
3054 -214 -3044 0
-216 3054 -3046 -3045 0
-3053 565 691 3062 0
-691 3062 -3053 0
3063 692 -3054 566 0
-566 3054 -3063 0
3063 -692 -3054 0
693 -3055 3064 567 0
-693 3064 -3055 0
3054 -250 -3062 0
-3054 -250 3062 -3053 0
3063 -250 -3053 0
-252 3063 -3055 -3054 0
3071 574 700 -3062 0
-700 3071 -3062 0
3072 701 575 -3063 0
3072 -3063 -701 0
-3064 3073 702 576 0
3073 -702 -3064 0
3063 -3071 -286 0
3071 -3063 -286 -3062 0
3072 -3062 -286 0
3063 -286 3062 -3072 0
-288 -3064 -3063 3072 0
3080 -3071 583 709 0
-709 3080 -3071 0
3081 710 -3072 584 0
3072 -3081 584 710 0
3081 -3072 -710 0
-3073 3082 711 585 0
-711 3082 -3073 0
3080 -322 -3072 -3071 0
3081 -3071 -322 0
-324 -3073 3081 -3072 0
-324 -3072 3082 0
718 3089 592 -3080 0
-718 3089 -3080 0
3090 719 -3081 593 0
-593 -3090 3081 0
3090 -719 -3081 0
-3082 3091 720 594 0
-720 3091 -3082 0
-358 -3081 3089 -3080 0
-358 3090 -3080 0
-360 -3082 3090 -3081 0
-360 -3081 3091 0
3098 -3089 727 601 0
-727 3098 -3089 0
3099 602 728 -3090 0
-728 -3090 3099 0
-3091 3100 729 603 0
-3091 -729 3100 0
-394 -3090 3098 -3089 0
-394 -3089 3099 0
-3091 3099 -396 -3090 0
-3090 -396 3100 0
3107 -3098 610 736 0
-736 -3098 3107 0
-3099 737 3108 611 0
-737 -3099 3108 0
-3100 738 3109 612 0
-738 -3100 3109 0
-430 -3099 3107 -3098 0
-3098 -430 3108 0
3108 -432 -3100 -3099 0
3099 -3109 3100 -432 0
-3107 3116 745 619 0
-745 -3107 3116 0
3117 746 620 -3108 0
-746 -3108 3117 0
747 -3109 3118 621 0
747 -3118 3109 621 0
-466 -3107 -3108 3116 0
-3108 3117 -3109 -468 0
3108 -468 -3118 3109 0
-3116 754 628 0
-754 -3116 0
756 3118 630 0
-3116 -3117 -502 0
3117 -502 3116 0
-504 3118 0
-6752 -511 0
-13 6752 0
9204 506 632 0
9213 515 641 -9204 0
9222 -9213 524 650 0
9231 -9222 533 659 0
9240 -9231 668 542 0
9249 -9240 551 677 0
9258 -9249 686 560 0
9267 -9258 695 569 0
9276 -9267 578 704 0
-9276 9285 713 587 0
-9285 9294 722 596 0
-9294 9303 731 605 0
-9303 9312 740 614 0
-9312 -749 0
505 9320 631 0
9321 506 632 0
9322 507 633 0
9323 508 634 0
9325 510 636 0
9326 637 511 0
639 9328 513 0
-1 9320 0
-2 9320 0
-3 9320 0
-5 9320 0
-6 9320 0
-7 9320 0
9326 -34 0
9327 -34 0
-9320 514 9329 640 0
9330 515 -9321 641 0
9335 646 520 -9326 0
648 -9328 9337 522 0
-37 -9321 -9320 9329 0
-38 -9322 9329 -9320 0
-39 -9323 9329 -9320 0
-41 -9325 9329 -9320 0
-42 -9326 9329 -9320 0
-43 -9327 9329 -9320 0
-9329 523 9338 649 0
9339 650 -9330 524 0
9344 -9335 529 655 0
-9337 9346 657 531 0
-73 -9330 -9329 9338 0
532 -9338 9347 658 0
9348 533 -9339 659 0
9353 -9344 538 664 0
666 -9346 9355 540 0
-109 -9339 -9338 9347 0
-9347 541 9356 667 0
9357 668 -9348 542 0
9362 -9353 673 547 0
675 -9355 9364 549 0
-9356 550 9365 676 0
9366 551 -9357 677 0
9371 -9362 556 682 0
684 -9364 9373 558 0
9372 -9362 -214 0
-9365 559 9374 685 0
9375 560 -9366 686 0
9381 -9372 566 692 0
693 -9373 9382 567 0
9381 -9371 -250 0
-9374 568 9383 694 0
9384 695 -9375 569 0
9390 -9381 -701 0
-9382 9391 702 576 0
-9383 577 9392 703 0
9393 704 -9384 578 0
9399 -9390 710 584 0
-9391 9400 711 585 0
-9392 586 9401 712 0
-9401 595 9410 721 0
-9410 604 9419 730 0
613 -9419 9428 739 0
622 -9428 748 0
505 10256 631 0
-10257 506 632 0
-506 -10257 0
10260 509 635 0
-635 10260 0
10261 636 510 0
-636 10261 0
10262 637 511 0
-637 10262 0
10263 512 638 0
-638 10263 0
639 10264 513 0
-10256 -1 0
-2 10256 0
-3 10256 0
-4 10256 0
-5 10256 0
-6 10256 0
-7 10256 0
-27 10260 0
-28 10260 0
-29 10260 0
-31 10261 0
-32 10261 0
-10256 10265 514 640 0
514 -10265 10256 640 0
-10266 641 10257 515 0
-515 -10266 10257 0
10271 646 520 -10262 0
10272 647 -10263 521 0
-647 10272 -10263 0
648 -10264 10273 522 0
-37 10257 -10265 0
-10258 -38 10265 -10256 0
-10259 -39 10265 -10256 0
-40 -10260 -10256 10265 0
-41 -10261 -10256 10265 0
-10262 -42 10265 -10256 0
-10263 -43 10265 -10256 0
523 -10274 10265 649 0
-10275 650 10266 524 0
-524 -10275 10266 0
10280 -10271 655 529 0
656 10281 -10272 530 0
-10272 10281 -656 0
-10273 10282 657 531 0
-10274 -73 10266 0
-73 10275 -10265 0
-108 10281 -10273 -10272 0
532 -10283 10274 658 0
-532 -10283 10274 0
-10284 533 10275 659 0
-10284 -533 10275 0
10289 -10280 664 538 0
10290 -10281 665 539 0
10290 -10281 -665 0
666 -10282 10291 540 0
-10283 -109 10275 0
-10274 -10275 -109 10283 0
-144 10290 -10281 -10282 0
-10292 10283 541 667 0
-10292 -541 10283 0
-10293 542 668 10284 0
-542 -10293 10284 0
10298 -10289 547 673 0
10299 -10290 674 548 0
10299 -10290 -674 0
675 -10291 10300 549 0
-145 10284 -10292 0
-145 10283 -10293 10284 0
-151 -10290 -10283 10292 0
10299 -178 -10289 0
10299 -10290 -180 -10291 0
-10301 10292 550 676 0
-10302 551 10293 677 0
-551 -10302 10293 0
10307 -10298 556 682 0
10308 -10299 683 557 0
684 -10300 10309 558 0
-10301 -181 10293 0
10308 -10298 -214 0
10308 -216 -10300 -10299 0
-10310 10301 559 685 0
-10311 560 686 10302 0
-560 -10311 10302 0
10317 -10308 692 566 0
10317 -10308 -692 0
693 -10309 10318 567 0
-10310 -217 10302 0
-217 10301 -10311 10302 0
-223 -10308 -10301 10310 0
10317 -10307 -250 0
10317 -10308 -252 -10309 0
-10319 10310 568 694 0
-10320 569 10311 695 0
-569 -10320 10311 0
10326 -10317 575 701 0
10326 -10317 -701 0
-10318 10327 702 576 0
-253 10311 -10319 0
10326 -288 -10317 -10318 0
-10328 10319 577 703 0
-10329 578 10320 704 0
-578 -10329 10320 0
10335 -10326 584 710 0
-10327 10336 711 585 0
-10328 -289 10320 0
-289 10319 10320 -10329 0
10335 -324 -10326 -10327 0
-10337 10328 586 712 0
-10338 587 713 10329 0
-587 -10338 10329 0
10344 -10335 719 593 0
-10336 10345 720 594 0
10344 -360 -10336 -10335 0
-10346 10337 595 721 0
-10347 596 10338 722 0
-10347 -596 10338 0
10353 -10344 728 602 0
-10345 10354 729 603 0
-361 10338 -10346 0
-361 -10347 10337 10338 0
-367 -10344 -10337 10346 0
10353 -10344 -396 -10345 0
-10355 10346 604 730 0
-10356 605 10347 731 0
-605 -10356 10347 0
-10364 613 10355 739 0
-10365 614 740 10356 0
-614 -10365 10356 0
749 623 10365 0
-623 10365 0
-10364 -10365 -469 0
-10373 505 631 0
-505 -10373 0
10374 506 632 0
10379 637 511 0
639 10381 513 0
10380 -34 0
-10382 10373 514 640 0
-514 -10382 10373 0
10383 515 -10374 641 0
10388 646 520 -10379 0
-10381 648 10390 522 0
10389 -70 -10379 0
-10391 10382 523 649 0
-523 -10391 10382 0
10392 650 -10383 524 0
10397 -10388 655 529 0
10398 -10389 656 530 0
-10390 10399 657 531 0
10398 -10388 -106 0
10398 -10389 -108 -10390 0
10401 533 -10392 659 0
10406 -10397 664 538 0
10407 -10398 539 665 0
666 -10399 10408 540 0
10407 -10397 -142 0
-10398 -144 10407 -10399 0
10410 668 -10401 542 0
10415 -10406 547 673 0
10416 -10407 674 548 0
10407 -10416 674 548 0
675 -10408 10417 549 0
10416 -178 -10406 0
10416 -10407 -180 -10408 0
10419 551 -10410 677 0
10424 -10415 556 682 0
10425 -10416 557 683 0
684 -10417 10426 558 0
10425 -10415 -214 0
10425 -10416 -216 -10417 0
10428 560 -10419 686 0
10433 -10424 691 565 0
10434 -10425 566 692 0
693 -10426 10435 567 0
10434 -10424 -250 0
10434 -10425 -252 -10426 0
10437 695 -10428 569 0
10443 -10434 575 701 0
10443 -10434 -701 0
-10435 10444 702 576 0
10443 -10433 -286 0
10443 -288 -10434 -10435 0
10446 704 -10437 578 0
10452 -10443 584 710 0
-10444 10453 711 585 0
10452 -324 -10443 -10444 0
10455 713 -10446 587 0
10461 -10452 719 593 0
-10453 10462 720 594 0
10464 596 -10455 722 0
10464 -722 -10455 0
10470 -10461 602 728 0
-10462 10471 729 603 0
-374 10464 -10455 -10461 0
10470 -10461 -396 -10462 0
10490 505 631 0
10491 506 632 0
10490 -10499 -514 0
10500 515 -10491 641 0
-10508 10499 523 649 0
10509 650 -10500 524 0
532 -10517 10508 658 0
10518 533 -10509 659 0
-10526 10517 541 667 0
10527 668 -10518 542 0
550 -10535 10526 676 0
-10544 10535 559 685 0
-10553 10544 568 694 0
-10562 10553 577 703 0
-10571 10562 586 712 0
-10580 10571 595 721 0
-10589 10580 604 730 0
-10598 10589 613 739 0
622 10598 748 0
-2 10607 0
-3 10607 0
-4 10607 0
-5 10607 0
-34 -10607 0
-9 10725 0
-16 10725 0
-17 10725 0
-18 10725 0
-10725 -34 0
-10 -10804 0
-11 -10804 0
-12 -10804 0
-22 -10804 0
-23 -10804 0
-27 -10804 0
10804 -34 0
-36 10936 0
-10937 -37 1949 -10491 -10490 1950 0
-1956 -70 10937 0
-72 10937 -1957 0
-1964 -106 10938 0
-1965 -106 10938 0
-108 -1966 10938 0
-1973 -142 10939 0
-1974 -142 10939 0
-144 10939 -1975 0
-1982 -178 10940 0
-1983 -178 10940 0
-180 10940 -1984 0
-1991 -214 10941 0
-1992 -214 10941 0
-216 10941 -1993 0
-2000 -250 10942 0
-2001 -250 10942 0
-252 -2002 10942 0
-2009 -286 10943 0
-2010 -286 10943 0
-288 -2011 10943 0
-324 -2020 10944 0
-360 -2029 10945 0
-2036 -394 10946 0
-2037 -394 10946 0
-2038 10946 -396 0
-432 -2047 10947 0
-459 10948 -2052 0
-460 10948 -2052 0
-461 10948 -2052 0
-468 10948 -2056 0
-504 -2065 10949 0
-1 11029 0
-9 11029 0
-10 11029 0
-11 11029 0
-12 11029 0
-13 11029 0
-14 11029 0
-11029 -34 0
-37 10256 11030 0
-37 10257 11030 0
-38 10256 11030 0
10258 -38 11030 0
-39 10256 11030 0
10259 -39 11030 0
-40 10256 11030 0
-41 10256 11030 0
-42 10256 11030 0
10262 -42 11030 0
-43 10256 11030 0
-43 10263 11030 0
-45 10257 11030 0
-46 10257 11030 0
-47 10257 11030 0
-48 10257 11030 0
-49 10257 11030 0
-50 10257 11030 0
-73 10265 11031 0
-73 10266 11031 0
-74 10265 11031 0
-75 10265 11031 0
-76 10265 11031 0
-77 10265 11031 0
-78 10265 11031 0
-79 10265 11031 0
-81 10266 11031 0
-82 10266 11031 0
-83 10266 11031 0
-84 10266 11031 0
-85 10266 11031 0
-86 10266 11031 0
-1262 -106 11031 0
-1263 -106 11031 0
-109 10274 11032 0
-109 10275 11032 0
-110 10274 11032 0
-111 10274 11032 0
-112 10274 11032 0
-113 10274 11032 0
-114 10274 11032 0
-115 10274 11032 0
-117 10275 11032 0
-118 10275 11032 0
-119 10275 11032 0
-120 10275 11032 0
-121 10275 11032 0
-122 10275 11032 0
-1272 -142 11032 0
-145 10283 11033 0
-145 10284 11033 0
-146 10283 11033 0
-147 10283 11033 0
-148 10283 11033 0
-149 10283 11033 0
-150 10283 11033 0
-151 10283 11033 0
-153 10284 11033 0
-154 10284 11033 0
-155 10284 11033 0
-156 10284 11033 0
-157 10284 11033 0
-158 10284 11033 0
-10290 -180 -11033 -10291 1281 1282 0
-181 10292 11034 0
-181 10293 11034 0
-182 10292 11034 0
-183 10292 11034 0
-184 10292 11034 0
-185 10292 11034 0
-186 10292 11034 0
-187 10292 11034 0
-189 10293 11034 0
-190 10293 11034 0
-191 10293 11034 0
-192 10293 11034 0
-193 10293 11034 0
-194 10293 11034 0
-1289 -214 11034 0
-1290 -214 11034 0
-217 10301 11035 0
-217 10302 11035 0
-218 10301 11035 0
-219 10301 11035 0
-220 10301 11035 0
-221 10301 11035 0
-222 10301 11035 0
-223 10301 11035 0
-225 10302 11035 0
-226 10302 11035 0
-227 10302 11035 0
-228 10302 11035 0
-229 10302 11035 0
-230 10302 11035 0
10308 -250 11035 0
-11035 -252 -10309 1299 -10308 1300 0
-253 10310 11036 0
-253 10311 11036 0
-254 10310 11036 0
-255 10310 11036 0
-256 10310 11036 0
-257 10310 11036 0
-258 10310 11036 0
-259 10310 11036 0
-261 10311 11036 0
-262 10311 11036 0
-263 10311 11036 0
-264 10311 11036 0
-265 10311 11036 0
-266 10311 11036 0
-1307 -286 11036 0
-1308 -286 11036 0
10317 -288 11036 0
-289 10319 11037 0
-289 10320 11037 0
-290 10319 11037 0
-291 10319 11037 0
-292 10319 11037 0
-293 10319 11037 0
-294 10319 11037 0
-295 10319 11037 0
-297 10320 11037 0
-298 10320 11037 0
-299 10320 11037 0
-300 10320 11037 0
-301 10320 11037 0
-302 10320 11037 0
10326 -324 11037 0
-325 10328 11038 0
-325 10329 11038 0
-326 10328 11038 0
-327 10328 11038 0
-328 10328 11038 0
-329 10328 11038 0
-330 10328 11038 0
-331 10328 11038 0
-333 10329 11038 0
-334 10329 11038 0
-335 10329 11038 0
-336 10329 11038 0
-337 10329 11038 0
-338 10329 11038 0
10335 -360 11038 0
-360 -10336 1326 -10335 -11038 1327 0
-361 10337 11039 0
-361 11039 10338 0
-362 10337 11039 0
-363 10337 11039 0
-364 10337 11039 0
-365 10337 11039 0
-366 10337 11039 0
-367 10337 11039 0
-369 11039 10338 0
-370 11039 10338 0
-371 11039 10338 0
-372 11039 10338 0
-373 11039 10338 0
-374 11039 10338 0
1335 -11039 -396 -10345 -10344 1336 0
-397 10346 11040 0
-397 10347 11040 0
-398 10346 11040 0
-399 10346 11040 0
-400 10346 11040 0
-401 10346 11040 0
-402 10346 11040 0
-403 10346 11040 0
-405 10347 11040 0
-406 10347 11040 0
-407 10347 11040 0
-408 10347 11040 0
-409 10347 11040 0
-410 10347 11040 0
-433 10355 11041 0
-433 10356 11041 0
-434 10355 11041 0
-435 10355 11041 0
-436 10355 11041 0
-437 10355 11041 0
-438 10355 11041 0
-439 10355 11041 0
-441 10356 11041 0
-442 10356 11041 0
-443 10356 11041 0
-444 10356 11041 0
-445 10356 11041 0
-446 10356 11041 0
10364 11042 -469 0
11042 -469 10365 0
-470 10364 11042 0
-471 10364 11042 0
-472 10364 11042 0
-473 10364 11042 0
-474 10364 11042 0
-475 10364 11042 0
-504 11042 -1363 0
11123 -37 10257 0
-70 -11123 -10263 1956 -10262 1955 0
11124 -73 10266 0
-81 11124 10266 0
-82 11124 10266 0
-83 11124 10266 0
-84 11124 10266 0
-86 11124 10266 0
-10272 -106 -11124 -10271 1965 1964 0
11125 -109 10275 0
1974 -142 -11125 -10280 -10281 1973 0
11127 -181 10293 0
11129 -253 10311 0
11130 -289 10320 0
11134 -468 -2056 0
-11123 11138 0
11140 -11124 0
11140 -11138 0
11142 -11125 0
11142 -11140 0
-11145 11147 0
-11147 11149 0
-11149 11151 0
-11151 11153 0
-11153 11155 0
-11155 11157 0
-11157 11159 0
-11149 -11129 0
-11151 -11130 0
-11159 -11134 0
-106 11164 -1613 0
-115 11165 -1623 0
-122 11165 -1623 0
-128 11165 -1623 0
-133 11165 -1623 0
-137 11165 -1623 0
-140 11165 -1623 0
-142 11165 -1622 0
-142 11165 -1623 0
11166 -145 10284 0
-194 11167 -1641 0
-200 11167 -1641 0
-205 11167 -1641 0
-209 11167 -1641 0
-212 11167 -1641 0
11167 -214 -1640 0
11167 -214 -1641 0
-230 11168 -1650 0
-236 11168 -1650 0
-241 11168 -1650 0
-245 11168 -1650 0
-248 11168 -1650 0
11168 -250 -1649 0
-250 11168 -1650 0
-265 11169 -1658 0
-266 11169 -1659 0
-271 11169 -1658 0
-272 11169 -1659 0
-276 11169 -1658 0
-277 11169 -1659 0
-280 11169 -1658 0
-281 11169 -1659 0
-283 11169 -1658 0
-284 11169 -1659 0
11169 -1659 -286 0
-289 11170 10320 0
1661 -295 -10326 -11170 -10319 1668 0
-301 11170 -1667 0
-302 11170 -1668 0
-307 11170 -1667 0
-308 11170 -1668 0
-312 11170 -1667 0
-313 11170 -1668 0
-316 11170 -1667 0
-317 11170 -1668 0
-319 11170 -1667 0
-320 11170 -1668 0
-322 11170 -1667 0
-322 11170 -1668 0
-338 11171 -1677 0
-344 11171 -1677 0
-349 11171 -1677 0
-353 11171 -1677 0
-356 11171 -1677 0
-358 11171 -1676 0
-358 11171 -1677 0
-374 11172 -1686 0
-380 11172 -1686 0
-385 11172 -1686 0
-389 11172 -1686 0
-392 11172 -1686 0
-394 11172 -1685 0
-394 11172 -1686 0
-410 11173 -1695 0
-416 11173 -1695 0
-421 11173 -1695 0
-425 11173 -1695 0
-428 11173 -1695 0
-430 -1694 11173 0
-430 11173 -1695 0
11174 -1704 -468 0
-11164 11182 0
11185 -11165 0
11185 -11182 0
11186 -11182 -11165 0
11188 -11166 0
11189 -11166 -11185 0
-11186 -11166 11190 0
11191 -11167 0
11191 -11188 0
11192 -11189 0
-11190 11193 0
-11189 -11167 11193 0
11194 -11168 0
11194 -11191 0
11195 -11192 0
-11193 11196 0
-11192 -11168 11196 0
11197 -11194 0
11198 -11195 0
-11196 11199 0
11198 -11169 -11194 0
-11195 -11169 11199 0
11201 -11198 0
-11199 11202 0
-11170 11201 -11197 0
-11170 -11198 11202 0
11204 -11201 0
-11202 11205 0
-11171 -11201 11205 0
11207 -11204 0
-11205 11208 0
-11172 -11204 11208 0
-11208 11211 0
-11173 -11207 11211 0
-11211 -11174 0
-1 11215 0
-2 11215 0
-3 11215 0
-4 11215 0
-5 11215 0
-6 11215 0
-7 11215 0
-34 -11215 0
11216 -37 10373 0
11216 -38 10373 0
-39 11216 10373 0
-40 11216 10373 0
-41 11216 10373 0
-42 11216 10373 0
-43 11216 10373 0
-49 -11216 -10379 -10374 1950 1955 0
11217 -73 10382 0
-74 11217 10382 0
-75 11217 10382 0
-76 11217 10382 0
-77 11217 10382 0
-78 11217 10382 0
-79 11217 10382 0
11218 -109 10391 0
11219 -180 -1984 0
11229 -11215 0
11232 -11216 0
11232 -11229 0
11233 -11216 -11229 0
11235 -11217 0
11235 -11232 0
11236 -11233 0
11238 -11235 0
11239 -11236 0
11239 -11218 -11235 0
11242 -11239 0
11242 -11219 -11238 0
11268 -1 0
-2 -11268 0
-3 -11268 0
-4 -11268 0
-5 -11268 0
-6 11268 0
-9 11268 0
-10 11268 0
-11 11268 0
-12 11268 0
-13 11268 0
-14 11268 0
-16 -11268 0
-17 -11268 0
-18 -11268 0
-19 11268 0
-22 -11268 0
-23 -11268 0
-24 11268 0
-27 -11268 0
-28 11268 0
-31 11268 0
-34 11268 0
11269 -37 10257 0
-40 -11269 -10260 3002 -10256 3006 0
11269 -42 -3008 0
-3002 11269 -43 0
-3009 11269 -43 0
-45 11269 10257 0
-46 11269 10257 0
-47 11269 10257 0
-48 11269 10257 0
-49 11269 10257 0
-50 11269 10257 0
-55 11269 -3008 0
-3004 -56 11269 0
-56 -3009 11269 0
-60 11269 -3008 0
-3005 -61 11269 0
-61 -3009 11269 0
-64 11269 -3008 0
-3006 -65 11269 0
-65 -3009 11269 0
-67 11269 -3008 0
-3007 -68 11269 0
-68 -3009 11269 0
-70 11269 -3008 0
-70 -3009 11269 0
-72 11269 -3010 0
-73 11270 10266 0
-78 11270 -3017 0
-79 -3018 11270 0
-81 11270 10266 0
-82 11270 10266 0
-83 11270 10266 0
-84 11270 10266 0
-85 11270 -3017 0
-85 11270 10266 0
-86 11270 10266 0
-91 11270 -3017 0
-92 -3018 11270 0
-96 11270 -3017 0
-97 -3018 11270 0
-100 11270 -3017 0
-101 -3018 11270 0
-103 11270 -3017 0
-104 -3018 11270 0
-106 11270 -3017 0
-3018 -106 11270 0
-108 -3019 11270 0
-109 11271 10275 0
-114 11271 -3026 0
-115 -3027 11271 0
-118 11271 10275 0
-119 11271 10275 0
-120 11271 10275 0
-121 11271 -3026 0
-121 11271 10275 0
-122 -3027 11271 0
-122 11271 10275 0
-127 11271 -3026 0
-128 -3027 11271 0
-132 11271 -3026 0
-133 -3027 11271 0
-136 11271 -3026 0
-137 -3027 11271 0
-139 11271 -3026 0
-140 -3027 11271 0
-142 11271 -3026 0
-3027 -142 11271 0
-144 11271 -3028 0
-145 11272 10284 0
-150 -3035 11272 0
-151 -3036 11272 0
-153 11272 10284 0
11272 -154 10284 0
-155 11272 10284 0
-156 11272 10284 0
-157 11272 -3035 0
-157 10284 11272 0
-158 -3036 11272 0
-158 10284 11272 0
-163 -3035 11272 0
-164 -3036 11272 0
-168 -3035 11272 0
-169 -3036 11272 0
-172 -3035 11272 0
-173 -3036 11272 0
-175 -3035 11272 0
-176 -3036 11272 0
-178 -3035 11272 0
-178 -3036 11272 0
-180 -3036 11272 0
-180 11272 -3037 0
-181 11273 10293 0
-186 -3044 11273 0
-187 -3045 11273 0
-189 11273 10293 0
-190 11273 10293 0
-191 11273 10293 0
-192 11273 10293 0
-193 11273 10293 0
-194 11273 -3045 0
-194 11273 10293 0
-199 -3044 11273 0
-200 -3045 11273 0
-204 -3044 11273 0
-205 -3045 11273 0
-208 -3044 11273 0
-209 -3045 11273 0
-211 -3044 11273 0
-212 -3045 11273 0
-214 -3044 11273 0
-3045 -214 11273 0
-216 11273 -3046 0
-217 11274 10302 0
-222 -3053 11274 0
-223 -3054 11274 0
-225 11274 10302 0
-226 11274 10302 0
-227 11274 10302 0
-228 11274 10302 0
-229 11274 10302 0
-230 -3054 11274 0
-235 -3053 11274 0
-236 -3054 11274 0
-240 -3053 11274 0
-241 -3054 11274 0
-244 -3053 11274 0
-245 -3054 11274 0
-247 -3053 11274 0
-248 -3054 11274 0
-250 -3053 11274 0
-3054 -250 11274 0
-252 -3054 11274 0
-252 11274 -3055 0
-253 11275 10311 0
-259 -3063 11275 0
-261 11275 10311 0
-262 11275 10311 0
-263 11275 10311 0
-264 11275 10311 0
-265 11275 10311 0
-266 -3063 11275 0
-266 11275 10311 0
-272 -3063 11275 0
-277 -3063 11275 0
-281 -3063 11275 0
-284 -3063 11275 0
-3062 -286 11275 0
-3063 -286 11275 0
-288 -3064 11275 0
-289 11276 10320 0
-295 -3072 11276 0
-297 11276 10320 0
-298 11276 10320 0
-299 11276 10320 0
-300 11276 10320 0
-301 11276 10320 0
-302 -3072 11276 0
-308 -3072 11276 0
-313 -3072 11276 0
-317 -3072 11276 0
-320 -3072 11276 0
-3071 -322 11276 0
-322 -3072 11276 0
-324 -3072 11276 0
-324 -3073 11276 0
-325 11277 10329 0
-331 -3081 11277 0
-333 11277 10329 0
-334 11277 10329 0
-335 11277 10329 0
-336 11277 10329 0
-337 11277 10329 0
-338 -3081 11277 0
-344 -3081 11277 0
-349 -3081 11277 0
-353 -3081 11277 0
-356 -3081 11277 0
-358 -3080 11277 0
-358 -3081 11277 0
-360 -3081 11277 0
-360 -3082 11277 0
-361 11278 10338 0
-367 -3090 11278 0
-369 11278 10338 0
-370 11278 10338 0
-371 11278 10338 0
-372 11278 10338 0
-373 11278 10338 0
-374 -3090 11278 0
-380 -3090 11278 0
-385 -3090 11278 0
-389 -3090 11278 0
-392 -3090 11278 0
-394 -3089 11278 0
-394 -3090 11278 0
-3090 11278 -396 0
-3091 11278 -396 0
-397 11279 10347 0
-403 -3099 11279 0
-410 -3099 11279 0
-416 -3099 11279 0
-421 -3099 11279 0
-425 -3099 11279 0
-428 -3099 11279 0
-430 -3098 11279 0
-430 -3099 11279 0
-3099 -432 11279 0
-3100 -432 11279 0
-433 11280 10356 0
-439 -3108 11280 0
-446 -3108 11280 0
-452 -3108 11280 0
-457 -3108 11280 0
-461 -3108 11280 0
-464 -3108 11280 0
-466 -3107 11280 0
-466 -3108 11280 0
-3108 11280 -468 0
11280 -468 -3109 0
-475 -3117 11281 0
-482 -3117 11281 0
-488 -3117 11281 0
-493 -3117 11281 0
-497 -3117 11281 0
-500 -3117 11281 0
-3116 11281 -502 0
-3117 11281 -502 0
-504 -3117 11281 0
-504 11281 -3118 0
11282 -11268 0
-11269 11285 0
11285 -11282 0
-11269 11286 -11282 0
-11270 11288 0
11288 -11285 0
-11286 11289 0
-11270 11289 -11285 0
-11286 -11270 11290 0
11291 -11271 0
11291 -11288 0
-11289 11292 0
-11290 11293 0
11292 -11288 -11271 0
-11289 -11271 11293 0
11294 -11272 0
11294 -11291 0
-11292 11295 0
-11293 11296 0
11295 -11272 -11291 0
-11292 -11272 11296 0
-11273 11297 0
11297 -11294 0
-11295 11298 0
-11296 11299 0
-11273 11298 -11294 0
-11295 -11273 11299 0
11300 -11274 0
11300 -11297 0
-11298 11301 0
-11299 11302 0
-11274 11301 -11297 0
-11274 -11298 11302 0
-11275 11303 0
11303 -11300 0
11304 -11301 0
-11302 11305 0
11304 -11275 -11300 0
-11301 -11275 11305 0
-11276 11306 0
11306 -11303 0
11307 -11304 0
-11305 11308 0
11307 -11276 -11303 0
-11276 -11304 11308 0
-11277 11309 0
11309 -11306 0
11310 -11307 0
-11308 11311 0
11310 -11277 -11306 0
-11277 -11307 11311 0
11312 -11278 0
11312 -11309 0
11313 -11310 0
-11311 11314 0
11313 -11278 -11309 0
-11278 -11310 11314 0
11316 -11313 0
-11314 11317 0
-11279 11316 -11312 0
-11279 -11313 11317 0
-11317 11320 0
-11316 -11280 11320 0
-11290 -11271 0
-11293 -11272 0
-11296 -11273 0
-11299 -11274 0
-11302 -11275 0
-11305 -11276 0
-11308 -11277 0
-11311 -11278 0
-11314 -11279 0
-11317 -11280 0
-11320 -11281 0
-10936 13754 0
-10937 13755 0
-13754 13755 0
-10938 13756 0
-13755 13756 0
-10939 13757 0
-13756 13757 0
-10940 13758 0
-13757 13758 0
-10941 13759 0
-13758 13759 0
-10942 13760 0
-13759 13760 0
-10943 13761 0
-13760 13761 0
-10944 13762 0
-13761 13762 0
-10945 13763 0
-13762 13763 0
-10946 13764 0
-13763 13764 0
-10947 13765 0
-13764 13765 0
13766 -13765 0
-10937 -13754 0
-10938 -13755 0
-10939 -13756 0
-10940 -13757 0
-10941 -13758 0
-10942 -13759 0
-10943 -13760 0
-10944 -13761 0
-10945 -13762 0
-10946 -13763 0
-10947 -13764 0
-13765 -10948 0
-10949 -13766 0
-11029 13767 0
-11030 13768 0
-13767 13768 0
-11031 13769 0
-13768 13769 0
-11032 13770 0
-13769 13770 0
-11033 13771 0
-13770 13771 0
-11034 13772 0
-13771 13772 0
-11035 13773 0
-13772 13773 0
-11036 13774 0
-13773 13774 0
-11037 13775 0
-13774 13775 0
-11038 13776 0
-13775 13776 0
-11039 13777 0
-13776 13777 0
-11040 13778 0
-13777 13778 0
-11041 13779 0
-13778 13779 0
-11030 -13767 0
-11031 -13768 0
-13769 -11032 0
-11033 -13770 0
-11034 -13771 0
-11035 -13772 0
-11036 -13773 0
-11037 -13774 0
-11038 -13775 0
-11039 -13776 0
-11040 -13777 0
-11041 -13778 0
-11042 -13779 0
-8 0
-15 0
-21 0
-26 0
-30 0
-33 0
-35 0
-44 0
-51 0
-57 0
-62 0
-66 0
-69 0
-71 0
-80 0
-87 0
-93 0
-98 0
-102 0
-105 0
-107 0
-116 0
-123 0
-129 0
-134 0
-138 0
-141 0
-143 0
-152 0
-159 0
-165 0
-170 0
-174 0
-177 0
-179 0
-188 0
-195 0
-201 0
-206 0
-210 0
-213 0
-215 0
-224 0
-231 0
-237 0
-242 0
-246 0
-249 0
-251 0
-260 0
-267 0
-273 0
-278 0
-282 0
-285 0
-287 0
-296 0
-303 0
-309 0
-314 0
-318 0
-321 0
-323 0
-332 0
-339 0
-345 0
-350 0
-354 0
-357 0
-359 0
-368 0
-375 0
-381 0
-386 0
-390 0
-393 0
-395 0
-404 0
-411 0
-417 0
-422 0
-426 0
-429 0
-431 0
-440 0
-447 0
-453 0
-458 0
-462 0
-465 0
-467 0
-476 0
-483 0
-489 0
-494 0
-498 0
-501 0
-503 0
