43 473
0 1
0 4
0 6
0 9
0 10
0 11
0 13
0 14
0 15
0 16
0 17
0 21
0 23
0 24
0 25
0 31
0 35
0 36
0 38
0 40
0 41
1 2
1 5
1 7
1 10
1 11
1 12
1 14
1 15
1 16
1 17
1 18
1 22
1 24
1 25
1 26
1 32
1 36
1 37
1 39
1 41
1 42
2 3
2 6
2 8
2 11
2 12
2 13
2 15
2 16
2 17
2 18
2 19
2 23
2 25
2 26
2 27
2 33
2 37
2 38
2 40
2 42
3 4
3 7
3 9
3 12
3 13
3 14
3 16
3 17
3 18
3 19
3 20
3 24
3 26
3 27
3 28
3 34
3 38
3 39
3 41
4 5
4 8
4 10
4 13
4 14
4 15
4 17
4 18
4 19
4 20
4 21
4 25
4 27
4 28
4 29
4 35
4 39
4 40
4 42
5 6
5 9
5 11
5 14
5 15
5 16
5 18
5 19
5 20
5 21
5 22
5 26
5 28
5 29
5 30
5 36
5 40
5 41
6 7
6 10
6 12
6 15
6 16
6 17
6 19
6 20
6 21
6 22
6 23
6 27
6 29
6 30
6 31
6 37
6 41
6 42
7 8
7 11
7 13
7 16
7 17
7 18
7 20
7 21
7 22
7 23
7 24
7 28
7 30
7 31
7 32
7 38
7 42
8 9
8 12
8 14
8 17
8 18
8 19
8 21
8 22
8 23
8 24
8 25
8 29
8 31
8 32
8 33
8 39
9 10
9 13
9 15
9 18
9 19
9 20
9 22
9 23
9 24
9 25
9 26
9 30
9 32
9 33
9 34
9 40
10 11
10 14
10 16
10 19
10 20
10 21
10 23
10 24
10 25
10 26
10 27
10 31
10 33
10 34
10 35
10 41
11 12
11 15
11 17
11 20
11 21
11 22
11 24
11 25
11 26
11 27
11 28
11 32
11 34
11 35
11 36
11 42
12 13
12 16
12 18
12 21
12 22
12 23
12 25
12 26
12 27
12 28
12 29
12 33
12 35
12 36
12 37
13 14
13 17
13 19
13 22
13 23
13 24
13 26
13 27
13 28
13 29
13 30
13 34
13 36
13 37
13 38
14 15
14 18
14 20
14 23
14 24
14 25
14 27
14 28
14 29
14 30
14 31
14 35
14 37
14 38
14 39
15 16
15 19
15 21
15 24
15 25
15 26
15 28
15 29
15 30
15 31
15 32
15 36
15 38
15 39
15 40
16 17
16 20
16 22
16 25
16 26
16 27
16 29
16 30
16 31
16 32
16 33
16 37
16 39
16 40
16 41
17 18
17 21
17 23
17 26
17 27
17 28
17 30
17 31
17 32
17 33
17 34
17 38
17 40
17 41
17 42
18 19
18 22
18 24
18 27
18 28
18 29
18 31
18 32
18 33
18 34
18 35
18 39
18 41
18 42
19 20
19 23
19 25
19 28
19 29
19 30
19 32
19 33
19 34
19 35
19 36
19 40
19 42
20 21
20 24
20 26
20 29
20 30
20 31
20 33
20 34
20 35
20 36
20 37
20 41
21 22
21 25
21 27
21 30
21 31
21 32
21 34
21 35
21 36
21 37
21 38
21 42
22 23
22 26
22 28
22 31
22 32
22 33
22 35
22 36
22 37
22 38
22 39
23 24
23 27
23 29
23 32
23 33
23 34
23 36
23 37
23 38
23 39
23 40
24 25
24 28
24 30
24 33
24 34
24 35
24 37
24 38
24 39
24 40
24 41
25 26
25 29
25 31
25 34
25 35
25 36
25 38
25 39
25 40
25 41
25 42
26 27
26 30
26 32
26 35
26 36
26 37
26 39
26 40
26 41
26 42
27 28
27 31
27 33
27 36
27 37
27 38
27 40
27 41
27 42
28 29
28 32
28 34
28 37
28 38
28 39
28 41
28 42
29 30
29 33
29 35
29 38
29 39
29 40
29 42
30 31
30 34
30 36
30 39
30 40
30 41
31 32
31 35
31 37
31 40
31 41
31 42
32 33
32 36
32 38
32 41
32 42
33 34
33 37
33 39
33 42
34 35
34 38
34 40
35 36
35 39
35 41
36 37
36 40
36 42
37 38
37 41
38 39
38 42
39 40
40 41
41 42
