p cnf 9124 1618
23 22 1 2 16 6 7 8 9 10 11 12 13 14 15 17 3 18 19 20 21 4 5 24 25 26 27 28 29 30 31 32 33 34 35 36 0
397 -1 0
397 -2 0
397 -3 0
397 -4 0
397 -5 0
397 -6 0
397 -7 0
397 -8 0
-1 398 0
-9 398 0
-10 398 0
-11 398 0
-12 398 0
-13 398 0
-14 398 0
-15 398 0
15 1 -398 14 9 10 11 12 13 0
399 -2 0
399 -16 0
399 -17 0
399 -18 0
399 -19 0
399 -20 0
399 -21 0
16 -399 2 9 17 18 19 20 21 0
69 71 52 53 40 41 45 46 44 43 47 48 49 50 51 37 38 54 55 56 57 39 42 58 59 60 63 64 65 61 67 68 62 70 66 72 0
531 -37 0
-38 -531 0
-37 406 0
-38 406 0
-39 406 0
-40 406 0
-41 406 0
-42 406 0
-43 406 0
-44 406 0
-37 407 0
-45 407 0
-46 407 0
-47 407 0
-48 407 0
-49 407 0
-50 407 0
-51 407 0
47 -407 37 45 46 48 49 50 51 0
-38 408 0
-52 408 0
-53 408 0
-54 408 0
-55 408 0
-56 408 0
-57 408 0
53 -408 38 45 52 54 55 56 57 0
94 95 75 76 81 82 79 80 77 78 83 84 85 86 87 73 74 90 91 92 93 88 89 96 97 98 99 100 101 102 103 104 105 106 107 108 0
566 -73 0
-74 -566 0
-73 415 0
-74 415 0
-75 415 0
-76 415 0
-77 415 0
-78 415 0
-79 415 0
-80 415 0
-73 416 0
-81 416 0
-82 416 0
-83 416 0
-84 416 0
-85 416 0
-86 416 0
-87 416 0
84 85 73 81 -416 82 83 86 87 0
-74 417 0
-88 417 0
-89 417 0
-90 417 0
-91 417 0
-92 417 0
-93 417 0
88 -417 81 74 89 90 91 92 93 0
131 130 111 112 113 114 115 116 110 118 119 120 121 122 123 109 117 125 126 128 129 124 127 132 133 134 135 136 137 138 139 140 141 142 143 144 0
601 -109 0
-110 -601 0
-109 424 0
-110 424 0
-111 424 0
-112 424 0
-113 424 0
-114 424 0
-115 424 0
-116 424 0
-109 425 0
-117 425 0
-118 425 0
-119 425 0
-120 425 0
-121 425 0
-122 425 0
-123 425 0
119 -425 109 117 118 120 121 122 123 0
-124 426 0
-125 426 0
-126 426 0
-127 426 0
-128 426 0
-129 426 0
-426 125 117 110 124 126 127 128 129 0
166 167 149 150 160 161 151 152 153 154 155 156 157 158 159 146 147 145 148 162 163 164 165 168 169 170 171 172 173 174 175 176 177 178 179 180 0
636 -145 0
-146 -636 0
-145 433 0
-146 433 0
-147 433 0
-148 433 0
-149 433 0
-150 433 0
-151 433 0
-152 433 0
-145 434 0
-153 434 0
-154 434 0
-155 434 0
-156 434 0
-157 434 0
-158 434 0
-159 434 0
159 156 153 145 -434 154 157 158 155 0
-160 435 0
-161 435 0
-162 435 0
-163 435 0
-164 435 0
-165 435 0
164 -435 146 153 161 160 163 162 165 0
203 202 197 198 181 182 185 186 189 190 191 192 193 194 195 187 183 184 188 200 201 196 199 204 205 206 207 208 209 210 211 212 213 214 215 216 0
671 -181 0
-182 -671 0
-181 442 0
-182 442 0
-183 442 0
-184 442 0
-185 442 0
-186 442 0
-187 442 0
-188 442 0
-189 443 0
-190 443 0
-191 443 0
-192 443 0
-193 443 0
-194 443 0
-195 443 0
191 -443 189 181 190 192 193 194 195 0
-196 444 0
-197 444 0
-198 444 0
-199 444 0
-200 444 0
-201 444 0
-444 196 182 189 197 198 199 200 201 0
239 238 218 220 232 233 221 222 225 219 224 228 229 230 231 217 223 234 235 236 237 226 227 240 241 242 243 244 245 246 247 248 249 250 251 252 0
706 -217 0
-218 -706 0
-217 451 0
-218 451 0
-219 451 0
-220 451 0
-221 451 0
-222 451 0
-223 451 0
-224 451 0
-225 452 0
-226 452 0
-227 452 0
-228 452 0
-229 452 0
-230 452 0
-231 452 0
227 -452 217 225 226 228 229 230 231 0
-232 453 0
-233 453 0
-234 453 0
-235 453 0
-236 453 0
-237 453 0
-453 232 218 225 233 234 235 236 237 0
274 273 259 260 272 287 285 268 261 262 263 264 265 266 267 256 255 269 257 270 253 276 275 258 277 254 279 280 281 278 283 284 271 286 282 288 0
-253 741 0
-741 742 0
-254 -741 0
-742 743 0
-743 744 0
-744 745 0
-745 746 0
-746 747 0
-747 748 0
-748 749 0
-749 750 0
-750 751 0
-751 752 0
-752 753 0
-753 754 0
-754 755 0
-755 756 0
-268 -755 0
-756 757 0
-757 758 0
-270 -757 0
-758 759 0
-759 760 0
-760 -273 0
-253 460 0
-254 460 0
-255 460 0
-256 460 0
-257 460 0
-258 460 0
-259 460 0
-260 460 0
-253 461 0
-261 461 0
-262 461 0
-263 461 0
-264 461 0
-265 461 0
-266 461 0
-267 461 0
262 -461 261 253 263 264 265 266 267 0
-254 462 0
-268 462 0
-269 462 0
-270 462 0
-271 462 0
-272 462 0
-273 462 0
-462 273 261 272 268 270 269 271 254 0
-282 464 0
-285 465 0
-287 466 0
467 -288 0
468 -273 0
468 -278 0
468 -288 0
303 296 315 305 297 289 294 292 291 298 299 300 301 302 314 290 293 310 307 308 309 295 304 312 313 311 324 316 317 318 319 320 321 322 323 306 0
776 -289 0
777 -776 0
-290 -776 0
-290 777 0
778 -777 0
-291 778 0
779 -778 0
-292 779 0
780 -779 0
-293 780 0
781 -780 0
-294 781 0
782 -781 0
-295 -781 0
782 -295 0
783 -782 0
-296 -782 0
783 -296 0
784 -783 0
-297 -783 0
785 -784 0
786 -785 0
-299 -785 0
787 -786 0
-300 -786 0
788 -787 0
-301 -787 0
789 -788 0
-302 789 0
790 -789 0
-303 -789 0
790 -303 0
791 -790 0
792 -791 0
-305 -791 0
793 -792 0
-306 -792 0
794 -793 0
-307 -793 0
795 -794 0
-308 -794 0
-308 795 0
796 -795 0
-309 -795 0
797 -796 0
-310 -796 0
798 -797 0
-311 -797 0
799 -798 0
-312 -798 0
800 -799 0
-313 800 0
801 -800 0
-314 -800 0
-314 801 0
802 -801 0
-315 -801 0
803 -802 0
-316 -802 0
804 -803 0
-317 -803 0
-317 804 0
805 -804 0
-318 -804 0
806 -805 0
-319 -805 0
807 -806 0
-320 -806 0
808 -807 0
-321 -807 0
809 -808 0
-322 -808 0
810 -809 0
-323 -809 0
-324 -810 0
-289 469 0
-290 469 0
-291 469 0
-292 469 0
-293 469 0
-294 469 0
-295 469 0
-296 469 0
-469 296 295 294 289 291 293 292 290 0
-289 470 0
-297 470 0
-298 470 0
-299 470 0
-300 470 0
-301 470 0
-302 470 0
-303 470 0
-470 289 298 303 302 300 299 297 301 0
-290 471 0
471 -297 0
-308 471 0
-309 471 0
-471 297 308 304 305 306 290 307 309 0
472 -291 0
472 -298 0
-304 472 0
-314 472 0
-472 291 313 304 310 311 314 298 312 0
473 -292 0
473 -299 0
473 -305 0
473 -310 0
473 -318 0
-473 292 317 299 305 310 318 315 316 0
474 -293 0
474 -300 0
-306 474 0
-311 474 0
474 -315 0
474 -321 0
-474 293 320 321 300 306 311 315 319 0
475 -294 0
-301 475 0
-307 475 0
-312 475 0
-316 475 0
-319 475 0
475 -323 0
-475 294 323 322 301 316 307 312 319 0
476 -295 0
476 -302 0
-308 476 0
-313 476 0
-317 476 0
-320 476 0
-322 476 0
476 -324 0
-476 302 313 320 308 295 322 317 324 0
477 -296 0
-303 477 0
-309 477 0
-314 477 0
-318 477 0
-321 477 0
-323 477 0
-324 477 0
-477 296 324 309 323 303 321 314 318 0
340 341 330 332 327 328 329 334 333 331 335 336 337 338 339 325 326 342 343 344 345 346 347 348 349 350 351 352 353 354 355 356 357 358 359 360 0
478 -325 0
-326 478 0
-327 478 0
-328 478 0
-329 478 0
-330 478 0
-331 478 0
-332 478 0
-325 479 0
-333 479 0
-334 479 0
-335 479 0
-336 479 0
-337 479 0
-338 479 0
-339 479 0
333 339 -479 325 335 336 337 338 334 0
480 -326 0
-480 345 326 333 340 342 343 344 341 0
481 -327 0
-328 482 0
-482 351 335 328 341 346 352 353 354 0
483 -329 0
484 -330 0
485 -331 0
486 -332 0
-362 487 0
-369 488 0
370 361 369 -488 371 372 373 374 375 0
-489 376 362 369 377 378 379 380 381 0
-1595 0
-1694 0
-1596 0
-1695 0
1597 0
-1696 0
397 -1604 1595 0
398 -1605 1596 0
399 1606 -1597 0
-1613 1604 406 0
-1614 407 1605 0
1615 408 -1606 0
-1622 1613 415 0
-1623 1614 416 0
1624 417 -1615 0
-1631 1622 424 0
-1632 1623 425 0
1633 426 -1624 0
-1640 1631 433 0
-1641 1632 434 0
1642 -1633 435 0
-1649 1640 442 0
-1650 1641 443 0
1651 -1642 444 0
-1658 1649 451 0
-1659 1650 452 0
-1651 1660 453 0
-1667 1658 460 0
-1668 1659 461 0
-1660 1669 462 0
-1676 1667 469 0
-1677 1668 470 0
-1669 1678 471 0
-1712 1676 1685 -478 0
-1686 1677 479 0
-1678 1687 1712 0
1713 -1685 1694 0
-488 -1713 1686 1695 0
1713 -1687 1696 0
2190 0
-2289 0
-2191 0
-2290 0
-2291 0
-2292 0
-2293 0
-1 2298 2191 -2190 0
397 2199 -2190 0
-2298 -2199 -397 -2190 0
398 -2200 2191 0
-398 -2298 2200 2191 0
2208 406 -2199 0
-2208 406 2199 0
2209 407 -2200 0
-2209 407 2200 0
2217 -2208 415 0
-2217 2208 415 0
-2300 -415 2208 2217 0
-2209 2218 416 0
-2218 2209 416 0
2300 -2209 2218 0
2226 -2217 424 0
-2226 2217 424 0
-2301 -424 2217 2226 0
-2218 2227 425 0
-2227 2218 425 0
2301 -2218 2227 0
2235 -2226 433 0
-2235 2226 433 0
-2302 -433 2226 2235 0
-2227 2236 434 0
-2236 2227 434 0
2302 -2227 2236 0
2244 -2235 442 0
-2244 2235 442 0
-2236 2245 443 0
-2245 2236 443 0
2253 -2244 451 0
-2253 2244 451 0
-2245 2254 452 0
-2254 2245 452 0
-261 -2305 2254 0
2262 -2253 460 0
2305 2262 -2253 0
-2254 2263 461 0
-2263 2254 461 0
-2263 -2306 -289 0
2271 -2262 469 0
2306 2271 -2262 0
-2263 2272 470 0
2263 -2272 470 0
-2306 -470 2263 2272 0
-2272 -2307 -325 0
-2273 -326 -2307 0
-2274 -327 -2307 0
-328 -2275 -2307 0
478 -2271 2280 0
2307 -2271 2280 0
-2272 479 2281 0
2272 479 -2281 0
2272 -2307 -479 2281 0
2273 -480 -2307 2282 0
2274 -481 -2307 2283 0
482 -2275 2284 0
-482 2275 -2307 2284 0
-2308 -2281 -361 0
487 -2280 2289 0
2308 -2280 2289 0
488 -2281 2290 0
2308 -2281 2290 0
-488 -2308 2281 2290 0
2308 -2282 2291 0
2308 -2283 2292 0
2308 -2284 2293 0
4213 0
-4312 0
-4214 0
-4313 0
4215 0
-1 4321 4214 -4213 0
-2 -4321 -4215 0
397 4222 -4213 0
4321 4222 -4213 0
-4223 398 4214 0
4321 -4223 4214 0
399 4224 -4215 0
-4322 -38 -4224 0
4231 -4222 406 0
4231 4322 -4222 0
-4232 407 4223 0
-4322 -407 4232 4223 0
-4323 -4232 -73 0
4240 -4231 415 0
4240 4323 -4231 0
-4232 4241 416 0
-4323 4241 -416 4232 0
4249 -4240 424 0
-4241 4250 425 0
4258 -4249 433 0
-4250 4259 434 0
4267 -4258 442 0
-4259 4268 443 0
4276 -4267 451 0
-4268 4277 452 0
4285 -4276 460 0
-4277 4286 461 0
-4285 4294 469 0
-4286 4295 470 0
-4294 4303 478 0
-4295 4304 479 0
487 -4303 4312 0
488 -4304 4313 0
5760 0
-5859 0
-5761 0
-5860 0
-5762 0
5861 0
5763 0
5862 0
5764 0
5863 0
5765 0
5864 0
5766 0
5865 0
5767 0
5866 0
5768 0
5867 0
-1 5868 5761 -5760 0
-2 5868 5762 -5760 0
-5868 -3 -5763 0
-5868 -4 -5764 0
-5868 -5 -5765 0
-5868 -6 -5766 0
-5868 -7 -5767 0
-5868 -8 -5768 0
-5868 -9 5761 0
-5868 -10 5761 0
-5868 -11 5761 0
-5868 -12 5761 0
-5868 -13 5761 0
-5868 -14 5761 0
-5868 -15 5761 0
-5868 -16 -5763 0
-5868 -17 -5764 0
-5868 -18 -5765 0
-5868 -19 -5766 0
-5868 -20 -5767 0
-5868 -21 -5768 0
-5868 -22 -5764 0
-5868 -23 -5765 0
-5868 -24 -5766 0
-5868 -25 -5767 0
-5868 -26 -5768 0
-5868 -27 -5765 0
-5868 -28 -5766 0
-5868 -29 -5767 0
-5868 -30 -5768 0
-5868 -31 -5766 0
-5868 -32 -5767 0
-5868 -33 -5768 0
-5868 -34 -5767 0
-5868 -35 -5768 0
-5868 -36 -5768 0
397 5769 -5760 0
5769 5868 -5760 0
-5868 -5769 -397 -5760 0
-5770 398 5761 0
-5770 5868 5761 0
-398 -5868 5770 5761 0
-5771 399 5762 0
-5771 5868 5762 0
5772 5868 -5763 0
5773 5868 -5764 0
5774 5868 -5765 0
5775 5868 -5766 0
5776 5868 -5767 0
5777 5868 -5768 0
5869 -37 -5769 5770 0
-39 -5869 -5772 0
-40 -5869 -5773 0
-41 -5869 -5774 0
-42 -5869 -5775 0
-43 -5869 -5776 0
-44 -5869 -5777 0
-45 -5869 5770 0
-5869 -46 5770 0
-47 -5869 5770 0
-48 -5869 5770 0
-49 -5869 5770 0
-50 -5869 5770 0
-51 -5869 5770 0
-52 -5869 5771 0
-53 -5869 5771 0
-54 -5869 5771 0
-55 -5869 5771 0
-56 -5869 5771 0
-57 -5869 5771 0
-58 -5869 -5773 0
-59 -5869 -5774 0
-60 -5869 -5775 0
-61 -5869 -5776 0
-62 -5869 -5777 0
-63 -5869 -5774 0
-64 -5869 -5775 0
-65 -5869 -5776 0
-66 -5869 -5777 0
-67 -5869 -5775 0
-68 -5869 -5776 0
-69 -5869 -5777 0
-70 -5869 -5776 0
-71 -5869 -5777 0
-72 -5869 -5777 0
5778 406 -5769 0
5769 -5778 406 0
5869 5778 -5769 0
5778 -406 5769 -5869 0
-406 -5869 -5769 -5778 0
5779 -5770 407 0
-5779 407 5770 0
5869 -5770 5779 0
-5869 -407 5779 5770 0
-5780 408 5771 0
5869 -5780 5771 0
5781 5869 -5772 0
5782 5869 -5773 0
5783 5869 -5774 0
5784 5869 -5775 0
5785 5869 -5776 0
5786 5869 -5777 0
-73 -5779 -5870 0
-75 -5781 -5870 0
-76 -5782 -5870 0
-77 -5783 -5870 0
-78 -5784 -5870 0
-79 -5785 -5870 0
-80 -5786 -5870 0
-81 -5870 5779 0
-82 -5870 5779 0
-83 -5870 5779 0
-5870 5779 -84 0
-85 -5870 5779 0
-86 -5870 5779 0
-87 -5870 5779 0
-88 -5870 5780 0
-89 -5870 5780 0
-90 -5870 5780 0
-91 -5870 5780 0
-92 -5870 5780 0
-93 -5870 5780 0
5787 -5778 415 0
5778 -5787 415 0
5870 5787 -5778 0
-5779 5788 416 0
-5788 5779 416 0
5779 -5870 -416 5788 0
-5789 417 5780 0
5870 -5789 5780 0
-5871 -109 -5788 0
-110 -5871 5787 0
-117 -5871 5788 0
-124 -5871 5789 0
-125 -5871 5789 0
-126 -5871 5789 0
-127 -5871 5789 0
-128 -5871 5789 0
-129 -5871 5789 0
5796 -5787 424 0
5787 -5796 424 0
5871 5796 -5787 0
-5871 -424 -5787 -5796 0
-5788 5797 425 0
-5797 5788 425 0
-5871 -425 5788 5797 0
-5798 426 5789 0
5871 -5798 5789 0
-153 -5872 5797 0
-154 -5872 5797 0
-155 -5872 5797 0
-156 -5872 5797 0
-157 -5872 5797 0
-158 -5872 5797 0
-5872 5797 -159 0
-160 -5872 5798 0
-161 -5872 5798 0
-162 -5872 5798 0
-163 -5872 5798 0
-164 -5872 5798 0
-165 -5872 5798 0
5805 -5796 433 0
5796 -5805 433 0
-5797 5806 434 0
-5806 5797 434 0
-5807 435 5798 0
5872 -5807 5798 0
-189 -5873 5806 0
-196 -5873 5807 0
-197 -5873 5807 0
-198 -5873 5807 0
-199 -5873 5807 0
-200 -5873 5807 0
-201 -5873 5807 0
5814 -5805 442 0
5805 -5814 442 0
5814 -442 -5873 5805 0
-442 -5805 -5873 -5814 0
-5806 5815 443 0
-5815 5806 443 0
5873 -5806 5815 0
-5816 444 5807 0
5873 -5816 5807 0
-225 -5874 5815 0
-232 -5874 5816 0
-233 -5874 5816 0
-234 -5874 5816 0
-235 -5874 5816 0
-236 -5874 5816 0
-237 -5874 5816 0
5823 -5814 451 0
5814 -5823 451 0
5814 -5874 -451 5823 0
-5874 -451 -5823 -5814 0
-5815 5824 452 0
-5824 5815 452 0
5874 -5815 5824 0
-5825 453 5816 0
5874 -5825 5816 0
-5824 -253 -5875 0
-268 -5875 5825 0
-269 -5875 5825 0
-270 -5875 5825 0
-271 -5875 5825 0
-5875 -272 5825 0
-5875 -273 5825 0
-278 -5875 -5831 0
-282 5831 -5827 5875 0
5831 -5828 5875 -285 0
-287 5831 -5829 5875 0
-5875 -5831 -288 0
5832 -5823 460 0
5823 -5832 460 0
5832 -5823 5875 0
5823 -460 -5875 5832 0
-5824 5833 461 0
-5833 5824 461 0
-5824 5833 5875 0
-5834 462 5825 0
-5834 5875 5825 0
-5825 -5834 -462 -5875 0
464 5827 -5836 0
-464 -5836 -5875 -5827 0
465 5828 -5837 0
-465 -5837 -5875 -5828 0
466 5829 -5838 0
-466 -5838 -5875 -5829 0
5875 -5830 5839 0
5840 5875 -5831 0
5832 -5876 -289 0
-5833 -5876 -289 0
-290 -5834 -5876 0
-5835 -291 -5876 0
-5836 -292 -5876 0
-5837 -293 -5876 0
-5838 -294 -5876 0
-5839 -295 -5876 0
5832 -296 -5876 0
-296 -5840 -5876 0
-297 -5876 5833 0
-297 -5834 -5876 0
-298 -5835 -5876 0
-5836 -299 -5876 0
-5837 -300 -5876 0
-5838 -301 -5876 0
-5839 -302 -5876 0
-303 -5876 5833 0
-303 -5840 -5876 0
-304 -5876 5834 0
-304 -5835 -5876 0
-305 -5876 5834 0
-305 -5836 -5876 0
-306 -5876 5834 0
-306 -5837 -5876 0
-307 -5876 5834 0
-307 -5838 -5876 0
-308 -5876 5834 0
-5839 -308 -5876 0
-309 -5876 5834 0
-309 -5840 -5876 0
-5836 -310 -5876 0
-311 -5837 -5876 0
-312 -5838 -5876 0
-5839 -313 -5876 0
5835 -314 -5876 0
-314 -5840 -5876 0
-5837 -315 -5876 0
-316 -5838 -5876 0
-5839 -317 -5876 0
5836 -318 -5876 0
-318 -5840 -5876 0
-319 -5838 -5876 0
-5839 -320 -5876 0
5837 -321 -5876 0
-321 -5840 -5876 0
-5839 -322 -5876 0
-323 5838 -5876 0
-323 -5840 -5876 0
-324 5839 -5876 0
-324 -5840 -5876 0
-5832 5841 469 0
5832 -5841 469 0
5876 -5832 5841 0
5832 -5876 5841 -469 0
-5876 -469 -5832 -5841 0
-5833 5842 470 0
-5842 5833 470 0
-5833 5876 5842 0
5876 -5842 5833 0
-5876 -470 5833 5842 0
-5843 5834 471 0
5876 -5843 5834 0
-471 -5876 -5843 -5834 0
-5835 -5876 -5844 -472 0
5836 -5845 473 0
-5836 -5876 -5845 -473 0
5837 -5846 474 0
-5837 -5876 -5846 -474 0
5838 -5847 475 0
-5838 -5876 -5847 -475 0
5839 -5848 476 0
-5839 -5876 -5848 -476 0
5840 -5849 477 0
-5842 -5877 -325 0
-5877 -326 5841 0
-5846 -329 -5877 0
-5847 -330 -5877 0
-5848 -331 -5877 0
-5849 -332 -5877 0
-340 -5877 5843 0
-341 -5877 5843 0
-342 -5877 5843 0
-343 -5877 5843 0
-344 -5877 5843 0
-345 -5877 5843 0
-5841 5850 478 0
5841 478 -5850 0
5877 -5841 5850 0
-5877 5841 -478 5850 0
-5842 479 5851 0
5842 479 -5851 0
-5842 5877 5851 0
-5877 5842 -479 5851 0
480 -5852 5843 0
5877 -5852 5843 0
5844 481 -5853 0
5845 482 -5854 0
5846 483 -5855 0
5847 484 -5856 0
5848 485 -5857 0
486 5849 -5858 0
5877 5849 -5858 0
-376 5852 -5878 0
-377 5852 -5878 0
-378 5852 -5878 0
-379 5852 -5878 0
-380 5852 -5878 0
-381 5852 -5878 0
487 -5850 5859 0
5878 -5850 5859 0
-5878 -487 5850 5859 0
-5851 488 5860 0
-5851 5878 5860 0
-488 -5878 5851 5860 0
5852 489 -5861 0
5878 5852 -5861 0
5853 490 -5862 0
5854 491 -5863 0
5855 492 -5864 0
5856 493 -5865 0
5857 494 -5866 0
5858 495 -5867 0
5878 5858 -5867 0
5879 0
-5978 0
5880 0
-5881 0
-5987 -1 -5880 0
397 5888 -5879 0
5888 5987 -5879 0
398 5889 -5880 0
-5890 399 5881 0
-5988 -37 -5889 0
5897 406 -5888 0
5988 5897 -5888 0
5898 407 -5889 0
-5899 408 5890 0
5906 -5897 415 0
5907 -5898 416 0
-5908 417 5899 0
5915 -5906 424 0
5916 -5907 425 0
-5917 426 5908 0
-5991 -145 -5916 0
5924 -5915 433 0
5991 5924 -5915 0
5925 -5916 434 0
-5926 5917 435 0
5933 -5924 442 0
5934 -5925 443 0
-5935 444 5926 0
5942 -5933 451 0
5943 -5934 452 0
-5944 5935 453 0
5951 -5942 460 0
5952 -5943 461 0
-5953 462 5944 0
-5951 5960 469 0
-5960 5969 478 0
487 -5969 5978 0
5998 0
-6097 0
-5999 0
6098 0
6000 0
6001 0
6002 0
6003 0
6004 0
6005 0
6006 0
-6106 -9 -6000 0
-6106 -10 -6001 0
-6106 -11 -6002 0
-6106 -12 -6003 0
-6106 -13 -6004 0
-6106 -14 -6005 0
-6106 -15 -6006 0
6106 6007 -5998 0
398 -6008 5999 0
-6008 6106 5999 0
-6106 6008 -398 5999 0
6009 399 -6000 0
-45 -6107 6008 0
-46 -6107 6008 0
-47 -6107 6008 0
-48 -6107 6008 0
-49 -6107 6008 0
-50 -6107 6008 0
-51 -6107 6008 0
6016 -6007 406 0
-6017 407 6008 0
6107 -6017 6008 0
6018 408 -6009 0
-81 -6108 6017 0
-82 -6108 6017 0
-83 -6108 6017 0
-84 -6108 6017 0
-85 -6108 6017 0
-86 -6108 6017 0
-87 -6108 6017 0
6025 -6016 415 0
416 6017 -6026 0
6108 -6026 6017 0
6027 -6018 417 0
-117 -6109 6026 0
-118 -6109 6026 0
-119 -6109 6026 0
-120 -6109 6026 0
-121 -6109 6026 0
-122 -6109 6026 0
-123 -6109 6026 0
6034 -6025 424 0
6026 425 -6035 0
6109 6026 -6035 0
6036 426 -6027 0
6110 -145 6035 -6034 0
-153 -6110 6035 0
-154 -6110 6035 0
-155 -6110 6035 0
-156 -6110 6035 0
-157 -6110 6035 0
-158 -6110 6035 0
-159 -6110 6035 0
6043 -6034 433 0
6110 6034 -6043 0
434 6035 -6044 0
6110 -6044 6035 0
-434 6044 6035 -6110 0
6045 -6036 435 0
-6111 -181 6043 0
-189 -6111 6044 0
-190 -6111 6044 0
-191 -6111 6044 0
-192 -6111 6044 0
-193 -6111 6044 0
-194 -6111 6044 0
-195 -6111 6044 0
6052 -6043 442 0
-6053 6044 443 0
6111 -6053 6044 0
6054 444 -6045 0
-225 -6112 6053 0
-226 -6112 6053 0
-227 -6112 6053 0
-228 -6112 6053 0
-229 -6112 6053 0
-230 -6112 6053 0
-231 -6112 6053 0
6061 -6052 451 0
-6062 6053 452 0
6112 -6062 6053 0
6063 -6054 453 0
-261 -6113 6062 0
-262 -6113 6062 0
-263 -6113 6062 0
-264 -6113 6062 0
-265 -6113 6062 0
-266 -6113 6062 0
-267 -6113 6062 0
6070 -6061 460 0
-6071 6062 461 0
6113 -6071 6062 0
6072 462 -6063 0
-297 -6114 6071 0
-298 -6114 6071 0
-299 -6114 6071 0
-300 -6114 6071 0
-301 -6114 6071 0
-302 -6114 6071 0
-303 -6114 6071 0
-6070 6079 469 0
6071 -6080 470 0
6114 6071 -6080 0
-333 -6115 6080 0
-334 -6115 6080 0
-335 -6115 6080 0
-336 -6115 6080 0
-337 -6115 6080 0
-338 -6115 6080 0
-339 -6115 6080 0
-6079 6088 478 0
479 6080 -6089 0
6115 6080 -6089 0
-369 -6116 6089 0
-370 -6116 6089 0
-371 -6116 6089 0
-372 -6116 6089 0
-373 -6116 6089 0
-374 -6116 6089 0
-375 -6116 6089 0
487 -6088 6097 0
6089 488 -6098 0
6089 6116 -6098 0
8957 -398 5761 0
8957 -399 5762 0
-406 5769 8958 0
-407 8958 5770 0
-408 8958 5771 0
-415 5778 8959 0
5779 8959 -416 0
-417 5780 8959 0
5787 -424 8960 0
-425 5788 8960 0
-426 5789 8960 0
-433 5796 8961 0
5797 8961 -434 0
-435 5798 8961 0
5805 -442 8962 0
-443 5806 8962 0
-444 5807 8962 0
5814 -451 8963 0
-452 5815 8963 0
-453 5816 8963 0
5823 -460 8964 0
-461 5824 8964 0
-462 5825 8964 0
-464 5827 8964 0
-465 5828 8964 0
-466 5829 8964 0
5830 -467 8964 0
5831 -468 8964 0
5832 -469 8965 0
-470 5833 8965 0
-471 5834 8965 0
5835 -472 8965 0
5836 -473 8965 0
5837 -474 8965 0
-475 5838 8965 0
5839 -476 8965 0
-477 5840 8965 0
8966 5841 -478 0
8966 5843 -480 0
5844 8966 -481 0
5845 8966 -482 0
5846 -483 8966 0
5847 -484 8966 0
5848 -485 8966 0
5849 -486 8966 0
8967 -488 5851 0
-489 8967 5852 0
-490 5853 8967 0
-491 5854 8967 0
-492 5855 8967 0
-493 5856 8967 0
-494 5857 8967 0
-495 8967 5858 0
8968 -8957 0
8969 -8968 0
-8958 8970 -8968 0
-8970 8971 0
-8959 -8970 0
-8958 8969 0
8972 -8969 0
-8959 8971 -8969 0
-8971 8973 0
-8971 -8960 0
-8959 8972 0
8974 -8972 0
-8960 8973 -8972 0
-8973 8975 0
-8973 -8961 0
-8960 8974 0
8976 -8974 0
-8961 8975 -8974 0
-8975 8977 0
-8975 -8962 0
-8961 8976 0
8978 -8976 0
-8962 8977 -8976 0
-8977 8979 0
-8977 -8963 0
-8962 8978 0
8980 -8978 0
-8963 8979 -8978 0
-8979 8981 0
-8979 -8964 0
-8963 8980 0
8982 -8980 0
-8964 8981 -8980 0
-8981 8983 0
-8981 -8965 0
-8964 8982 0
8984 -8982 0
-8965 8983 -8982 0
-8983 8985 0
-8983 -8966 0
-8965 8984 0
8985 -8966 -8984 0
-8985 -8967 0
9021 -397 0
9021 -398 0
-406 9022 0
-407 9022 0
-415 9023 0
9023 -416 0
-424 9024 0
-425 9024 0
-433 9025 0
9025 -434 0
-442 9026 0
-443 9026 0
-451 9027 0
-452 9027 0
-460 9028 0
-461 9028 0
-469 9029 0
-470 9029 0
-478 9030 0
9030 -479 0
9031 -487 0
9031 -488 0
9032 -9021 0
9033 -9032 0
-9022 9034 -9032 0
-9034 9035 0
-9034 -9023 0
-9022 9033 0
9036 -9033 0
-9023 9035 -9033 0
-9035 9037 0
-9035 -9024 0
9036 -9023 0
9038 -9036 0
-9024 9037 -9036 0
-9037 9039 0
-9037 -9025 0
-9024 9038 0
9040 -9038 0
-9025 9039 -9038 0
-9039 9041 0
-9039 -9026 0
9040 -9025 0
9042 -9040 0
-9026 9041 -9040 0
-9041 9043 0
-9041 -9027 0
-9026 9042 0
9044 -9042 0
-9027 9043 -9042 0
-9043 9045 0
-9043 -9028 0
-9027 9044 0
9046 -9044 0
-9028 9045 -9044 0
-9045 9047 0
-9045 -9029 0
-9028 9046 0
9048 -9046 0
-9029 9047 -9046 0
-9047 9049 0
-9047 -9030 0
-9029 9048 0
9049 -9030 -9048 0
-9049 -9031 0
-17 -37 0
-18 -37 0
-19 -37 0
-20 -37 0
-21 -37 0
-22 -37 0
-23 -37 0
-24 -37 0
-25 -37 0
-26 -37 0
-27 -37 0
-28 -37 0
-29 -37 0
-30 -37 0
-31 -37 0
-32 -37 0
-33 -37 0
-34 -37 0
-35 -37 0
-36 -37 0
-52 -73 0
-53 -73 0
-54 -73 0
-55 -73 0
-56 -73 0
-57 -73 0
-58 -73 0
-58 -74 0
-59 -73 0
-59 -74 0
-60 -73 0
-60 -74 0
-61 -73 0
-61 -74 0
-62 -73 0
-62 -74 0
-63 -73 0
-63 -74 0
-64 -73 0
-64 -74 0
-65 -73 0
-65 -74 0
-66 -73 0
-66 -74 0
-67 -73 0
-67 -74 0
-68 -73 0
-68 -74 0
-69 -73 0
-69 -74 0
-70 -73 0
-70 -74 0
-71 -73 0
-71 -74 0
-72 -73 0
-72 -74 0
-88 -109 0
-89 -109 0
-90 -109 0
-91 -109 0
-92 -109 0
-93 -109 0
-94 -109 0
-94 -110 0
-95 -109 0
-95 -110 0
-96 -109 0
-96 -110 0
-97 -109 0
-97 -110 0
-98 -109 0
-98 -110 0
-99 -109 0
-99 -110 0
-100 -109 0
-100 -110 0
-101 -109 0
-101 -110 0
-102 -109 0
-102 -110 0
-103 -109 0
-103 -110 0
-104 -109 0
-104 -110 0
-105 -109 0
-105 -110 0
-106 -109 0
-106 -110 0
-107 -109 0
-107 -110 0
-108 -109 0
-108 -110 0
-124 -145 0
-125 -145 0
-126 -145 0
-127 -145 0
-128 -145 0
-129 -145 0
-130 -145 0
-130 -146 0
-131 -145 0
-131 -146 0
-132 -145 0
-132 -146 0
-133 -145 0
-133 -146 0
-134 -145 0
-134 -146 0
-135 -145 0
-135 -146 0
-136 -145 0
-136 -146 0
-137 -145 0
-137 -146 0
-138 -145 0
-138 -146 0
-139 -145 0
-139 -146 0
-140 -145 0
-140 -146 0
-141 -145 0
-141 -146 0
-142 -145 0
-142 -146 0
-143 -145 0
-143 -146 0
-144 -145 0
-144 -146 0
-160 -181 0
-161 -181 0
-162 -181 0
-163 -181 0
-164 -181 0
-165 -181 0
-166 -181 0
-166 -182 0
-167 -181 0
-167 -182 0
-168 -181 0
-168 -182 0
-169 -181 0
-169 -182 0
-170 -181 0
-170 -182 0
-171 -181 0
-171 -182 0
-172 -181 0
-172 -182 0
-173 -181 0
-173 -182 0
-174 -181 0
-174 -182 0
-175 -181 0
-175 -182 0
-176 -181 0
-176 -182 0
-177 -181 0
-177 -182 0
-178 -181 0
-178 -182 0
-179 -181 0
-179 -182 0
-180 -181 0
-180 -182 0
-196 -217 0
-197 -217 0
-198 -217 0
-199 -217 0
-200 -217 0
-201 -217 0
-202 -217 0
-202 -218 0
-203 -217 0
-203 -218 0
-204 -217 0
-204 -218 0
-205 -217 0
-205 -218 0
-206 -217 0
-206 -218 0
-207 -217 0
-207 -218 0
-208 -217 0
-208 -218 0
-209 -217 0
-209 -218 0
-210 -217 0
-210 -218 0
-211 -217 0
-211 -218 0
-212 -217 0
-212 -218 0
-213 -217 0
-213 -218 0
-214 -217 0
-214 -218 0
-215 -217 0
-215 -218 0
-216 -217 0
-216 -218 0
-232 -253 0
-233 -253 0
-234 -253 0
-235 -253 0
-236 -253 0
-237 -253 0
-238 -253 0
-238 -254 0
-239 -253 0
-239 -254 0
-240 -253 0
-240 -254 0
-241 -253 0
-241 -254 0
-242 -253 0
-242 -254 0
-243 -253 0
-243 -254 0
-244 -253 0
-244 -254 0
-245 -253 0
-245 -254 0
-246 -253 0
-246 -254 0
-247 -253 0
-247 -254 0
-248 -253 0
-248 -254 0
-249 -253 0
-249 -254 0
-250 -253 0
-250 -254 0
-251 -253 0
-251 -254 0
-252 -253 0
-252 -254 0
-261 -296 0
-262 -296 0
-263 -296 0
-264 -296 0
-265 -296 0
-266 -296 0
-268 -289 0
-268 -296 0
-269 -289 0
-269 -296 0
-270 -289 0
-270 -296 0
-271 -289 0
-271 -296 0
-272 -289 0
-272 -296 0
-273 -289 0
-291 -273 0
-292 -273 0
-293 -273 0
-273 -294 0
-273 -295 0
-274 -289 0
-274 -290 0
-274 -296 0
-275 -289 0
-275 -290 0
-275 -296 0
-276 -289 0
-276 -290 0
-276 -296 0
-277 -289 0
-277 -290 0
-277 -296 0
-278 -289 0
-278 -290 0
-279 -289 0
-279 -290 0
-279 -296 0
-280 -289 0
-280 -290 0
-280 -296 0
-281 -289 0
-281 -290 0
-281 -296 0
-282 -289 0
-282 -290 0
-283 -289 0
-283 -290 0
-283 -296 0
-284 -289 0
-284 -290 0
-284 -296 0
-285 -289 0
-285 -290 0
-286 -289 0
-286 -290 0
-286 -296 0
-287 -289 0
-287 -290 0
-288 -289 0
-290 -288 0
-291 -288 0
-292 -288 0
-293 -288 0
-294 -288 0
-304 -325 0
-305 -325 0
-306 -325 0
-307 -325 0
-308 -325 0
-309 -325 0
-310 -325 0
-311 -325 0
-312 -325 0
-313 -325 0
-314 -325 0
-315 -325 0
-316 -325 0
-317 -325 0
-318 -325 0
-319 -325 0
-320 -325 0
-321 -325 0
-322 -325 0
-323 -325 0
-324 -325 0
-340 -361 0
-341 -361 0
-342 -361 0
-343 -361 0
-344 -361 0
-345 -361 0
-346 -361 0
-347 -361 0
-348 -361 0
-349 -361 0
-350 -361 0
-351 -361 0
-352 -361 0
-353 -361 0
-354 -361 0
-355 -361 0
-356 -361 0
-357 -361 0
-358 -361 0
-359 -361 0
-360 -361 0
