p cnf 9441 1937
36 35 2 33 5 1 30 28 6 7 8 9 10 11 12 3 4 23 13 14 15 16 17 18 21 19 27 20 29 22 24 25 26 34 31 32 0
496 -1 0
-496 -2 0
397 -1 0
-2 397 0
397 -3 0
397 -4 0
397 -5 0
397 -6 0
397 -7 0
397 -8 0
398 -1 0
398 -9 0
398 -10 0
398 -11 0
398 -12 0
398 -13 0
398 -14 0
398 -15 0
-398 14 1 9 15 10 11 12 13 0
-399 9 20 2 21 16 17 18 19 0
-404 36 20 7 14 29 32 34 25 0
405 -21 0
-405 36 33 26 35 30 8 15 21 0
68 72 43 38 42 50 54 55 45 46 44 48 49 59 51 37 39 40 41 56 57 52 47 60 61 62 53 58 63 66 64 65 69 70 71 67 0
531 -37 0
-38 -531 0
-37 406 0
-38 406 0
-39 406 0
-40 406 0
-41 406 0
-42 406 0
-43 406 0
-44 406 0
-406 43 40 38 42 39 41 37 44 0
-37 407 0
-45 407 0
-46 407 0
-47 407 0
-48 407 0
-49 407 0
-50 407 0
-51 407 0
51 -407 37 45 47 46 48 49 50 0
-38 408 0
-52 408 0
-53 408 0
-54 408 0
-55 408 0
-56 408 0
-57 408 0
-408 56 38 45 53 52 54 55 57 0
-410 65 47 40 53 63 64 58 66 0
414 -62 0
66 -414 44 51 62 72 57 71 69 0
95 94 90 91 86 79 78 80 81 82 83 84 85 75 87 73 74 76 77 92 93 88 89 96 97 98 99 100 101 102 103 104 105 106 107 108 0
566 -73 0
-74 -566 0
-73 415 0
-74 415 0
-75 415 0
-76 415 0
-77 415 0
-78 415 0
-79 415 0
-80 415 0
-415 75 79 74 76 77 78 73 80 0
-73 416 0
-81 416 0
-82 416 0
-83 416 0
-84 416 0
-85 416 0
-86 416 0
-87 416 0
-416 82 86 81 83 84 85 73 87 0
-74 417 0
-88 417 0
-89 417 0
-90 417 0
-91 417 0
-92 417 0
-93 417 0
-417 88 92 89 81 90 91 74 93 0
131 130 113 114 124 125 115 116 117 111 112 120 121 122 123 109 110 126 127 128 129 118 119 132 133 134 135 136 137 138 139 140 141 142 143 144 0
-109 424 0
-110 424 0
-111 424 0
-112 424 0
-113 424 0
-114 424 0
-115 424 0
-116 424 0
-117 425 0
-118 425 0
-119 425 0
-120 425 0
-121 425 0
-122 425 0
-123 425 0
-425 109 117 118 119 120 121 122 123 0
-124 426 0
-125 426 0
-126 426 0
-127 426 0
-128 426 0
-129 426 0
124 -426 110 117 125 126 127 128 129 0
149 150 160 161 166 167 151 152 153 147 148 156 157 158 159 145 146 162 163 164 165 154 155 168 169 170 171 172 173 174 175 176 177 178 179 180 0
636 -145 0
637 -636 0
-146 -636 0
638 -637 0
639 -638 0
640 -639 0
641 -640 0
642 -641 0
643 -642 0
644 -643 0
645 -644 0
646 -645 0
647 -646 0
648 -647 0
649 -648 0
650 -649 0
651 -650 0
-160 -650 0
652 -651 0
-161 -651 0
653 -652 0
-162 -652 0
654 -653 0
-163 -653 0
655 -654 0
-164 -654 0
-165 -655 0
-145 433 0
-146 433 0
-147 433 0
-148 433 0
-149 433 0
-150 433 0
-151 433 0
-152 433 0
-433 148 145 146 147 149 150 151 152 0
-145 434 0
-153 434 0
-154 434 0
-155 434 0
-156 434 0
-157 434 0
-158 434 0
-159 434 0
-434 145 153 154 155 156 157 158 159 0
-146 435 0
-153 435 0
-160 435 0
-161 435 0
-162 435 0
-163 435 0
-164 435 0
-165 435 0
-435 163 153 146 165 160 162 161 164 0
436 -160 0
-161 437 0
438 -162 0
439 -163 0
440 -164 0
-165 441 0
203 202 183 184 185 186 187 188 189 190 191 192 193 194 195 181 182 198 199 200 201 196 197 204 205 206 207 208 209 210 211 212 213 214 215 216 0
-181 671 0
-671 -182 0
672 -182 0
673 -672 0
674 -673 0
675 -674 0
676 -675 0
677 -676 0
678 -677 0
679 -678 0
-189 -678 0
680 -679 0
-190 -679 0
681 -680 0
-191 -680 0
682 -681 0
-192 -681 0
683 -682 0
-193 -682 0
684 -683 0
-194 -683 0
-195 -684 0
-181 442 0
-182 442 0
-183 442 0
-184 442 0
-185 442 0
-186 442 0
-187 442 0
-188 442 0
181 -442 182 183 184 185 186 187 188 0
-189 443 0
-190 443 0
-191 443 0
-192 443 0
-193 443 0
-194 443 0
-195 443 0
181 -443 194 195 189 190 192 191 193 0
-196 444 0
-197 444 0
-198 444 0
-199 444 0
-200 444 0
-201 444 0
200 -444 182 189 197 196 198 201 199 0
445 -196 0
446 -197 0
447 -198 0
448 -199 0
449 -200 0
-201 450 0
239 238 220 219 221 222 223 224 225 226 227 228 229 230 231 217 218 232 233 234 235 236 237 240 241 242 243 244 245 246 247 248 249 250 251 252 0
706 -217 0
707 -706 0
-218 -706 0
708 -707 0
709 -708 0
710 -709 0
711 -710 0
712 -711 0
713 -712 0
714 -713 0
715 -714 0
716 -715 0
717 -716 0
718 -717 0
719 -718 0
720 -719 0
721 -720 0
-232 -720 0
722 -721 0
-233 -721 0
723 -722 0
-234 -722 0
724 -723 0
-235 -723 0
725 -724 0
-236 -724 0
-237 -725 0
-217 451 0
-218 451 0
-219 451 0
-220 451 0
-221 451 0
-222 451 0
-223 451 0
-224 451 0
-225 452 0
-226 452 0
-227 452 0
-228 452 0
-229 452 0
-230 452 0
-231 452 0
226 -452 225 217 227 228 229 230 231 0
-218 453 0
-225 453 0
-232 453 0
-233 453 0
-234 453 0
-235 453 0
-236 453 0
-237 453 0
-453 237 218 225 232 233 234 235 236 0
242 -459 231 224 237 246 249 251 252 0
275 274 253 256 257 258 259 260 254 255 263 264 265 266 267 261 262 270 271 272 273 269 268 276 277 278 279 280 281 282 283 284 285 286 287 288 0
-253 741 0
-741 742 0
-254 -741 0
-742 743 0
-743 744 0
-744 745 0
-745 746 0
-746 747 0
-747 748 0
-748 749 0
-749 750 0
-750 751 0
-751 752 0
-752 753 0
-753 754 0
-754 755 0
-755 756 0
-268 -755 0
-756 757 0
-269 -756 0
-757 758 0
-270 -757 0
759 -758 0
-758 -271 0
760 -759 0
-272 -759 0
-273 -760 0
-253 460 0
-254 460 0
-255 460 0
-256 460 0
-257 460 0
-258 460 0
-259 460 0
-260 460 0
258 -460 254 253 255 256 257 259 260 0
-261 461 0
-262 461 0
-263 461 0
-264 461 0
-265 461 0
-266 461 0
-267 461 0
262 -461 253 261 263 264 265 266 267 0
-254 462 0
-261 462 0
-268 462 0
-269 462 0
-270 462 0
-271 462 0
-272 462 0
-273 462 0
271 -462 261 254 270 268 269 272 273 0
-468 260 273 267 287 278 282 285 288 0
290 289 310 311 305 304 295 296 297 298 299 300 301 302 303 292 291 306 307 308 309 293 294 312 313 314 315 316 317 318 319 320 321 322 323 324 0
-289 776 0
-776 777 0
-776 -290 0
-777 778 0
-778 779 0
-779 780 0
-780 781 0
-781 782 0
-782 783 0
784 -783 0
785 -784 0
786 -785 0
787 -786 0
788 -787 0
789 -788 0
790 -789 0
791 -790 0
-304 -790 0
792 -791 0
-305 -791 0
793 -792 0
-306 -792 0
794 -793 0
-307 -793 0
795 -794 0
-308 -794 0
-309 -795 0
-289 469 0
-290 469 0
-291 469 0
-292 469 0
-293 469 0
-294 469 0
-295 469 0
-296 469 0
-289 470 0
-297 470 0
-298 470 0
-299 470 0
-300 470 0
-301 470 0
-302 470 0
-303 470 0
-470 289 298 297 299 300 301 302 303 0
-304 471 0
-305 471 0
-306 471 0
-307 471 0
-308 471 0
-309 471 0
290 -471 309 297 308 305 307 306 304 0
-477 296 318 303 309 314 321 323 324 0
332 331 333 341 340 327 328 330 329 334 335 336 337 338 339 325 326 342 343 344 345 346 347 348 349 350 351 352 353 354 355 356 357 358 359 360 0
478 -325 0
-326 478 0
-327 478 0
-328 478 0
-329 478 0
-330 478 0
-331 478 0
-332 478 0
327 326 -478 330 329 328 325 331 332 0
-325 479 0
-333 479 0
-334 479 0
-335 479 0
-336 479 0
-337 479 0
-338 479 0
-339 479 0
333 334 325 -479 335 336 337 338 339 0
480 -326 0
-340 480 0
-341 480 0
-342 480 0
-343 480 0
-344 480 0
-345 480 0
-480 326 341 333 340 342 343 344 345 0
481 -327 0
482 -328 0
483 -329 0
484 -330 0
485 -331 0
486 -332 0
-362 487 0
-369 488 0
370 361 369 -488 371 372 373 374 375 0
-489 380 362 369 377 376 379 378 381 0
-882 0
-883 0
-884 0
-886 0
-887 0
-888 0
-889 0
988 0
-989 -14 882 0
-989 -20 883 0
-989 -21 883 0
-989 -25 884 0
-989 -26 884 0
-989 -32 886 0
-989 -33 886 0
-35 -989 887 0
-989 -36 888 0
989 -897 888 0
-898 405 889 0
989 -898 889 0
-72 -990 897 0
414 -907 898 0
990 -907 898 0
907 -916 423 0
916 -925 432 0
925 -934 441 0
934 -943 450 0
943 -952 459 0
952 -961 468 0
961 477 -970 0
970 486 -979 0
495 979 -988 0
-1238 0
-1239 0
-1240 0
-1241 0
-1242 0
-1243 0
-1244 0
1245 0
-1246 0
1345 0
-1346 -8 1238 0
-1346 -15 1239 0
-1346 -16 1240 0
-1346 -17 1240 0
-1346 -18 1240 0
-1346 -19 1240 0
-1346 -20 1240 0
-1346 -21 1240 0
-1346 -22 1241 0
-1346 -23 1241 0
-1346 -24 1241 0
-1346 -25 1241 0
-1346 -26 1241 0
-1346 -30 1242 0
-1346 -31 1243 0
-1346 -32 1243 0
-1346 -33 1243 0
-35 -1346 1244 0
-36 1346 1246 -1245 0
-1248 398 1239 0
-1249 1346 1240 0
-1250 1346 1241 0
-1251 1346 1242 0
-1252 1346 1243 0
-1253 1346 1244 0
1346 -1255 1246 0
-47 -1347 1248 0
-1347 -51 1248 0
-53 -1347 1249 0
-57 -1347 1249 0
-58 -1347 1250 0
-1347 -62 1250 0
-64 -1347 1251 0
-66 -1347 1251 0
-69 -1347 1252 0
-71 -1347 1253 0
414 -1264 1255 0
1347 -1264 1255 0
1264 -1273 423 0
1273 -1282 432 0
1282 -1291 441 0
1291 -1300 450 0
1300 -1309 459 0
1309 -1318 468 0
1318 477 -1327 0
1327 486 -1336 0
495 1336 -1345 0
-1361 0
-1365 0
-30 -1465 1361 0
1465 -1374 1365 0
414 -1383 1374 0
-1595 0
-1694 0
-1596 0
-1597 0
-1598 0
1599 0
-1698 0
-1600 0
-1601 0
-1602 0
1603 0
1702 0
-1703 -8 1595 0
-1703 -15 1596 0
-1703 -21 1597 0
-1703 -26 1598 0
-28 1703 1601 -1599 0
-30 -1703 -1603 0
-33 -1703 1600 0
-1703 -35 1601 0
-36 -1703 -1603 0
1608 1703 -1599 0
404 -1611 1602 0
1612 1703 -1603 0
-405 -1703 -1612 -1603 0
-1704 -72 1611 0
1617 410 -1608 0
1617 1704 -1608 0
1621 414 -1612 0
414 -1621 1612 0
-1704 -414 -1612 -1621 0
1626 419 -1617 0
1626 1705 -1617 0
1630 -1621 423 0
1621 -1630 423 0
-1705 -423 -1621 -1630 0
1635 428 -1626 0
1635 1706 -1626 0
1639 -1630 432 0
1630 -1639 432 0
-1706 -432 -1639 -1630 0
1644 437 -1635 0
1644 1707 -1635 0
1648 -1639 441 0
1639 -1648 441 0
-1707 -441 -1639 -1648 0
1653 446 -1644 0
1708 1653 -1644 0
1657 -1648 450 0
1648 -1657 450 0
-1708 -450 -1648 -1657 0
-231 -1709 -1657 0
-237 -1709 -1657 0
-242 -1709 -1657 0
-246 -1709 -1657 0
-249 -1709 -1657 0
-251 -1709 -1657 0
-252 -1709 -1657 0
1662 455 -1653 0
1709 1662 -1653 0
1666 -1657 459 0
1657 -1666 459 0
-1657 -459 -1666 -1709 0
-267 -1710 -1666 0
-273 -1710 -1666 0
-278 -1710 -1666 0
-282 -1710 -1666 0
-285 -1710 -1666 0
-287 -1710 -1666 0
-288 -1710 -1666 0
1671 464 -1662 0
1710 1671 -1662 0
1675 -1666 468 0
1666 -1675 468 0
-1710 -468 -1666 -1675 0
-296 -1711 1667 0
-303 -1711 -1675 0
-309 -1711 -1675 0
-314 -1711 -1675 0
-318 -1711 -1675 0
-321 -1711 -1675 0
-323 -1711 -1675 0
-324 -1711 -1675 0
-1667 1676 469 0
473 -1671 1680 0
1711 -1671 1680 0
1684 -1675 477 0
1675 477 -1684 0
-1676 478 1685 0
-1680 482 1689 0
-1680 1712 1689 0
1693 -1684 486 0
1684 486 -1693 0
-1712 -486 -1693 -1684 0
487 -1685 1694 0
491 -1689 1698 0
1713 -1689 1698 0
-1713 -491 1689 1698 0
1693 495 -1702 0
1713 1693 -1702 0
-1693 -1713 -495 -1702 0
2428 0
-2527 0
-2429 0
-2528 0
-2430 0
-2529 0
-2431 0
-2530 0
2432 0
-2531 0
-2433 0
2434 0
-2435 0
2436 0
-7 2536 2435 -2428 0
-2536 -21 2430 0
-2536 -26 2431 0
-27 2536 2433 -2432 0
-29 2536 2435 -2432 0
-30 -2536 -2436 0
-33 -2536 -2436 0
-34 2536 2435 -2434 0
-2536 -35 -2436 0
-36 -2536 -2436 0
397 2437 -2428 0
-2438 398 2429 0
-2439 2536 2430 0
2441 2536 -2432 0
-2442 2536 2433 0
-2444 2536 2435 0
2445 405 -2436 0
2445 2536 -2436 0
-2445 -2536 -405 -2436 0
-44 -2537 -2445 0
-51 -2537 2438 0
-57 -2537 -2445 0
-62 -2537 -2445 0
-63 2537 2442 -2441 0
-65 2537 2444 -2441 0
-66 -2537 -2445 0
-69 -2537 -2445 0
-71 -2537 -2445 0
-72 -2537 -2445 0
2446 -2437 406 0
2446 2537 -2437 0
-2447 407 2438 0
414 2454 -2445 0
2537 2454 -2445 0
-2537 -2454 -414 -2445 0
2538 -73 2447 -2446 0
2455 -2446 415 0
-2456 2447 416 0
-2538 -416 2447 2456 0
2464 -2455 424 0
-2456 2465 425 0
-2465 425 2456 0
2473 -2464 433 0
-2465 2474 434 0
-2474 434 2465 0
2482 -2473 442 0
-2474 2483 443 0
-2483 443 2474 0
2491 -2482 451 0
-2483 2492 452 0
-2492 2483 452 0
-2491 2500 460 0
-2492 2501 461 0
-2501 2492 461 0
2509 -2500 469 0
2544 2509 -2500 0
-2501 2510 470 0
2501 -2510 470 0
-470 2510 -2544 2501 0
2509 -2545 -325 0
-2510 -2545 -325 0
-2511 -326 -2545 0
-2512 -327 -2545 0
-2513 -328 -2545 0
-2509 478 2518 0
2545 -2509 2518 0
-2510 479 2519 0
-2519 2510 479 0
-2510 2545 2519 0
2510 -2545 -479 2519 0
2511 -480 -2545 2520 0
2512 -481 -2545 2521 0
2513 -482 -2545 2522 0
-2546 -2519 -361 0
487 -2518 2527 0
2546 -2518 2527 0
488 -2519 2528 0
2546 -2519 2528 0
-488 -2546 2519 2528 0
2546 -2520 2529 0
2546 -2521 2530 0
2546 -2522 2531 0
-3261 0
-3360 0
-3262 0
-3361 0
3263 0
-3362 0
-1 -3369 3261 0
397 -3270 3261 0
-3271 398 3262 0
3272 399 -3263 0
3369 3272 -3263 0
-3279 3270 406 0
-3280 407 3271 0
3281 408 -3272 0
-3288 3279 415 0
-3289 3280 416 0
3290 417 -3281 0
-3297 3288 424 0
-3298 425 3289 0
3299 426 -3290 0
-3306 3297 433 0
-3307 434 3298 0
3308 -3299 435 0
-3315 3306 442 0
-3316 443 3307 0
3317 444 -3308 0
-3324 3315 451 0
-3325 3316 452 0
3326 -3317 453 0
-3333 3324 460 0
-3334 3325 461 0
3335 462 -3326 0
-3342 3333 469 0
-3343 3334 470 0
471 -3335 3344 0
-3378 3342 -478 3351 0
-3352 3343 479 0
-3344 3353 480 0
-3344 3378 3353 0
-3352 -3379 -361 0
-362 -3353 -3379 0
-369 -3379 -3353 0
3379 -3351 3360 0
-488 -3379 3352 3361 0
-3353 3379 3362 0
4098 0
-4197 0
4102 0
-30 -4202 -4102 0
4202 4107 -4098 0
4116 410 -4107 0
4125 -4116 419 0
4134 -4125 428 0
4143 -4134 437 0
4152 -4143 446 0
4161 -4152 455 0
4170 -4161 464 0
-4170 473 4179 0
-4179 482 4188 0
-4188 491 4197 0
4570 0
-4669 0
-4571 0
-4670 0
4572 0
-2 -4678 -4572 0
397 4579 -4570 0
4579 4678 -4570 0
-4580 398 4571 0
4581 399 -4572 0
-4679 -38 -4581 0
4588 4679 -4579 0
-4589 407 4580 0
-4679 -407 4589 4580 0
4597 -4588 415 0
4597 4680 -4588 0
-4589 4598 416 0
-4680 -416 4589 4598 0
4606 -4597 424 0
-4598 4607 425 0
4615 -4606 433 0
-4607 4616 434 0
4624 -4615 442 0
-4616 4625 443 0
4633 -4624 451 0
-4625 4634 452 0
4642 -4633 460 0
-4634 4643 461 0
4651 -4642 469 0
-4643 4652 470 0
-4651 478 4660 0
-4652 4661 479 0
487 -4660 4669 0
488 -4661 4670 0
5998 0
-6097 0
-5999 0
-6098 0
-6000 0
6099 0
6001 0
6002 0
6003 0
6004 0
6005 0
6006 0
-1 6106 5999 -5998 0
-6106 -3 -6001 0
-6106 -4 -6002 0
-6106 -5 -6003 0
-6106 -6 -6004 0
-6106 -7 -6005 0
-6106 -8 -6006 0
-6106 -9 5999 0
-6106 -10 5999 0
-6106 -11 5999 0
-6106 -12 5999 0
-6106 -13 5999 0
-6106 -14 5999 0
-6106 -15 5999 0
-6106 -16 -6001 0
-6106 -17 -6002 0
-6106 -18 -6003 0
-6106 -19 -6004 0
-6106 -20 -6005 0
-6106 -21 -6006 0
-6106 -22 -6002 0
-6106 -23 -6003 0
-6106 -24 -6004 0
-6106 -25 -6005 0
-6106 -26 -6006 0
-6106 -27 -6003 0
-6106 -28 -6004 0
-6106 -29 -6005 0
-6106 -30 -6006 0
-6106 -31 -6004 0
-6106 -32 -6005 0
-6106 -33 -6006 0
-6106 -34 -6005 0
-6106 -35 -6006 0
-6106 -36 -6006 0
397 6007 -5998 0
6007 6106 -5998 0
-6007 -6106 -397 -5998 0
-6008 398 5999 0
-6008 6106 5999 0
-398 -6106 6008 5999 0
-6009 399 6000 0
-6009 6106 6000 0
6010 6106 -6001 0
6011 6106 -6002 0
6012 6106 -6003 0
6013 6106 -6004 0
6014 6106 -6005 0
6107 -37 -6007 6008 0
-39 -6107 -6010 0
-40 -6107 -6011 0
-41 -6107 -6012 0
-42 -6107 -6013 0
-43 -6107 -6014 0
-45 -6107 6008 0
-46 -6107 6008 0
-47 -6107 6008 0
-48 -6107 6008 0
-49 -6107 6008 0
-50 -6107 6008 0
-6107 -51 6008 0
-52 -6107 6009 0
-53 -6107 6009 0
-54 -6107 6009 0
-55 -6107 6009 0
-56 -6107 6009 0
-57 -6107 6009 0
6016 406 -6007 0
-6016 406 6007 0
6016 6107 -6007 0
6016 -6107 6007 -406 0
-6008 6017 407 0
-6017 407 6008 0
6107 -6008 6017 0
6107 -6017 6008 0
-6107 -407 6017 6008 0
-6018 408 6009 0
6107 -6018 6009 0
6016 -73 -6108 0
-81 -6108 6017 0
-82 -6108 6017 0
-83 -6108 6017 0
-84 -6108 6017 0
-85 -6108 6017 0
-86 -6108 6017 0
-87 -6108 6017 0
-88 -6108 6018 0
-89 -6108 6018 0
-90 -6108 6018 0
-91 -6108 6018 0
-92 -6108 6018 0
-93 -6108 6018 0
6025 415 -6016 0
6016 415 -6025 0
6108 6025 -6016 0
6016 6025 -6108 -415 0
-415 -6108 -6016 -6025 0
6026 -6017 416 0
-6026 416 6017 0
6108 -6017 6026 0
6108 -6026 6017 0
-416 6026 6017 -6108 0
-6027 417 6018 0
6108 -6027 6018 0
6025 -109 -6109 0
6109 -109 -6025 6026 0
6025 -110 -6109 0
-117 -6109 6026 0
-118 -6109 6026 0
-119 -6109 6026 0
-120 -6109 6026 0
-121 -6109 6026 0
-122 -6109 6026 0
-123 -6109 6026 0
-124 -6109 6027 0
-125 -6109 6027 0
-126 -6109 6027 0
-127 -6109 6027 0
-128 -6109 6027 0
-129 -6109 6027 0
6034 424 -6025 0
6025 -6034 424 0
6025 6109 -6034 0
-6109 -424 -6034 -6025 0
6035 -6026 425 0
-6035 425 6026 0
6109 -6035 6026 0
-6109 -425 6026 6035 0
-6036 426 6027 0
6109 -6036 6027 0
6034 -145 -6110 0
-145 -6035 -6110 0
6110 -145 6035 -6034 0
-146 -6110 6034 0
-147 -6110 6034 0
-148 -6110 6034 0
-149 -6110 6034 0
-150 -6110 6034 0
-151 -6110 6034 0
-152 -6110 6034 0
-153 -6110 6035 0
-154 -6110 6035 0
-155 -6110 6035 0
-156 -6110 6035 0
-157 -6110 6035 0
-158 -6110 6035 0
-159 -6110 6035 0
-160 -6110 6036 0
-6037 -160 -6110 0
-161 -6110 6036 0
-161 -6110 -6038 0
-162 -6110 6036 0
-6039 -162 -6110 0
-163 -6110 6036 0
-6040 -163 -6110 0
-164 -6110 6036 0
-6041 -164 -6110 0
-165 -6110 6036 0
-6042 -165 -6110 0
-6034 6043 433 0
6034 -6043 433 0
6110 6034 -6043 0
-6110 -433 -6043 -6034 0
6044 -6035 434 0
-6044 434 6035 0
6110 -6035 6044 0
6110 -6044 6035 0
-6045 435 6036 0
6110 -6036 6045 0
6110 -6045 6036 0
-181 6043 -6111 0
-182 -6111 6043 0
-182 -6111 -6045 0
-183 6043 -6111 0
-184 6043 -6111 0
-185 6043 -6111 0
-186 6043 -6111 0
-187 6043 -6111 0
-188 6043 -6111 0
-189 -6111 6044 0
-189 -6111 -6045 0
-190 -6111 6044 0
-191 -6111 6044 0
-192 -6111 6044 0
-193 -6111 6044 0
-194 -6111 6044 0
-195 -6111 6044 0
-196 -6111 6045 0
-6046 -196 -6111 0
-197 -6111 6045 0
-6047 -197 -6111 0
-198 -6111 6045 0
-6048 -198 -6111 0
-199 -6111 6045 0
-6049 -199 -6111 0
-200 -6111 6045 0
-6050 -200 -6111 0
-201 -6111 6045 0
-6051 -201 -6111 0
6052 -6043 442 0
6043 -6052 442 0
6111 6043 -6052 0
6053 -6044 443 0
-6053 6044 443 0
-6053 6111 6044 0
-6053 -6044 -6111 -443 0
6054 -6045 444 0
-6054 444 6045 0
6111 -6045 6054 0
6111 -6054 6045 0
-217 -6112 -6053 0
-225 -6112 6053 0
-232 -6112 6054 0
-233 -6112 6054 0
-234 -6112 6054 0
-235 -6112 6054 0
-236 -6112 6054 0
-237 -6112 6054 0
6061 451 -6052 0
6052 451 -6061 0
6112 6061 -6052 0
-6053 6062 452 0
-6062 452 6053 0
-6063 453 6054 0
6112 -6063 6054 0
-253 -6062 -6113 0
-254 -6113 6061 0
-261 -6113 6062 0
-268 -6113 6063 0
-269 -6113 6063 0
-270 -6113 6063 0
-271 -6113 6063 0
-272 -6113 6063 0
-273 -6113 6063 0
6070 -6061 460 0
6061 -6070 460 0
-6113 -460 -6070 -6061 0
-6062 6071 461 0
-6071 6062 461 0
-6062 6071 6113 0
-6072 462 6063 0
6113 -6072 6063 0
-289 -6071 -6114 0
-297 -6114 6071 0
-304 -6114 6072 0
-305 -6114 6072 0
-306 -6114 6072 0
-307 -6114 6072 0
-308 -6114 6072 0
-309 -6114 6072 0
6079 -6070 469 0
6070 -6079 469 0
6114 6079 -6070 0
6080 -6071 470 0
-6080 6071 470 0
6080 -470 6071 -6114 0
471 -6081 6072 0
6114 -6081 6072 0
6079 -6115 -325 0
6079 -6115 -326 0
-327 6079 -6115 0
6079 -6115 -328 0
6079 -329 -6115 0
-6084 -329 -6115 0
6079 -330 -6115 0
-6085 -330 -6115 0
6079 -331 -6115 0
-6086 -331 -6115 0
6079 -6115 -332 0
-6087 -6115 -332 0
-333 6080 -6115 0
-340 6081 -6115 0
-341 6081 -6115 0
-342 6081 -6115 0
-343 6081 -6115 0
-344 6081 -6115 0
-345 6081 -6115 0
-6079 478 6088 0
6079 478 -6088 0
6115 -6079 6088 0
-6080 479 6089 0
6080 479 -6089 0
-6115 6080 6089 -479 0
6081 -6090 480 0
6115 6081 -6090 0
-6088 -361 6089 6116 0
-369 6089 -6116 0
-376 -6116 6090 0
-377 -6116 6090 0
-378 -6116 6090 0
-379 -6116 6090 0
-380 -6116 6090 0
-381 6090 -6116 0
487 -6088 6097 0
-6089 488 6098 0
-488 -6116 6089 6098 0
6090 489 -6099 0
6116 6090 -6099 0
6117 0
-6216 0
6118 0
-6225 -1 -6118 0
6126 6225 -6117 0
6135 406 -6126 0
6144 -6135 415 0
6153 -6144 424 0
6162 -6153 433 0
6171 -6162 442 0
6180 -6171 451 0
6189 -6180 460 0
6198 -6189 469 0
-6198 6207 478 0
487 -6207 6216 0
6236 0
-6237 0
6336 0
6238 0
6239 0
6240 0
6241 0
6242 0
6243 0
6244 0
6344 -1 6237 -6236 0
-6344 -9 -6238 0
-6344 -10 -6239 0
-6344 -11 -6240 0
-6344 -12 -6241 0
-6344 -13 -6242 0
-6344 -14 -6243 0
-6344 -15 -6244 0
-6246 398 6237 0
-6246 6344 6237 0
-398 -6344 6246 6237 0
6247 399 -6238 0
-45 -6345 6246 0
-46 -6345 6246 0
-47 -6345 6246 0
-48 -6345 6246 0
-49 -6345 6246 0
-50 -6345 6246 0
-6345 -51 6246 0
6255 407 -6246 0
-6255 407 6246 0
6345 -6255 6246 0
6256 408 -6247 0
-81 -6346 6255 0
-82 -6346 6255 0
-83 -6346 6255 0
-84 -6346 6255 0
-85 -6346 6255 0
-86 -6346 6255 0
-87 -6346 6255 0
-6255 6264 416 0
-6264 416 6255 0
6346 -6264 6255 0
6265 417 -6256 0
-6347 -110 -6265 0
-117 -6347 6264 0
-118 -6347 6264 0
-119 -6347 6264 0
-120 -6347 6264 0
-121 -6347 6264 0
-122 -6347 6264 0
-123 -6347 6264 0
-6273 425 6264 0
-6273 6347 6264 0
6272 -6348 -145 0
-153 -6348 6273 0
-154 -6348 6273 0
-155 -6348 6273 0
-156 -6348 6273 0
-157 -6348 6273 0
-158 -6348 6273 0
-159 -6348 6273 0
-6282 434 6273 0
6348 -6282 6273 0
-6349 -189 6282 0
-190 -6349 6282 0
-191 -6349 6282 0
-192 -6349 6282 0
-193 -6349 6282 0
-194 -6349 6282 0
-6349 -195 6282 0
-6291 443 6282 0
6349 -6291 6282 0
-225 -6350 6291 0
-226 -6350 6291 0
-227 -6350 6291 0
-228 -6350 6291 0
-229 -6350 6291 0
-230 -6350 6291 0
-231 -6350 6291 0
452 6291 -6300 0
6350 -6300 6291 0
-261 -6351 6300 0
-262 -6351 6300 0
-263 -6351 6300 0
-264 -6351 6300 0
-265 -6351 6300 0
-266 -6351 6300 0
-267 -6351 6300 0
-6309 6300 461 0
-6309 6351 6300 0
-6352 -297 6309 0
-298 -6352 6309 0
-299 -6352 6309 0
-300 -6352 6309 0
-301 -6352 6309 0
-302 -6352 6309 0
-303 -6352 6309 0
-6318 470 6309 0
6352 -6318 6309 0
-333 -6353 6318 0
-334 -6353 6318 0
-335 -6353 6318 0
-336 -6353 6318 0
-337 -6353 6318 0
-338 -6353 6318 0
-339 -6353 6318 0
479 6318 -6327 0
6353 6318 -6327 0
-369 -6354 6327 0
-370 -6354 6327 0
-371 -6354 6327 0
-372 -6354 6327 0
-373 -6354 6327 0
-374 -6354 6327 0
-375 -6354 6327 0
6327 488 -6336 0
6327 6354 -6336 0
6557 -405 0
6558 -414 0
-423 6559 0
-432 6560 0
-441 6561 0
-450 6562 0
-459 6563 0
-468 6564 0
-477 6565 0
6566 -486 0
6567 -495 0
6568 -6557 0
6569 -6568 0
-6558 6570 -6568 0
-6570 6571 0
-6559 -6570 0
6572 -6569 0
-6559 6571 -6569 0
-6571 6573 0
-6560 -6571 0
6574 -6572 0
-6560 6573 -6572 0
-6573 6575 0
-6561 -6573 0
6576 -6574 0
-6561 6575 -6574 0
-6575 6577 0
-6562 -6575 0
6578 -6576 0
-6562 6577 -6576 0
-6577 6579 0
-6563 -6577 0
6580 -6578 0
-6563 6579 -6578 0
-6579 6581 0
-6564 -6579 0
6582 -6580 0
-6564 6581 -6580 0
-6581 6583 0
-6565 -6581 0
6584 -6582 0
-6565 6583 -6582 0
-6583 6585 0
-6583 -6566 0
-6566 6585 -6584 0
-6585 -6567 0
6625 -405 -1603 0
-410 6626 -1608 0
6626 -414 -1612 0
-419 -1617 6627 0
6627 -423 -1621 0
-428 -1626 6628 0
-432 -1630 6628 0
-437 -1635 6629 0
-441 -1639 6629 0
-1644 6630 -446 0
6630 -450 -1648 0
-455 -1653 6631 0
-459 -1657 6631 0
-464 -1662 6632 0
-468 -1666 6632 0
-473 -1671 6633 0
-477 -1675 6633 0
-1680 6634 -482 0
6634 -1684 -486 0
-491 6635 -1689 0
6635 -495 -1693 0
6636 -6625 0
6637 -6636 0
-6626 6638 -6636 0
-6638 6639 0
-6627 -6638 0
6640 -6637 0
-6627 6639 -6637 0
-6639 6641 0
-6628 -6639 0
6642 -6640 0
-6628 6641 -6640 0
-6641 6643 0
-6629 -6641 0
6644 -6642 0
-6629 6643 -6642 0
-6643 6645 0
-6630 -6643 0
6646 -6644 0
-6630 6645 -6644 0
-6645 6647 0
-6631 -6645 0
6648 -6646 0
-6631 6647 -6646 0
-6647 6649 0
-6632 -6647 0
6650 -6648 0
-6632 6649 -6648 0
-6649 6651 0
-6633 -6649 0
6652 -6650 0
-6633 6651 -6650 0
-6651 6653 0
-6634 -6651 0
-6634 6653 -6652 0
-6653 -6635 0
9274 -398 5999 0
9274 -399 6000 0
-407 9275 6008 0
-408 9275 6009 0
-416 6017 9276 0
-417 6018 9276 0
6025 -424 9277 0
-425 6026 9277 0
-426 6027 9277 0
6034 -433 9278 0
-434 6035 9278 0
-435 6036 9278 0
6037 -436 9278 0
6038 -437 9278 0
6039 -438 9278 0
6040 -439 9278 0
6041 -440 9278 0
6042 -441 9278 0
-442 6043 9279 0
-443 6044 9279 0
-444 6045 9279 0
6046 -445 9279 0
6047 -446 9279 0
6048 -447 9279 0
6049 -448 9279 0
6050 -449 9279 0
6051 -450 9279 0
6052 -451 9280 0
6053 9280 -452 0
-453 6054 9280 0
6061 -460 9281 0
-461 6062 9281 0
-462 6063 9281 0
9282 6070 -469 0
-470 9282 6071 0
9282 -471 6072 0
6080 9283 -479 0
6081 -480 9283 0
6084 -483 9283 0
6085 -484 9283 0
6086 -485 9283 0
6087 9283 -486 0
9284 -487 6088 0
9284 -488 6089 0
-489 9284 6090 0
9285 -9274 0
9286 -9285 0
-9275 9287 -9285 0
-9287 9288 0
-9287 -9276 0
-9275 9286 0
9289 -9286 0
-9276 9288 -9286 0
-9288 9290 0
-9277 -9288 0
-9276 9289 0
9291 -9289 0
-9277 9290 -9289 0
-9290 9292 0
-9278 -9290 0
-9277 9291 0
9293 -9291 0
-9278 9292 -9291 0
-9292 9294 0
-9292 -9279 0
-9278 9293 0
9295 -9293 0
-9279 9294 -9293 0
-9294 9296 0
-9280 -9294 0
-9279 9295 0
9297 -9295 0
-9280 9296 -9295 0
-9296 9298 0
-9296 -9281 0
-9280 9297 0
9299 -9297 0
-9281 9298 -9297 0
-9298 9300 0
-9298 -9282 0
-9281 9299 0
9301 -9299 0
-9282 9300 -9299 0
-9300 9302 0
-9283 -9300 0
-9282 9301 0
-9283 9302 -9301 0
-9302 -9284 0
9338 -397 0
9338 -398 0
-406 9339 0
-407 9339 0
-415 9340 0
-416 9340 0
-424 9341 0
-425 9341 0
-433 9342 0
-434 9342 0
-442 9343 0
-443 9343 0
-451 9344 0
-452 9344 0
-460 9345 0
-461 9345 0
-469 9346 0
-470 9346 0
-478 9347 0
9347 -479 0
-487 9348 0
9348 -488 0
9349 -9338 0
9350 -9349 0
-9339 -9349 9351 0
-9351 9352 0
-9351 -9340 0
-9339 9350 0
9353 -9350 0
-9340 -9350 9352 0
-9352 9354 0
-9352 -9341 0
-9340 9353 0
9355 -9353 0
-9341 -9353 9354 0
-9354 9356 0
-9342 -9354 0
-9341 9355 0
9357 -9355 0
-9342 -9355 9356 0
-9356 9358 0
-9343 -9356 0
-9342 9357 0
-9357 9359 0
-9343 -9357 9358 0
-9358 9360 0
-9358 -9344 0
-9343 9359 0
-9359 9361 0
-9344 -9359 9360 0
-9360 9362 0
-9360 -9345 0
-9344 9361 0
-9361 9363 0
-9345 -9361 9362 0
-9362 9364 0
-9362 -9346 0
-9345 9363 0
-9363 9365 0
-9346 -9363 9364 0
-9364 9366 0
-9364 -9347 0
-9346 9365 0
-9365 9366 -9347 0
-9366 -9348 0
-16 -37 0
-17 -37 0
-18 -37 0
-19 -37 0
-20 -37 0
-21 -37 0
-22 -37 0
-23 -37 0
-24 -37 0
-25 -37 0
-37 -26 0
-37 -27 0
-37 -28 0
-29 -37 0
-37 -30 0
-31 -37 0
-32 -37 0
-37 -33 0
-34 -37 0
-37 -35 0
-37 -36 0
-52 -73 0
-53 -73 0
-54 -73 0
-55 -73 0
-56 -73 0
-57 -73 0
-58 -73 0
-58 -74 0
-59 -73 0
-59 -74 0
-60 -73 0
-60 -74 0
-61 -73 0
-61 -74 0
-73 -62 0
-74 -62 0
-63 -73 0
-63 -74 0
-64 -73 0
-64 -74 0
-65 -73 0
-65 -74 0
-66 -73 0
-66 -74 0
-67 -73 0
-67 -74 0
-68 -73 0
-68 -74 0
-69 -73 0
-69 -74 0
-70 -73 0
-70 -74 0
-71 -73 0
-71 -74 0
-73 -72 0
-74 -72 0
-82 -110 0
-83 -110 0
-84 -110 0
-85 -110 0
-86 -110 0
-87 -110 0
-88 -109 0
-89 -109 0
-90 -109 0
-91 -109 0
-92 -109 0
-93 -109 0
-94 -109 0
-94 -110 0
-94 -117 0
-95 -109 0
-95 -110 0
-95 -117 0
-96 -109 0
-96 -110 0
-96 -117 0
-97 -109 0
-97 -110 0
-97 -117 0
-98 -109 0
-98 -110 0
-98 -117 0
-99 -109 0
-99 -110 0
-99 -117 0
-100 -109 0
-100 -110 0
-100 -117 0
-101 -109 0
-101 -110 0
-101 -117 0
-102 -109 0
-102 -110 0
-102 -117 0
-103 -109 0
-103 -110 0
-103 -117 0
-104 -109 0
-104 -110 0
-104 -117 0
-105 -109 0
-105 -110 0
-105 -117 0
-106 -109 0
-106 -110 0
-106 -117 0
-107 -109 0
-107 -110 0
-107 -117 0
-108 -109 0
-108 -110 0
-108 -117 0
-124 -145 0
-125 -145 0
-126 -145 0
-127 -145 0
-128 -145 0
-129 -145 0
-130 -145 0
-130 -146 0
-131 -145 0
-131 -146 0
-132 -145 0
-132 -146 0
-133 -145 0
-133 -146 0
-134 -145 0
-134 -146 0
-135 -145 0
-135 -146 0
-136 -145 0
-136 -146 0
-137 -145 0
-137 -146 0
-138 -145 0
-138 -146 0
-139 -145 0
-139 -146 0
-140 -145 0
-140 -146 0
-141 -145 0
-141 -146 0
-142 -145 0
-142 -146 0
-143 -145 0
-143 -146 0
-144 -145 0
-144 -146 0
-154 -182 0
-155 -182 0
-156 -182 0
-157 -182 0
-158 -182 0
-159 -182 0
-181 -160 0
-181 -161 0
-181 -162 0
-181 -163 0
-181 -164 0
-181 -165 0
-166 -181 0
-166 -182 0
-166 -189 0
-167 -181 0
-167 -182 0
-167 -189 0
-168 -181 0
-168 -182 0
-168 -189 0
-169 -181 0
-169 -182 0
-169 -189 0
-170 -181 0
-170 -182 0
-170 -189 0
-171 -181 0
-171 -182 0
-171 -189 0
-172 -181 0
-172 -182 0
-172 -189 0
-173 -181 0
-173 -182 0
-173 -189 0
-174 -181 0
-174 -182 0
-174 -189 0
-175 -181 0
-175 -182 0
-175 -189 0
-176 -181 0
-176 -182 0
-176 -189 0
-177 -181 0
-177 -182 0
-177 -189 0
-178 -181 0
-178 -182 0
-178 -189 0
-179 -181 0
-179 -182 0
-179 -189 0
-180 -181 0
-180 -182 0
-180 -189 0
-196 -217 0
-217 -197 0
-198 -217 0
-199 -217 0
-200 -217 0
-201 -217 0
-202 -217 0
-202 -218 0
-202 -225 0
-203 -217 0
-203 -218 0
-203 -225 0
-204 -217 0
-204 -218 0
-204 -225 0
-205 -217 0
-205 -218 0
-205 -225 0
-206 -217 0
-206 -218 0
-206 -225 0
-207 -217 0
-207 -218 0
-207 -225 0
-208 -217 0
-208 -218 0
-208 -225 0
-209 -217 0
-209 -218 0
-209 -225 0
-210 -217 0
-210 -218 0
-210 -225 0
-211 -217 0
-211 -218 0
-211 -225 0
-212 -217 0
-212 -218 0
-212 -225 0
-213 -217 0
-213 -218 0
-213 -225 0
-214 -217 0
-214 -218 0
-214 -225 0
-215 -217 0
-215 -218 0
-215 -225 0
-216 -217 0
-216 -218 0
-216 -225 0
-232 -253 0
-233 -253 0
-234 -253 0
-235 -253 0
-236 -253 0
-237 -253 0
-238 -253 0
-238 -254 0
-238 -261 0
-239 -253 0
-239 -254 0
-239 -261 0
-240 -253 0
-240 -254 0
-240 -261 0
-241 -253 0
-241 -254 0
-241 -261 0
-242 -253 0
-242 -254 0
-242 -261 0
-243 -253 0
-243 -254 0
-243 -261 0
-244 -253 0
-244 -254 0
-244 -261 0
-245 -253 0
-245 -254 0
-245 -261 0
-246 -253 0
-246 -254 0
-246 -261 0
-247 -253 0
-247 -254 0
-247 -261 0
-248 -253 0
-248 -254 0
-248 -261 0
-249 -253 0
-249 -254 0
-249 -261 0
-250 -253 0
-250 -254 0
-250 -261 0
-251 -253 0
-251 -254 0
-251 -261 0
-252 -253 0
-252 -254 0
-252 -261 0
-268 -289 0
-269 -289 0
-270 -289 0
-289 -271 0
-272 -289 0
-273 -289 0
-274 -289 0
-274 -290 0
-274 -297 0
-275 -289 0
-275 -290 0
-275 -297 0
-276 -289 0
-276 -290 0
-276 -297 0
-277 -289 0
-277 -290 0
-277 -297 0
-278 -289 0
-278 -290 0
-278 -297 0
-279 -289 0
-279 -290 0
-279 -297 0
-280 -289 0
-280 -290 0
-280 -297 0
-281 -289 0
-281 -290 0
-281 -297 0
-282 -289 0
-282 -290 0
-282 -297 0
-283 -289 0
-283 -290 0
-283 -297 0
-284 -289 0
-284 -290 0
-284 -297 0
-285 -289 0
-285 -290 0
-285 -297 0
-286 -289 0
-286 -290 0
-286 -297 0
-287 -289 0
-287 -290 0
-287 -297 0
-288 -289 0
-288 -290 0
-288 -297 0
-304 -325 0
-305 -325 0
-306 -325 0
-307 -325 0
-308 -325 0
-309 -325 0
-310 -325 0
-310 -326 0
-311 -325 0
-311 -326 0
-312 -325 0
-312 -326 0
-313 -325 0
-313 -326 0
-314 -325 0
-314 -326 0
-315 -325 0
-315 -326 0
-316 -325 0
-316 -326 0
-317 -325 0
-317 -326 0
-318 -325 0
-318 -326 0
-319 -325 0
-319 -326 0
-320 -325 0
-320 -326 0
-321 -325 0
-321 -326 0
-322 -325 0
-322 -326 0
-323 -325 0
-323 -326 0
-324 -325 0
-324 -326 0
-340 -361 0
-341 -361 0
-342 -361 0
-343 -361 0
-344 -361 0
-345 -361 0
-346 -361 0
-346 -362 0
-347 -361 0
-347 -362 0
-348 -361 0
-348 -362 0
-349 -361 0
-349 -362 0
-350 -361 0
-350 -362 0
-351 -361 0
-351 -362 0
-352 -361 0
-352 -362 0
-353 -361 0
-353 -362 0
-354 -361 0
-354 -362 0
-355 -361 0
-355 -362 0
-356 -361 0
-356 -362 0
-357 -361 0
-357 -362 0
-358 -361 0
-358 -362 0
-359 -361 0
-359 -362 0
-360 -361 0
-360 -362 0
