p cnf 9613 837
26 25 1 3 4 5 6 7 9 10 11 12 13 14 15 8 2 16 17 18 19 20 21 22 23 24 27 28 29 30 31 32 33 34 35 36 0
397 -1 0
397 -2 0
397 -3 0
397 -4 0
397 -5 0
397 -6 0
397 -7 0
397 -8 0
398 -9 0
398 -10 0
398 -11 0
398 -12 0
398 -13 0
398 -14 0
398 -15 0
52 53 39 40 41 42 43 44 45 46 47 48 49 50 51 37 38 54 55 56 57 58 59 60 61 62 63 64 65 66 67 68 69 70 71 72 0
-37 406 0
-38 406 0
-39 406 0
-40 406 0
-41 406 0
-42 406 0
-43 406 0
-44 406 0
407 -37 0
-45 407 0
-46 407 0
-47 407 0
-48 407 0
-49 407 0
-50 407 0
-51 407 0
46 -407 45 37 47 48 49 50 51 0
89 88 81 82 77 78 79 80 75 76 83 84 85 86 87 73 74 90 91 92 93 94 95 96 97 98 99 100 101 102 103 104 105 106 107 108 0
-73 415 0
-74 415 0
-75 415 0
-76 415 0
-77 415 0
-78 415 0
-79 415 0
-80 415 0
75 -415 73 74 76 77 78 79 80 0
-81 416 0
-82 416 0
-83 416 0
-84 416 0
-85 416 0
-86 416 0
-87 416 0
82 -416 73 81 83 84 85 86 87 0
124 125 117 118 113 114 115 116 111 112 119 120 121 122 123 109 110 126 127 128 129 130 131 132 133 134 135 136 137 138 139 140 141 142 143 144 0
-109 424 0
-110 424 0
-111 424 0
-112 424 0
-113 424 0
-114 424 0
-115 424 0
-116 424 0
-117 425 0
-118 425 0
-119 425 0
-120 425 0
-121 425 0
-122 425 0
-123 425 0
118 -425 109 117 119 120 121 122 123 0
160 161 147 148 149 150 151 152 153 154 155 156 157 158 159 145 146 162 163 164 165 166 167 168 169 170 171 172 173 174 175 176 177 178 179 180 0
-145 433 0
-146 433 0
-147 433 0
-148 433 0
-149 433 0
-150 433 0
-151 433 0
-152 433 0
-153 434 0
-154 434 0
-155 434 0
-156 434 0
-157 434 0
-158 434 0
-159 434 0
153 -434 145 154 155 156 157 158 159 0
196 197 183 184 185 186 187 188 189 190 191 192 193 194 195 181 182 198 199 200 201 202 203 204 205 206 207 208 209 210 211 212 213 214 215 216 0
-181 442 0
-182 442 0
-183 442 0
-184 442 0
-185 442 0
-186 442 0
-187 442 0
-188 442 0
-181 443 0
-189 443 0
-190 443 0
-191 443 0
-192 443 0
-193 443 0
-194 443 0
-195 443 0
192 -443 181 191 189 190 193 194 195 0
232 233 219 220 221 222 223 224 225 226 227 228 229 230 231 217 218 234 235 236 237 238 239 240 241 242 243 244 245 246 247 248 249 250 251 252 0
-217 451 0
-218 451 0
-219 451 0
-220 451 0
-221 451 0
-222 451 0
-223 451 0
-224 451 0
-225 452 0
-226 452 0
-227 452 0
-228 452 0
-229 452 0
-230 452 0
-231 452 0
226 -452 217 225 227 228 229 230 231 0
253 256 269 268 257 258 259 260 254 255 263 264 265 266 267 261 262 270 271 272 273 274 275 276 277 278 279 280 281 282 283 284 285 286 287 288 0
-253 460 0
-254 460 0
-255 460 0
-256 460 0
-257 460 0
-258 460 0
-259 460 0
-260 460 0
-253 461 0
-261 461 0
-262 461 0
-263 461 0
-264 461 0
-265 461 0
-266 461 0
-267 461 0
262 -461 253 261 263 264 265 266 267 0
304 305 289 297 298 294 295 296 292 293 299 300 301 302 303 290 291 306 307 308 309 310 311 312 313 314 315 316 317 318 319 320 321 322 323 324 0
469 -289 0
-290 469 0
-291 469 0
-292 469 0
-293 469 0
-294 469 0
-295 469 0
-296 469 0
-289 470 0
-297 470 0
-298 470 0
-299 470 0
-300 470 0
-301 470 0
-302 470 0
-303 470 0
289 -470 297 298 299 300 301 302 303 0
341 340 325 328 329 330 331 332 333 334 335 336 337 338 339 326 327 342 343 344 345 346 347 348 349 350 351 352 353 354 355 356 357 358 359 360 0
-325 478 0
-326 478 0
-327 478 0
-328 478 0
-329 478 0
-330 478 0
-331 478 0
-332 478 0
479 -325 0
-333 479 0
-334 479 0
-335 479 0
-336 479 0
-337 479 0
-338 479 0
-339 479 0
334 333 325 -479 335 336 337 338 339 0
370 369 -488 361 371 372 373 374 375 0
2309 0
-2408 0
-2310 0
-2409 0
2417 -1 2310 -2309 0
397 2318 -2309 0
2417 2318 -2309 0
-2318 -2417 -397 -2309 0
398 -2319 2310 0
-398 2319 -2417 2310 0
-37 -2319 -2418 0
2327 -2318 406 0
-2327 406 2318 0
2418 2327 -2318 0
-2418 -406 2318 2327 0
-2418 -406 -2327 -2318 0
-2319 2328 407 0
-2328 2319 407 0
2418 -2319 2328 0
2418 -2328 2319 0
-2418 2328 -407 2319 0
-2419 -73 -2328 0
2336 -2327 415 0
2327 -2336 415 0
2419 2336 -2327 0
-2419 -415 2327 2336 0
-2328 2337 416 0
-2337 2328 416 0
2419 -2328 2337 0
-2419 2328 -416 2337 0
-2420 -2337 -109 0
2345 -2336 424 0
2336 -2345 424 0
2420 2345 -2336 0
2346 -2337 425 0
-2346 2337 425 0
-2420 -425 2337 2346 0
-2421 -2346 -145 0
2354 -2345 433 0
2345 -2354 433 0
2421 2354 -2345 0
2355 -2346 434 0
-2355 2346 434 0
-2421 -434 2346 2355 0
-2422 -2355 -181 0
2422 -181 -2354 2355 0
2363 -2354 442 0
2354 -2363 442 0
2422 2363 -2354 0
2364 -2355 443 0
-2364 2355 443 0
2422 -2355 2364 0
-2422 -443 2355 2364 0
-2364 -2423 -217 0
2372 -2363 451 0
2363 -2372 451 0
2423 2372 -2363 0
-2364 2373 452 0
-2373 2364 452 0
2423 -2364 2373 0
-2423 2364 -452 2373 0
-2373 -253 -2424 0
2381 -2372 460 0
2424 2381 -2372 0
2372 -2424 2381 -460 0
-2373 461 2382 0
-2382 2373 461 0
-2373 2424 2382 0
2373 -2424 -461 2382 0
2381 -289 -2425 0
-2382 -2425 -289 0
2382 2425 -289 -2381 0
2390 469 -2381 0
-2382 470 2391 0
-2391 2382 470 0
-2382 2425 2391 0
-470 -2425 2391 2382 0
-2391 -2426 -325 0
-2390 478 2399 0
2426 -2390 2399 0
-2391 479 2400 0
-2426 2391 -479 2400 0
-2400 -2427 -361 0
487 -2399 2408 0
2427 -2399 2408 0
-2400 488 2409 0
2427 -2400 2409 0
-488 -2427 2400 2409 0
5998 0
-6097 0
5999 0
6098 0
-6106 -1 -5999 0
6106 6007 -5998 0
-6007 -6106 -397 -5998 0
6106 6008 -5999 0
6016 -6007 406 0
6007 -6016 406 0
6017 -6008 407 0
6025 -6016 415 0
6108 6025 -6016 0
6026 -6017 416 0
-6108 -6026 -416 -6017 0
6026 -6109 -117 0
-118 6026 -6109 0
-119 6026 -6109 0
-120 6026 -6109 0
-121 6026 -6109 0
-122 6026 -6109 0
-123 6026 -6109 0
6034 -6025 424 0
6109 6034 -6025 0
6035 -6026 425 0
6026 -6035 425 0
-6109 -425 -6026 -6035 0
-6110 6035 -153 0
-154 -6110 6035 0
-155 -6110 6035 0
-156 -6110 6035 0
-157 -6110 6035 0
-158 -6110 6035 0
-159 -6110 6035 0
6043 -6034 433 0
6110 6043 -6034 0
6044 -6035 434 0
6035 -6044 434 0
-6110 -434 -6035 -6044 0
-189 -6111 6044 0
-190 -6111 6044 0
-6111 6044 -191 0
-192 -6111 6044 0
-193 -6111 6044 0
-194 -6111 6044 0
-195 -6111 6044 0
6052 -6043 442 0
6111 6052 -6043 0
6053 -6044 443 0
6044 -6053 443 0
-6111 -443 -6044 -6053 0
-6112 6053 -225 0
-226 -6112 6053 0
-227 -6112 6053 0
-228 -6112 6053 0
-229 -6112 6053 0
-230 -6112 6053 0
-231 -6112 6053 0
6061 -6052 451 0
6112 6061 -6052 0
6062 -6053 452 0
6053 -6062 452 0
-6112 -6053 -452 -6062 0
6070 -6061 460 0
6071 -6062 461 0
6062 -6071 461 0
6079 -6070 469 0
6114 6079 -6070 0
6080 -6071 470 0
6071 -6080 470 0
-6114 -6080 -470 -6071 0
-6079 478 6088 0
6115 -6079 6088 0
-6080 479 6089 0
6080 479 -6089 0
-6115 -6080 -479 -6089 0
487 -6088 6097 0
-6088 6116 6097 0
488 6089 -6098 0
-6089 -6116 -488 -6098 0
-6236 0
6237 0
-6336 0
397 -6245 6236 0
398 6246 -6237 0
-6345 -37 -6246 0
-6254 6245 406 0
6255 -6246 407 0
6345 6255 -6246 0
-6346 -73 -6255 0
-74 -6346 6254 0
-75 -6346 6254 0
-76 -6346 6254 0
-77 -6346 6254 0
-78 -6346 6254 0
-79 -6346 6254 0
-80 -6346 6254 0
-6263 6254 415 0
6264 -6255 416 0
6264 6346 -6255 0
-6347 -109 -6264 0
-6272 6263 424 0
-6347 -424 6263 6272 0
6273 -6264 425 0
6347 6273 -6264 0
-6348 -145 -6273 0
-6272 6348 6273 -145 0
-6281 6272 433 0
6282 -6273 434 0
6348 6282 -6273 0
-6348 6273 -434 6282 0
-6349 -181 -6282 0
-6290 6281 442 0
6291 -6282 443 0
6349 6291 -6282 0
-6350 -217 -6291 0
-6299 6290 451 0
6300 -6291 452 0
6350 6300 -6291 0
-6351 -253 -6300 0
-6308 6299 460 0
6309 -6300 461 0
6351 6309 -6300 0
-6352 -6309 -289 0
-6317 6308 469 0
-6352 6308 -469 6317 0
6318 -6309 470 0
6352 6318 -6309 0
-6353 -6318 -325 0
-6317 6318 -325 6353 0
-6318 479 6327 0
6353 -6318 6327 0
-6353 6318 -479 6327 0
-6354 -6327 -361 0
488 -6327 6336 0
-6327 6354 6336 0
6355 0
-6454 0
-6356 0
6455 0
6357 0
6358 0
6359 0
6360 0
6361 0
6362 0
6363 0
-6463 -2 -6357 0
-6463 -3 -6358 0
-6463 -4 -6359 0
-6463 -5 -6360 0
-6463 -6 -6361 0
-6463 -7 -6362 0
-6463 -8 -6363 0
-6463 -9 -6357 0
-6463 -10 -6358 0
-6463 -11 -6359 0
-6463 -12 -6360 0
-6463 -13 -6361 0
-6463 -14 -6362 0
-6463 -15 -6363 0
-6463 -16 -6358 0
-6463 -17 -6359 0
-6463 -18 -6360 0
-6463 -19 -6361 0
-6463 -20 -6362 0
-6463 -21 -6363 0
-6463 -22 -6359 0
-6463 -23 -6360 0
-6463 -24 -6361 0
-6463 -25 -6362 0
-6463 -26 -6363 0
-6463 -27 -6360 0
-6463 -28 -6361 0
-6463 -29 -6362 0
-6463 -30 -6363 0
-6463 -31 -6361 0
-6463 -32 -6362 0
-6463 -33 -6363 0
-6463 -34 -6362 0
-6463 -35 -6363 0
-6463 -36 -6363 0
397 6364 -6355 0
-6463 -6364 -397 -6355 0
398 -6365 6356 0
-6365 6463 6356 0
-45 -6464 6365 0
-46 -6464 6365 0
-47 -6464 6365 0
-48 -6464 6365 0
-49 -6464 6365 0
-50 -6464 6365 0
-51 -6464 6365 0
6373 406 -6364 0
6364 -6373 406 0
6365 407 -6374 0
6464 6365 -6374 0
-81 -6465 6374 0
-82 -6465 6374 0
-83 -6465 6374 0
-84 -6465 6374 0
-85 -6465 6374 0
-86 -6465 6374 0
-87 -6465 6374 0
6382 -6373 415 0
6373 -6382 415 0
6465 6382 -6373 0
6374 -6383 416 0
6465 6374 -6383 0
-6465 -416 -6383 -6374 0
-117 -6466 6383 0
-118 -6466 6383 0
-119 -6466 6383 0
-120 -6466 6383 0
-121 -6466 6383 0
-122 -6466 6383 0
-123 -6466 6383 0
6391 -6382 424 0
6382 -6391 424 0
6383 -6392 425 0
6466 6383 -6392 0
-153 -6467 6392 0
-154 -6467 6392 0
-155 -6467 6392 0
-156 -6467 6392 0
-157 -6467 6392 0
-158 -6467 6392 0
-159 -6467 6392 0
6400 -6391 433 0
6391 -6400 433 0
6392 -6401 434 0
6467 6392 -6401 0
-189 -6468 6401 0
-190 -6468 6401 0
-191 -6468 6401 0
-192 -6468 6401 0
-193 -6468 6401 0
-194 -6468 6401 0
-195 -6468 6401 0
6409 -6400 442 0
6400 -6409 442 0
6401 -6410 443 0
6468 6401 -6410 0
-225 -6469 6410 0
-226 -6469 6410 0
-227 -6469 6410 0
-228 -6469 6410 0
-229 -6469 6410 0
-230 -6469 6410 0
-231 -6469 6410 0
6418 -6409 451 0
6409 -6418 451 0
6410 452 -6419 0
6469 6410 -6419 0
-261 -6470 6419 0
-262 -6470 6419 0
-263 -6470 6419 0
-264 -6470 6419 0
-265 -6470 6419 0
-266 -6470 6419 0
-267 -6470 6419 0
6427 -6418 460 0
6418 460 -6427 0
461 6419 -6428 0
6470 -6428 6419 0
6427 -289 -6471 0
-297 -6471 6428 0
-298 -6471 6428 0
-299 -6471 6428 0
-300 -6471 6428 0
-301 -6471 6428 0
-302 -6471 6428 0
-303 -6471 6428 0
6436 469 -6427 0
470 6428 -6437 0
6471 -6437 6428 0
-333 -6472 6437 0
-334 -6472 6437 0
-335 -6472 6437 0
-336 -6472 6437 0
-337 -6472 6437 0
-338 -6472 6437 0
-339 -6472 6437 0
-6436 478 6445 0
479 6437 -6446 0
6472 6437 -6446 0
-369 -6473 6446 0
-370 -6473 6446 0
-371 -6473 6446 0
-372 -6473 6446 0
-373 -6473 6446 0
-374 -6473 6446 0
-375 -6473 6446 0
487 -6445 6454 0
6473 -6445 6454 0
488 6446 -6455 0
6446 6473 -6455 0
-6446 -6473 -488 -6455 0
9510 -397 0
-398 9510 0
-406 9511 0
-407 9511 0
-415 9512 0
-416 9512 0
-424 9513 0
-425 9513 0
-433 9514 0
-434 9514 0
-442 9515 0
-443 9515 0
-451 9516 0
-452 9516 0
-460 9517 0
9517 -461 0
-469 9518 0
9518 -470 0
-478 9519 0
9519 -479 0
-487 9520 0
9520 -488 0
-9510 9521 0
-9521 9522 0
-9511 -9521 9523 0
-9523 9524 0
-9523 -9512 0
-9511 9522 0
-9522 9525 0
-9512 -9522 9524 0
-9524 9526 0
-9524 -9513 0
-9512 9525 0
-9525 9527 0
-9513 -9525 9526 0
-9526 9528 0
-9526 -9514 0
-9513 9527 0
-9527 9529 0
-9514 -9527 9528 0
-9528 9530 0
-9528 -9515 0
-9514 9529 0
-9529 9531 0
-9515 -9529 9530 0
-9530 9532 0
-9530 -9516 0
-9515 9531 0
-9531 9533 0
-9516 -9531 9532 0
-9532 9534 0
-9532 -9517 0
-9516 9533 0
9535 -9533 0
-9533 -9517 9534 0
-9534 9536 0
-9534 -9518 0
9535 -9517 0
9537 -9535 0
-9535 -9518 9536 0
-9536 9538 0
-9536 -9519 0
9537 -9518 0
-9519 -9537 9538 0
-9538 -9520 0
-16 -37 0
-17 -37 0
-18 -37 0
-19 -37 0
-20 -37 0
-21 -37 0
-22 -37 0
-23 -37 0
-24 -37 0
-25 -37 0
-37 -26 0
-27 -37 0
-28 -37 0
-29 -37 0
-30 -37 0
-31 -37 0
-32 -37 0
-33 -37 0
-34 -37 0
-35 -37 0
-36 -37 0
-52 -73 0
-53 -73 0
-54 -73 0
-55 -73 0
-56 -73 0
-57 -73 0
-58 -73 0
-59 -73 0
-60 -73 0
-61 -73 0
-62 -73 0
-63 -73 0
-64 -73 0
-65 -73 0
-66 -73 0
-67 -73 0
-68 -73 0
-69 -73 0
-70 -73 0
-71 -73 0
-72 -73 0
-88 -109 0
-89 -109 0
-90 -109 0
-91 -109 0
-92 -109 0
-93 -109 0
-94 -109 0
-95 -109 0
-96 -109 0
-97 -109 0
-98 -109 0
-99 -109 0
-100 -109 0
-101 -109 0
-102 -109 0
-103 -109 0
-104 -109 0
-105 -109 0
-106 -109 0
-107 -109 0
-108 -109 0
-124 -145 0
-125 -145 0
-126 -145 0
-127 -145 0
-128 -145 0
-129 -145 0
-130 -145 0
-131 -145 0
-132 -145 0
-133 -145 0
-134 -145 0
-135 -145 0
-136 -145 0
-137 -145 0
-138 -145 0
-139 -145 0
-140 -145 0
-141 -145 0
-142 -145 0
-143 -145 0
-144 -145 0
-160 -181 0
-161 -181 0
-162 -181 0
-163 -181 0
-164 -181 0
-165 -181 0
-166 -181 0
-167 -181 0
-168 -181 0
-169 -181 0
-170 -181 0
-171 -181 0
-172 -181 0
-173 -181 0
-174 -181 0
-175 -181 0
-176 -181 0
-177 -181 0
-178 -181 0
-179 -181 0
-180 -181 0
-196 -217 0
-197 -217 0
-198 -217 0
-199 -217 0
-200 -217 0
-201 -217 0
-202 -217 0
-203 -217 0
-204 -217 0
-205 -217 0
-206 -217 0
-207 -217 0
-208 -217 0
-209 -217 0
-210 -217 0
-211 -217 0
-212 -217 0
-213 -217 0
-214 -217 0
-215 -217 0
-216 -217 0
-232 -253 0
-233 -253 0
-234 -253 0
-235 -253 0
-236 -253 0
-237 -253 0
-238 -253 0
-239 -253 0
-240 -253 0
-241 -253 0
-242 -253 0
-243 -253 0
-244 -253 0
-245 -253 0
-246 -253 0
-247 -253 0
-248 -253 0
-249 -253 0
-250 -253 0
-251 -253 0
-252 -253 0
-268 -289 0
-269 -289 0
-270 -289 0
-271 -289 0
-272 -289 0
-273 -289 0
-274 -289 0
-275 -289 0
-276 -289 0
-277 -289 0
-278 -289 0
-279 -289 0
-280 -289 0
-281 -289 0
-282 -289 0
-283 -289 0
-284 -289 0
-285 -289 0
-286 -289 0
-287 -289 0
-288 -289 0
-304 -325 0
-305 -325 0
-306 -325 0
-307 -325 0
-308 -325 0
-309 -325 0
-310 -325 0
-311 -325 0
-312 -325 0
-313 -325 0
-314 -325 0
-315 -325 0
-316 -325 0
-317 -325 0
-318 -325 0
-319 -325 0
-320 -325 0
-321 -325 0
-322 -325 0
-323 -325 0
-324 -325 0
-340 -361 0
-341 -361 0
-342 -361 0
-343 -361 0
-344 -361 0
-345 -361 0
-346 -361 0
-347 -361 0
-348 -361 0
-349 -361 0
-350 -361 0
-351 -361 0
-352 -361 0
-353 -361 0
-354 -361 0
-355 -361 0
-356 -361 0
-357 -361 0
-358 -361 0
-359 -361 0
-360 -361 0
