p cnf 9784 1541
29 26 1 5 36 3 4 6 7 35 8 9 10 11 12 13 2 14 15 19 20 32 21 22 23 24 18 27 25 30 16 17 31 28 33 34 0
397 -1 0
397 -2 0
397 -3 0
397 -4 0
397 -5 0
397 -6 0
397 -7 0
397 -8 0
-397 8 1 3 4 2 5 6 7 0
398 -1 0
398 -9 0
398 -10 0
398 -11 0
398 -12 0
398 -13 0
398 -14 0
398 -15 0
399 -18 0
-399 21 9 2 17 16 18 19 20 0
-401 29 28 4 27 11 17 22 30 0
402 -23 0
402 -27 0
-403 24 28 6 35 31 19 34 13 0
-404 29 36 7 14 32 20 25 34 0
-405 26 36 8 15 33 21 30 35 0
58 59 37 40 38 44 41 50 45 51 42 46 47 48 49 43 39 52 53 54 55 56 57 60 61 62 63 64 65 66 67 68 69 70 71 72 0
-37 406 0
-38 406 0
-39 406 0
-40 406 0
-41 406 0
-42 406 0
-43 406 0
-44 406 0
41 -406 37 39 38 40 42 43 44 0
-37 407 0
-45 407 0
-46 407 0
-47 407 0
-48 407 0
-49 407 0
-50 407 0
-51 407 0
48 49 37 -407 45 46 47 50 51 0
-38 408 0
53 -408 38 45 52 54 55 56 57 0
411 -41 0
95 94 75 76 87 86 77 78 81 79 80 82 83 84 85 73 74 92 93 88 89 90 91 96 97 98 99 100 101 102 103 104 105 106 107 108 0
566 -73 0
-74 -566 0
-74 415 0
-75 415 0
-76 415 0
-77 415 0
-78 415 0
-79 415 0
-80 415 0
-73 416 0
-81 416 0
-82 416 0
-83 416 0
-84 416 0
-85 416 0
-86 416 0
-87 416 0
84 -416 73 81 83 82 85 86 87 0
-74 417 0
-88 417 0
-89 417 0
-90 417 0
-91 417 0
-92 417 0
-93 417 0
-417 88 81 74 89 90 91 92 93 0
418 -75 0
419 -76 0
420 -77 0
421 -78 0
422 -79 0
423 -80 0
131 130 113 116 117 114 112 115 109 118 119 120 121 122 123 110 111 126 127 128 129 124 125 132 133 134 135 136 137 138 139 140 141 142 143 144 0
601 -109 0
-110 -601 0
-109 424 0
-110 424 0
-111 424 0
-112 424 0
-113 424 0
-114 424 0
-115 424 0
-116 424 0
-117 425 0
-118 425 0
-119 425 0
-120 425 0
-121 425 0
-122 425 0
-123 425 0
119 -425 118 117 109 120 121 122 123 0
-110 426 0
-124 426 0
-125 426 0
-126 426 0
-127 426 0
-128 426 0
-129 426 0
-426 124 117 110 125 126 127 128 129 0
427 -111 0
428 -112 0
429 -113 0
430 -114 0
431 -115 0
432 -116 0
167 166 147 148 149 150 151 152 153 154 155 156 157 158 159 145 146 160 161 164 165 163 162 168 169 170 171 172 173 174 175 176 177 178 179 180 0
636 -145 0
-146 -636 0
-145 433 0
-146 433 0
-147 433 0
-148 433 0
-149 433 0
-150 433 0
-151 433 0
-152 433 0
-145 434 0
-153 434 0
-154 434 0
-155 434 0
-156 434 0
-157 434 0
-158 434 0
-159 434 0
159 -434 145 153 158 154 155 156 157 0
-146 435 0
-160 435 0
-161 435 0
-162 435 0
-163 435 0
-164 435 0
-165 435 0
161 160 146 153 -435 162 163 164 165 0
436 -147 0
437 -148 0
438 -149 0
439 -150 0
440 -151 0
441 -152 0
203 202 189 183 185 186 187 188 184 190 191 192 193 194 195 181 182 198 199 200 201 196 197 204 205 206 207 208 209 210 211 212 213 214 215 216 0
671 -181 0
-182 -671 0
-181 442 0
-182 442 0
-183 442 0
-184 442 0
-185 442 0
-186 442 0
-187 442 0
-188 442 0
-189 443 0
-190 443 0
-191 443 0
-192 443 0
-193 443 0
-194 443 0
-195 443 0
190 -443 189 181 191 192 193 194 195 0
-196 444 0
-197 444 0
-198 444 0
-199 444 0
-200 444 0
-201 444 0
-444 196 182 197 189 198 199 200 201 0
239 238 217 223 224 220 221 222 225 226 227 228 229 230 231 218 219 232 235 236 237 233 234 240 241 242 243 244 245 246 247 248 249 250 251 252 0
706 -217 0
-218 -706 0
-217 451 0
-218 451 0
-219 451 0
-220 451 0
-221 451 0
-222 451 0
-223 451 0
-224 451 0
-225 452 0
-226 452 0
-227 452 0
-228 452 0
-229 452 0
-230 452 0
-231 452 0
226 -452 225 217 227 228 229 230 231 0
-232 453 0
-233 453 0
-234 453 0
-235 453 0
-236 453 0
-237 453 0
-453 232 218 233 225 234 235 236 237 0
274 275 254 256 260 258 259 257 261 262 263 264 265 266 267 253 255 268 269 270 271 272 273 276 277 278 279 280 281 282 283 284 285 286 287 288 0
741 -253 0
-254 -741 0
-254 742 0
-742 743 0
-743 744 0
-744 745 0
-745 746 0
-746 747 0
-747 748 0
-748 749 0
-261 -748 0
-749 750 0
-262 -749 0
-750 751 0
-263 -750 0
-751 752 0
-264 -751 0
-752 753 0
-265 -752 0
754 -753 0
-753 -266 0
-267 -754 0
-253 460 0
-254 460 0
-255 460 0
-256 460 0
-257 460 0
-258 460 0
-259 460 0
-260 460 0
-460 258 257 260 254 259 256 255 253 0
-253 461 0
-261 461 0
-262 461 0
-263 461 0
-264 461 0
-265 461 0
-266 461 0
-267 461 0
267 -461 266 253 261 262 263 264 265 0
-254 462 0
268 -462 254 261 269 270 271 272 273 0
463 -255 0
464 -256 0
465 -257 0
466 -258 0
467 -259 0
468 -260 0
292 291 305 304 293 294 295 296 297 298 299 300 301 302 303 289 290 306 307 308 309 310 311 312 313 314 315 316 317 318 319 320 321 322 323 324 0
-289 469 0
-290 469 0
-291 469 0
-292 469 0
-293 469 0
-294 469 0
-295 469 0
-296 469 0
-297 470 0
-298 470 0
-299 470 0
-300 470 0
-301 470 0
-302 470 0
-303 470 0
298 -470 297 289 302 300 301 299 303 0
-471 290 306 305 297 304 307 308 309 0
326 341 325 340 329 330 331 332 333 334 335 336 337 338 339 327 328 342 343 344 345 346 347 348 349 350 351 352 353 354 355 356 357 358 359 360 0
811 -325 0
812 -811 0
-326 -811 0
813 -812 0
814 -813 0
815 -814 0
816 -815 0
817 -816 0
818 -817 0
819 -818 0
820 -819 0
821 -820 0
822 -821 0
823 -822 0
824 -823 0
825 -824 0
826 -825 0
-340 -825 0
827 -826 0
-341 -826 0
828 -827 0
-342 -827 0
829 -828 0
-343 -828 0
830 -829 0
-344 -829 0
-345 -830 0
478 -325 0
-326 478 0
-327 478 0
-328 478 0
-329 478 0
-330 478 0
-331 478 0
-332 478 0
-333 479 0
-334 479 0
-335 479 0
-336 479 0
-337 479 0
-338 479 0
-339 479 0
334 -479 333 325 335 336 337 338 339 0
-480 344 333 326 341 340 343 342 345 0
-362 487 0
-369 488 0
370 361 369 -488 371 372 373 374 375 0
376 380 362 369 -489 377 378 379 381 0
-1595 0
-1694 0
-1596 0
-1695 0
1597 0
-1696 0
397 -1604 1595 0
398 -1605 1596 0
399 1606 -1597 0
-1613 406 1604 0
-1614 1605 407 0
1615 408 -1606 0
-1622 1613 415 0
-1623 1614 416 0
1624 -1615 417 0
-1631 1622 424 0
-1632 1623 425 0
1633 -1624 426 0
-1640 1631 433 0
-1641 1632 434 0
1642 -1633 435 0
-1649 1640 442 0
-1650 1641 443 0
1651 -1642 444 0
-1658 1649 451 0
-1659 1650 452 0
1660 -1651 453 0
-1667 1658 460 0
-1668 1659 461 0
1669 -1660 462 0
-1676 1667 469 0
-1711 1667 1676 -469 0
-1677 1668 470 0
1678 -1669 471 0
1678 -1669 1711 0
-1676 1712 1685 0
-1712 1676 -478 1685 0
1677 479 -1686 0
-1712 1677 -479 1686 0
1687 -1678 480 0
1687 1712 -1678 0
487 -1685 1694 0
1713 -1685 1694 0
488 -1686 1695 0
-488 -1713 1686 1695 0
-1687 489 1696 0
-1687 1713 1696 0
2309 0
-2408 0
-2310 0
-2409 0
-1 2417 2310 -2309 0
397 2318 -2309 0
-2318 -2417 -397 -2309 0
398 -2319 2310 0
-398 2319 -2417 2310 0
-2418 -37 -2319 0
-45 -2418 2319 0
-46 -2418 2319 0
-47 -2418 2319 0
-2418 2319 -48 0
-49 -2418 2319 0
-50 -2418 2319 0
-51 -2418 2319 0
2327 406 -2318 0
-2327 2318 406 0
2418 2327 -2318 0
2328 -2319 407 0
-2328 2319 407 0
2418 -2328 2319 0
-2418 2319 -407 2328 0
2336 -2327 415 0
2327 -2336 415 0
2419 2336 -2327 0
2337 -2328 416 0
-2337 2328 416 0
-2419 -416 2328 2337 0
2345 -2336 424 0
2336 -2345 424 0
-2337 2346 425 0
-2346 2337 425 0
2354 -2345 433 0
2345 -2354 433 0
-2346 2355 434 0
-2355 2346 434 0
2363 -2354 442 0
2354 -2363 442 0
-2422 2354 -442 2363 0
-2355 2364 443 0
-2364 2355 443 0
2422 -2355 2364 0
2372 -2363 451 0
2363 -2372 451 0
-2364 2373 452 0
-2373 2364 452 0
2381 -2372 460 0
2372 -2381 460 0
2424 2381 -2372 0
-2373 2382 461 0
-2424 -461 2373 2382 0
-2425 2381 -289 0
-289 -2382 -2425 0
2390 -2381 469 0
-2390 2381 469 0
2425 2390 -2381 0
-2425 2381 -469 2390 0
-2382 2391 470 0
2425 -2382 2391 0
2382 -2425 -470 2391 0
-2390 2399 478 0
-2426 2390 -478 2399 0
-2391 479 2400 0
2426 -2391 2400 0
487 -2399 2408 0
488 -2400 2409 0
2785 0
-2884 0
-2786 0
-2885 0
2787 0
397 2794 -2785 0
398 -2795 2786 0
399 2796 -2787 0
2803 406 -2794 0
-2804 2795 407 0
2805 408 -2796 0
-2895 -74 -2805 0
2812 -2803 415 0
2895 2812 -2803 0
-2813 2804 416 0
2814 417 -2805 0
-109 2896 2813 -2812 0
2821 -2812 424 0
-2822 2813 425 0
-2896 -425 2822 2813 0
2823 -2814 426 0
2830 -2821 433 0
-2822 2831 434 0
-2831 2822 434 0
2832 -2823 435 0
2839 -2830 442 0
-2831 2840 443 0
-2840 2831 443 0
2841 -2832 444 0
2848 -2839 451 0
-2840 2849 452 0
-2849 2840 452 0
2850 -2841 453 0
2857 -2848 460 0
-2849 2858 461 0
-2858 2849 461 0
2859 -2850 462 0
-290 -2859 -2901 0
-2857 2866 469 0
2901 -2857 2866 0
-2858 2867 470 0
-2867 2858 470 0
-2866 2875 478 0
-2866 2902 2875 0
-2867 479 2876 0
-2902 2867 -479 2876 0
487 -2875 2884 0
488 -2876 2885 0
3261 0
-3360 0
-3262 0
-3361 0
397 3270 -3261 0
398 -3271 3262 0
3370 3279 -3270 0
-3280 3271 407 0
3371 3288 -3279 0
-3371 -416 3280 3289 0
3297 -3288 424 0
-3289 3298 425 0
3306 -3297 433 0
-3298 3307 434 0
3315 -3306 442 0
-3307 3316 443 0
3324 -3315 451 0
-3316 3325 452 0
-3324 3333 460 0
-3325 3334 461 0
-3333 3342 469 0
-3334 3343 470 0
-3342 3351 478 0
-3343 479 3352 0
487 -3351 3360 0
488 -3352 3361 0
4451 0
-4550 0
-4452 0
-4551 0
4454 0
4455 0
4456 0
-4559 -23 -4456 0
-4559 -27 -4456 0
397 4460 -4451 0
398 -4461 4452 0
4559 4463 -4454 0
4559 4464 -4455 0
-39 -4463 -4560 0
-40 -4464 -4560 0
4560 4469 -4460 0
-4470 4461 407 0
4561 4478 -4469 0
-4561 -416 4470 4479 0
4487 -4478 424 0
-4479 4488 425 0
4496 -4487 433 0
-4488 4497 434 0
4505 -4496 442 0
-4497 4506 443 0
4514 -4505 451 0
-4506 4515 452 0
-4514 4523 460 0
-4515 4524 461 0
-4523 4532 469 0
-4524 4533 470 0
-4532 4541 478 0
-4533 479 4542 0
487 -4541 4550 0
488 -4542 4551 0
5403 0
-5502 0
5404 0
5503 0
5405 0
5406 0
5407 0
-5408 0
5409 0
5410 0
5411 0
-5511 -1 -5404 0
-5511 -2 -5405 0
-5511 -3 -5406 0
-5511 -4 -5407 0
-5511 -6 -5409 0
-5511 -7 -5410 0
-5511 -8 -5411 0
-5511 -16 -5406 0
-5511 -17 -5407 0
-5511 -19 -5409 0
-5511 -20 -5410 0
-5511 -21 -5411 0
-5511 -22 -5407 0
-5511 -24 -5409 0
-5511 -25 -5410 0
-5511 -26 -5411 0
-5511 -28 -5409 0
-5511 -29 -5410 0
-5511 -30 -5411 0
-5511 -31 -5409 0
-5511 -32 -5410 0
-5511 -33 -5411 0
-5511 -34 -5410 0
-5511 -35 -5411 0
-36 -5511 -5411 0
397 5412 -5403 0
5511 5412 -5403 0
-5412 -397 -5511 -5403 0
398 5413 -5404 0
5511 5413 -5404 0
-5413 -398 -5511 -5404 0
399 5414 -5405 0
5511 5414 -5405 0
5511 5415 -5406 0
401 5416 -5407 0
5511 5416 -5407 0
-402 5417 -5511 5408 0
403 5418 -5409 0
5511 5418 -5409 0
404 5419 -5410 0
5511 5419 -5410 0
405 5420 -5411 0
5511 5420 -5411 0
-38 -5512 -5414 0
-39 -5512 -5415 0
-40 -5512 -5416 0
-41 -5417 -5512 0
-42 -5512 -5418 0
-43 -5512 -5419 0
-44 -5512 -5420 0
-45 -5512 5413 0
-46 -5512 5413 0
-47 -5512 5413 0
-5512 -48 5413 0
-49 -5512 5413 0
-50 -5512 5413 0
-51 -5512 5413 0
5421 406 -5412 0
5512 5421 -5412 0
-5512 -406 5412 5421 0
5422 407 -5413 0
5512 -5422 5413 0
-5512 -407 -5413 -5422 0
5430 -5421 415 0
5513 5430 -5421 0
5431 -5422 416 0
-5431 5422 416 0
-5513 -416 -5431 -5422 0
5439 -5430 424 0
5514 5439 -5430 0
5431 -5440 425 0
-5514 -5440 -425 -5431 0
5448 -5439 433 0
5440 -5449 434 0
5457 -5448 442 0
5449 -5458 443 0
5466 -5457 451 0
5458 -5467 452 0
5475 -5466 460 0
5467 -5476 461 0
-297 -5519 5476 0
-298 -5519 5476 0
-299 -5519 5476 0
-300 -5519 5476 0
-301 -5519 5476 0
-302 -5519 5476 0
-303 -5519 5476 0
5484 -5475 469 0
5519 5484 -5475 0
5476 -5485 470 0
-5476 -5519 -470 -5485 0
-5484 5493 478 0
5485 479 -5494 0
487 -5493 5502 0
488 5494 -5503 0
-5740 0
-5741 0
5677 -5668 424 0
-5669 5678 425 0
5686 -5677 433 0
-5678 5687 434 0
5695 -5686 442 0
-5687 5696 443 0
5704 -5695 451 0
-5696 5705 452 0
-5704 5713 460 0
-5705 5714 461 0
-5713 5722 469 0
-5714 5723 470 0
-5722 5731 478 0
-5723 5732 479 0
487 -5731 5740 0
488 -5732 5741 0
6355 0
-6454 0
-6356 0
-6455 0
-6357 0
6456 0
6358 0
6359 0
6360 0
6361 0
6362 0
6363 0
6463 -1 6356 -6355 0
-6463 -5 -6360 0
-6463 -9 6356 0
-6463 -16 -6358 0
-6463 -17 -6359 0
-6463 -18 -6360 0
-6463 -19 -6361 0
-6463 -20 -6362 0
-6463 -21 -6363 0
397 6364 -6355 0
6463 6364 -6355 0
-6463 -6364 -397 -6355 0
398 -6365 6356 0
-398 -6463 6365 6356 0
399 -6366 6357 0
-6366 6463 6357 0
-41 -6369 -6464 0
-52 -6464 6366 0
-53 -6464 6366 0
-54 -6464 6366 0
-55 -6464 6366 0
-56 -6464 6366 0
-57 -6464 6366 0
6373 406 -6364 0
-6373 6364 406 0
6464 6373 -6364 0
-406 -6464 6364 6373 0
6374 -6365 407 0
-6374 407 6365 0
6464 -6365 6374 0
-6464 -407 6365 6374 0
-6375 408 6366 0
6464 -6375 6366 0
-6376 -75 -6465 0
-76 -6377 -6465 0
-6378 -77 -6465 0
-78 -6379 -6465 0
-79 -6380 -6465 0
-80 -6381 -6465 0
-81 -6465 6374 0
-82 -6465 6374 0
-6465 -83 6374 0
-84 -6465 6374 0
-85 -6465 6374 0
-86 -6465 6374 0
-87 -6465 6374 0
-88 -6465 6375 0
-89 -6465 6375 0
-90 -6465 6375 0
-91 -6465 6375 0
-92 -6465 6375 0
-93 -6465 6375 0
6382 -6373 415 0
6373 -6382 415 0
6465 6382 -6373 0
6383 -6374 416 0
-6383 6374 416 0
6465 -6383 6374 0
-6465 -416 6383 6374 0
417 6375 -6384 0
6465 6375 -6384 0
-6385 -111 -6466 0
-6386 -112 -6466 0
-6387 -113 -6466 0
-6388 -114 -6466 0
-6389 -115 -6466 0
-6390 -116 -6466 0
-124 -6466 6384 0
-125 -6466 6384 0
-126 -6466 6384 0
-127 -6466 6384 0
-128 -6466 6384 0
-129 -6466 6384 0
6391 -6382 424 0
6382 -6391 424 0
6466 6391 -6382 0
-6383 6392 425 0
-6392 6383 425 0
-6466 -425 6392 6383 0
-6393 426 6384 0
6466 -6393 6384 0
-6392 -145 -6467 0
-6394 -147 -6467 0
-6395 -148 -6467 0
-6396 -149 -6467 0
-6397 -150 -6467 0
-6398 -151 -6467 0
-6399 -152 -6467 0
-153 -6467 6392 0
-154 6392 -6467 0
-155 6392 -6467 0
-156 6392 -6467 0
-157 6392 -6467 0
-6467 -158 6392 0
-159 6392 -6467 0
-160 -6467 6393 0
-161 -6467 6393 0
-162 -6467 6393 0
-163 -6467 6393 0
-164 -6467 6393 0
-165 -6467 6393 0
6400 -6391 433 0
6391 -6400 433 0
6467 6400 -6391 0
6391 6400 -6467 -433 0
-6392 6401 434 0
-6401 6392 434 0
-6401 6467 6392 0
-6467 -434 6401 6392 0
435 -6402 6393 0
6467 -6402 6393 0
6468 -181 -6400 6401 0
-189 -6468 6401 0
-196 -6468 6402 0
-197 -6468 6402 0
-198 -6468 6402 0
-199 -6468 6402 0
-200 -6468 6402 0
-201 -6468 6402 0
6409 -6400 442 0
6400 -6409 442 0
-442 -6409 -6468 -6400 0
6410 -6401 443 0
-6410 6401 443 0
-443 6410 -6468 6401 0
-6401 -443 -6468 -6410 0
444 -6411 6402 0
6468 -6411 6402 0
6409 -217 -6469 0
-6410 -217 -6469 0
-225 -6469 6410 0
-232 -6469 6411 0
-233 -6469 6411 0
-234 -6469 6411 0
-235 -6469 6411 0
-236 -6469 6411 0
-237 -6469 6411 0
6418 -6409 451 0
6409 -6418 451 0
6469 6418 -6409 0
6409 6418 -451 -6469 0
-6410 6419 452 0
-6419 6410 452 0
6469 -6410 6419 0
-6420 453 6411 0
6469 -6420 6411 0
-6419 -253 -6470 0
-253 -6418 6470 6419 0
-6421 -255 -6470 0
-6422 -256 -6470 0
-6423 -257 -6470 0
-6424 -258 -6470 0
-6425 -259 -6470 0
-6426 -260 -6470 0
-268 -6470 6420 0
-269 -6470 6420 0
-270 -6470 6420 0
-271 -6470 6420 0
-272 -6470 6420 0
-273 -6470 6420 0
6427 -6418 460 0
6418 -6427 460 0
6470 6427 -6418 0
6418 -460 6427 -6470 0
-6419 6428 461 0
-6428 6419 461 0
-6419 6470 6428 0
-6470 -461 6419 6428 0
-6429 462 6420 0
-6429 6470 6420 0
6471 -289 -6427 6428 0
-6471 6428 -297 0
-298 -6471 6428 0
-299 -6471 6428 0
-300 -6471 6428 0
-301 -6471 6428 0
-302 -6471 6428 0
-303 -6471 6428 0
-304 -6471 6429 0
-305 -6471 6429 0
-306 -6471 6429 0
-307 -6471 6429 0
-308 -6471 6429 0
-309 -6471 6429 0
-6427 6436 469 0
-6436 6427 469 0
6471 -6427 6436 0
-6428 6437 470 0
-6437 6428 470 0
-6437 6471 6428 0
-6471 6428 -470 6437 0
-6438 471 6429 0
-6438 6471 6429 0
-340 -6472 6438 0
-341 -6472 6438 0
-342 -6472 6438 0
-343 -6472 6438 0
-344 -6472 6438 0
-345 -6472 6438 0
-6436 478 6445 0
6436 478 -6445 0
-6436 6472 6445 0
-6437 479 6446 0
-6472 6437 -479 6446 0
-6447 6438 480 0
-6447 6472 6438 0
-6473 -361 -6446 0
-376 6447 -6473 0
-377 6447 -6473 0
-378 6447 -6473 0
-379 6447 -6473 0
-380 6447 -6473 0
-381 6447 -6473 0
487 -6445 6454 0
6473 -6445 6454 0
-6473 -487 6445 6454 0
-6446 488 6455 0
6473 -6446 6455 0
-488 -6473 6446 6455 0
6447 489 -6456 0
6447 6473 -6456 0
6474 0
-6475 0
6574 0
6476 0
6477 0
6478 0
6479 0
6480 0
6481 0
6482 0
-6582 -2 -6476 0
-6582 -3 -6477 0
-6582 -4 -6478 0
-6582 -5 -6479 0
-6582 -6 -6480 0
-6582 -7 -6481 0
-6582 -8 -6482 0
-6582 -9 -6476 0
-6582 -10 -6477 0
-6582 -11 -6478 0
-6582 -12 -6479 0
-6582 -13 -6480 0
-6582 -14 -6481 0
-6582 -15 -6482 0
-6582 -16 -6477 0
-6582 -17 -6478 0
-6582 -18 -6479 0
-6582 -19 -6480 0
-6582 -20 -6481 0
-6582 -21 -6482 0
-6582 -22 -6478 0
-6582 -23 -6479 0
-6582 -24 -6480 0
-6582 -25 -6481 0
-6582 -26 -6482 0
-6582 -27 -6479 0
-6582 -28 -6480 0
-6582 -29 -6481 0
-6582 -30 -6482 0
-6582 -31 -6480 0
-6582 -32 -6481 0
-6582 -33 -6482 0
-6582 -34 -6481 0
-6582 -35 -6482 0
-6582 -36 -6482 0
397 6483 -6474 0
-6484 398 6475 0
-6484 6582 6475 0
6583 -37 6484 -6483 0
-45 -6583 6484 0
-46 -6583 6484 0
-47 -6583 6484 0
-48 -6583 6484 0
-49 -6583 6484 0
-50 -6583 6484 0
-51 -6583 6484 0
6492 406 -6483 0
407 -6493 6484 0
6583 -6493 6484 0
-6583 6493 -407 6484 0
-73 6584 6493 -6492 0
-81 -6584 6493 0
-82 -6584 6493 0
-83 -6584 6493 0
-84 -6584 6493 0
-85 -6584 6493 0
-86 -6584 6493 0
-87 -6584 6493 0
6501 -6492 415 0
-6502 416 6493 0
6584 -6502 6493 0
-416 6502 6493 -6584 0
-117 -6585 6502 0
-118 -6585 6502 0
-119 -6585 6502 0
-120 -6585 6502 0
-121 -6585 6502 0
-122 -6585 6502 0
-123 -6585 6502 0
6510 -6501 424 0
-6511 6502 425 0
6585 -6511 6502 0
-153 -6586 6511 0
-154 -6586 6511 0
-155 -6586 6511 0
-156 -6586 6511 0
-157 -6586 6511 0
-158 -6586 6511 0
-159 -6586 6511 0
6519 -6510 433 0
-6520 6511 434 0
6586 -6520 6511 0
-189 -6587 6520 0
-190 -6587 6520 0
-191 -6587 6520 0
-192 -6587 6520 0
-193 -6587 6520 0
-194 -6587 6520 0
-195 -6587 6520 0
6528 -6519 442 0
-6529 6520 443 0
6587 -6529 6520 0
-225 -6588 6529 0
-226 -6588 6529 0
-227 -6588 6529 0
-228 -6588 6529 0
-229 -6588 6529 0
-230 -6588 6529 0
-231 -6588 6529 0
6537 -6528 451 0
6529 -6538 452 0
6588 6529 -6538 0
-261 -6589 6538 0
-262 -6589 6538 0
-263 -6589 6538 0
-264 -6589 6538 0
-265 -6589 6538 0
-266 -6589 6538 0
-267 -6589 6538 0
6546 -6537 460 0
6538 -6547 461 0
6589 6538 -6547 0
-289 6590 -6546 6547 0
-6590 6547 -297 0
-298 -6590 6547 0
-299 -6590 6547 0
-300 -6590 6547 0
-301 -6590 6547 0
-302 -6590 6547 0
-303 -6590 6547 0
6547 -6556 470 0
6590 6547 -6556 0
-6590 6547 6556 -470 0
-333 -6591 6556 0
-334 -6591 6556 0
-335 -6591 6556 0
-336 -6591 6556 0
-337 -6591 6556 0
-338 -6591 6556 0
-339 -6591 6556 0
479 6556 -6565 0
6591 6556 -6565 0
-369 -6592 6565 0
-370 -6592 6565 0
-371 -6592 6565 0
-372 -6592 6565 0
-373 -6592 6565 0
-374 -6592 6565 0
-375 -6592 6565 0
6565 488 -6574 0
6565 6592 -6574 0
-398 9652 6356 0
9652 -399 6357 0
9653 -407 6365 0
-408 9653 6366 0
6369 -411 9653 0
9654 -416 6374 0
-417 6375 9654 0
6376 -418 9654 0
6377 -419 9654 0
6378 -420 9654 0
6379 -421 9654 0
6380 -422 9654 0
6381 -423 9654 0
6382 -424 9655 0
9655 -425 6383 0
-426 6384 9655 0
6385 -427 9655 0
6386 -428 9655 0
6387 -429 9655 0
6388 -430 9655 0
6389 -431 9655 0
6390 -432 9655 0
6391 -433 9656 0
9656 -434 6392 0
9656 -435 6393 0
6394 -436 9656 0
6395 -437 9656 0
6396 -438 9656 0
6397 -439 9656 0
6398 -440 9656 0
6399 -441 9656 0
-443 6401 9657 0
-444 6402 9657 0
9658 -452 6410 0
-453 6411 9658 0
9659 -461 6419 0
6420 9659 -462 0
6421 -463 9659 0
6422 -464 9659 0
6423 -465 9659 0
6424 -466 9659 0
6425 -467 9659 0
6426 -468 9659 0
9660 6428 -470 0
-471 6429 9660 0
9661 6437 -479 0
-480 6438 9661 0
9662 -488 6446 0
6447 9662 -489 0
9663 -9652 0
9664 -9663 0
-9653 9665 -9663 0
-9665 9666 0
-9665 -9654 0
-9653 9664 0
9667 -9664 0
-9654 9666 -9664 0
-9666 9668 0
-9666 -9655 0
-9654 9667 0
9669 -9667 0
9668 -9655 -9667 0
-9668 9670 0
-9668 -9656 0
9669 -9655 0
9671 -9669 0
9670 -9656 -9669 0
-9670 9672 0
-9670 -9657 0
9671 -9656 0
9673 -9671 0
-9657 9672 -9671 0
-9672 9674 0
-9672 -9658 0
-9657 9673 0
9675 -9673 0
-9658 9674 -9673 0
-9674 9676 0
-9674 -9659 0
-9658 9675 0
9677 -9675 0
-9659 9676 -9675 0
-9676 9678 0
-9676 -9660 0
-9659 9677 0
9679 -9677 0
-9660 9678 -9677 0
-9678 9680 0
-9678 -9661 0
9679 -9660 0
9680 -9661 -9679 0
-9662 -9680 0
-397 9681 0
9681 -398 0
-406 9682 0
9682 -407 0
-415 9683 0
-416 9683 0
-424 9684 0
-425 9684 0
-433 9685 0
-434 9685 0
-442 9686 0
-443 9686 0
-451 9687 0
-452 9687 0
-460 9688 0
-461 9688 0
-469 9689 0
-470 9689 0
-478 9690 0
9690 -479 0
-487 9691 0
9691 -488 0
9692 -9681 0
9693 -9692 0
-9682 9694 -9692 0
-9694 9695 0
-9694 -9683 0
9693 -9682 0
9696 -9693 0
-9683 9695 -9693 0
-9695 9697 0
-9695 -9684 0
-9683 9696 0
9698 -9696 0
-9684 9697 -9696 0
-9697 9699 0
-9697 -9685 0
-9684 9698 0
9700 -9698 0
-9685 9699 -9698 0
-9699 9701 0
-9699 -9686 0
-9685 9700 0
9702 -9700 0
-9686 9701 -9700 0
-9701 9703 0
-9701 -9687 0
-9686 9702 0
9704 -9702 0
-9687 9703 -9702 0
-9703 9705 0
-9703 -9688 0
-9687 9704 0
9706 -9704 0
-9688 9705 -9704 0
-9705 9707 0
-9705 -9689 0
-9688 9706 0
9708 -9706 0
-9689 9707 -9706 0
-9707 9709 0
-9707 -9690 0
-9689 9708 0
9709 -9690 -9708 0
-9709 -9691 0
-398 9710 6475 0
9713 -425 6502 0
9715 -443 6520 0
9716 -452 6529 0
9717 -461 6538 0
9718 6547 -470 0
9721 -9710 0
9722 -9721 0
9725 -9722 0
9727 -9725 0
9727 -9713 0
9729 -9727 0
9731 -9729 0
-9715 9731 0
9733 -9731 0
9733 -9716 0
9735 -9733 0
-9717 9734 -9733 0
-9734 -9718 0
9737 -9735 0
-16 -37 0
-17 -37 0
-18 -37 0
-19 -37 0
-20 -37 0
-21 -37 0
-22 -37 0
-23 -37 0
-24 -37 0
-25 -37 0
-26 -37 0
-27 -37 0
-38 -27 0
-28 -37 0
-37 -29 0
-30 -37 0
-31 -37 0
-32 -37 0
-33 -37 0
-34 -37 0
-35 -37 0
-36 -37 0
-52 -73 0
-53 -73 0
-54 -73 0
-55 -73 0
-56 -73 0
-57 -73 0
-58 -73 0
-59 -73 0
-60 -73 0
-61 -73 0
-62 -73 0
-63 -73 0
-64 -73 0
-65 -73 0
-66 -73 0
-67 -73 0
-68 -73 0
-69 -73 0
-70 -73 0
-71 -73 0
-72 -73 0
-88 -109 0
-89 -109 0
-90 -109 0
-91 -109 0
-92 -109 0
-93 -109 0
-94 -109 0
-94 -110 0
-94 -117 0
-95 -109 0
-95 -110 0
-95 -117 0
-96 -109 0
-96 -110 0
-96 -117 0
-97 -109 0
-97 -110 0
-97 -117 0
-98 -109 0
-98 -110 0
-98 -117 0
-99 -109 0
-99 -110 0
-99 -117 0
-100 -109 0
-100 -110 0
-100 -117 0
-101 -109 0
-101 -110 0
-101 -117 0
-102 -109 0
-102 -110 0
-102 -117 0
-103 -109 0
-103 -110 0
-103 -117 0
-104 -109 0
-104 -110 0
-104 -117 0
-105 -109 0
-105 -110 0
-105 -117 0
-106 -109 0
-106 -110 0
-106 -117 0
-107 -109 0
-107 -110 0
-107 -117 0
-108 -109 0
-108 -110 0
-108 -117 0
-124 -145 0
-125 -145 0
-126 -145 0
-127 -145 0
-128 -145 0
-129 -145 0
-130 -145 0
-130 -146 0
-131 -145 0
-131 -146 0
-132 -145 0
-132 -146 0
-133 -145 0
-133 -146 0
-134 -145 0
-134 -146 0
-135 -145 0
-135 -146 0
-136 -145 0
-136 -146 0
-137 -145 0
-137 -146 0
-138 -145 0
-138 -146 0
-139 -145 0
-139 -146 0
-140 -145 0
-140 -146 0
-141 -145 0
-141 -146 0
-142 -145 0
-142 -146 0
-143 -145 0
-143 -146 0
-144 -145 0
-144 -146 0
-160 -181 0
-161 -181 0
-162 -181 0
-163 -181 0
-164 -181 0
-165 -181 0
-166 -181 0
-166 -182 0
-166 -189 0
-167 -181 0
-167 -182 0
-167 -189 0
-168 -181 0
-168 -182 0
-168 -189 0
-169 -181 0
-169 -182 0
-169 -189 0
-170 -181 0
-170 -182 0
-170 -189 0
-171 -181 0
-171 -182 0
-171 -189 0
-172 -181 0
-172 -182 0
-172 -189 0
-173 -181 0
-173 -182 0
-173 -189 0
-174 -181 0
-174 -182 0
-174 -189 0
-175 -181 0
-175 -182 0
-175 -189 0
-176 -181 0
-176 -182 0
-176 -189 0
-177 -181 0
-177 -182 0
-177 -189 0
-178 -181 0
-178 -182 0
-178 -189 0
-179 -181 0
-179 -182 0
-179 -189 0
-180 -181 0
-180 -182 0
-180 -189 0
-217 -196 0
-197 -217 0
-198 -217 0
-199 -217 0
-200 -217 0
-201 -217 0
-202 -217 0
-202 -218 0
-203 -217 0
-203 -218 0
-204 -217 0
-204 -218 0
-205 -217 0
-205 -218 0
-206 -217 0
-206 -218 0
-207 -217 0
-207 -218 0
-208 -217 0
-208 -218 0
-209 -217 0
-209 -218 0
-210 -217 0
-210 -218 0
-211 -217 0
-211 -218 0
-212 -217 0
-212 -218 0
-213 -217 0
-213 -218 0
-214 -217 0
-214 -218 0
-215 -217 0
-215 -218 0
-216 -217 0
-216 -218 0
-232 -253 0
-233 -253 0
-234 -253 0
-235 -253 0
-236 -253 0
-237 -253 0
-238 -253 0
-238 -254 0
-239 -253 0
-239 -254 0
-240 -253 0
-240 -254 0
-241 -253 0
-241 -254 0
-242 -253 0
-242 -254 0
-243 -253 0
-243 -254 0
-244 -253 0
-244 -254 0
-245 -253 0
-245 -254 0
-246 -253 0
-246 -254 0
-247 -253 0
-247 -254 0
-248 -253 0
-248 -254 0
-249 -253 0
-249 -254 0
-250 -253 0
-250 -254 0
-251 -253 0
-251 -254 0
-252 -253 0
-252 -254 0
-268 -289 0
-269 -289 0
-270 -289 0
-271 -289 0
-272 -289 0
-273 -289 0
-274 -289 0
-275 -289 0
-276 -289 0
-277 -289 0
-278 -289 0
-279 -289 0
-280 -289 0
-281 -289 0
-282 -289 0
-283 -289 0
-284 -289 0
-285 -289 0
-286 -289 0
-287 -289 0
-288 -289 0
-304 -325 0
-305 -325 0
-306 -325 0
-307 -325 0
-308 -325 0
-309 -325 0
-310 -325 0
-311 -325 0
-312 -325 0
-313 -325 0
-314 -325 0
-315 -325 0
-316 -325 0
-317 -325 0
-318 -325 0
-319 -325 0
-320 -325 0
-321 -325 0
-322 -325 0
-323 -325 0
-324 -325 0
-340 -361 0
-341 -361 0
-342 -361 0
-343 -361 0
-344 -361 0
-345 -361 0
-346 -361 0
-347 -361 0
-348 -361 0
-349 -361 0
-350 -361 0
-351 -361 0
-352 -361 0
-353 -361 0
-354 -361 0
-355 -361 0
-356 -361 0
-357 -361 0
-358 -361 0
-359 -361 0
-360 -361 0
