p cnf 9940 1683
15 14 1 3 4 5 6 7 8 22 29 9 10 11 12 2 13 16 17 18 19 20 21 23 24 25 26 27 28 30 31 32 33 34 35 36 0
397 -1 0
397 -2 0
397 -3 0
397 -4 0
397 -5 0
397 -6 0
397 -7 0
397 -8 0
398 -1 0
398 -9 0
398 -10 0
398 -11 0
398 -12 0
398 -13 0
398 -14 0
398 -15 0
399 -2 0
-399 9 2 16 17 18 19 20 21 0
59 58 38 40 41 42 43 44 45 46 47 48 49 50 51 37 39 54 55 56 57 52 53 60 61 62 63 64 65 66 67 68 69 70 71 72 0
531 -37 0
-38 -531 0
-37 406 0
-38 406 0
-39 406 0
-40 406 0
-41 406 0
-42 406 0
-43 406 0
-44 406 0
-45 407 0
-46 407 0
-47 407 0
-48 407 0
-49 407 0
-50 407 0
-51 407 0
46 47 37 -407 45 48 49 50 51 0
53 -408 45 38 52 54 55 56 57 0
95 94 81 78 77 75 79 80 76 82 83 84 85 86 87 73 74 90 91 92 93 88 89 96 97 98 99 100 101 102 103 104 105 106 107 108 0
566 -73 0
-74 -566 0
-73 415 0
-74 415 0
-75 415 0
-76 415 0
-77 415 0
-78 415 0
-79 415 0
-80 415 0
75 -415 73 78 76 77 74 79 80 0
-81 416 0
-82 416 0
-83 416 0
-84 416 0
-85 416 0
-86 416 0
-87 416 0
82 83 73 -416 81 84 85 86 87 0
-74 417 0
88 -417 74 81 89 90 91 92 93 0
418 -75 0
419 -76 0
420 -77 0
421 -78 0
422 -79 0
423 -80 0
136 132 111 112 126 127 113 114 117 118 119 120 121 122 123 109 110 115 116 128 129 124 125 131 133 134 135 130 137 138 139 140 141 142 143 144 0
601 -109 0
-110 -601 0
-109 424 0
-110 424 0
-111 424 0
-112 424 0
-113 424 0
-114 424 0
-115 424 0
-116 424 0
-109 425 0
-117 425 0
-118 425 0
-119 425 0
-120 425 0
-121 425 0
-122 425 0
-123 425 0
118 119 -425 109 117 120 121 122 123 0
-124 426 0
-125 426 0
-126 426 0
-127 426 0
-128 426 0
-129 426 0
110 -426 124 117 125 126 127 128 129 0
166 171 145 147 161 160 148 152 153 154 155 156 157 158 159 146 151 149 150 162 163 164 165 168 169 170 167 172 173 174 175 176 177 178 179 180 0
636 -145 0
-146 -636 0
-145 433 0
-146 433 0
-147 433 0
-148 433 0
-149 433 0
-150 433 0
-151 433 0
-152 433 0
-153 434 0
-154 434 0
-155 434 0
-156 434 0
-157 434 0
-158 434 0
-159 434 0
155 -434 145 154 153 156 157 158 159 0
-146 435 0
-160 435 0
-161 435 0
-162 435 0
-163 435 0
-164 435 0
-165 435 0
160 -435 146 153 161 162 163 164 165 0
436 -147 0
437 -148 0
438 -149 0
439 -150 0
440 -151 0
441 -152 0
202 203 187 182 185 186 184 183 189 190 191 192 193 194 195 181 188 198 199 200 201 196 197 204 205 206 207 208 209 210 211 212 213 214 215 216 0
671 -181 0
-182 -671 0
-182 672 0
-672 673 0
-673 674 0
-674 675 0
-675 676 0
-676 677 0
678 -677 0
679 -678 0
-189 -678 0
680 -679 0
-190 -679 0
681 -680 0
-191 -680 0
682 -681 0
-192 -681 0
683 -682 0
-193 -682 0
684 -683 0
-194 -683 0
-195 -684 0
-181 442 0
-182 442 0
-183 442 0
-184 442 0
-185 442 0
-186 442 0
-187 442 0
-188 442 0
-181 443 0
-189 443 0
-190 443 0
-191 443 0
-192 443 0
-193 443 0
-194 443 0
-195 443 0
195 -443 181 190 189 192 191 194 193 0
-182 444 0
196 -444 182 189 197 198 199 200 201 0
445 -183 0
446 -184 0
447 -185 0
448 -186 0
449 -187 0
450 -188 0
238 249 220 222 232 233 243 224 225 219 223 228 229 230 231 217 218 242 235 236 237 226 227 245 221 244 234 241 239 246 247 248 240 250 251 252 0
-217 451 0
-218 451 0
-219 451 0
-220 451 0
-221 451 0
-222 451 0
-223 451 0
-224 451 0
222 -451 220 217 218 221 219 223 224 0
-217 452 0
-225 452 0
-226 452 0
-227 452 0
-228 452 0
-229 452 0
-230 452 0
-231 452 0
231 -452 217 230 225 226 229 227 228 0
-232 453 0
-233 453 0
-234 453 0
-235 453 0
-236 453 0
-237 453 0
234 -453 218 225 233 232 235 236 237 0
454 -219 0
-238 454 0
-239 454 0
-240 454 0
-241 454 0
-242 454 0
455 -220 0
-238 455 0
-243 455 0
-244 455 0
-245 455 0
-246 455 0
456 -221 0
-239 456 0
-243 456 0
-247 456 0
-248 456 0
-249 456 0
457 -222 0
-240 457 0
-244 457 0
-247 457 0
-250 457 0
457 -251 0
458 -223 0
-241 458 0
-245 458 0
-248 458 0
458 -250 0
458 -252 0
459 -224 0
-242 459 0
459 -249 0
459 -251 0
-252 459 0
274 275 257 258 259 260 261 256 254 268 255 264 265 266 267 253 269 270 271 272 273 262 263 276 277 278 279 280 281 282 283 284 285 286 287 288 0
741 -253 0
-254 -741 0
-254 742 0
743 -742 0
-255 -742 0
744 -743 0
-256 -743 0
745 -744 0
-257 -744 0
745 -257 0
746 -745 0
-258 -745 0
747 -746 0
-259 -746 0
748 -747 0
-260 -747 0
-261 -748 0
-253 460 0
-254 460 0
-255 460 0
-256 460 0
-257 460 0
-258 460 0
-259 460 0
-260 460 0
-460 257 253 256 255 260 258 254 259 0
-253 461 0
-261 461 0
-262 461 0
-263 461 0
-264 461 0
-265 461 0
-266 461 0
-267 461 0
266 -461 261 253 263 262 265 264 267 0
-254 462 0
-261 462 0
-268 462 0
-269 462 0
-270 462 0
-271 462 0
-272 462 0
-273 462 0
-462 268 254 261 269 270 271 272 273 0
463 -255 0
464 -256 0
465 -257 0
466 -258 0
467 -259 0
468 -260 0
296 295 304 311 289 305 293 294 297 291 292 300 301 302 303 310 290 306 307 308 309 298 299 312 313 314 315 316 317 318 319 320 321 322 323 324 0
776 -289 0
777 -776 0
-290 -776 0
778 -777 0
779 -778 0
780 -779 0
781 -780 0
782 -781 0
783 -782 0
784 -783 0
785 -784 0
786 -785 0
787 -786 0
788 -787 0
789 -788 0
790 -789 0
791 -790 0
-304 -790 0
792 -791 0
-305 -791 0
793 -792 0
-306 -792 0
794 -793 0
-307 -793 0
795 -794 0
-308 -794 0
-309 -795 0
-289 469 0
-290 469 0
-291 469 0
-292 469 0
-293 469 0
-294 469 0
-295 469 0
-296 469 0
-289 470 0
-297 470 0
-298 470 0
-299 470 0
-300 470 0
-301 470 0
-302 470 0
-303 470 0
298 -470 289 297 299 300 301 302 303 0
-290 471 0
-297 471 0
-304 471 0
-305 471 0
-306 471 0
-307 471 0
-308 471 0
-309 471 0
-471 290 309 297 304 305 306 307 308 0
329 340 325 341 328 330 331 332 333 334 335 336 337 338 339 326 327 342 343 344 345 346 347 348 349 350 351 352 353 354 355 356 357 358 359 360 0
811 -325 0
812 -811 0
-326 -811 0
813 -812 0
814 -813 0
815 -814 0
816 -815 0
817 -816 0
818 -817 0
819 -818 0
820 -819 0
821 -820 0
822 -821 0
823 -822 0
824 -823 0
825 -824 0
826 -825 0
-340 -825 0
827 -826 0
-341 -826 0
828 -827 0
-342 -827 0
829 -828 0
-343 -828 0
830 -829 0
-344 -829 0
-345 -830 0
478 -325 0
-326 478 0
-327 478 0
-328 478 0
-329 478 0
-330 478 0
-331 478 0
-332 478 0
-325 479 0
-333 479 0
-334 479 0
-335 479 0
-336 479 0
-337 479 0
-338 479 0
-339 479 0
334 335 325 -479 333 336 337 338 339 0
-480 344 326 333 345 340 341 342 343 0
846 -361 0
847 -846 0
-362 -846 0
848 -847 0
849 -848 0
850 -849 0
851 -850 0
852 -851 0
853 -852 0
854 -853 0
855 -854 0
856 -855 0
857 -856 0
858 -857 0
859 -858 0
860 -859 0
861 -860 0
-376 -860 0
862 -861 0
-377 -861 0
863 -862 0
-378 -862 0
864 -863 0
-379 -863 0
865 -864 0
-380 -864 0
-381 -865 0
-361 487 0
-362 487 0
-369 488 0
370 -488 369 361 371 372 373 374 375 0
376 381 362 369 -489 377 378 379 380 0
-1714 0
-1813 0
-1715 0
-1814 0
1716 0
-1815 0
397 -1723 1714 0
398 -1724 1715 0
399 1725 -1716 0
-1732 1723 406 0
-1733 1724 407 0
1734 408 -1725 0
-1741 1732 415 0
-1742 1733 416 0
1743 -1734 417 0
-1750 1741 424 0
-1751 1742 425 0
1752 426 -1743 0
-1759 1750 433 0
-1760 1751 434 0
1761 -1752 435 0
-1768 1759 442 0
-1769 1760 443 0
1770 444 -1761 0
-1777 1768 451 0
-1778 1769 452 0
1779 -1770 453 0
-1786 1777 460 0
-1787 1778 461 0
1788 -1779 462 0
-1795 1786 469 0
-1830 1795 1786 -469 0
-1796 1787 470 0
1797 -1788 471 0
-1795 1796 -325 1831 0
-1831 1795 -478 1804 0
1796 479 -1805 0
-1831 1796 -479 1805 0
1806 1831 -1797 0
487 -1804 1813 0
1832 -1804 1813 0
488 -1805 1814 0
-488 -1832 1805 1814 0
489 -1806 1815 0
2428 0
-2527 0
-2429 0
-2528 0
-1 2536 2429 -2428 0
397 2437 -2428 0
-2437 -2536 -397 -2428 0
398 -2438 2429 0
-398 2438 -2536 2429 0
2446 -2437 406 0
-2446 2437 406 0
2447 -2438 407 0
-2447 2438 407 0
2455 -2446 415 0
2446 -2455 415 0
-2447 2456 416 0
-2456 2447 416 0
2464 -2455 424 0
2455 -2464 424 0
-2456 2465 425 0
-2465 2456 425 0
2473 -2464 433 0
2464 -2473 433 0
-2465 2474 434 0
-2474 2465 434 0
-189 -2541 2474 0
-190 -2541 2474 0
-191 -2541 2474 0
2482 -2473 442 0
2473 -2482 442 0
2541 2482 -2473 0
-2474 2483 443 0
-2483 2474 443 0
-2541 -443 2483 2474 0
-217 2542 -2482 2483 0
2491 -2482 451 0
2482 -2491 451 0
-2542 -451 -2482 -2491 0
-2483 2492 452 0
-2492 2483 452 0
-2542 2492 -452 2483 0
2491 -2500 460 0
2500 2543 -2491 0
-2492 2501 461 0
2492 -2501 461 0
-2543 2501 -461 2492 0
-2544 2500 -289 0
-2501 -2544 -289 0
2509 -2500 469 0
2500 -2509 469 0
2544 2509 -2500 0
-2501 2510 470 0
-2510 2501 470 0
2544 -2501 2510 0
2501 -2544 -470 2510 0
-333 -2545 2510 0
-2545 2510 -334 0
-335 -2545 2510 0
-336 -2545 2510 0
-337 -2545 2510 0
-338 -2545 2510 0
-339 -2545 2510 0
-2509 2518 478 0
2509 478 -2518 0
2545 -2509 2518 0
-2545 2509 -478 2518 0
-2510 479 2519 0
-2510 2545 2519 0
2545 2510 -2519 0
-2518 487 2527 0
2546 -2518 2527 0
-487 -2546 2518 2527 0
488 -2519 2528 0
-2519 2546 2528 0
-488 2519 -2546 2528 0
2904 0
-3003 0
-2905 0
-3004 0
2906 0
397 2913 -2904 0
398 -2914 2905 0
399 2915 -2906 0
-3013 -38 -2915 0
2922 -2913 406 0
3013 2922 -2913 0
-2923 2914 407 0
2924 408 -2915 0
2931 -2922 415 0
3014 2931 -2922 0
2932 -2923 416 0
-2932 2923 416 0
-3014 2923 -416 2932 0
2933 417 -2924 0
2940 -2931 424 0
2941 -2932 425 0
-2941 2932 425 0
2942 -2933 426 0
2949 -2940 433 0
2950 -2941 434 0
-2950 2941 434 0
2951 435 -2942 0
2958 -2949 442 0
-2950 2959 443 0
-2959 2950 443 0
2960 -2951 444 0
2967 -2958 451 0
-2959 2968 452 0
-2968 2959 452 0
2969 453 -2960 0
2976 -2967 460 0
-2968 2977 461 0
-2977 2968 461 0
2978 -2969 462 0
-290 -2978 -3020 0
-2976 2985 469 0
3020 -2976 2985 0
-2977 2986 470 0
-2986 2977 470 0
-2985 2994 478 0
-2985 3021 2994 0
-2986 479 2995 0
-3021 2986 -479 2995 0
487 -2994 3003 0
488 -2995 3004 0
5760 0
-5859 0
5761 0
5860 0
5762 0
-5868 -1 -5761 0
-2 -5868 -5762 0
397 5769 -5760 0
5868 5769 -5760 0
398 5770 -5761 0
5868 5770 -5761 0
399 5771 -5762 0
5778 -5769 406 0
5869 5778 -5769 0
5779 -5770 407 0
-5869 -5770 -407 -5779 0
5780 408 -5771 0
-5870 -74 -5780 0
5787 -5778 415 0
5870 5787 -5778 0
5788 -5779 416 0
5779 -5788 416 0
5789 417 -5780 0
-5871 -109 -5788 0
-110 -5871 -5789 0
5796 -5787 424 0
5871 5796 -5787 0
5797 -5788 425 0
5788 -5797 425 0
5798 -5789 426 0
-5872 -145 -5797 0
5805 -5796 433 0
5872 5805 -5796 0
5806 -5797 434 0
5797 -5806 434 0
5807 435 -5798 0
5814 -5805 442 0
5873 5814 -5805 0
5815 -5806 443 0
5806 -5815 443 0
-5873 -443 -5815 -5806 0
5816 -5807 444 0
-218 -5874 -5816 0
5823 -5814 451 0
5874 5823 -5814 0
5824 -5815 452 0
5815 -5824 452 0
-5875 -253 -5824 0
5832 -5823 460 0
5875 5832 -5823 0
5833 -5824 461 0
5824 -5833 461 0
5841 -5832 469 0
5842 -5833 470 0
5833 -5842 470 0
-5841 5850 478 0
5842 -5851 479 0
487 -5850 5859 0
488 5851 -5860 0
6474 0
-6573 0
-6475 0
-6574 0
-6476 0
6575 0
6477 0
6478 0
6479 0
6480 0
6481 0
6482 0
6582 -1 6475 -6474 0
-6582 -9 6475 0
-6582 -16 -6477 0
-6582 -17 -6478 0
-6582 -18 -6479 0
-6582 -19 -6480 0
-6582 -20 -6481 0
-6582 -21 -6482 0
397 6483 -6474 0
-6582 -6483 -397 -6474 0
398 -6484 6475 0
399 -6485 6476 0
-6485 6582 6476 0
-45 -6583 6484 0
-6583 6484 -46 0
-47 -6583 6484 0
-48 -6583 6484 0
-49 -6583 6484 0
-50 -6583 6484 0
-51 -6583 6484 0
-52 -6583 6485 0
-53 -6583 6485 0
-54 -6583 6485 0
-55 -6583 6485 0
-56 -6583 6485 0
-57 -6583 6485 0
6492 406 -6483 0
-6492 406 6483 0
-6493 6484 407 0
-6494 408 6485 0
6583 -6494 6485 0
-74 6492 -6584 0
-75 6492 -6584 0
-6495 -75 -6584 0
6492 -76 -6584 0
-6496 -76 -6584 0
6492 -77 -6584 0
-6497 -77 -6584 0
-78 6492 -6584 0
-6498 -78 -6584 0
6492 -79 -6584 0
-6499 -79 -6584 0
6492 -80 -6584 0
-6500 -80 -6584 0
-81 -6584 6493 0
-6584 6493 -82 0
-83 -6584 6493 0
-84 -6584 6493 0
-85 -6584 6493 0
-86 -6584 6493 0
-87 -6584 6493 0
-88 -6584 6494 0
-89 -6584 6494 0
-90 -6584 6494 0
-91 -6584 6494 0
-92 -6584 6494 0
-93 -6584 6494 0
6501 -6492 415 0
6492 -6501 415 0
6584 6501 -6492 0
-6502 6493 416 0
-6503 417 6494 0
6584 -6503 6494 0
-6502 -109 -6585 0
6585 -109 -6501 6502 0
-117 -6585 6502 0
-6585 6502 -118 0
-119 -6585 6502 0
-120 -6585 6502 0
-121 -6585 6502 0
-122 -6585 6502 0
-123 -6585 6502 0
-124 -6585 6503 0
-125 -6585 6503 0
-126 -6585 6503 0
-127 -6585 6503 0
-128 -6585 6503 0
-129 -6585 6503 0
6510 -6501 424 0
6501 -6510 424 0
6510 6501 -424 -6585 0
-424 -6501 -6585 -6510 0
-6511 6502 425 0
6585 -6502 6511 0
6585 -6511 6502 0
6511 -6585 -425 6502 0
-6512 426 6503 0
6585 -6512 6503 0
-146 -6586 6510 0
-6513 -147 -6586 0
-6514 -148 -6586 0
-6515 -149 -6586 0
-6516 -150 -6586 0
-6517 -151 -6586 0
-6518 -152 -6586 0
-153 -6586 6511 0
-6586 6511 -154 0
-155 -6586 6511 0
-156 -6586 6511 0
-157 -6586 6511 0
-158 -6586 6511 0
-159 -6586 6511 0
-160 -6586 6512 0
-161 -6586 6512 0
-162 -6586 6512 0
-163 -6586 6512 0
-164 -6586 6512 0
-165 -6586 6512 0
6519 -6510 433 0
6510 -6519 433 0
6586 6519 -6510 0
-433 -6519 -6586 -6510 0
-6511 6520 434 0
-6520 6511 434 0
6586 -6520 6511 0
-6521 435 6512 0
6586 -6521 6512 0
6519 -182 -6587 0
-6522 -183 -6587 0
-6523 -184 -6587 0
-6524 -185 -6587 0
-6525 -186 -6587 0
-6526 -187 -6587 0
-6527 -188 -6587 0
-196 -6587 6521 0
-197 -6587 6521 0
-198 -6587 6521 0
-199 -6587 6521 0
-200 -6587 6521 0
-201 -6587 6521 0
6528 -6519 442 0
6519 -6528 442 0
6587 6528 -6519 0
-6520 6529 443 0
-6529 6520 443 0
-443 6529 -6587 6520 0
-6530 444 6521 0
6587 -6530 6521 0
6528 -217 -6588 0
-6529 -217 -6588 0
-218 -6588 6528 0
-219 6528 -6588 0
-6531 -219 -6588 0
-220 6528 -6588 0
-6532 -220 -6588 0
-221 6528 -6588 0
-6533 -221 -6588 0
-222 6528 -6588 0
-6534 -222 -6588 0
-223 6528 -6588 0
-6535 -223 -6588 0
-224 6528 -6588 0
-6536 -224 -6588 0
-225 -6588 6529 0
-226 -6588 6529 0
-227 -6588 6529 0
-228 -6588 6529 0
-229 -6588 6529 0
-230 -6588 6529 0
-6588 6529 -231 0
-232 -6588 6530 0
-233 -6588 6530 0
-234 -6588 6530 0
-235 -6588 6530 0
-236 -6588 6530 0
-237 -6588 6530 0
6537 -6528 451 0
6528 -6537 451 0
6588 6537 -6528 0
-6529 6538 452 0
-6538 6529 452 0
6588 -6529 6538 0
-6538 6588 6529 0
6529 -6588 -452 6538 0
453 6530 -6539 0
6588 6530 -6539 0
6540 -6531 6588 0
6541 -6532 6588 0
6542 -6533 6588 0
6543 -6534 6588 0
6544 -6535 6588 0
6545 -6536 6588 0
-6540 -255 -6589 0
-6541 -256 -6589 0
-6542 -257 -6589 0
-258 -6543 -6589 0
-259 -6544 -6589 0
-6545 -260 -6589 0
-268 -6589 6539 0
-269 -6589 6539 0
-270 -6589 6539 0
-271 -6589 6539 0
-272 -6589 6539 0
-273 -6589 6539 0
6546 -6537 460 0
6537 -6546 460 0
6546 -6537 6589 0
6546 -460 -6589 6537 0
-6538 6547 461 0
-6547 6538 461 0
6547 -6589 -461 6538 0
-6548 462 6539 0
-6548 6589 6539 0
6590 -6546 -289 6547 0
-290 6546 -6590 0
-297 -6590 6547 0
-298 -6590 6547 0
-299 -6590 6547 0
-300 -6590 6547 0
-301 -6590 6547 0
-302 -6590 6547 0
-303 -6590 6547 0
-304 -6590 6548 0
-305 -6590 6548 0
-306 -6590 6548 0
-307 -6590 6548 0
-308 -6590 6548 0
-309 -6590 6548 0
-6546 6555 469 0
6590 -6546 6555 0
-6547 6556 470 0
-6556 6547 470 0
-6590 6547 -470 6556 0
-6557 471 6548 0
6590 -6557 6548 0
-6556 -6591 -325 0
-340 -6591 6557 0
-341 -6591 6557 0
-342 -6591 6557 0
-343 -6591 6557 0
-344 -6591 6557 0
-345 -6591 6557 0
-6555 6564 478 0
-6555 6591 6564 0
-6556 479 6565 0
-6565 6556 479 0
6591 -6556 6565 0
-6591 6556 -479 6565 0
6557 480 -6566 0
6557 6591 -6566 0
-6557 -480 -6591 -6566 0
-6565 -6592 -361 0
-376 -6592 6566 0
-377 -6592 6566 0
-378 -6592 6566 0
-379 -6592 6566 0
-380 -6592 6566 0
-381 -6592 6566 0
487 -6564 6573 0
6592 -6564 6573 0
-6565 488 6574 0
6592 -6565 6574 0
-488 -6592 6565 6574 0
6566 489 -6575 0
6566 6592 -6575 0
6593 0
-6594 0
6693 0
6595 0
6596 0
6597 0
6598 0
6599 0
6600 0
6601 0
-6701 -2 -6595 0
-6701 -3 -6596 0
-6701 -4 -6597 0
-6701 -5 -6598 0
-6701 -6 -6599 0
-6701 -7 -6600 0
-6701 -8 -6601 0
-6701 -9 -6595 0
-6701 -10 -6596 0
-6701 -11 -6597 0
-6701 -12 -6598 0
-6701 -13 -6599 0
-6701 -14 -6600 0
-6701 -15 -6601 0
-6701 -16 -6596 0
-6701 -17 -6597 0
-6701 -18 -6598 0
-6701 -19 -6599 0
-6701 -20 -6600 0
-6701 -21 -6601 0
-6701 -22 -6597 0
-6701 -23 -6598 0
-6701 -24 -6599 0
-6701 -25 -6600 0
-6701 -26 -6601 0
-6701 -27 -6598 0
-6701 -28 -6599 0
-6701 -29 -6600 0
-6701 -30 -6601 0
-6701 -31 -6599 0
-6701 -32 -6600 0
-6701 -33 -6601 0
-6701 -34 -6600 0
-6701 -35 -6601 0
-6701 -36 -6601 0
6701 6602 -6593 0
-6701 -6602 -397 -6593 0
-6603 398 6594 0
-6603 6701 6594 0
-398 -6701 6603 6594 0
-45 -6702 6603 0
-46 -6702 6603 0
-47 -6702 6603 0
-48 -6702 6603 0
-49 -6702 6603 0
-50 -6702 6603 0
-51 -6702 6603 0
6611 406 -6602 0
-6611 6602 406 0
407 6612 -6603 0
407 -6612 6603 0
6702 -6612 6603 0
-81 -6703 6612 0
-82 -6703 6612 0
-83 -6703 6612 0
-84 -6703 6612 0
-85 -6703 6612 0
-86 -6703 6612 0
-87 -6703 6612 0
-6620 6611 415 0
-6621 416 6612 0
6703 -6621 6612 0
-117 -6704 6621 0
-118 -6704 6621 0
-119 -6704 6621 0
-120 -6704 6621 0
-121 -6704 6621 0
-122 -6704 6621 0
-123 -6704 6621 0
-6629 6620 424 0
6621 -6630 425 0
6704 6621 -6630 0
-153 -6705 6630 0
-154 -6705 6630 0
-155 -6705 6630 0
-156 -6705 6630 0
-157 -6705 6630 0
-158 -6705 6630 0
-159 -6705 6630 0
434 6639 -6630 0
6630 -6639 434 0
6705 6630 -6639 0
-189 -6706 6639 0
-190 -6706 6639 0
-191 -6706 6639 0
-192 -6706 6639 0
-193 -6706 6639 0
-194 -6706 6639 0
-195 -6706 6639 0
-6639 6648 443 0
6639 -6648 443 0
6706 6639 -6648 0
6647 -217 -6707 0
-225 -6707 6648 0
-226 -6707 6648 0
-227 -6707 6648 0
-228 -6707 6648 0
-229 -6707 6648 0
-230 -6707 6648 0
-231 -6707 6648 0
6648 452 -6657 0
6707 6648 -6657 0
-261 -6708 6657 0
-262 -6708 6657 0
-263 -6708 6657 0
-264 -6708 6657 0
-265 -6708 6657 0
-266 -6708 6657 0
-267 -6708 6657 0
-6666 6657 461 0
6708 -6666 6657 0
6665 -289 -6709 0
-297 -6709 6666 0
-298 -6709 6666 0
-299 -6709 6666 0
-300 -6709 6666 0
-301 -6709 6666 0
-302 -6709 6666 0
-303 -6709 6666 0
6666 -6675 470 0
6709 6666 -6675 0
-6674 6710 6675 -325 0
-333 -6710 6675 0
-334 -6710 6675 0
-335 -6710 6675 0
-336 -6710 6675 0
-337 -6710 6675 0
-338 -6710 6675 0
-339 -6710 6675 0
6674 6710 -6683 0
479 6675 -6684 0
6710 6675 -6684 0
-6710 6684 6675 -479 0
6683 -361 -6711 0
-369 -6711 6684 0
-370 -6711 6684 0
-371 -6711 6684 0
-372 -6711 6684 0
-373 -6711 6684 0
-374 -6711 6684 0
-375 -6711 6684 0
6684 488 -6693 0
6684 6711 -6693 0
-398 9808 6475 0
9808 -399 6476 0
6484 9809 -407 0
-408 9809 6485 0
6492 -415 9810 0
6493 9810 -416 0
-417 6494 9810 0
6495 -418 9810 0
6496 -419 9810 0
6497 -420 9810 0
6498 -421 9810 0
6499 -422 9810 0
6500 -423 9810 0
6502 9811 -425 0
-426 6503 9811 0
6510 -433 9812 0
6511 9812 -434 0
-435 6512 9812 0
6513 -436 9812 0
6514 -437 9812 0
6515 -438 9812 0
6516 -439 9812 0
6517 -440 9812 0
6518 -441 9812 0
6519 -442 9813 0
-443 6520 9813 0
-444 6521 9813 0
6522 -445 9813 0
6523 -446 9813 0
6524 -447 9813 0
6525 -448 9813 0
6526 -449 9813 0
6527 -450 9813 0
6528 -451 9814 0
6529 9814 -452 0
-453 6530 9814 0
6531 -454 9814 0
6532 -455 9814 0
6533 -456 9814 0
6534 -457 9814 0
6535 -458 9814 0
6536 -459 9814 0
6537 -460 9815 0
6538 9815 -461 0
9815 6539 -462 0
6540 -463 9815 0
6541 -464 9815 0
6542 -465 9815 0
6543 -466 9815 0
6544 -467 9815 0
6545 -468 9815 0
6546 9816 -469 0
6547 9816 -470 0
-471 6548 9816 0
9817 6556 -479 0
9817 -480 6557 0
9818 -488 6565 0
-489 6566 9818 0
9819 -9808 0
9820 -9819 0
-9809 9821 -9819 0
-9821 9822 0
-9821 -9810 0
-9809 9820 0
9823 -9820 0
-9810 9822 -9820 0
-9822 9824 0
-9822 -9811 0
-9810 9823 0
9825 -9823 0
-9811 9824 -9823 0
-9824 9826 0
-9824 -9812 0
-9811 9825 0
9827 -9825 0
-9812 9826 -9825 0
-9826 9828 0
-9826 -9813 0
-9812 9827 0
9829 -9827 0
-9813 9828 -9827 0
-9828 9830 0
-9828 -9814 0
-9813 9829 0
9831 -9829 0
-9814 9830 -9829 0
-9830 9832 0
-9830 -9815 0
-9814 9831 0
9833 -9831 0
9832 -9815 -9831 0
-9832 9834 0
-9816 -9832 0
9833 -9815 0
9835 -9833 0
-9816 9834 -9833 0
-9834 9836 0
-9834 -9817 0
9835 -9816 0
9836 -9817 -9835 0
-9818 -9836 0
-397 9837 0
9837 -398 0
-406 9838 0
9838 -407 0
-415 9839 0
-416 9839 0
-424 9840 0
-425 9840 0
-433 9841 0
-434 9841 0
-442 9842 0
-443 9842 0
-451 9843 0
-452 9843 0
-460 9844 0
-461 9844 0
-469 9845 0
-470 9845 0
-478 9846 0
9846 -479 0
-487 9847 0
9847 -488 0
9848 -9837 0
9849 -9848 0
-9838 9850 -9848 0
-9850 9851 0
-9850 -9839 0
9849 -9838 0
9852 -9849 0
-9839 9851 -9849 0
-9851 9853 0
-9851 -9840 0
-9839 9852 0
9854 -9852 0
-9840 9853 -9852 0
-9853 9855 0
-9853 -9841 0
-9840 9854 0
9856 -9854 0
-9841 9855 -9854 0
-9855 9857 0
-9855 -9842 0
-9841 9856 0
9858 -9856 0
-9842 9857 -9856 0
-9857 9859 0
-9857 -9843 0
-9842 9858 0
9860 -9858 0
-9843 9859 -9858 0
-9859 9861 0
-9859 -9844 0
-9843 9860 0
9862 -9860 0
-9844 9861 -9860 0
-9861 9863 0
-9845 -9861 0
-9844 9862 0
9864 -9862 0
-9845 9863 -9862 0
-9863 9865 0
-9863 -9846 0
-9845 9864 0
9865 -9846 -9864 0
-9865 -9847 0
-398 9866 6594 0
9867 -407 6603 0
9868 -416 6612 0
9869 -425 6621 0
9870 -434 6630 0
9871 -443 6639 0
9872 -452 6648 0
9873 -461 6657 0
9877 -9866 0
9878 -9877 0
9878 -9867 0
9881 -9878 0
9881 -9868 0
9883 -9881 0
9883 -9869 0
9885 -9883 0
9885 -9870 0
9887 -9885 0
-9871 9887 0
9889 -9887 0
9889 -9872 0
9891 -9889 0
9891 -9873 0
9893 -9891 0
-16 -37 0
-17 -37 0
-18 -37 0
-19 -37 0
-20 -37 0
-21 -37 0
-22 -37 0
-23 -37 0
-24 -37 0
-25 -37 0
-26 -37 0
-27 -37 0
-28 -37 0
-29 -37 0
-30 -37 0
-31 -37 0
-32 -37 0
-33 -37 0
-34 -37 0
-35 -37 0
-36 -37 0
-52 -73 0
-53 -73 0
-54 -73 0
-55 -73 0
-56 -73 0
-57 -73 0
-58 -73 0
-59 -73 0
-60 -73 0
-61 -73 0
-62 -73 0
-63 -73 0
-64 -73 0
-65 -73 0
-66 -73 0
-67 -73 0
-68 -73 0
-69 -73 0
-70 -73 0
-71 -73 0
-72 -73 0
-88 -109 0
-89 -109 0
-90 -109 0
-91 -109 0
-92 -109 0
-93 -109 0
-94 -109 0
-95 -109 0
-96 -109 0
-97 -109 0
-98 -109 0
-99 -109 0
-100 -109 0
-101 -109 0
-102 -109 0
-103 -109 0
-104 -109 0
-105 -109 0
-106 -109 0
-107 -109 0
-108 -109 0
-124 -145 0
-125 -145 0
-126 -145 0
-127 -145 0
-128 -145 0
-129 -145 0
-130 -145 0
-130 -146 0
-130 -153 0
-131 -145 0
-131 -146 0
-131 -153 0
-132 -145 0
-132 -146 0
-132 -153 0
-133 -145 0
-133 -146 0
-133 -153 0
-134 -145 0
-134 -146 0
-134 -153 0
-135 -145 0
-135 -146 0
-135 -153 0
-136 -145 0
-136 -146 0
-136 -153 0
-137 -145 0
-137 -146 0
-137 -153 0
-138 -145 0
-138 -146 0
-138 -153 0
-139 -145 0
-139 -146 0
-139 -153 0
-140 -145 0
-140 -146 0
-140 -153 0
-141 -145 0
-141 -146 0
-141 -153 0
-142 -145 0
-142 -146 0
-142 -153 0
-143 -145 0
-143 -146 0
-143 -153 0
-144 -145 0
-144 -146 0
-144 -153 0
-182 -154 0
-155 -182 0
-156 -182 0
-157 -182 0
-158 -182 0
-159 -182 0
-160 -181 0
-161 -181 0
-162 -181 0
-163 -181 0
-164 -181 0
-165 -181 0
-166 -181 0
-166 -182 0
-167 -181 0
-167 -182 0
-168 -181 0
-168 -182 0
-169 -181 0
-169 -182 0
-170 -181 0
-170 -182 0
-171 -181 0
-171 -182 0
-172 -181 0
-172 -182 0
-173 -181 0
-173 -182 0
-174 -181 0
-174 -182 0
-175 -181 0
-175 -182 0
-176 -181 0
-176 -182 0
-177 -181 0
-177 -182 0
-178 -181 0
-178 -182 0
-179 -181 0
-179 -182 0
-180 -181 0
-180 -182 0
-196 -217 0
-197 -217 0
-198 -217 0
-199 -217 0
-200 -217 0
-201 -217 0
-202 -217 0
-203 -217 0
-204 -217 0
-205 -217 0
-206 -217 0
-207 -217 0
-208 -217 0
-209 -217 0
-210 -217 0
-211 -217 0
-212 -217 0
-213 -217 0
-214 -217 0
-215 -217 0
-216 -217 0
-232 -253 0
-232 -256 0
-232 -258 0
-232 -259 0
-232 -260 0
-233 -253 0
-233 -255 0
-233 -258 0
-233 -259 0
-233 -260 0
-234 -253 0
-234 -255 0
-234 -256 0
-234 -258 0
-234 -259 0
-234 -260 0
-235 -253 0
-235 -255 0
-235 -256 0
-235 -259 0
-235 -260 0
-236 -253 0
-236 -255 0
-236 -256 0
-236 -258 0
-236 -260 0
-237 -253 0
-237 -255 0
-237 -256 0
-237 -258 0
-237 -259 0
-238 -253 0
-254 -238 0
-238 -257 0
-258 -238 0
-259 -238 0
-238 -260 0
-261 -238 0
-264 -238 0
-265 -238 0
-266 -238 0
-267 -238 0
-239 -253 0
-239 -254 0
-239 -256 0
-239 -258 0
-239 -259 0
-239 -260 0
-240 -253 0
-240 -254 0
-240 -256 0
-240 -257 0
-240 -259 0
-240 -260 0
-241 -253 0
-241 -254 0
-241 -256 0
-241 -257 0
-241 -258 0
-241 -260 0
-242 -253 0
-242 -254 0
-242 -256 0
-242 -257 0
-242 -258 0
-242 -259 0
-243 -253 0
-243 -254 0
-243 -255 0
-243 -258 0
-243 -259 0
-243 -260 0
-244 -253 0
-244 -254 0
-244 -255 0
-244 -257 0
-244 -259 0
-244 -260 0
-245 -253 0
-245 -254 0
-245 -255 0
-245 -257 0
-245 -258 0
-245 -260 0
-246 -253 0
-254 -246 0
-246 -255 0
-246 -257 0
-258 -246 0
-259 -246 0
-247 -253 0
-247 -254 0
-247 -255 0
-247 -256 0
-247 -259 0
-247 -260 0
-248 -253 0
-248 -254 0
-248 -255 0
-248 -256 0
-248 -258 0
-248 -260 0
-249 -253 0
-249 -254 0
-249 -255 0
-249 -256 0
-249 -258 0
-249 -259 0
-250 -253 0
-250 -254 0
-250 -255 0
-250 -256 0
-250 -257 0
-250 -260 0
-251 -253 0
-254 -251 0
-255 -251 0
-256 -251 0
-251 -257 0
-259 -251 0
-252 -253 0
-254 -252 0
-252 -255 0
-256 -252 0
-252 -257 0
-258 -252 0
-268 -289 0
-269 -289 0
-270 -289 0
-271 -289 0
-272 -289 0
-273 -289 0
-274 -289 0
-274 -290 0
-274 -297 0
-275 -289 0
-275 -290 0
-275 -297 0
-276 -289 0
-276 -290 0
-276 -297 0
-277 -289 0
-277 -290 0
-277 -297 0
-278 -289 0
-278 -290 0
-278 -297 0
-279 -289 0
-279 -290 0
-279 -297 0
-280 -289 0
-280 -290 0
-280 -297 0
-281 -289 0
-281 -290 0
-281 -297 0
-282 -289 0
-282 -290 0
-282 -297 0
-283 -289 0
-283 -290 0
-283 -297 0
-284 -289 0
-284 -290 0
-284 -297 0
-285 -289 0
-285 -290 0
-285 -297 0
-286 -289 0
-286 -290 0
-286 -297 0
-287 -289 0
-287 -290 0
-287 -297 0
-288 -289 0
-288 -290 0
-288 -297 0
-304 -325 0
-305 -325 0
-306 -325 0
-307 -325 0
-308 -325 0
-309 -325 0
-310 -325 0
-310 -326 0
-333 -310 0
-311 -325 0
-311 -326 0
-311 -333 0
-312 -325 0
-312 -326 0
-312 -333 0
-313 -325 0
-313 -326 0
-313 -333 0
-314 -325 0
-314 -326 0
-314 -333 0
-315 -325 0
-315 -326 0
-315 -333 0
-316 -325 0
-316 -326 0
-316 -333 0
-317 -325 0
-317 -326 0
-317 -333 0
-318 -325 0
-318 -326 0
-318 -333 0
-319 -325 0
-319 -326 0
-319 -333 0
-320 -325 0
-320 -326 0
-320 -333 0
-321 -325 0
-321 -326 0
-321 -333 0
-322 -325 0
-322 -326 0
-322 -333 0
-323 -325 0
-323 -326 0
-323 -333 0
-324 -325 0
-324 -326 0
-324 -333 0
-340 -361 0
-341 -361 0
-342 -361 0
-343 -361 0
-344 -361 0
-345 -361 0
-346 -361 0
-347 -361 0
-348 -361 0
-349 -361 0
-350 -361 0
-351 -361 0
-352 -361 0
-353 -361 0
-354 -361 0
-355 -361 0
-356 -361 0
-357 -361 0
-358 -361 0
-359 -361 0
-360 -361 0
