p cnf 9048 836
16 17 9 4 5 6 7 8 1 10 11 12 13 14 15 3 2 18 19 20 21 22 23 24 25 26 27 28 29 30 31 32 33 34 35 36 0
397 -1 0
397 -2 0
397 -3 0
397 -4 0
397 -5 0
397 -6 0
397 -7 0
397 -8 0
-397 8 1 2 3 4 5 6 7 0
398 -1 0
398 -9 0
398 -10 0
398 -11 0
398 -12 0
398 -13 0
398 -14 0
398 -15 0
15 14 1 -398 9 10 11 12 13 0
52 53 37 46 41 42 43 44 39 40 47 48 49 50 51 45 38 54 55 56 57 58 59 60 61 62 63 64 65 66 67 68 69 70 71 72 0
-37 406 0
-38 406 0
-39 406 0
-40 406 0
-41 406 0
-42 406 0
-43 406 0
-44 406 0
38 -406 37 39 40 41 42 43 44 0
-45 407 0
-46 407 0
-47 407 0
-48 407 0
-49 407 0
-50 407 0
-51 407 0
46 -407 37 45 47 48 49 50 51 0
89 88 73 81 82 78 79 80 76 77 83 84 85 86 87 74 75 90 91 92 93 94 95 96 97 98 99 100 101 102 103 104 105 106 107 108 0
-73 415 0
-74 415 0
-75 415 0
-76 415 0
-77 415 0
-78 415 0
-79 415 0
-80 415 0
416 -73 0
-81 416 0
-82 416 0
-83 416 0
-84 416 0
-85 416 0
-86 416 0
-87 416 0
81 -416 73 82 83 84 85 86 87 0
125 124 109 112 113 114 115 116 117 118 119 120 121 122 123 110 111 126 127 128 129 130 131 132 133 134 135 136 137 138 139 140 141 142 143 144 0
-109 424 0
-110 424 0
-111 424 0
-112 424 0
-113 424 0
-114 424 0
-115 424 0
-116 424 0
110 -424 109 111 112 113 114 115 116 0
-117 425 0
-118 425 0
-119 425 0
-120 425 0
-121 425 0
-122 425 0
-123 425 0
118 -425 109 117 119 120 121 122 123 0
160 161 147 148 149 150 151 152 153 154 155 156 157 158 159 145 146 162 163 164 165 166 167 168 169 170 171 172 173 174 175 176 177 178 179 180 0
-145 433 0
-146 433 0
-147 433 0
-148 433 0
-149 433 0
-150 433 0
-151 433 0
-152 433 0
147 -433 146 145 148 149 150 151 152 0
-153 434 0
-154 434 0
-155 434 0
-156 434 0
-157 434 0
-158 434 0
-159 434 0
154 -434 153 145 155 156 157 158 159 0
197 196 184 185 181 186 187 188 189 190 191 192 193 194 195 182 183 198 199 200 201 202 203 204 205 206 207 208 209 210 211 212 213 214 215 216 0
-181 442 0
-182 442 0
-183 442 0
-184 442 0
-185 442 0
-186 442 0
-187 442 0
-188 442 0
-189 443 0
-190 443 0
-191 443 0
-192 443 0
-193 443 0
-194 443 0
-195 443 0
189 190 -443 181 191 192 193 194 195 0
233 232 222 223 219 220 221 224 217 218 227 228 229 230 231 225 226 234 235 236 237 238 239 240 241 242 243 244 245 246 247 248 249 250 251 252 0
-217 451 0
-218 451 0
-219 451 0
-220 451 0
-221 451 0
-222 451 0
-223 451 0
-224 451 0
-225 452 0
-226 452 0
-227 452 0
-228 452 0
-229 452 0
-230 452 0
-231 452 0
226 225 217 -452 227 228 229 230 231 0
256 269 253 268 257 258 259 260 261 262 263 264 265 266 267 254 255 270 271 272 273 274 275 276 277 278 279 280 281 282 283 284 285 286 287 288 0
-253 460 0
-254 460 0
-255 460 0
-256 460 0
-257 460 0
-258 460 0
-259 460 0
-260 460 0
-253 461 0
-261 461 0
-262 461 0
-263 461 0
-264 461 0
-265 461 0
-266 461 0
-267 461 0
262 263 -461 253 261 264 265 266 267 0
305 304 292 293 289 294 295 296 297 298 299 300 301 302 303 290 291 306 307 308 309 310 311 312 313 314 315 316 317 318 319 320 321 322 323 324 0
-289 469 0
-290 469 0
-291 469 0
-292 469 0
-293 469 0
-294 469 0
-295 469 0
-296 469 0
293 -469 289 292 290 291 294 295 296 0
-297 470 0
-298 470 0
-299 470 0
-300 470 0
-301 470 0
-302 470 0
-303 470 0
297 -470 289 298 299 300 301 302 303 0
341 340 334 333 329 330 331 332 327 328 335 336 337 338 339 325 326 342 343 344 345 346 347 348 349 350 351 352 353 354 355 356 357 358 359 360 0
-326 478 0
-327 478 0
-328 478 0
-329 478 0
-330 478 0
-331 478 0
-332 478 0
-325 479 0
-333 479 0
-334 479 0
-335 479 0
-336 479 0
-337 479 0
-338 479 0
-339 479 0
334 333 325 -479 335 336 337 338 339 0
370 361 -488 369 371 372 373 374 375 0
2428 0
-2527 0
-2429 0
-2528 0
-1 2536 2429 -2428 0
397 2437 -2428 0
-2437 -2536 -397 -2428 0
398 -2438 2429 0
-398 2438 -2536 2429 0
2446 406 -2437 0
2437 -2446 406 0
-2438 2447 407 0
2438 -2447 407 0
-2538 -73 -2447 0
2538 -73 -2446 2447 0
2455 -2446 415 0
2446 -2455 415 0
2538 2455 -2446 0
-2538 -415 -2446 -2455 0
-2447 2456 416 0
2447 -2456 416 0
-2538 2447 -416 2456 0
-2539 -109 -2456 0
2464 -2455 424 0
2455 -2464 424 0
2539 2464 -2455 0
-2539 -424 2455 2464 0
-2456 2465 425 0
2456 -2465 425 0
2539 2465 -2456 0
-2539 -425 2465 2456 0
-2540 -145 -2465 0
2473 -2464 433 0
2464 -2473 433 0
2540 2473 -2464 0
-2465 2474 434 0
2465 -2474 434 0
-2540 -434 2465 2474 0
-2541 -181 -2474 0
2482 -2473 442 0
2473 -2482 442 0
2541 2482 -2473 0
-2541 2473 -442 2482 0
-2474 2483 443 0
2474 -2483 443 0
2541 2483 -2474 0
-2541 2483 -443 2474 0
-2542 -217 -2483 0
2491 -2482 451 0
2482 451 -2491 0
2542 2491 -2482 0
-2542 2482 -451 2491 0
-2542 -451 -2491 -2482 0
-2483 2492 452 0
2483 -2492 452 0
2542 2492 -2483 0
2542 2483 -2492 0
-2542 2492 -452 2483 0
-2543 -253 -2492 0
-261 -2543 2492 0
-2543 2492 -262 0
-263 -2543 2492 0
-264 -2543 2492 0
-265 -2543 2492 0
-266 -2543 2492 0
-267 -2543 2492 0
2500 -2491 460 0
2491 460 -2500 0
2543 2500 -2491 0
-2492 461 2501 0
2492 461 -2501 0
-2543 2501 -461 2492 0
-289 -2501 -2544 0
2509 469 -2500 0
2500 -2509 469 0
2544 2509 -2500 0
-2501 2510 470 0
2501 -2544 2510 -470 0
-2510 -325 -2545 0
-2509 478 2518 0
2545 -2509 2518 0
2509 -478 -2545 2518 0
-2510 479 2519 0
2545 -2510 2519 0
2510 -2545 -479 2519 0
-361 -2546 -2519 0
487 -2518 2527 0
-2518 2546 2527 0
488 -2519 2528 0
-488 -2546 2519 2528 0
5641 0
-5740 0
5642 0
5741 0
5643 0
-1 -5749 -5642 0
-5749 -9 -5643 0
397 5650 -5641 0
5749 5650 -5641 0
5749 5651 -5642 0
-5750 -37 -5651 0
5659 406 -5650 0
5659 5750 -5650 0
5660 -5651 407 0
5668 -5659 415 0
5669 -5660 416 0
5677 -5668 424 0
5678 -5669 425 0
5686 -5677 433 0
5687 -5678 434 0
5695 -5686 442 0
5696 -5687 443 0
5704 -5695 451 0
5705 -5696 452 0
5713 -5704 460 0
5714 -5705 461 0
-5713 5722 469 0
5723 -5714 470 0
-5722 478 5731 0
5732 -5723 479 0
487 -5731 5740 0
-5731 5759 5740 0
-5732 -5759 -488 -5741 0
-5879 0
-5978 0
5880 0
-5979 0
5882 0
5883 0
5884 0
5885 0
5886 0
5887 0
-5987 -1 -5880 0
-5987 -2 5879 0
-5987 -3 -5882 0
-5987 -4 -5883 0
-5987 -5 -5884 0
-5987 -6 -5885 0
-5987 -7 -5886 0
-5987 -8 -5887 0
-5987 -10 -5882 0
-5987 -11 -5883 0
-5987 -12 -5884 0
-5987 -13 -5885 0
-5987 -14 -5886 0
-15 -5987 -5887 0
-5888 397 5879 0
5987 -5888 5879 0
398 5889 -5880 0
5987 5889 -5880 0
-5988 -37 -5889 0
-38 -5988 5888 0
-39 -5988 5888 0
-40 -5988 5888 0
-41 -5988 5888 0
-42 -5988 5888 0
-43 -5988 5888 0
-44 -5988 5888 0
-5897 406 5888 0
-5988 -406 5897 5888 0
5898 407 -5889 0
5898 5988 -5889 0
-5989 -73 -5898 0
-5897 5906 415 0
-5906 5897 415 0
-5989 -415 5906 5897 0
5907 -5898 416 0
5989 5907 -5898 0
-5990 -109 -5907 0
-110 -5990 5906 0
-111 -5990 5906 0
-112 -5990 5906 0
-113 -5990 5906 0
-114 -5990 5906 0
-115 -5990 5906 0
-116 -5990 5906 0
-5906 5915 424 0
-5915 5906 424 0
5916 -5907 425 0
5990 5916 -5907 0
-5991 -145 -5916 0
-146 -5991 5915 0
-147 -5991 5915 0
-148 -5991 5915 0
-149 -5991 5915 0
-150 -5991 5915 0
-151 -5991 5915 0
-152 -5991 5915 0
-5915 5924 433 0
-5924 5915 433 0
-5991 -433 5915 5924 0
5925 -5916 434 0
5991 5925 -5916 0
-5992 -181 -5925 0
-5924 5933 442 0
-5933 5924 442 0
-5992 -442 5924 5933 0
5934 -5925 443 0
5992 5934 -5925 0
-5993 -217 -5934 0
-5933 5993 5934 -217 0
-5933 5942 451 0
-5942 5933 451 0
-5993 -451 5942 5933 0
5943 -5934 452 0
5993 5943 -5934 0
-5993 5934 -452 5943 0
-5994 -253 -5943 0
-5942 5943 -253 5994 0
-5942 5951 460 0
-5951 5942 460 0
-5994 -460 5951 5942 0
5952 -5943 461 0
5994 5952 -5943 0
-5994 5943 -461 5952 0
-5995 -5952 -289 0
-290 -5995 5951 0
-291 -5995 5951 0
-292 -5995 5951 0
-5995 -293 5951 0
-294 -5995 5951 0
-295 -5995 5951 0
-296 -5995 5951 0
-5951 5960 469 0
-5960 5951 469 0
-5952 5961 470 0
5995 -5952 5961 0
-5996 -5961 -325 0
-5960 478 5969 0
-5996 5960 -478 5969 0
-5961 479 5970 0
5996 -5961 5970 0
-5997 -5970 -361 0
487 -5969 5978 0
5997 -5969 5978 0
488 -5970 5979 0
5997 -5970 5979 0
-488 -5997 5970 5979 0
5998 0
-6097 0
-5999 0
6098 0
6000 0
6001 0
6002 0
6003 0
6004 0
6005 0
6006 0
-6106 -9 -6000 0
-6106 -10 -6001 0
-6106 -11 -6002 0
-6106 -12 -6003 0
-6106 -13 -6004 0
-6106 -14 -6005 0
-6106 -15 -6006 0
6007 397 -5998 0
-6008 398 5999 0
-6008 6106 5999 0
-45 -6107 6008 0
-46 -6107 6008 0
-47 -6107 6008 0
-48 -6107 6008 0
-49 -6107 6008 0
-50 -6107 6008 0
-51 -6107 6008 0
6016 406 -6007 0
407 6008 -6017 0
6107 -6017 6008 0
-81 -6108 6017 0
-82 -6108 6017 0
-83 -6108 6017 0
-84 -6108 6017 0
-85 -6108 6017 0
-86 -6108 6017 0
-87 -6108 6017 0
6025 -6016 415 0
416 -6026 6017 0
6108 -6026 6017 0
-117 -6109 6026 0
-118 -6109 6026 0
-119 -6109 6026 0
-120 -6109 6026 0
-121 -6109 6026 0
-122 -6109 6026 0
-123 -6109 6026 0
6034 -6025 424 0
-6035 6026 425 0
6109 -6035 6026 0
-153 -6110 6035 0
-154 -6110 6035 0
-155 -6110 6035 0
-156 -6110 6035 0
-157 -6110 6035 0
-158 -6110 6035 0
-159 -6110 6035 0
6043 -6034 433 0
-6044 6035 434 0
6110 -6044 6035 0
-189 -6111 6044 0
-190 -6111 6044 0
-191 -6111 6044 0
-192 -6111 6044 0
-193 -6111 6044 0
-194 -6111 6044 0
-195 -6111 6044 0
6052 -6043 442 0
443 -6053 6044 0
6111 -6053 6044 0
-225 -6112 6053 0
-226 -6112 6053 0
-227 -6112 6053 0
-228 -6112 6053 0
-229 -6112 6053 0
-230 -6112 6053 0
-231 -6112 6053 0
6112 6061 -6052 0
452 6053 -6062 0
6112 -6062 6053 0
-6112 -452 6062 6053 0
6113 -253 6062 -6061 0
-261 -6113 6062 0
-262 -6113 6062 0
-263 -6113 6062 0
-264 -6113 6062 0
-265 -6113 6062 0
-266 -6113 6062 0
-267 -6113 6062 0
6070 -6061 460 0
6113 6061 -6070 0
461 -6071 6062 0
6113 -6071 6062 0
-6113 6071 -461 6062 0
-6114 6070 -289 0
-290 6070 -6114 0
-291 6070 -6114 0
-292 6070 -6114 0
-293 6070 -6114 0
-294 6070 -6114 0
-295 6070 -6114 0
-296 6070 -6114 0
-297 -6114 6071 0
-298 -6114 6071 0
-299 -6114 6071 0
-300 -6114 6071 0
-301 -6114 6071 0
-302 -6114 6071 0
-303 -6114 6071 0
6070 -6079 469 0
6070 6114 -6079 0
-6080 6071 470 0
6114 -6080 6071 0
6079 -325 -6115 0
-333 -6115 6080 0
-334 -6115 6080 0
-335 -6115 6080 0
-336 -6115 6080 0
-337 -6115 6080 0
-338 -6115 6080 0
-339 -6115 6080 0
-6079 478 6088 0
6079 478 -6088 0
-6089 479 6080 0
6115 -6089 6080 0
-361 -6116 6088 0
-369 -6116 6089 0
-370 -6116 6089 0
-371 -6116 6089 0
-372 -6116 6089 0
-373 -6116 6089 0
-374 -6116 6089 0
-375 -6116 6089 0
487 -6088 6097 0
6089 488 -6098 0
6089 6116 -6098 0
-397 8945 0
8945 -398 0
-406 8946 0
8946 -407 0
-415 8947 0
8947 -416 0
-424 8948 0
-425 8948 0
-433 8949 0
-434 8949 0
-442 8950 0
8950 -443 0
-451 8951 0
8951 -452 0
-460 8952 0
8952 -461 0
-469 8953 0
-470 8953 0
-478 8954 0
8954 -479 0
-487 8955 0
8955 -488 0
8956 -8945 0
8957 -8956 0
-8946 -8956 8958 0
-8958 8959 0
-8958 -8947 0
8957 -8946 0
8960 -8957 0
-8947 -8957 8959 0
-8959 8961 0
-8959 -8948 0
8960 -8947 0
8962 -8960 0
-8948 -8960 8961 0
-8961 8963 0
-8961 -8949 0
-8948 8962 0
8964 -8962 0
-8949 -8962 8963 0
-8963 8965 0
-8963 -8950 0
-8949 8964 0
8966 -8964 0
-8950 -8964 8965 0
-8965 8967 0
-8965 -8951 0
8966 -8950 0
8968 -8966 0
-8951 -8966 8967 0
-8967 8969 0
-8967 -8952 0
8968 -8951 0
8970 -8968 0
-8968 -8952 8969 0
-8969 8971 0
-8953 -8969 0
8970 -8952 0
8972 -8970 0
-8953 -8970 8971 0
-8971 8973 0
-8971 -8954 0
8972 -8953 0
-8954 -8972 8973 0
-8973 -8955 0
8982 -470 6071 0
8983 -479 6080 0
8984 6089 -488 0
9001 -8982 0
-9001 -8983 9002 0
-9002 -8984 0
-16 -37 0
-17 -37 0
-18 -37 0
-19 -37 0
-20 -37 0
-21 -37 0
-22 -37 0
-23 -37 0
-24 -37 0
-25 -37 0
-26 -37 0
-27 -37 0
-28 -37 0
-29 -37 0
-30 -37 0
-31 -37 0
-32 -37 0
-33 -37 0
-34 -37 0
-35 -37 0
-36 -37 0
-52 -73 0
-53 -73 0
-54 -73 0
-55 -73 0
-56 -73 0
-57 -73 0
-58 -73 0
-59 -73 0
-60 -73 0
-61 -73 0
-62 -73 0
-63 -73 0
-64 -73 0
-65 -73 0
-66 -73 0
-67 -73 0
-68 -73 0
-69 -73 0
-70 -73 0
-71 -73 0
-72 -73 0
-88 -109 0
-89 -109 0
-90 -109 0
-91 -109 0
-92 -109 0
-93 -109 0
-94 -109 0
-95 -109 0
-96 -109 0
-97 -109 0
-98 -109 0
-99 -109 0
-100 -109 0
-101 -109 0
-102 -109 0
-103 -109 0
-104 -109 0
-105 -109 0
-106 -109 0
-107 -109 0
-108 -109 0
-124 -145 0
-125 -145 0
-126 -145 0
-127 -145 0
-128 -145 0
-129 -145 0
-130 -145 0
-131 -145 0
-132 -145 0
-133 -145 0
-134 -145 0
-135 -145 0
-136 -145 0
-137 -145 0
-138 -145 0
-139 -145 0
-140 -145 0
-141 -145 0
-142 -145 0
-143 -145 0
-144 -145 0
-160 -181 0
-161 -181 0
-162 -181 0
-163 -181 0
-164 -181 0
-165 -181 0
-166 -181 0
-167 -181 0
-168 -181 0
-169 -181 0
-170 -181 0
-171 -181 0
-172 -181 0
-173 -181 0
-174 -181 0
-175 -181 0
-176 -181 0
-177 -181 0
-178 -181 0
-179 -181 0
-180 -181 0
-196 -217 0
-197 -217 0
-198 -217 0
-199 -217 0
-200 -217 0
-201 -217 0
-202 -217 0
-203 -217 0
-204 -217 0
-205 -217 0
-206 -217 0
-207 -217 0
-208 -217 0
-209 -217 0
-210 -217 0
-211 -217 0
-212 -217 0
-213 -217 0
-214 -217 0
-215 -217 0
-216 -217 0
-232 -253 0
-233 -253 0
-234 -253 0
-235 -253 0
-236 -253 0
-237 -253 0
-238 -253 0
-239 -253 0
-240 -253 0
-241 -253 0
-242 -253 0
-243 -253 0
-244 -253 0
-245 -253 0
-246 -253 0
-247 -253 0
-248 -253 0
-249 -253 0
-250 -253 0
-251 -253 0
-252 -253 0
-268 -289 0
-269 -289 0
-270 -289 0
-271 -289 0
-272 -289 0
-273 -289 0
-274 -289 0
-275 -289 0
-276 -289 0
-277 -289 0
-278 -289 0
-279 -289 0
-280 -289 0
-281 -289 0
-282 -289 0
-283 -289 0
-284 -289 0
-285 -289 0
-286 -289 0
-287 -289 0
-288 -289 0
-304 -325 0
-305 -325 0
-306 -325 0
-307 -325 0
-308 -325 0
-309 -325 0
-310 -325 0
-311 -325 0
-312 -325 0
-313 -325 0
-314 -325 0
-315 -325 0
-316 -325 0
-317 -325 0
-318 -325 0
-319 -325 0
-320 -325 0
-321 -325 0
-322 -325 0
-323 -325 0
-324 -325 0
-340 -361 0
-341 -361 0
-342 -361 0
-343 -361 0
-344 -361 0
-345 -361 0
-346 -361 0
-347 -361 0
-348 -361 0
-349 -361 0
-350 -361 0
-351 -361 0
-352 -361 0
-353 -361 0
-354 -361 0
-355 -361 0
-356 -361 0
-357 -361 0
-358 -361 0
-359 -361 0
-360 -361 0
