p cnf 9789 876
27 26 4 9 5 6 7 8 1 10 11 12 13 14 15 3 2 16 17 18 19 20 21 22 23 24 25 28 29 30 31 32 33 34 35 36 0
397 -1 0
397 -2 0
397 -3 0
397 -4 0
397 -5 0
397 -6 0
397 -7 0
397 -8 0
398 -9 0
398 -10 0
398 -11 0
398 -12 0
398 -13 0
398 -14 0
398 -15 0
52 53 37 40 41 42 43 44 45 46 47 48 49 50 51 39 38 54 55 56 57 58 59 60 61 62 63 64 65 66 67 68 69 70 71 72 0
-37 406 0
-38 406 0
-39 406 0
-40 406 0
-41 406 0
-42 406 0
-43 406 0
-44 406 0
407 -37 0
-45 407 0
-46 407 0
-47 407 0
-48 407 0
-49 407 0
-50 407 0
-51 407 0
45 -407 37 46 47 48 49 50 51 0
89 88 75 76 77 78 79 80 81 82 83 84 85 86 87 73 74 90 91 92 93 94 95 96 97 98 99 100 101 102 103 104 105 106 107 108 0
-73 415 0
-74 415 0
-75 415 0
-76 415 0
-77 415 0
-78 415 0
-79 415 0
-80 415 0
416 -73 0
-81 416 0
-82 416 0
-83 416 0
-84 416 0
-85 416 0
-86 416 0
-87 416 0
82 -416 73 81 83 84 85 86 87 0
125 124 111 112 113 114 115 116 117 118 119 120 121 122 123 109 110 126 127 128 129 130 131 132 133 134 135 136 137 138 139 140 141 142 143 144 0
-109 424 0
-110 424 0
-111 424 0
-112 424 0
-113 424 0
-114 424 0
-115 424 0
-116 424 0
-109 425 0
-117 425 0
-118 425 0
-119 425 0
-120 425 0
-121 425 0
-122 425 0
-123 425 0
117 -425 109 118 119 120 121 122 123 0
161 160 155 156 149 150 151 152 146 147 145 148 157 158 159 153 154 162 163 164 165 166 167 168 169 170 171 172 173 174 175 176 177 178 179 180 0
-145 433 0
-146 433 0
-147 433 0
-148 433 0
-149 433 0
-150 433 0
-151 433 0
-152 433 0
-153 434 0
-154 434 0
-155 434 0
-156 434 0
-157 434 0
-158 434 0
-159 434 0
154 -434 145 153 155 156 157 158 159 0
197 196 183 184 185 186 187 188 189 190 191 192 193 194 195 181 182 198 199 200 201 202 203 204 205 206 207 208 209 210 211 212 213 214 215 216 0
-181 442 0
-182 442 0
-183 442 0
-184 442 0
-185 442 0
-186 442 0
-187 442 0
-188 442 0
-189 443 0
-190 443 0
-191 443 0
-192 443 0
-193 443 0
-194 443 0
-195 443 0
190 -443 181 189 191 192 193 194 195 0
233 232 219 220 221 222 223 224 225 226 227 228 229 230 231 217 218 234 235 236 237 238 239 240 241 242 243 244 245 246 247 248 249 250 251 252 0
-217 451 0
-218 451 0
-219 451 0
-220 451 0
-221 451 0
-222 451 0
-223 451 0
-224 451 0
-225 452 0
-226 452 0
-227 452 0
-228 452 0
-229 452 0
-230 452 0
-231 452 0
226 -452 217 225 227 228 229 230 231 0
255 256 269 268 257 258 259 260 261 262 263 264 265 266 267 253 254 270 271 272 273 274 275 276 277 278 279 280 281 282 283 284 285 286 287 288 0
-253 460 0
-254 460 0
-255 460 0
-256 460 0
-257 460 0
-258 460 0
-259 460 0
-260 460 0
-261 461 0
-262 461 0
-263 461 0
-264 461 0
-265 461 0
-266 461 0
-267 461 0
262 263 253 -461 261 264 265 266 267 0
305 304 297 298 293 294 295 291 292 296 299 300 301 302 303 289 290 306 307 308 309 310 311 312 313 314 315 316 317 318 319 320 321 322 323 324 0
-290 469 0
-291 469 0
-292 469 0
-293 469 0
-294 469 0
-295 469 0
-296 469 0
289 -469 291 290 292 293 294 295 296 0
-289 470 0
-297 470 0
-298 470 0
-299 470 0
-300 470 0
-301 470 0
-302 470 0
-303 470 0
289 -470 298 297 299 300 301 302 303 0
341 340 327 328 329 330 331 332 333 334 335 336 337 338 339 325 326 342 343 344 345 346 347 348 349 350 351 352 353 354 355 356 357 358 359 360 0
-325 478 0
-326 478 0
-327 478 0
-328 478 0
-329 478 0
-330 478 0
-331 478 0
-332 478 0
479 -325 0
-333 479 0
-334 479 0
-335 479 0
-336 479 0
-337 479 0
-338 479 0
-339 479 0
334 333 325 -479 335 336 337 338 339 0
370 369 -488 361 371 372 373 374 375 0
2309 0
-2408 0
-2310 0
-2409 0
-1 2417 2310 -2309 0
397 2318 -2309 0
2417 2318 -2309 0
398 -2319 2310 0
-398 -2417 2319 2310 0
2327 -2318 406 0
2418 2327 -2318 0
-2319 2328 407 0
-2328 2319 407 0
-2418 2328 -407 2319 0
-2419 -2328 -73 0
2336 -2327 415 0
2419 2336 -2327 0
-2328 2337 416 0
-2337 2328 416 0
2419 -2328 2337 0
-2419 2337 -416 2328 0
-2337 -2420 -109 0
2345 -2336 424 0
2420 2345 -2336 0
-2337 2346 425 0
-2346 2337 425 0
-2337 2420 2346 0
-2420 -425 2337 2346 0
-2346 -2421 -145 0
2354 -2345 433 0
2421 2354 -2345 0
-2346 2355 434 0
-2355 2346 434 0
-2346 2421 2355 0
-2421 -434 2346 2355 0
-2355 -2422 -181 0
2422 -181 2355 -2354 0
2363 -2354 442 0
2422 2363 -2354 0
-2422 -442 -2363 -2354 0
-2355 2364 443 0
-2364 2355 443 0
-2422 -443 2355 2364 0
-2423 -2364 -217 0
2372 -2363 451 0
2363 -2372 451 0
2423 2372 -2363 0
2373 -2364 452 0
-2373 2364 452 0
2423 -2364 2373 0
-2423 2373 -452 2364 0
-2424 -2373 -253 0
-261 -2424 2373 0
-2424 2373 -262 0
-263 -2424 2373 0
-264 -2424 2373 0
-265 -2424 2373 0
-266 -2424 2373 0
-267 -2424 2373 0
2381 -2372 460 0
2372 460 -2381 0
2424 2381 -2372 0
-2373 461 2382 0
2373 461 -2382 0
-2424 2382 -461 2373 0
-289 -2425 -2382 0
2382 -2381 -289 2425 0
2390 469 -2381 0
-2382 470 2391 0
-2391 2382 470 0
-2382 2425 2391 0
2382 -2425 -470 2391 0
478 -2390 2399 0
2426 -2390 2399 0
-2391 479 2400 0
-2426 2391 -479 2400 0
-2400 -2427 -361 0
487 -2399 2408 0
2427 -2399 2408 0
-2400 488 2409 0
2427 -2400 2409 0
-488 -2427 2400 2409 0
2666 0
-2765 0
-2766 0
397 2675 -2666 0
2684 -2675 406 0
2693 -2684 415 0
-2685 2694 416 0
2702 -2693 424 0
-2694 2703 425 0
2711 -2702 433 0
-2703 2712 434 0
2720 -2711 442 0
-2712 2721 443 0
2729 -2720 451 0
-2721 2730 452 0
-2729 460 2738 0
-2730 461 2739 0
-2738 2747 469 0
-2739 2748 470 0
-2748 -2783 -325 0
-2747 478 2756 0
2783 -2747 2756 0
-2748 479 2757 0
-2783 2748 -479 2757 0
487 -2756 2765 0
488 -2757 2766 0
6117 0
-6216 0
6118 0
6217 0
6119 0
-6225 -1 -6118 0
-9 -6225 -6119 0
6225 6126 -6117 0
6225 6127 -6118 0
6135 -6126 406 0
6226 6135 -6126 0
6136 -6127 407 0
-6226 -6127 -407 -6136 0
6144 -6135 415 0
6227 6144 -6135 0
6145 -6136 416 0
6136 -6145 416 0
-6227 -6136 -416 -6145 0
6153 -6144 424 0
6228 6153 -6144 0
6154 -6145 425 0
6145 -6154 425 0
-6228 -425 -6145 -6154 0
6162 -6153 433 0
6229 6162 -6153 0
6163 -6154 434 0
6154 -6163 434 0
-6229 -434 -6154 -6163 0
6171 -6162 442 0
6172 -6163 443 0
6163 -6172 443 0
6180 -6171 451 0
6181 -6172 452 0
6172 -6181 452 0
-6180 460 6189 0
6190 -6181 461 0
6181 461 -6190 0
-6189 6198 469 0
6233 -6189 6198 0
6199 -6190 470 0
6190 -6199 470 0
-6233 -6190 -470 -6199 0
-6198 478 6207 0
6234 -6198 6207 0
-6199 479 6208 0
6199 479 -6208 0
-6234 -6199 -479 -6208 0
-6207 487 6216 0
6235 -6207 6216 0
488 6208 -6217 0
-6208 -6235 -488 -6217 0
6236 0
-6335 0
-6237 0
-6336 0
-1 6344 6237 -6236 0
-6344 -6245 -397 -6236 0
-398 -6344 6246 6237 0
-6254 6245 406 0
6255 -6246 407 0
-6263 6254 415 0
6264 -6255 416 0
-6272 6263 424 0
6273 -6264 425 0
-6281 6272 433 0
-6273 6282 434 0
-6308 6317 469 0
-6309 6318 470 0
-6317 478 6326 0
-6318 479 6327 0
487 -6326 6335 0
488 -6327 6336 0
-6355 0
-6454 0
6356 0
-6455 0
6358 0
6359 0
6360 0
6361 0
6362 0
6363 0
-6463 -1 -6356 0
-6463 -2 6355 0
-6463 -3 -6358 0
-6463 -4 -6359 0
-6463 -5 -6360 0
-6463 -6 -6361 0
-6463 -7 -6362 0
-6463 -8 -6363 0
-6463 -10 -6358 0
-6463 -11 -6359 0
-6463 -12 -6360 0
-6463 -13 -6361 0
-6463 -14 -6362 0
-6463 -15 -6363 0
-6364 397 6355 0
6463 -6364 6355 0
398 6365 -6356 0
6463 6365 -6356 0
-6365 -6463 -398 -6356 0
-6464 -37 -6365 0
-6373 6364 406 0
6374 -6365 407 0
-6374 407 6365 0
6464 6374 -6365 0
-73 -6374 -6465 0
-6382 6373 415 0
6383 -6374 416 0
6374 -6383 416 0
6465 6383 -6374 0
-6466 -109 -6383 0
-6391 6382 424 0
6392 -6383 425 0
6466 6392 -6383 0
-6467 -145 -6392 0
-6400 6391 433 0
-6467 -433 6391 6400 0
6401 -6392 434 0
6467 6401 -6392 0
-6468 -181 -6401 0
-6400 6401 -181 6468 0
-6409 6400 442 0
-6468 -442 6400 6409 0
6410 -6401 443 0
6468 6410 -6401 0
-6468 6401 -443 6410 0
-6469 -217 -6410 0
-6409 6418 451 0
-6418 6409 451 0
-6469 -451 6409 6418 0
6419 -6410 452 0
6419 6469 -6410 0
-6470 -253 -6419 0
-6418 460 6427 0
-6427 6418 460 0
-6418 6470 6427 0
-6470 -460 6418 6427 0
-6419 461 6428 0
6470 -6419 6428 0
-6470 6419 -461 6428 0
-6471 -6428 -289 0
-290 -6471 6427 0
-291 -6471 6427 0
-292 -6471 6427 0
-293 -6471 6427 0
-294 -6471 6427 0
-295 -6471 6427 0
-296 -6471 6427 0
-6427 6436 469 0
-6436 6427 469 0
-6428 6437 470 0
6471 -6428 6437 0
-6472 -325 -6437 0
-6436 478 6445 0
-6437 479 6446 0
6472 -6437 6446 0
-6473 -6446 -361 0
487 -6445 6454 0
-6446 488 6455 0
-6446 6473 6455 0
6474 0
-6475 0
6574 0
6476 0
6477 0
6478 0
6479 0
6480 0
6481 0
6482 0
6582 -1 6475 -6474 0
-6582 -2 -6476 0
-6582 -3 -6477 0
-6582 -4 -6478 0
-6582 -5 -6479 0
-6582 -6 -6480 0
-6582 -7 -6481 0
-6582 -8 -6482 0
-6582 -9 -6476 0
-6582 -10 -6477 0
-6582 -11 -6478 0
-6582 -12 -6479 0
-6582 -13 -6480 0
-6582 -14 -6481 0
-6582 -15 -6482 0
-6582 -16 -6477 0
-6582 -17 -6478 0
-6582 -18 -6479 0
-6582 -19 -6480 0
-6582 -20 -6481 0
-6582 -21 -6482 0
-6582 -22 -6478 0
-6582 -23 -6479 0
-6582 -24 -6480 0
-6582 -25 -6481 0
-6582 -26 -6482 0
-6582 -27 -6479 0
-6582 -28 -6480 0
-6582 -29 -6481 0
-6582 -30 -6482 0
-6582 -31 -6480 0
-6582 -32 -6481 0
-6582 -33 -6482 0
-6582 -34 -6481 0
-6582 -35 -6482 0
-6582 -36 -6482 0
6483 397 -6474 0
-6582 -6483 -397 -6474 0
398 -6484 6475 0
-6484 6582 6475 0
-37 -6583 6483 0
-45 -6583 6484 0
-46 -6583 6484 0
-47 -6583 6484 0
-48 -6583 6484 0
-49 -6583 6484 0
-50 -6583 6484 0
-51 -6583 6484 0
6492 406 -6483 0
6484 407 -6493 0
6583 6484 -6493 0
-81 -6584 6493 0
-82 -6584 6493 0
-83 -6584 6493 0
-84 -6584 6493 0
-85 -6584 6493 0
-86 -6584 6493 0
-87 -6584 6493 0
6501 -6492 415 0
6493 416 -6502 0
6584 6493 -6502 0
-117 -6585 6502 0
-118 -6585 6502 0
-119 -6585 6502 0
-120 -6585 6502 0
-121 -6585 6502 0
-122 -6585 6502 0
-123 -6585 6502 0
6510 -6501 424 0
6502 -6511 425 0
6585 6502 -6511 0
-153 -6586 6511 0
-154 -6586 6511 0
-155 -6586 6511 0
-156 -6586 6511 0
-157 -6586 6511 0
-158 -6586 6511 0
-159 -6586 6511 0
6519 -6510 433 0
6511 -6520 434 0
6586 6511 -6520 0
-189 -6587 6520 0
-190 -6587 6520 0
-191 -6587 6520 0
-192 -6587 6520 0
-193 -6587 6520 0
-194 -6587 6520 0
-195 -6587 6520 0
6528 -6519 442 0
6520 -6529 443 0
6587 6520 -6529 0
6528 -217 -6588 0
-225 -6588 6529 0
-226 -6588 6529 0
-227 -6588 6529 0
-228 -6588 6529 0
-229 -6588 6529 0
-230 -6588 6529 0
-231 -6588 6529 0
6537 -6528 451 0
6528 -6537 451 0
-6528 -451 -6537 -6588 0
6529 452 -6538 0
6588 6529 -6538 0
6537 -253 -6589 0
-261 -6589 6538 0
-262 -6589 6538 0
-263 -6589 6538 0
-264 -6589 6538 0
-265 -6589 6538 0
-266 -6589 6538 0
-267 -6589 6538 0
6546 -6537 460 0
6537 460 -6546 0
-460 -6537 -6589 -6546 0
461 6538 -6547 0
6589 6538 -6547 0
-297 -6590 6547 0
-298 -6590 6547 0
-299 -6590 6547 0
-300 -6590 6547 0
-301 -6590 6547 0
-302 -6590 6547 0
-303 -6590 6547 0
-6555 6546 469 0
470 6547 -6556 0
6590 6547 -6556 0
-333 -6591 6556 0
-334 -6591 6556 0
-335 -6591 6556 0
-336 -6591 6556 0
-337 -6591 6556 0
-338 -6591 6556 0
-339 -6591 6556 0
6555 -6564 478 0
479 6556 -6565 0
6591 -6565 6556 0
-6592 -361 6564 0
-369 -6592 6565 0
-370 -6592 6565 0
-371 -6592 6565 0
-372 -6592 6565 0
-373 -6592 6565 0
-374 -6592 6565 0
-375 -6592 6565 0
6565 488 -6574 0
6565 6592 -6574 0
9686 -397 0
-398 9686 0
-406 9687 0
-407 9687 0
-415 9688 0
-416 9688 0
-424 9689 0
-425 9689 0
-433 9690 0
-434 9690 0
-442 9691 0
-443 9691 0
-451 9692 0
-452 9692 0
-460 9693 0
9693 -461 0
-469 9694 0
9694 -470 0
-478 9695 0
9695 -479 0
-487 9696 0
9696 -488 0
-9686 9697 0
-9697 9698 0
-9687 -9697 9699 0
-9699 9700 0
-9699 -9688 0
-9687 9698 0
-9698 9701 0
-9688 -9698 9700 0
-9700 9702 0
-9700 -9689 0
-9688 9701 0
-9701 9703 0
-9689 -9701 9702 0
-9702 9704 0
-9702 -9690 0
-9689 9703 0
-9703 9705 0
-9690 -9703 9704 0
-9704 9706 0
-9704 -9691 0
-9690 9705 0
-9705 9707 0
-9691 -9705 9706 0
-9706 9708 0
-9706 -9692 0
-9691 9707 0
-9707 9709 0
-9692 -9707 9708 0
-9708 9710 0
-9708 -9693 0
-9692 9709 0
9711 -9709 0
-9709 -9693 9710 0
-9710 9712 0
-9710 -9694 0
9711 -9693 0
9713 -9711 0
-9711 -9694 9712 0
-9712 9714 0
-9712 -9695 0
9713 -9694 0
-9695 -9713 9714 0
-9714 -9696 0
-16 -37 0
-17 -37 0
-18 -37 0
-19 -37 0
-20 -37 0
-21 -37 0
-22 -37 0
-23 -37 0
-24 -37 0
-25 -37 0
-26 -37 0
-37 -27 0
-28 -37 0
-29 -37 0
-30 -37 0
-31 -37 0
-32 -37 0
-33 -37 0
-34 -37 0
-35 -37 0
-36 -37 0
-52 -73 0
-53 -73 0
-54 -73 0
-55 -73 0
-56 -73 0
-57 -73 0
-58 -73 0
-59 -73 0
-60 -73 0
-61 -73 0
-62 -73 0
-63 -73 0
-64 -73 0
-65 -73 0
-66 -73 0
-67 -73 0
-68 -73 0
-69 -73 0
-70 -73 0
-71 -73 0
-72 -73 0
-88 -109 0
-89 -109 0
-90 -109 0
-91 -109 0
-92 -109 0
-93 -109 0
-94 -109 0
-95 -109 0
-96 -109 0
-97 -109 0
-98 -109 0
-99 -109 0
-100 -109 0
-101 -109 0
-102 -109 0
-103 -109 0
-104 -109 0
-105 -109 0
-106 -109 0
-107 -109 0
-108 -109 0
-124 -145 0
-125 -145 0
-126 -145 0
-127 -145 0
-128 -145 0
-129 -145 0
-130 -145 0
-131 -145 0
-132 -145 0
-133 -145 0
-134 -145 0
-135 -145 0
-136 -145 0
-137 -145 0
-138 -145 0
-139 -145 0
-140 -145 0
-141 -145 0
-142 -145 0
-143 -145 0
-144 -145 0
-160 -181 0
-161 -181 0
-162 -181 0
-163 -181 0
-164 -181 0
-165 -181 0
-166 -181 0
-167 -181 0
-168 -181 0
-169 -181 0
-170 -181 0
-171 -181 0
-172 -181 0
-173 -181 0
-174 -181 0
-175 -181 0
-176 -181 0
-177 -181 0
-178 -181 0
-179 -181 0
-180 -181 0
-196 -217 0
-197 -217 0
-198 -217 0
-199 -217 0
-200 -217 0
-201 -217 0
-202 -217 0
-203 -217 0
-204 -217 0
-205 -217 0
-206 -217 0
-207 -217 0
-208 -217 0
-209 -217 0
-210 -217 0
-211 -217 0
-212 -217 0
-213 -217 0
-214 -217 0
-215 -217 0
-216 -217 0
-232 -253 0
-233 -253 0
-234 -253 0
-235 -253 0
-236 -253 0
-237 -253 0
-238 -253 0
-239 -253 0
-240 -253 0
-241 -253 0
-242 -253 0
-243 -253 0
-244 -253 0
-245 -253 0
-246 -253 0
-247 -253 0
-248 -253 0
-249 -253 0
-250 -253 0
-251 -253 0
-252 -253 0
-268 -289 0
-269 -289 0
-270 -289 0
-271 -289 0
-272 -289 0
-273 -289 0
-274 -289 0
-275 -289 0
-276 -289 0
-277 -289 0
-278 -289 0
-279 -289 0
-280 -289 0
-281 -289 0
-282 -289 0
-283 -289 0
-284 -289 0
-285 -289 0
-286 -289 0
-287 -289 0
-288 -289 0
-304 -325 0
-305 -325 0
-306 -325 0
-307 -325 0
-308 -325 0
-309 -325 0
-310 -325 0
-311 -325 0
-312 -325 0
-313 -325 0
-314 -325 0
-315 -325 0
-316 -325 0
-317 -325 0
-318 -325 0
-319 -325 0
-320 -325 0
-321 -325 0
-322 -325 0
-323 -325 0
-324 -325 0
-340 -361 0
-341 -361 0
-342 -361 0
-343 -361 0
-344 -361 0
-345 -361 0
-346 -361 0
-347 -361 0
-348 -361 0
-349 -361 0
-350 -361 0
-351 -361 0
-352 -361 0
-353 -361 0
-354 -361 0
-355 -361 0
-356 -361 0
-357 -361 0
-358 -361 0
-359 -361 0
-360 -361 0
