p cnf 9435 2983
3 7 27 9 2 28 6 1 16 8 10 11 12 13 14 15 5 36 25 33 17 32 18 20 21 23 34 26 4 30 31 19 29 24 35 22 0
397 -1 0
397 -2 0
397 -3 0
397 -4 0
397 -5 0
397 -6 0
397 -7 0
397 -8 0
-9 398 0
-10 398 0
398 -11 0
398 -12 0
398 -13 0
398 -14 0
-15 398 0
-398 1 9 10 11 12 13 14 15 0
399 -16 0
399 -17 0
399 -18 0
399 -19 0
399 -20 0
399 -21 0
-399 20 2 9 17 18 19 16 21 0
-404 29 7 34 32 20 25 14 36 0
63 59 39 58 64 45 37 54 40 46 47 48 49 50 51 44 43 38 53 57 56 52 55 60 61 62 41 42 65 66 67 68 69 70 71 72 0
531 -37 0
-38 -531 0
-37 406 0
-38 406 0
-39 406 0
-40 406 0
-41 406 0
-42 406 0
-43 406 0
-44 406 0
-406 44 37 39 42 40 41 38 43 0
-45 407 0
-46 407 0
-47 407 0
-48 407 0
-49 407 0
-50 407 0
-51 407 0
-407 51 37 46 47 45 50 48 49 0
408 -52 0
-53 408 0
-54 408 0
-55 408 0
-56 408 0
-57 408 0
-408 53 54 38 45 57 52 55 56 0
-39 409 0
-46 409 0
-52 409 0
-409 59 39 46 52 58 60 61 62 0
99 100 73 80 90 91 77 78 81 82 83 84 85 86 87 79 75 74 76 92 93 88 89 94 95 96 97 98 101 102 103 104 105 106 107 108 0
566 -73 0
-74 -566 0
-73 415 0
-74 415 0
-75 415 0
-76 415 0
-77 415 0
-78 415 0
-79 415 0
-80 415 0
-415 76 75 74 73 77 78 79 80 0
-73 416 0
-81 416 0
-82 416 0
-83 416 0
-84 416 0
-85 416 0
-86 416 0
-87 416 0
-416 73 82 85 81 83 84 86 87 0
-88 417 0
-89 417 0
-90 417 0
-91 417 0
-92 417 0
-93 417 0
-417 89 81 74 88 90 91 92 93 0
-94 418 0
-95 418 0
-96 418 0
-97 418 0
-98 418 0
-418 98 75 88 82 95 96 94 97 0
127 125 110 111 134 118 126 114 117 116 119 120 121 122 123 109 115 133 136 135 129 124 128 130 131 132 112 113 137 138 139 140 141 142 143 144 0
601 -109 0
-110 -601 0
-110 602 0
-602 603 0
-111 -602 0
-603 604 0
-603 -112 0
-604 605 0
-113 -604 0
-605 606 0
-114 -605 0
-606 607 0
-115 -606 0
-607 608 0
-116 -607 0
-608 609 0
-608 -117 0
-609 610 0
-118 -609 0
-610 611 0
-119 -610 0
-611 612 0
-120 -611 0
-612 613 0
-121 -612 0
-613 614 0
-122 -613 0
-123 -614 0
-109 424 0
-110 424 0
-111 424 0
-112 424 0
-113 424 0
-114 424 0
-115 424 0
-116 424 0
425 -109 0
-117 425 0
-118 425 0
-119 425 0
-120 425 0
-121 425 0
-122 425 0
-123 425 0
117 -425 109 123 118 119 120 121 122 0
-110 426 0
-117 426 0
426 -124 0
426 -125 0
-126 426 0
-127 426 0
-128 426 0
-129 426 0
-426 124 110 125 126 117 128 127 129 0
-124 427 0
-130 427 0
-131 427 0
-132 427 0
-133 427 0
-134 427 0
-427 132 118 111 124 131 130 133 134 0
428 -112 0
428 -125 0
429 -113 0
429 -126 0
430 -114 0
430 -127 0
431 -115 0
431 -128 0
-116 432 0
-129 432 0
178 177 150 151 147 163 165 152 153 154 155 156 157 158 159 149 148 167 166 160 162 145 146 168 169 170 161 164 171 172 173 174 175 176 179 180 0
636 -145 0
637 -636 0
-146 -636 0
-146 637 0
638 -637 0
-147 -637 0
639 -638 0
640 -639 0
641 -640 0
642 -641 0
643 -642 0
644 -643 0
645 -644 0
646 -645 0
647 -646 0
648 -647 0
649 -648 0
650 -649 0
651 -650 0
-160 -650 0
652 -651 0
653 -652 0
654 -653 0
655 -654 0
656 -655 0
657 -656 0
-166 -656 0
658 -657 0
-167 -657 0
659 -658 0
-168 -658 0
660 -659 0
-169 -659 0
-170 -660 0
-145 433 0
-146 433 0
-147 433 0
-148 433 0
-149 433 0
-150 433 0
-151 433 0
-152 433 0
-153 434 0
-154 434 0
-155 434 0
-156 434 0
-157 434 0
-158 434 0
-159 434 0
155 156 -434 145 153 154 157 158 159 0
435 -160 0
-161 435 0
-162 435 0
-163 435 0
-164 435 0
-165 435 0
-435 165 153 160 161 146 164 163 162 0
-160 436 0
-436 170 147 154 160 167 166 169 168 0
437 -161 0
438 -162 0
439 -163 0
440 -164 0
-165 441 0
199 216 182 190 188 185 183 186 189 196 191 192 193 194 195 181 187 204 202 184 213 214 208 203 205 206 209 207 215 210 212 200 201 198 197 211 0
671 -181 0
672 -671 0
-182 -671 0
-182 672 0
673 -672 0
-183 -672 0
674 -673 0
-674 675 0
-675 676 0
-676 677 0
-677 678 0
-678 679 0
-679 680 0
-680 681 0
-681 682 0
-682 683 0
-683 684 0
-684 685 0
-685 686 0
-685 -196 0
-686 687 0
-686 -197 0
-687 688 0
-198 -687 0
-688 689 0
-688 -199 0
-689 690 0
-689 -200 0
-690 691 0
-201 -690 0
-691 692 0
-691 -202 0
-692 693 0
-692 -203 0
-693 694 0
-693 -204 0
-694 695 0
-205 -694 0
-695 -206 0
-181 442 0
-182 442 0
-183 442 0
-184 442 0
-185 442 0
-186 442 0
-187 442 0
-188 442 0
-189 443 0
-190 443 0
-191 443 0
-192 443 0
-193 443 0
-194 443 0
-195 443 0
181 -443 190 189 195 191 192 193 194 0
444 -182 0
-189 444 0
444 -196 0
-197 444 0
-198 444 0
-199 444 0
-200 444 0
-201 444 0
-444 199 189 182 196 198 201 200 197 0
-183 445 0
-196 445 0
-202 445 0
-203 445 0
-204 445 0
-205 445 0
-206 445 0
-445 196 183 203 206 204 205 202 190 0
446 -197 0
446 -202 0
446 -207 0
446 -208 0
446 -209 0
446 -210 0
-198 447 0
447 -203 0
-207 447 0
447 -211 0
447 -212 0
447 -213 0
448 -199 0
448 -204 0
448 -208 0
-211 448 0
-214 448 0
-215 448 0
-448 199 186 214 208 204 193 211 215 0
449 -200 0
449 -205 0
449 -209 0
449 -212 0
449 -214 0
449 -216 0
-201 450 0
-206 450 0
-210 450 0
-213 450 0
-215 450 0
-216 450 0
234 233 226 222 221 227 225 219 220 223 224 218 229 230 231 217 228 232 235 236 237 238 239 240 241 242 243 244 245 246 247 248 249 250 251 252 0
706 -217 0
707 -706 0
-218 -706 0
707 -218 0
-219 -707 0
-217 451 0
-218 451 0
-219 451 0
-220 451 0
-221 451 0
-222 451 0
-223 451 0
-224 451 0
223 -451 222 219 217 218 220 221 224 0
-225 452 0
-226 452 0
-227 452 0
-228 452 0
-229 452 0
-230 452 0
-231 452 0
217 -452 225 228 227 226 229 230 231 0
453 -218 0
-225 453 0
453 -232 0
-233 453 0
-234 453 0
-235 453 0
-236 453 0
-237 453 0
-453 234 218 232 233 225 235 236 237 0
-219 454 0
-232 454 0
-238 454 0
-239 454 0
-240 454 0
-241 454 0
-242 454 0
-454 232 219 239 238 226 240 241 242 0
455 -220 0
456 -221 0
457 -222 0
458 -223 0
-224 459 0
271 269 257 258 278 286 259 260 254 262 263 264 265 266 267 253 261 255 256 288 280 282 285 287 276 274 283 281 275 268 273 284 270 279 277 272 0
-253 741 0
-741 742 0
-254 -741 0
742 -254 0
-742 743 0
-255 -742 0
-743 744 0
-744 745 0
-745 746 0
-746 747 0
-747 748 0
-748 749 0
-749 750 0
-750 751 0
-751 752 0
-752 753 0
-753 754 0
-754 755 0
-755 756 0
-755 -268 0
-756 757 0
-756 -269 0
-757 758 0
-757 -270 0
-758 759 0
-758 -271 0
760 -759 0
-272 -759 0
-273 -760 0
-253 460 0
-254 460 0
-255 460 0
-256 460 0
-257 460 0
-258 460 0
-259 460 0
-260 460 0
-261 461 0
-262 461 0
-263 461 0
-264 461 0
-265 461 0
-266 461 0
-267 461 0
-461 253 262 265 261 264 263 266 267 0
462 -268 0
-269 462 0
-270 462 0
-271 462 0
-272 462 0
-273 462 0
-462 270 273 269 271 272 261 268 254 0
-268 463 0
-274 463 0
-275 463 0
-276 463 0
-277 463 0
-278 463 0
-463 274 255 268 275 262 277 278 276 0
464 -269 0
464 -274 0
464 -279 0
464 -280 0
-281 464 0
-282 464 0
465 -270 0
465 -275 0
465 -279 0
465 -283 0
465 -284 0
-285 465 0
-258 466 0
-265 466 0
466 -271 0
466 -276 0
466 -280 0
466 -283 0
466 -286 0
-287 466 0
467 -272 0
-277 467 0
-281 467 0
467 -284 0
-286 467 0
467 -288 0
-273 468 0
-278 468 0
-282 468 0
-285 468 0
-287 468 0
-288 468 0
-468 273 260 288 267 278 285 282 287 0
294 289 320 314 310 296 301 292 297 298 295 300 299 302 303 293 291 305 323 309 322 290 304 319 313 308 315 316 317 318 311 306 321 312 307 324 0
-289 776 0
-776 777 0
-776 -290 0
-290 777 0
-777 778 0
-291 -777 0
-291 778 0
-778 779 0
-779 780 0
-779 -293 0
-780 781 0
-294 -780 0
-294 781 0
-781 782 0
-295 -781 0
-782 783 0
-783 784 0
-297 -783 0
-784 785 0
-298 -784 0
-785 786 0
-299 -785 0
-786 787 0
-300 -786 0
-787 788 0
-301 -787 0
-788 789 0
-302 -788 0
-789 790 0
-303 -789 0
-790 791 0
-790 -304 0
-791 792 0
-792 793 0
-793 794 0
-794 795 0
-795 796 0
-796 797 0
-796 -310 0
-797 798 0
-311 -797 0
-798 799 0
-312 -798 0
-799 800 0
-313 -799 0
-314 -800 0
-289 469 0
-290 469 0
-291 469 0
-292 469 0
-293 469 0
-294 469 0
-295 469 0
-296 469 0
-469 296 289 293 294 291 295 292 290 0
-289 470 0
-297 470 0
-298 470 0
-299 470 0
-300 470 0
-301 470 0
-302 470 0
-303 470 0
-470 300 289 297 299 298 303 302 301 0
471 -290 0
471 -304 0
-306 471 0
-307 471 0
-308 471 0
471 -309 0
-471 290 306 308 305 297 309 307 304 0
472 -291 0
-304 472 0
-310 472 0
-311 472 0
-312 472 0
-313 472 0
-314 472 0
-472 291 311 310 314 312 313 298 304 0
473 -292 0
-305 473 0
473 -310 0
-315 473 0
473 -316 0
473 -317 0
-318 473 0
-473 292 315 310 299 318 317 305 316 0
474 -293 0
474 -319 0
474 -320 0
474 -321 0
-474 300 320 321 311 319 315 306 293 0
475 -294 0
475 -319 0
-322 475 0
475 -323 0
-475 301 319 322 323 316 312 307 294 0
476 -295 0
476 -320 0
476 -322 0
476 -324 0
-476 295 308 324 320 322 317 313 302 0
477 -296 0
477 -318 0
477 -321 0
477 -323 0
477 -324 0
341 340 329 336 328 330 327 331 332 333 334 335 326 337 338 325 339 342 343 344 345 346 347 348 349 350 351 352 353 354 355 356 357 358 359 360 0
811 -325 0
812 -811 0
813 -812 0
-327 -812 0
814 -813 0
815 -814 0
-329 -814 0
816 -815 0
817 -816 0
818 -817 0
819 -818 0
820 -819 0
821 -820 0
822 -821 0
823 -822 0
824 -823 0
825 -824 0
826 -825 0
-340 -825 0
827 -826 0
828 -827 0
829 -828 0
830 -829 0
831 -830 0
832 -831 0
-346 -831 0
833 -832 0
-347 -832 0
834 -833 0
-348 -833 0
835 -834 0
-349 -834 0
-350 -835 0
478 -325 0
-326 478 0
-327 478 0
-328 478 0
-329 478 0
-330 478 0
-331 478 0
-332 478 0
329 -478 325 331 332 327 326 330 328 0
-325 479 0
-333 479 0
-334 479 0
-335 479 0
-336 479 0
-337 479 0
-338 479 0
-339 479 0
335 336 -479 334 325 333 337 338 339 0
480 -326 0
-340 480 0
-480 345 333 340 342 343 341 326 344 0
481 -327 0
-481 350 334 346 340 327 347 348 349 0
482 -328 0
-482 353 328 335 341 346 352 351 354 0
483 -329 0
-483 357 329 336 342 347 351 356 355 0
-484 358 330 337 343 348 352 355 359 0
485 -331 0
-485 360 331 338 344 349 353 356 358 0
486 -332 0
-361 487 0
-362 487 0
-363 487 0
-369 488 0
-370 488 0
361 -488 369 370 371 372 373 374 375 0
-376 489 0
380 -489 369 362 377 376 379 378 381 0
382 383 363 370 376 -490 384 385 386 0
2428 0
-2527 0
-2429 0
-2528 0
-2430 0
-2529 0
-2530 0
-2531 0
2436 0
2536 -1 2429 -2428 0
-2 2536 2430 -2428 0
-2536 -11 2429 0
-2536 -12 2429 0
-2536 -13 2429 0
-2536 -14 2429 0
-15 -2536 2429 0
397 2437 -2428 0
-2437 -2536 -397 -2428 0
-2438 398 2429 0
-2438 2536 2429 0
-398 -2536 2438 2429 0
405 2445 -2436 0
-45 -2537 2438 0
-46 -2537 2438 0
-47 -2537 2438 0
-48 -2537 2438 0
-49 -2537 2438 0
-50 -2537 2438 0
-2537 -51 2438 0
2446 -2437 406 0
-2446 406 2437 0
2537 2446 -2437 0
2447 407 -2438 0
-2447 407 2438 0
-2447 2537 2438 0
2454 -2445 414 0
-73 2538 2447 -2446 0
2455 -2446 415 0
2446 -2455 415 0
2455 2538 -2446 0
-2538 -415 2446 2455 0
-2447 2456 416 0
-2456 2447 416 0
2538 -2447 2456 0
-2538 -416 2447 2456 0
2463 -2454 423 0
-2456 -2539 -109 0
2464 -2455 424 0
2455 -2464 424 0
2464 2539 -2455 0
-2456 2465 425 0
-2465 2456 425 0
2539 -2456 2465 0
-2539 -425 2456 2465 0
2472 -2463 432 0
2540 -145 -2464 2465 0
2473 -2464 433 0
2464 -2473 433 0
-2465 2474 434 0
-2474 2465 434 0
-2540 2465 -434 2474 0
2481 -2472 441 0
2482 -2473 442 0
2473 -2482 442 0
-2474 2483 443 0
-2483 2474 443 0
2490 -2481 450 0
-225 -2542 2483 0
-226 -2542 2483 0
-227 -2542 2483 0
-228 -2542 2483 0
-229 -2542 2483 0
-230 -2542 2483 0
-231 -2542 2483 0
2491 -2482 451 0
2482 -2491 451 0
-2483 2492 452 0
-2492 2483 452 0
2542 -2492 2483 0
2499 -2490 459 0
2500 -2491 460 0
2491 -2500 460 0
2543 2500 -2491 0
-2492 2501 461 0
-2501 2492 461 0
-2543 -461 2492 2501 0
2508 -2499 468 0
-2503 -2544 -291 0
-297 2501 -2544 0
-298 -2544 2501 0
-299 2501 -2544 0
-300 2501 -2544 0
-301 2501 -2544 0
-302 2501 -2544 0
-303 2501 -2544 0
-2544 -2508 -318 0
-2500 2509 469 0
2500 -2509 469 0
2544 -2500 2509 0
-2501 2510 470 0
2501 -2510 470 0
-470 2501 2510 -2544 0
-2544 -472 2512 2503 0
2544 -2508 2517 0
-2545 2509 -325 0
-2510 -2545 -325 0
-2511 -326 -2545 0
-2512 -327 -2545 0
-2513 -328 -2545 0
-2517 -332 -2545 0
2518 478 -2509 0
2509 478 -2518 0
2545 2518 -2509 0
-2510 479 2519 0
2510 479 -2519 0
-2510 2545 2519 0
2510 -2545 -479 2519 0
2511 -480 -2545 2520 0
-2512 2545 2521 0
2512 -481 -2545 2521 0
2513 -482 -2545 2522 0
-2519 -2546 -361 0
-376 -2521 -2546 0
487 -2518 2527 0
-2518 2546 2527 0
-2546 -487 2518 2527 0
-2519 488 2528 0
2546 -2519 2528 0
-488 -2546 2519 2528 0
2546 -2520 2529 0
2546 -2521 2530 0
2546 -2522 2531 0
2666 0
-2765 0
-2667 0
-2766 0
2668 0
2670 0
2672 0
2674 0
-2774 -2 -2668 0
-2774 -17 -2670 0
-2774 -19 -2672 0
-21 -2774 -2674 0
397 2675 -2666 0
2774 2675 -2666 0
398 -2676 2667 0
2677 399 -2668 0
2774 2677 -2668 0
-37 2775 -2675 2676 0
-2775 -38 -2677 0
2684 406 -2675 0
2684 2775 -2675 0
-2685 407 2676 0
-2775 -407 2685 2676 0
2686 2775 -2677 0
-73 2776 -2684 2685 0
-2776 -74 -2686 0
2776 2693 -2684 0
-2685 2694 416 0
-2694 2685 416 0
-2776 -416 2685 2694 0
-2693 -109 2694 2777 0
-2694 2703 425 0
-2777 -425 2694 2703 0
2711 -2702 433 0
-2703 2712 434 0
2720 -2711 442 0
-2712 2721 443 0
2729 -2720 451 0
-2721 2730 452 0
2738 -2729 460 0
-2730 2739 461 0
-2738 2747 469 0
-2739 2748 470 0
-2747 2756 478 0
-2748 2757 479 0
487 -2756 2765 0
488 -2757 2766 0
3023 0
-3024 0
-3123 0
3025 0
-3026 0
3125 0
3027 0
3028 0
3029 0
-3030 0
3031 0
3131 -1 3024 -3023 0
-3131 -2 -3025 0
-4 -3131 -3027 0
-5 -3131 -3028 0
-6 -3131 -3029 0
-8 -3131 -3031 0
-9 -3131 3024 0
-3131 -10 3024 0
-11 -3131 3024 0
-12 -3131 3024 0
-13 -3131 3024 0
-14 -3131 3024 0
-15 -3131 3024 0
-17 -3131 -3027 0
-18 -3131 -3028 0
-19 -3131 -3029 0
-21 -3131 -3031 0
-22 -3131 3026 0
-23 -3131 3026 0
-24 -3131 3026 0
-25 -3131 3026 0
-26 -3131 3026 0
-27 -3131 -3028 0
-28 -3131 -3029 0
3131 -29 3030 -3027 0
-30 -3131 -3031 0
-31 -3131 -3029 0
3131 -32 3030 -3028 0
-33 -3131 -3031 0
-34 3131 3030 -3029 0
-35 -3131 -3031 0
-36 -3131 -3031 0
397 3032 -3023 0
-3033 398 3024 0
3034 399 -3025 0
3034 3131 -3025 0
400 -3035 3026 0
3036 3131 -3027 0
3037 3131 -3028 0
3038 3131 -3029 0
3131 3040 -3031 0
-38 -3132 -3034 0
-3132 -53 -3036 0
-54 -3132 -3037 0
-55 -3132 -3038 0
-3132 -57 -3040 0
3041 -3032 406 0
3132 3041 -3032 0
-3042 407 3033 0
3132 3043 -3034 0
-3044 409 3035 0
-73 3133 -3041 3042 0
-3133 -74 -3043 0
3050 3133 -3041 0
-3051 3042 416 0
-3133 -416 3042 3051 0
-3053 3044 418 0
3134 -109 3051 -3050 0
-3051 3060 425 0
-3060 3051 425 0
-3134 -425 3051 3060 0
-3062 427 3053 0
-3060 3069 434 0
-3069 3060 434 0
-3071 3062 436 0
-3069 3078 443 0
-3078 3069 443 0
-3080 3071 445 0
-3078 3087 452 0
-3087 3078 452 0
-3089 454 3080 0
-3087 3096 461 0
-3096 3087 461 0
3089 463 -3098 0
-3096 3105 470 0
-3105 3096 470 0
3098 -3107 472 0
-3105 479 3114 0
3105 479 -3114 0
3107 -3116 481 0
-3114 488 3123 0
-488 -3141 3114 3123 0
3141 3116 -3125 0
-3499 0
-3598 0
-3500 0
-3599 0
3502 0
-3601 0
397 -3508 3499 0
-3509 398 3500 0
400 3511 -3502 0
-3517 3508 406 0
-3518 407 3509 0
3520 409 -3511 0
-3526 3517 415 0
-3527 3518 416 0
3529 -3520 418 0
-3535 3526 424 0
-3536 3527 425 0
3538 427 -3529 0
-3544 3535 433 0
-3545 3536 434 0
3547 -3538 436 0
-3553 3544 442 0
-3554 3545 443 0
3556 445 -3547 0
-3562 3553 451 0
-3563 3554 452 0
3565 -3556 454 0
-3571 3562 460 0
-3572 3563 461 0
3574 463 -3565 0
-3615 -469 3580 3571 0
-3581 3572 470 0
3615 3583 -3574 0
-3580 3616 3589 0
-3616 3581 -479 3590 0
-3583 3592 481 0
-376 -3617 -3592 0
487 -3589 3598 0
-3590 488 3599 0
3617 -3592 3601 0
4332 0
-4333 0
-4432 0
4334 0
4336 0
4337 0
-4338 0
4339 0
4340 0
-4440 -20 -4339 0
-29 -4440 -4339 0
-32 -4440 -4339 0
-4440 -34 4338 0
397 4341 -4332 0
-4342 398 4333 0
4343 399 -4334 0
4440 4343 -4334 0
4440 4345 -4336 0
4440 4346 -4337 0
4440 4348 -4339 0
4440 4349 -4340 0
-38 -4441 -4343 0
-4441 -53 -4345 0
-4441 -54 -4346 0
-56 -4441 -4348 0
-4441 -57 -4349 0
4350 -4341 406 0
4441 4350 -4341 0
-4351 407 4342 0
4441 4352 -4343 0
-73 4442 -4350 4351 0
-4442 -74 -4352 0
4359 4442 -4350 0
-4360 4351 416 0
-4442 -416 4351 4360 0
4443 -109 4360 -4359 0
-4360 4369 425 0
-4443 -425 4360 4369 0
-4369 4378 434 0
-4378 4387 443 0
-4387 4396 452 0
-4396 4405 461 0
-4405 4414 470 0
-4414 479 4423 0
-4423 488 4432 0
4689 0
-4788 0
-4690 0
-4789 0
4691 0
4692 0
4696 0
4697 0
-16 -4797 -4692 0
-4797 -25 -4696 0
-36 -4797 -4697 0
397 4698 -4689 0
-4699 398 4690 0
4700 399 -4691 0
4700 4797 -4691 0
400 4701 -4692 0
404 4705 -4696 0
4705 4797 -4696 0
-38 -4798 -4700 0
-4798 -52 -4701 0
-56 -4798 -4705 0
4707 -4698 406 0
4707 4798 -4698 0
-4708 407 4699 0
4709 408 -4700 0
4709 4798 -4700 0
4710 409 -4701 0
-73 4799 -4707 4708 0
-74 -4799 -4709 0
-4799 -88 -4710 0
4716 -4707 415 0
4716 4799 -4707 0
-4717 4708 416 0
-4799 -416 4708 4717 0
4718 417 -4709 0
4799 4718 -4709 0
4719 418 -4710 0
4800 -109 4717 -4716 0
-4800 -110 -4718 0
4725 -4716 424 0
4800 4725 -4716 0
-4717 4726 425 0
-4726 4717 425 0
-4800 -425 4717 4726 0
4727 -4718 426 0
4728 -4719 427 0
4801 -145 -4725 4726 0
4734 -4725 433 0
-4726 4735 434 0
-4735 4726 434 0
-4801 4735 -434 4726 0
4736 -4727 435 0
4737 -4728 436 0
-4802 -196 -4737 0
4743 -4734 442 0
-4735 4744 443 0
-4744 4735 443 0
-4736 4802 4745 0
4746 445 -4737 0
-4745 -4803 -218 0
4752 -4743 451 0
4803 4752 -4743 0
-4744 4753 452 0
-4753 4744 452 0
4755 454 -4746 0
-4804 -268 -4755 0
4761 -4752 460 0
4804 4761 -4752 0
-4753 4762 461 0
-4762 4753 461 0
-4804 -461 4753 4762 0
4764 -4755 463 0
4804 4764 -4755 0
-4805 -291 -4764 0
-4761 4770 469 0
4805 -4761 4770 0
-4762 4771 470 0
-4771 4762 470 0
-4770 4779 478 0
4806 -4770 4779 0
-4771 479 4780 0
4771 479 -4780 0
-4806 4771 -479 4780 0
-4779 -361 4780 4807 0
487 -4779 4788 0
-4780 488 4789 0
-488 -4807 4780 4789 0
5165 0
-5166 0
-5265 0
5167 0
5171 0
5172 0
-34 -5273 -5172 0
397 5174 -5165 0
-5175 398 5166 0
5176 399 -5167 0
5180 5273 -5171 0
-55 -5274 -5180 0
5183 -5174 406 0
-5184 407 5175 0
5274 5185 -5176 0
-5275 -74 -5185 0
5192 5275 -5183 0
-5193 5184 416 0
5276 -109 5193 -5192 0
-5276 -425 5193 5202 0
-5202 5211 434 0
-5211 5220 443 0
-5220 5229 452 0
-5229 5238 461 0
-5238 5247 470 0
-5247 479 5256 0
-5256 488 5265 0
-5760 0
-5859 0
-5761 0
-5860 0
-5763 0
5862 0
397 -5769 5760 0
-5770 398 5761 0
400 -5772 5763 0
-5778 5769 406 0
-5779 407 5770 0
-5781 5772 409 0
-5787 5778 415 0
-5788 5779 416 0
-5790 418 5781 0
-5796 5787 424 0
-5797 5788 425 0
-5799 5790 427 0
-5805 5796 433 0
-5806 5797 434 0
-5808 5799 436 0
-5814 5805 442 0
-5815 5806 443 0
-5817 5808 445 0
-5823 5814 451 0
-5824 5815 452 0
-5826 454 5817 0
-5875 -274 5826 0
-5875 -275 5826 0
-5875 -276 5826 0
-277 -5875 5826 0
-5875 -278 5826 0
-5832 5823 460 0
-5833 5824 461 0
-5835 463 5826 0
5875 -5835 5826 0
-5876 -469 5841 5832 0
-5842 5833 470 0
5876 -5844 5835 0
-5841 5877 5850 0
-5877 5842 -479 5851 0
5844 -5853 481 0
5844 5877 -5853 0
-382 -5878 5853 0
-383 -5878 5853 0
-384 -5878 5853 0
-385 -5878 5853 0
-386 -5878 5853 0
487 -5850 5859 0
-5851 488 5860 0
5853 490 -5862 0
5878 5853 -5862 0
5879 0
-5880 0
-5979 0
5881 0
-5882 0
-16 5987 5882 -5881 0
397 5888 -5879 0
-5889 398 5880 0
-5987 -5890 -399 -5881 0
5897 -5888 406 0
-5898 407 5889 0
-5899 408 5890 0
5906 -5897 415 0
-5907 5898 416 0
-5908 -5990 -110 0
5990 5915 -5906 0
-5916 5907 425 0
5991 -145 -5915 5916 0
-5991 5925 -434 5916 0
-5925 5934 443 0
-5934 5943 452 0
-5943 5952 461 0
-5952 5961 470 0
-5961 479 5970 0
-5970 488 5979 0
5998 0
-6097 0
5999 0
6098 0
6000 0
6099 0
-6001 0
6100 0
6002 0
6101 0
6003 0
6102 0
6004 0
6103 0
6005 0
6104 0
6006 0
-6106 -1 -5999 0
-6106 -2 -6000 0
-6106 -4 -6002 0
-6106 -5 -6003 0
-6106 -6 -6004 0
-6106 -7 -6005 0
-6106 -8 -6006 0
-6106 -9 -6000 0
-10 6106 6001 -5999 0
-11 -6106 -6002 0
-12 -6106 -6003 0
-13 -6106 -6004 0
-14 -6106 -6005 0
-15 -6106 -6006 0
-6106 -17 -6002 0
-6106 -18 -6003 0
-6106 -19 -6004 0
-6106 -20 -6005 0
-6106 -21 -6006 0
-22 -6106 -6002 0
-23 -6106 -6003 0
-24 -6106 -6004 0
-6106 -25 -6005 0
-26 -6106 -6006 0
-6106 -27 -6003 0
-6106 -28 -6004 0
-6106 -29 -6005 0
-6106 -30 -6006 0
-6106 -31 -6004 0
-6106 -32 -6005 0
-6106 -33 -6006 0
-6106 -34 -6005 0
-6106 -35 -6006 0
-6106 -36 -6006 0
397 6007 -5998 0
6007 6106 -5998 0
-397 -6106 -6007 -5998 0
398 6008 -5999 0
6008 6106 -5999 0
6009 399 -6000 0
-6009 -399 -6106 -6000 0
-6010 400 6001 0
-6010 6106 6001 0
-6107 -52 6009 0
-6010 -6107 -52 0
-58 -6107 6010 0
-59 -6107 6010 0
-60 -6107 6010 0
-61 -6107 6010 0
-62 -6107 6010 0
6016 406 -6007 0
6017 407 -6008 0
6018 408 -6009 0
408 -6018 6009 0
6107 6018 -6009 0
-6018 -6107 -408 -6009 0
-6019 409 6010 0
6107 -6019 6010 0
-74 -6018 -6108 0
-88 -6108 6018 0
-94 -6108 6019 0
-95 -6108 6019 0
-96 -6108 6019 0
-97 -6108 6019 0
-98 -6108 6019 0
6025 -6016 415 0
6108 6025 -6016 0
6026 -6017 416 0
-6018 417 6027 0
417 6018 -6027 0
-6018 -417 -6027 -6108 0
-6028 418 6019 0
6108 -6028 6019 0
-6109 -109 -6026 0
-110 -6027 -6109 0
-112 -6029 -6109 0
-6030 -113 -6109 0
-114 -6031 -6109 0
-115 -6032 -6109 0
-116 -6033 -6109 0
-117 -6027 -6109 0
6027 -124 -6109 0
6027 -6109 -125 0
-6029 -6109 -125 0
-126 6027 -6109 0
-6030 -126 -6109 0
-127 6027 -6109 0
-6031 -127 -6109 0
-128 6027 -6109 0
-6032 -128 -6109 0
-129 6027 -6109 0
-6033 -129 -6109 0
-130 -6109 6028 0
-131 -6109 6028 0
-132 -6109 6028 0
-133 -6109 6028 0
-134 -6109 6028 0
6034 -6025 424 0
6109 6034 -6025 0
6035 -6026 425 0
-6109 -425 -6026 -6035 0
426 -6027 6036 0
426 6027 -6036 0
6109 -6027 6036 0
6109 6027 -6036 0
6027 6036 -6109 -426 0
-6027 -6109 -426 -6036 0
-6037 6028 427 0
6109 -6037 6028 0
-6110 -145 -6035 0
-146 -6036 -6110 0
6036 -160 -6110 0
-161 6036 -6110 0
-6038 -161 -6110 0
-162 6036 -6110 0
-6039 -162 -6110 0
-163 6036 -6110 0
-6040 -163 -6110 0
-164 6036 -6110 0
-6041 -164 -6110 0
-165 6036 -6110 0
-6042 -165 -6110 0
-166 -6110 6037 0
-167 -6110 6037 0
-168 -6110 6037 0
-169 -6110 6037 0
-170 -6110 6037 0
6043 -6034 433 0
6110 6043 -6034 0
6044 -6035 434 0
6035 -6044 434 0
435 6045 -6036 0
435 6036 -6045 0
6110 6045 -6036 0
6110 6036 -6045 0
-435 6045 6036 -6110 0
-435 -6110 -6045 -6036 0
-6046 6037 436 0
6110 -6046 6037 0
-182 -6111 -6045 0
-196 6045 -6111 0
-196 -6111 -6046 0
6111 -6045 6046 -196 0
-197 6045 -6111 0
-197 -6047 -6111 0
-198 6045 -6111 0
-198 -6048 -6111 0
-199 6045 -6111 0
-6049 -199 -6111 0
-200 6045 -6111 0
-200 -6050 -6111 0
-201 6045 -6111 0
-201 -6051 -6111 0
-202 -6111 6046 0
-6047 -202 -6111 0
-203 -6111 6046 0
-6048 -203 -6111 0
-204 -6111 6046 0
-6049 -204 -6111 0
-205 -6111 6046 0
-6050 -205 -6111 0
-206 -6111 6046 0
-6051 -206 -6111 0
-207 -6048 -6111 0
-208 -6049 -6111 0
-209 -6050 -6111 0
-210 -6051 -6111 0
-211 -6049 -6111 0
-212 -6050 -6111 0
-213 -6051 -6111 0
-214 6049 -6111 0
-214 -6050 -6111 0
-215 6049 -6111 0
-215 -6051 -6111 0
-216 -6051 -6111 0
6052 -6043 442 0
6111 6052 -6043 0
6053 -6044 443 0
6044 -6053 443 0
-6111 -443 -6044 -6053 0
444 -6045 6054 0
444 6045 -6054 0
6111 -6045 6054 0
6111 6045 -6054 0
-444 -6111 -6045 -6054 0
-6046 445 6055 0
-6055 445 6046 0
6111 -6046 6055 0
6111 -6055 6046 0
6055 -445 6046 -6111 0
-6047 6056 6111 0
6047 -446 -6111 6056 0
-6048 6057 6111 0
6048 -447 -6111 6057 0
-6049 6058 6111 0
6058 6049 -6111 -448 0
-6049 -6058 -6111 -448 0
-6050 6059 6111 0
6050 6059 -449 -6111 0
6060 6111 -6051 0
6060 6051 -6111 -450 0
-6112 -217 -6053 0
-6112 -218 -6054 0
6052 -219 -6112 0
-219 -6112 -6055 0
-6056 -220 -6112 0
-6057 -221 -6112 0
-222 -6112 -6058 0
-6059 -223 -6112 0
-224 -6060 -6112 0
-232 -6112 6054 0
-238 -6112 6055 0
-239 -6112 6055 0
-240 -6112 6055 0
-241 -6112 6055 0
-242 -6112 6055 0
6061 -6052 451 0
6112 6061 -6052 0
-6112 -451 -6052 -6061 0
6062 -6053 452 0
6053 -6062 452 0
6062 6112 -6053 0
-6112 -452 -6053 -6062 0
453 6054 -6063 0
6063 -453 -6112 6054 0
-6112 -6054 -6063 -453 0
-6055 454 6064 0
-6064 454 6055 0
6112 -6064 6055 0
-454 -6112 6064 6055 0
6061 -253 -6113 0
-6062 -253 -6113 0
-254 -6063 -6113 0
6062 -261 -6113 0
-262 6062 -6113 0
-263 6062 -6113 0
-264 6062 -6113 0
6062 -265 -6113 0
-266 6062 -6113 0
-267 6062 -6113 0
6063 -6113 -268 0
-268 6113 6064 -6063 0
-6065 -269 -6113 0
6065 6113 -6063 -269 0
-6066 -270 -6113 0
6066 6113 -270 -6063 0
-6067 -271 -6113 0
-6068 -272 -6113 0
6068 6113 -272 -6063 0
-6069 -273 -6113 0
6069 6113 -273 -6063 0
-274 -6113 6064 0
-274 -6065 -6113 0
6065 6113 -6064 -274 0
-275 -6113 6064 0
-275 -6066 -6113 0
6066 6113 -275 -6064 0
-276 -6113 6064 0
-276 -6067 -6113 0
-277 -6113 6064 0
-277 -6068 -6113 0
-277 -6064 6068 6113 0
-278 -6113 6064 0
-278 -6069 -6113 0
6069 6113 -6064 -278 0
-279 -6066 -6113 0
-280 -6067 -6113 0
-281 -6068 -6113 0
-282 -6069 -6113 0
-282 6069 -6065 6113 0
-283 -6067 -6113 0
-284 -6068 -6113 0
-285 -6069 -6113 0
-285 6069 -6066 6113 0
-286 -6068 -6113 0
-286 6068 -6067 6113 0
-287 -6069 -6113 0
-287 6069 -6067 6113 0
-288 -6069 -6113 0
6069 6113 -288 -6068 0
6070 -6061 460 0
6113 6070 -6061 0
6113 6061 -6070 0
-460 -6113 -6070 -6061 0
6071 -6062 461 0
6062 -6071 461 0
6071 6113 -6062 0
6062 -6071 6113 0
6063 462 -6072 0
6113 -6063 6072 0
6063 6113 -6072 0
-6063 -462 -6072 -6113 0
463 6064 -6073 0
6113 -6064 6073 0
6113 6064 -6073 0
-6113 -463 -6073 -6064 0
6113 -6065 6074 0
6065 6113 -6074 0
6113 -6066 6075 0
6066 6113 -6075 0
6113 -6067 6076 0
6067 6113 -6076 0
6068 467 -6077 0
6113 -6068 6077 0
6113 6068 -6077 0
6113 6078 -6069 0
-6072 -290 -6114 0
-6073 -291 -6114 0
-292 -6074 -6114 0
-293 -6075 -6114 0
-294 -6076 -6114 0
-295 -6077 -6114 0
-296 -6078 -6114 0
-304 6072 -6114 0
-306 6072 -6114 0
-306 -6072 6075 6114 0
-307 6072 -6114 0
-307 -6072 6114 6076 0
-308 6072 -6114 0
-308 -6072 6077 6114 0
6072 -309 -6114 0
-309 6078 -6072 6114 0
6073 -310 -6114 0
-311 6073 -6114 0
-311 -6073 6075 6114 0
-312 6073 -6114 0
-312 -6073 6076 6114 0
-313 6073 -6114 0
-313 -6073 6077 6114 0
-314 6073 -6114 0
-314 6078 -6073 6114 0
6074 -6114 -315 0
6075 -6074 -315 6114 0
-316 6074 -6114 0
-316 6076 -6074 6114 0
-317 6074 -6114 0
6077 -317 6114 -6074 0
-319 6075 -6114 0
-319 -6076 -6114 0
-319 -6075 6114 6076 0
-320 6075 -6114 0
-320 -6077 -6114 0
-320 -6075 6077 6114 0
-321 6075 -6114 0
-6078 -321 -6114 0
-322 6076 -6114 0
-322 -6077 -6114 0
-322 -6076 6077 6114 0
-323 6076 -6114 0
-6078 -323 -6114 0
-323 6078 -6076 6114 0
-324 6077 -6114 0
-6078 -324 -6114 0
6078 -6077 6114 -324 0
-6070 6079 469 0
6070 -6079 469 0
6114 -6070 6079 0
6080 -6071 470 0
6071 -6080 470 0
-470 -6071 -6080 -6114 0
6072 -6081 471 0
6072 -6081 6114 0
-471 -6072 -6114 -6081 0
-6082 6073 472 0
6073 -6082 6114 0
-6073 -6082 -6114 -472 0
6074 -6083 473 0
6074 6114 -6083 0
-6074 -6114 -473 -6083 0
-6084 6075 474 0
-6075 6084 6114 0
-6084 6114 6075 0
-6075 -474 -6114 -6084 0
-6085 6076 475 0
-6076 6085 6114 0
6076 -6085 6114 0
-6076 -6085 -6114 -475 0
-6086 6077 476 0
-6077 6086 6114 0
6077 -6086 6114 0
-6077 -476 -6114 -6086 0
6087 -6078 6114 0
-6115 6079 -325 0
6079 -326 -6115 0
6079 -327 -6115 0
6079 -328 -6115 0
-6084 -329 -6115 0
-6085 -330 -6115 0
-6086 -331 -6115 0
-6087 -332 -6115 0
-340 6081 -6115 0
-341 6081 -6115 0
-342 6081 -6115 0
-343 6081 -6115 0
-344 6081 -6115 0
-345 6081 -6115 0
-346 6082 -6115 0
-347 6082 -6115 0
-348 6082 -6115 0
-349 6082 -6115 0
-350 6082 -6115 0
-355 6084 -6115 0
-356 6084 -6115 0
-357 6084 -6115 0
-6079 478 6088 0
6079 478 -6088 0
6115 -6079 6088 0
-6080 479 6089 0
6080 479 -6089 0
-6115 -6080 -479 -6089 0
6081 480 -6090 0
6115 6081 -6090 0
-6081 -480 -6090 -6115 0
6082 481 -6091 0
6082 6115 -6091 0
6083 482 -6092 0
6083 6115 -6092 0
483 6084 -6093 0
6115 6084 -6093 0
6085 484 -6094 0
6115 6085 -6094 0
6086 -6095 485 0
6115 6086 -6095 0
-6116 -361 6088 0
-6116 -361 -6089 0
-376 -6116 6090 0
-377 -6116 6090 0
-378 -6116 6090 0
-379 -6116 6090 0
-380 -6116 6090 0
-381 -6116 6090 0
-382 6091 -6116 0
-383 6091 -6116 0
-384 6091 -6116 0
-385 6091 -6116 0
-386 6091 -6116 0
-6088 487 6097 0
6116 -6088 6097 0
6089 488 -6098 0
6090 489 -6099 0
6116 6090 -6099 0
-6090 -6116 -489 -6099 0
6091 490 -6100 0
6116 6091 -6100 0
6092 491 -6101 0
6116 6092 -6101 0
6093 492 -6102 0
6116 6093 -6102 0
6094 493 -6103 0
6116 6094 -6103 0
6095 494 -6104 0
6116 6095 -6104 0
6117 0
-6216 0
-6118 0
-6217 0
-6119 0
6218 0
6120 0
6121 0
6122 0
6123 0
6124 0
6125 0
6225 -1 6118 -6117 0
6225 -2 6119 -6117 0
-6225 -9 6118 0
-16 -6225 -6120 0
-6225 -17 -6121 0
-6225 -18 -6122 0
-6225 -19 -6123 0
-20 -6225 -6124 0
-6225 -21 -6125 0
397 6126 -6117 0
-6126 -6225 -397 -6117 0
-6127 398 6118 0
-6128 399 6119 0
-6128 6225 6119 0
6129 400 -6120 0
-37 -6226 6126 0
-38 -6226 6126 0
-39 -6226 6126 0
-40 -6226 6126 0
-41 -6226 6126 0
-42 -6226 6126 0
-43 -6226 6126 0
-44 -6226 6126 0
-6226 -52 6128 0
-53 -6226 6128 0
-54 -6226 6128 0
-55 -6226 6128 0
-56 -6226 6128 0
-57 -6226 6128 0
6135 -6126 406 0
-6135 406 6126 0
-6136 407 6127 0
-6137 408 6128 0
-6137 6226 6128 0
6138 409 -6129 0
-6227 -88 6137 0
-89 -6227 6137 0
-90 -6227 6137 0
-91 -6227 6137 0
-92 -6227 6137 0
-93 -6227 6137 0
6144 -6135 415 0
6135 -6144 415 0
-6145 6136 416 0
-6146 417 6137 0
6227 -6146 6137 0
6147 418 -6138 0
-6228 -117 6145 0
-118 6145 -6228 0
-119 6145 -6228 0
-120 6145 -6228 0
-121 6145 -6228 0
-122 6145 -6228 0
-123 6145 -6228 0
-6228 6146 -124 0
-6228 6146 -125 0
-126 -6228 6146 0
-127 -6228 6146 0
-128 -6228 6146 0
-129 -6228 6146 0
6153 -6144 424 0
6144 -6153 424 0
-6154 6145 425 0
-6155 6146 426 0
6228 -6155 6146 0
6156 -6147 427 0
-153 -6229 6154 0
-154 6154 -6229 0
6154 -6229 -155 0
-156 6154 -6229 0
-157 6154 -6229 0
-158 6154 -6229 0
-159 6154 -6229 0
-6229 6155 -160 0
-161 -6229 6155 0
-162 -6229 6155 0
-163 -6229 6155 0
-164 -6229 6155 0
-6229 6155 -165 0
6162 -6153 433 0
6153 -6162 433 0
6162 -6229 -433 6153 0
-6163 6154 434 0
-6164 435 6155 0
6229 -6164 6155 0
6165 -6156 436 0
6162 -182 -6230 0
-189 6163 -6230 0
6164 -6230 -196 0
-6230 -196 -6165 0
6164 -197 -6230 0
-198 6164 -6230 0
6164 -6230 -199 0
6164 -200 -6230 0
6164 -201 -6230 0
-6166 -202 -6230 0
-6167 -203 -6230 0
-6168 -204 -6230 0
-6169 -205 -6230 0
-6230 -206 -6170 0
6171 -6162 442 0
6162 -6171 442 0
-6163 6172 443 0
-6172 6163 443 0
6163 -443 6172 -6230 0
-6173 6164 444 0
-6164 6230 6173 0
6230 -6173 6164 0
6230 6174 -6165 0
-6172 -6231 -217 0
6231 -217 6172 -6171 0
-6173 -6231 -218 0
-6231 -219 -6174 0
-232 6173 -6231 0
-233 6173 -6231 0
-234 6173 -6231 0
-235 6173 -6231 0
-236 6173 -6231 0
-237 6173 -6231 0
6180 -6171 451 0
-6180 6171 451 0
6231 6180 -6171 0
-6172 6181 452 0
-6181 6172 452 0
6231 -6172 6181 0
-6231 -452 6172 6181 0
-6182 6173 453 0
6173 6231 -6182 0
6181 -253 -6180 6232 0
-6232 -261 6181 0
-262 -6232 6181 0
-263 -6232 6181 0
-264 -6232 6181 0
-6232 -265 6181 0
-266 -6232 6181 0
-267 -6232 6181 0
-6232 6182 -268 0
-6232 6182 -269 0
-6232 6182 -270 0
-6232 6182 -271 0
-6232 6182 -272 0
-6232 6182 -273 0
6189 -6180 460 0
-6189 6180 460 0
-6232 6180 -460 6189 0
-6181 6190 461 0
-6190 6181 461 0
-6232 -461 6181 6190 0
6182 462 -6191 0
6182 6232 -6191 0
6189 -6233 -294 0
-6233 6191 -304 0
-6233 6191 -305 0
-6233 6191 -306 0
-6233 6191 -307 0
-308 -6233 6191 0
-6233 6191 -309 0
-6189 6198 469 0
-6233 6189 -469 6198 0
-6190 6199 470 0
-6199 6190 470 0
6191 -6200 471 0
6233 6191 -6200 0
-340 -6234 6200 0
-341 -6234 6200 0
-342 -6234 6200 0
-343 -6234 6200 0
-6234 -344 6200 0
-345 -6234 6200 0
-6198 6207 478 0
-6199 479 6208 0
-6234 6199 -479 6208 0
6200 -6209 480 0
6200 6234 -6209 0
-376 -6235 6209 0
-6235 6209 -377 0
-378 -6235 6209 0
-379 -6235 6209 0
-380 -6235 6209 0
-381 -6235 6209 0
487 -6207 6216 0
-6208 488 6217 0
6209 489 -6218 0
6235 6209 -6218 0
6236 0
-6237 0
6336 0
6238 0
6239 0
6240 0
6241 0
6242 0
6243 0
6244 0
-6344 -2 -6238 0
-3 -6344 -6239 0
-6344 -4 -6240 0
-6344 -5 -6241 0
-6344 -6 -6242 0
-6344 -7 -6243 0
-6344 -8 -6244 0
-6344 -9 6237 0
-6344 -10 6237 0
-6344 -11 6237 0
-6344 -12 6237 0
-6344 -13 6237 0
-6344 -14 6237 0
-6344 -15 6237 0
-6344 -16 -6239 0
-6344 -17 -6240 0
-6344 -18 -6241 0
-6344 -19 -6242 0
-6344 -20 -6243 0
-6344 -21 -6244 0
-6344 -22 -6240 0
-6344 -23 -6241 0
-6344 -24 -6242 0
-6344 -25 -6243 0
-6344 -26 -6244 0
-6344 -27 -6241 0
-6344 -28 -6242 0
-6344 -29 -6243 0
-6344 -30 -6244 0
-6344 -31 -6242 0
-6344 -32 -6243 0
-6344 -33 -6244 0
-6344 -34 -6243 0
-6344 -35 -6244 0
-6344 -36 -6244 0
397 6245 -6236 0
398 -6246 6237 0
-6246 6344 6237 0
6249 6344 -6240 0
6250 6344 -6241 0
6251 6344 -6242 0
6252 6344 -6243 0
6253 6344 -6244 0
-45 -6345 6246 0
-46 -6345 6246 0
-47 -6345 6246 0
-48 -6345 6246 0
-49 -6345 6246 0
-50 -6345 6246 0
-51 -6345 6246 0
-53 -6345 -6249 0
-54 -6345 -6250 0
-55 -6345 -6251 0
-56 -6345 -6252 0
-57 -6345 -6253 0
6254 -6245 406 0
-6255 407 6246 0
6345 -6255 6246 0
-81 -6346 6255 0
-82 -6346 6255 0
-83 -6346 6255 0
-84 -6346 6255 0
-85 -6346 6255 0
-86 -6346 6255 0
-87 -6346 6255 0
6263 -6254 415 0
6255 -6264 416 0
6346 -6264 6255 0
-117 -6347 6264 0
-118 -6347 6264 0
-119 -6347 6264 0
-120 -6347 6264 0
-121 -6347 6264 0
-122 -6347 6264 0
-123 -6347 6264 0
6272 -6263 424 0
6264 425 -6273 0
6347 6264 -6273 0
-153 -6348 6273 0
-154 -6348 6273 0
-155 -6348 6273 0
-156 -6348 6273 0
-157 -6348 6273 0
-158 -6348 6273 0
-159 -6348 6273 0
6281 -6272 433 0
434 -6282 6273 0
6348 -6282 6273 0
-189 -6349 6282 0
-190 -6349 6282 0
-191 -6349 6282 0
-192 -6349 6282 0
-193 -6349 6282 0
-194 -6349 6282 0
-195 -6349 6282 0
6290 -6281 442 0
-6291 6282 443 0
6349 -6291 6282 0
6350 -217 6291 -6290 0
-225 -6350 6291 0
-226 -6350 6291 0
-227 -6350 6291 0
-228 -6350 6291 0
-229 -6350 6291 0
-230 -6350 6291 0
-231 -6350 6291 0
6299 -6290 451 0
-6300 6291 452 0
6350 -6300 6291 0
-452 6300 -6350 6291 0
-261 -6351 6300 0
-262 -6351 6300 0
-263 -6351 6300 0
-264 -6351 6300 0
-6351 -265 6300 0
-266 -6351 6300 0
-267 -6351 6300 0
6308 -6299 460 0
-6309 6300 461 0
6351 -6309 6300 0
6314 -294 -6308 6352 0
-297 -6352 6309 0
-298 -6352 6309 0
-299 -6352 6309 0
-300 -6352 6309 0
-301 -6352 6309 0
-302 -6352 6309 0
-303 -6352 6309 0
-6352 -469 -6308 -6317 0
6309 -6318 470 0
6352 6309 -6318 0
6323 -6314 6352 0
6317 -325 -6353 0
-333 -6353 6318 0
-334 -6353 6318 0
-335 -6353 6318 0
-336 -6353 6318 0
-337 -6353 6318 0
-338 -6353 6318 0
-339 -6353 6318 0
-348 -6323 -6353 0
479 6318 -6327 0
6353 6318 -6327 0
-369 -6354 6327 0
-370 -6354 6327 0
-371 -6354 6327 0
-372 -6354 6327 0
-373 -6354 6327 0
-374 -6354 6327 0
-375 -6354 6327 0
6327 488 -6336 0
6327 6354 -6336 0
6557 -405 0
-414 6558 0
-423 6559 0
-432 6560 0
-441 6561 0
-450 6562 0
-459 6563 0
-468 6564 0
6565 -477 0
6566 -486 0
6568 -6557 0
6569 -6568 0
-6558 6569 0
6572 -6569 0
-6559 6572 0
6574 -6572 0
-6560 6574 0
6576 -6574 0
-6561 6576 0
6578 -6576 0
-6562 6578 0
6580 -6578 0
-6563 6580 0
6582 -6580 0
-6564 6582 0
-6565 6583 -6582 0
-6583 -6566 0
-400 9157 5882 0
9158 5890 -408 0
9159 5899 -417 0
9160 5908 -426 0
9161 5916 -434 0
9168 -9157 0
9169 -9168 0
-9158 -9168 9170 0
-9170 9171 0
-9159 -9169 9171 0
-9171 -9160 9173 0
-9173 -9161 0
9192 -400 6001 0
-408 9193 6009 0
-409 9193 6010 0
-417 6018 9194 0
-418 6019 9194 0
6025 -424 9195 0
6026 -425 9195 0
6027 -426 9195 0
-427 6028 9195 0
6029 -428 9195 0
6030 -429 9195 0
6031 -430 9195 0
6032 -431 9195 0
6033 -432 9195 0
6034 -433 9196 0
-435 6036 9196 0
-436 6037 9196 0
6038 -437 9196 0
6039 -438 9196 0
6040 -439 9196 0
6041 -440 9196 0
6042 -441 9196 0
6043 -442 9197 0
-444 6045 9197 0
-445 6046 9197 0
6047 -446 9197 0
6048 -447 9197 0
6049 -448 9197 0
6050 -449 9197 0
6051 -450 9197 0
6052 -451 9198 0
-453 6054 9198 0
-454 6055 9198 0
6056 -455 9198 0
6057 -456 9198 0
-457 6058 9198 0
6059 -458 9198 0
6060 -459 9198 0
6061 -460 9199 0
6063 -462 9199 0
-463 6064 9199 0
6065 -464 9199 0
6066 -465 9199 0
6067 -466 9199 0
6068 -467 9199 0
6069 -468 9199 0
6070 -469 9200 0
9200 6072 -471 0
9200 6073 -472 0
9200 6074 -473 0
9200 6075 -474 0
9200 -475 6076 0
9200 6077 -476 0
9200 6078 -477 0
9201 6079 -478 0
6081 9201 -480 0
6082 9201 -481 0
9201 6084 -483 0
9201 -484 6085 0
9201 6086 -485 0
9201 6087 -486 0
9202 6088 -487 0
9202 6091 -490 0
-491 6092 9202 0
-492 6093 9202 0
-493 6094 9202 0
9202 -494 6095 0
-9192 9203 0
-9203 9204 0
-9203 -9193 9205 0
-9205 9206 0
-9205 -9194 9207 0
-9207 -9195 0
-9193 9204 0
-9204 9209 0
-9194 -9204 9206 0
-9206 9210 0
-9206 -9195 9208 0
-9208 -9196 0
-9194 9209 0
-9209 9212 0
-9209 -9195 9210 0
-9210 9213 0
-9210 -9196 9211 0
-9211 9214 0
-9211 -9197 0
-9195 9212 0
-9212 9215 0
-9212 -9196 9213 0
-9213 9216 0
-9213 -9197 9214 0
-9214 9217 0
-9214 -9198 0
-9196 9215 0
-9215 9218 0
-9197 -9215 9216 0
-9216 9219 0
-9216 -9198 9217 0
-9217 9220 0
-9217 -9199 0
-9197 9218 0
-9218 9221 0
-9198 -9218 9219 0
-9219 9222 0
-9219 -9199 9220 0
-9220 9223 0
-9220 -9200 0
-9198 9221 0
-9221 9224 0
-9221 -9199 9222 0
-9222 9225 0
-9222 -9200 9223 0
-9223 9226 0
-9223 -9201 0
-9199 9224 0
-9224 9225 -9200 0
-9225 -9201 9226 0
-9226 -9202 0
9297 -399 6119 0
9298 -408 6128 0
9299 -417 6137 0
9300 -425 6145 0
9300 6146 -426 0
9301 6154 -434 0
6155 9301 -435 0
9302 -443 6163 0
6164 9302 -444 0
6165 9302 -445 0
6166 -446 9302 0
6167 -447 9302 0
6168 9302 -448 0
6169 -449 9302 0
6170 -450 9302 0
9303 -452 6172 0
9303 6173 -453 0
9303 -454 6174 0
9304 -461 6181 0
9304 6182 -462 0
9305 -470 6190 0
6191 9305 -471 0
9306 6199 -479 0
9306 6200 -480 0
9308 -9297 0
9309 -9308 0
-9298 9310 -9308 0
-9310 9311 0
-9310 -9299 9312 0
-9312 -9300 0
9309 -9298 0
9314 -9309 0
-9299 9311 -9309 0
-9311 -9300 9313 0
-9313 -9301 0
9314 -9299 0
9317 -9314 0
-9300 9315 -9314 0
-9315 -9301 9316 0
-9316 -9302 0
-9300 9317 0
9320 -9317 0
-9301 9318 -9317 0
-9318 -9302 9319 0
-9319 -9303 0
-9301 9320 0
9323 -9320 0
-9302 9321 -9320 0
-9321 -9303 9322 0
-9322 -9304 0
9323 -9302 0
-9303 9324 -9323 0
-9304 -9324 9325 0
-9325 9328 0
-9305 -9325 0
9326 -9303 0
-9304 -9326 9327 0
-9327 -9305 9328 0
-9328 -9306 0
9332 -397 0
9332 -398 0
-406 9333 0
-407 9333 0
-415 9334 0
-416 9334 0
-424 9335 0
-425 9335 0
-433 9336 0
9336 -434 0
-442 9337 0
-443 9337 0
-451 9338 0
-452 9338 0
-460 9339 0
-461 9339 0
-469 9340 0
-470 9340 0
-478 9341 0
9341 -479 0
-487 9342 0
9342 -488 0
9343 -9332 0
9344 -9343 0
-9333 9345 -9343 0
-9345 9346 0
-9345 -9334 0
-9333 9344 0
9347 -9344 0
-9334 9346 -9344 0
-9346 9348 0
-9346 -9335 0
-9334 9347 0
9349 -9347 0
-9335 9348 -9347 0
-9348 9350 0
-9348 -9336 0
-9335 9349 0
9351 -9349 0
-9336 9350 -9349 0
-9350 9352 0
-9350 -9337 0
9351 -9336 0
9353 -9351 0
-9337 9352 -9351 0
-9352 9354 0
-9352 -9338 0
-9337 9353 0
9355 -9353 0
-9338 9354 -9353 0
-9354 9356 0
-9354 -9339 0
-9338 9355 0
9357 -9355 0
-9339 9356 -9355 0
-9356 9358 0
-9356 -9340 0
-9339 9357 0
9359 -9357 0
-9340 9358 -9357 0
-9358 9360 0
-9358 -9341 0
-9340 9359 0
9360 -9341 -9359 0
-9360 -9342 0
-37 -16 0
-37 -17 0
-37 -18 0
-37 -19 0
-37 -20 0
-37 -21 0
-22 -37 0
-22 -38 0
-22 -54 0
-23 -37 0
-23 -38 0
-24 -37 0
-24 -38 0
-24 -54 0
-37 -25 0
-38 -25 0
-54 -25 0
-26 -37 0
-26 -38 0
-26 -54 0
-37 -27 0
-38 -27 0
-27 -52 0
-37 -28 0
-38 -28 0
-52 -28 0
-54 -28 0
-29 -37 0
-29 -52 0
-54 -29 0
-55 -29 0
-37 -30 0
-38 -30 0
-52 -30 0
-54 -30 0
-37 -31 0
-38 -31 0
-52 -31 0
-32 -37 0
-32 -52 0
-32 -55 0
-37 -33 0
-38 -33 0
-52 -33 0
-34 -37 0
-34 -52 0
-34 -54 0
-37 -35 0
-38 -35 0
-52 -35 0
-54 -35 0
-36 -37 0
-36 -38 0
-36 -52 0
-36 -54 0
-73 -52 0
-73 -53 0
-54 -73 0
-55 -73 0
-56 -73 0
-57 -73 0
-58 -73 0
-58 -74 0
-59 -73 0
-59 -74 0
-60 -73 0
-60 -74 0
-61 -73 0
-61 -74 0
-62 -73 0
-62 -74 0
-63 -73 0
-63 -74 0
-64 -73 0
-64 -74 0
-65 -73 0
-65 -74 0
-66 -73 0
-66 -74 0
-67 -73 0
-67 -74 0
-68 -73 0
-68 -74 0
-69 -73 0
-69 -74 0
-70 -73 0
-70 -74 0
-71 -73 0
-71 -74 0
-72 -73 0
-72 -74 0
-82 -110 0
-83 -110 0
-84 -110 0
-85 -110 0
-86 -110 0
-87 -110 0
-88 -109 0
-89 -109 0
-90 -109 0
-91 -109 0
-92 -109 0
-93 -109 0
-94 -109 0
-94 -110 0
-95 -109 0
-95 -110 0
-96 -109 0
-96 -110 0
-97 -109 0
-97 -110 0
-98 -109 0
-98 -110 0
-99 -109 0
-99 -110 0
-99 -124 0
-100 -109 0
-100 -110 0
-100 -124 0
-101 -109 0
-101 -110 0
-101 -124 0
-102 -109 0
-102 -110 0
-102 -124 0
-103 -109 0
-103 -110 0
-103 -124 0
-104 -109 0
-104 -110 0
-104 -124 0
-105 -109 0
-105 -110 0
-105 -124 0
-106 -109 0
-106 -110 0
-106 -124 0
-107 -109 0
-107 -110 0
-107 -124 0
-108 -109 0
-108 -110 0
-108 -124 0
-124 -145 0
-125 -145 0
-126 -145 0
-127 -145 0
-128 -145 0
-129 -145 0
-130 -145 0
-130 -146 0
-131 -145 0
-131 -146 0
-132 -145 0
-132 -146 0
-133 -145 0
-133 -146 0
-134 -145 0
-134 -146 0
-135 -145 0
-135 -146 0
-135 -160 0
-136 -145 0
-136 -146 0
-136 -160 0
-137 -145 0
-137 -146 0
-137 -160 0
-138 -145 0
-138 -146 0
-138 -160 0
-139 -145 0
-139 -146 0
-139 -160 0
-140 -145 0
-140 -146 0
-140 -160 0
-141 -145 0
-141 -146 0
-141 -160 0
-142 -145 0
-142 -146 0
-142 -160 0
-143 -145 0
-143 -146 0
-143 -160 0
-144 -145 0
-144 -146 0
-144 -160 0
-160 -181 0
-161 -181 0
-162 -181 0
-163 -181 0
-164 -181 0
-165 -181 0
-166 -181 0
-166 -182 0
-167 -181 0
-167 -182 0
-168 -181 0
-168 -182 0
-169 -181 0
-169 -182 0
-170 -181 0
-170 -182 0
-171 -181 0
-171 -182 0
-172 -181 0
-172 -182 0
-173 -181 0
-173 -182 0
-174 -181 0
-174 -182 0
-175 -181 0
-175 -182 0
-176 -181 0
-176 -182 0
-177 -181 0
-177 -182 0
-178 -181 0
-178 -182 0
-179 -181 0
-179 -182 0
-180 -181 0
-180 -182 0
-189 -221 0
-189 -224 0
-221 -190 0
-223 -190 0
-224 -190 0
-191 -221 0
-191 -224 0
-192 -224 0
-193 -221 0
-193 -224 0
-194 -221 0
-194 -224 0
-195 -221 0
-196 -217 0
-221 -196 0
-223 -196 0
-224 -196 0
-197 -217 0
-197 -219 0
-197 -221 0
-197 -222 0
-197 -223 0
-197 -224 0
-198 -217 0
-198 -219 0
-198 -220 0
-198 -222 0
-198 -223 0
-198 -224 0
-199 -217 0
-219 -199 0
-220 -199 0
-221 -199 0
-223 -199 0
-224 -199 0
-200 -217 0
-200 -219 0
-200 -220 0
-200 -221 0
-200 -222 0
-200 -224 0
-201 -217 0
-201 -219 0
-201 -220 0
-201 -221 0
-201 -222 0
-201 -223 0
-202 -217 0
-202 -218 0
-202 -221 0
-202 -222 0
-202 -223 0
-224 -202 0
-203 -217 0
-203 -218 0
-220 -203 0
-203 -222 0
-223 -203 0
-224 -203 0
-204 -217 0
-204 -218 0
-220 -204 0
-221 -204 0
-223 -204 0
-224 -204 0
-205 -217 0
-205 -218 0
-220 -205 0
-205 -221 0
-222 -205 0
-224 -205 0
-206 -217 0
-206 -218 0
-220 -206 0
-221 -206 0
-222 -206 0
-223 -206 0
-207 -217 0
-207 -218 0
-207 -219 0
-207 -222 0
-207 -223 0
-207 -224 0
-207 -232 0
-208 -217 0
-208 -218 0
-208 -219 0
-208 -221 0
-208 -223 0
-208 -224 0
-208 -232 0
-209 -217 0
-209 -218 0
-209 -219 0
-209 -221 0
-209 -222 0
-209 -224 0
-232 -209 0
-210 -217 0
-210 -218 0
-210 -219 0
-210 -221 0
-210 -222 0
-210 -223 0
-232 -210 0
-211 -217 0
-211 -218 0
-211 -219 0
-211 -220 0
-211 -223 0
-211 -224 0
-211 -232 0
-212 -217 0
-212 -218 0
-212 -219 0
-212 -220 0
-212 -222 0
-212 -224 0
-232 -212 0
-213 -217 0
-213 -218 0
-213 -219 0
-213 -220 0
-213 -222 0
-213 -223 0
-232 -213 0
-214 -217 0
-214 -218 0
-214 -219 0
-214 -220 0
-214 -221 0
-214 -224 0
-214 -232 0
-215 -217 0
-215 -218 0
-215 -219 0
-215 -220 0
-215 -221 0
-215 -223 0
-215 -232 0
-216 -217 0
-216 -218 0
-216 -219 0
-216 -220 0
-216 -221 0
-216 -222 0
-232 -216 0
-232 -253 0
-233 -253 0
-234 -253 0
-235 -253 0
-236 -253 0
-237 -253 0
-238 -253 0
-238 -254 0
-239 -253 0
-239 -254 0
-240 -253 0
-240 -254 0
-241 -253 0
-241 -254 0
-242 -253 0
-242 -254 0
-243 -253 0
-243 -254 0
-243 -268 0
-244 -253 0
-244 -254 0
-244 -268 0
-245 -253 0
-245 -254 0
-245 -268 0
-246 -253 0
-246 -254 0
-246 -268 0
-247 -253 0
-247 -254 0
-247 -268 0
-248 -253 0
-248 -254 0
-248 -268 0
-249 -253 0
-249 -254 0
-249 -268 0
-250 -253 0
-250 -254 0
-250 -268 0
-251 -253 0
-251 -254 0
-251 -268 0
-252 -253 0
-252 -254 0
-252 -268 0
-261 -294 0
-262 -290 0
-262 -294 0
-263 -290 0
-263 -294 0
-264 -290 0
-264 -294 0
-265 -290 0
-266 -290 0
-266 -294 0
-267 -290 0
-267 -294 0
-289 -268 0
-268 -292 0
-268 -293 0
-268 -294 0
-268 -295 0
-268 -296 0
-269 -289 0
-269 -291 0
-269 -293 0
-269 -294 0
-269 -295 0
-269 -296 0
-289 -270 0
-270 -291 0
-270 -292 0
-270 -294 0
-270 -295 0
-270 -296 0
-289 -271 0
-271 -291 0
-271 -292 0
-271 -293 0
-271 -295 0
-271 -296 0
-289 -272 0
-272 -291 0
-272 -292 0
-272 -293 0
-272 -294 0
-272 -296 0
-289 -273 0
-273 -291 0
-273 -292 0
-273 -293 0
-273 -294 0
-273 -295 0
-289 -274 0
-274 -290 0
-274 -293 0
-274 -294 0
-274 -295 0
-274 -296 0
-289 -275 0
-275 -290 0
-275 -292 0
-275 -294 0
-275 -295 0
-275 -296 0
-289 -276 0
-276 -290 0
-276 -292 0
-276 -293 0
-276 -295 0
-276 -296 0
-277 -289 0
-277 -290 0
-277 -292 0
-277 -293 0
-277 -294 0
-277 -296 0
-289 -278 0
-278 -290 0
-278 -292 0
-278 -293 0
-278 -294 0
-278 -295 0
-289 -279 0
-279 -290 0
-279 -291 0
-279 -294 0
-279 -295 0
-279 -296 0
-289 -280 0
-280 -290 0
-280 -291 0
-280 -293 0
-280 -295 0
-280 -296 0
-289 -281 0
-281 -290 0
-281 -291 0
-281 -293 0
-281 -294 0
-281 -296 0
-282 -289 0
-282 -290 0
-282 -291 0
-282 -293 0
-282 -294 0
-282 -295 0
-289 -283 0
-283 -290 0
-283 -291 0
-283 -292 0
-283 -295 0
-283 -296 0
-289 -284 0
-284 -290 0
-284 -291 0
-284 -292 0
-284 -294 0
-284 -296 0
-285 -289 0
-285 -290 0
-285 -291 0
-285 -292 0
-285 -294 0
-285 -295 0
-289 -286 0
-286 -290 0
-286 -291 0
-286 -292 0
-286 -293 0
-286 -296 0
-287 -289 0
-287 -290 0
-287 -291 0
-287 -292 0
-287 -293 0
-287 -295 0
-289 -288 0
-288 -290 0
-288 -291 0
-288 -292 0
-288 -293 0
-288 -294 0
-297 -329 0
-297 -331 0
-298 -329 0
-298 -331 0
-299 -329 0
-299 -330 0
-299 -331 0
-300 -331 0
-301 -329 0
-301 -331 0
-302 -329 0
-303 -329 0
-303 -331 0
-304 -325 0
-304 -329 0
-304 -330 0
-304 -331 0
-304 -332 0
-305 -325 0
-305 -329 0
-330 -305 0
-331 -305 0
-332 -305 0
-306 -325 0
-306 -330 0
-306 -331 0
-306 -332 0
-307 -325 0
-307 -329 0
-307 -331 0
-307 -332 0
-308 -325 0
-308 -329 0
-308 -330 0
-308 -332 0
-309 -325 0
-309 -329 0
-309 -330 0
-309 -331 0
-310 -325 0
-310 -329 0
-330 -310 0
-331 -310 0
-332 -310 0
-311 -325 0
-311 -330 0
-311 -331 0
-311 -332 0
-312 -325 0
-312 -329 0
-312 -331 0
-312 -332 0
-313 -325 0
-313 -329 0
-313 -330 0
-313 -332 0
-314 -325 0
-314 -329 0
-314 -330 0
-314 -331 0
-315 -325 0
-326 -315 0
-327 -315 0
-330 -315 0
-331 -315 0
-332 -315 0
-316 -325 0
-316 -329 0
-331 -316 0
-316 -332 0
-317 -325 0
-326 -317 0
-327 -317 0
-317 -329 0
-330 -317 0
-332 -317 0
-318 -325 0
-318 -329 0
-318 -330 0
-318 -331 0
-319 -325 0
-319 -331 0
-319 -332 0
-320 -325 0
-320 -330 0
-320 -332 0
-321 -325 0
-321 -330 0
-321 -331 0
-322 -325 0
-322 -329 0
-322 -332 0
-323 -325 0
-323 -329 0
-323 -331 0
-324 -325 0
-324 -329 0
-324 -330 0
-340 -361 0
-341 -361 0
-342 -361 0
-343 -361 0
-344 -361 0
-345 -361 0
-346 -361 0
-347 -361 0
-348 -361 0
-349 -361 0
-350 -361 0
-351 -361 0
-352 -361 0
-353 -361 0
-354 -361 0
-355 -361 0
-356 -361 0
-357 -361 0
-358 -361 0
-359 -361 0
-360 -361 0
