p cnf 9652 2532
35 30 1 6 3 5 16 27 34 8 19 31 13 14 15 2 7 22 12 23 24 11 10 9 4 25 29 17 21 26 32 28 33 18 20 36 0
397 -1 0
397 -2 0
397 -3 0
397 -4 0
397 -5 0
397 -6 0
397 -7 0
397 -8 0
398 -1 0
-9 398 0
398 -10 0
-11 398 0
-12 398 0
-13 398 0
-14 398 0
-15 398 0
-398 15 1 14 9 10 11 12 13 0
399 -16 0
-399 21 19 16 2 18 9 17 20 0
400 -16 0
400 -22 0
400 -23 0
400 -24 0
400 -25 0
400 -26 0
23 26 24 -400 16 22 3 10 25 0
401 -29 0
-401 27 22 28 17 30 11 29 4 0
402 -27 0
27 -402 31 5 23 18 33 12 32 0
34 -403 6 13 31 24 19 28 35 0
-404 36 29 7 34 14 32 25 20 0
-405 35 15 26 30 8 36 33 21 0
64 63 41 42 44 59 43 40 45 46 47 48 49 50 51 38 39 61 37 56 57 55 53 54 52 62 60 58 65 66 67 68 69 70 71 72 0
-37 406 0
-38 406 0
-39 406 0
-40 406 0
-41 406 0
-42 406 0
-43 406 0
-44 406 0
-406 38 40 37 39 42 44 43 41 0
-37 407 0
-45 407 0
-46 407 0
-47 407 0
-48 407 0
-49 407 0
-50 407 0
-51 407 0
-407 45 37 46 48 51 47 50 49 0
408 -52 0
-53 408 0
-54 408 0
-55 408 0
-56 408 0
-57 408 0
-408 53 52 38 55 45 54 56 57 0
-52 409 0
-58 409 0
-59 409 0
-60 409 0
-61 409 0
-62 409 0
-409 46 62 52 39 59 61 60 58 0
410 -58 0
-412 70 42 60 64 55 49 71 67 0
414 -62 0
91 90 75 73 76 87 82 77 81 78 79 83 84 74 85 80 86 100 99 92 93 88 89 96 97 98 94 95 101 102 103 104 105 106 107 108 0
-73 566 0
-566 567 0
-567 -75 0
568 -75 0
569 -568 0
570 -569 0
571 -570 0
572 -571 0
573 -572 0
574 -573 0
-81 -573 0
575 -574 0
-82 -574 0
576 -575 0
-83 -575 0
577 -576 0
-84 -576 0
578 -577 0
-85 -577 0
579 -578 0
-86 -578 0
-87 -579 0
-73 415 0
-74 415 0
-75 415 0
-76 415 0
-77 415 0
-78 415 0
-79 415 0
-80 415 0
-415 76 75 73 78 74 79 77 80 0
-81 416 0
-82 416 0
-83 416 0
-84 416 0
-85 416 0
-86 416 0
-87 416 0
-416 81 73 82 87 83 84 85 86 0
417 -74 0
417 -88 0
-89 417 0
-90 417 0
-91 417 0
-92 417 0
-93 417 0
-417 88 74 81 89 90 91 92 93 0
-75 418 0
-88 418 0
-94 418 0
-95 418 0
-96 418 0
-97 418 0
-98 418 0
-418 88 82 75 98 94 95 96 97 0
135 136 109 110 116 112 113 114 117 118 119 120 121 122 123 115 111 124 127 128 129 125 126 133 134 132 130 131 137 138 139 140 141 142 143 144 0
602 -110 0
-111 -602 0
-109 424 0
-110 424 0
-111 424 0
-112 424 0
-113 424 0
-114 424 0
-115 424 0
-116 424 0
-117 425 0
-118 425 0
-119 425 0
-120 425 0
-121 425 0
-122 425 0
-123 425 0
118 -425 109 117 119 120 121 122 123 0
426 -124 0
-125 426 0
-126 426 0
-127 426 0
-128 426 0
-129 426 0
126 -426 117 125 124 110 127 128 129 0
-130 427 0
-131 427 0
-132 427 0
-133 427 0
-134 427 0
124 -427 133 111 118 131 130 132 134 0
163 162 151 150 172 145 171 152 153 154 155 156 157 158 159 146 147 148 149 164 165 160 161 168 169 170 166 167 173 174 175 176 177 178 179 180 0
636 -145 0
637 -636 0
-146 -636 0
637 -146 0
-147 -637 0
-145 433 0
-146 433 0
-147 433 0
-148 433 0
-149 433 0
-150 433 0
-151 433 0
-152 433 0
-145 434 0
-153 434 0
-154 434 0
-155 434 0
-156 434 0
-157 434 0
-158 434 0
-159 434 0
-434 153 145 156 154 159 155 157 158 0
-160 435 0
-161 435 0
-162 435 0
-163 435 0
-164 435 0
-165 435 0
161 162 146 160 153 -435 165 164 163 0
-166 436 0
-167 436 0
-168 436 0
-169 436 0
-170 436 0
170 -436 160 147 154 166 167 168 169 0
208 207 186 187 199 198 184 188 189 190 191 192 193 194 195 182 183 181 185 200 201 196 197 204 205 206 203 202 209 210 211 212 213 214 215 216 0
671 -181 0
-182 -671 0
672 -182 0
-183 -672 0
-181 442 0
-182 442 0
-183 442 0
-184 442 0
-185 442 0
-186 442 0
-187 442 0
-188 442 0
-181 443 0
-189 443 0
-190 443 0
-191 443 0
-192 443 0
-193 443 0
-194 443 0
-195 443 0
189 -443 181 190 194 192 191 193 195 0
-182 444 0
444 -196 0
-197 444 0
-198 444 0
-199 444 0
-200 444 0
-201 444 0
200 -444 189 182 196 197 199 198 201 0
-196 445 0
-202 445 0
-203 445 0
-204 445 0
-205 445 0
-206 445 0
204 -445 183 196 190 203 202 205 206 0
244 243 218 219 220 224 221 222 225 226 227 228 229 230 231 217 223 232 235 236 237 238 239 240 241 242 233 234 245 246 247 248 249 250 251 252 0
706 -217 0
707 -706 0
-218 -706 0
707 -218 0
-219 -707 0
-217 451 0
-218 451 0
-219 451 0
-220 451 0
-221 451 0
-222 451 0
-223 451 0
-224 451 0
-225 452 0
-226 452 0
-227 452 0
-228 452 0
-229 452 0
-230 452 0
-231 452 0
-452 225 217 226 227 228 229 230 231 0
-232 453 0
-233 453 0
-234 453 0
-235 453 0
-236 453 0
-237 453 0
234 233 225 218 -453 232 235 236 237 0
-232 454 0
-238 454 0
-239 454 0
-240 454 0
-241 454 0
-242 454 0
-454 242 219 241 226 232 238 239 240 0
270 268 254 256 257 271 253 255 261 262 263 264 265 266 267 258 259 260 269 272 273 274 275 276 277 278 279 280 281 282 283 284 285 286 287 288 0
-253 741 0
-741 742 0
-254 -741 0
-254 742 0
-742 743 0
-255 -742 0
-743 744 0
-744 745 0
-745 746 0
-746 747 0
-747 748 0
-748 749 0
-749 750 0
-750 751 0
-751 752 0
-752 753 0
-753 754 0
-754 755 0
-755 756 0
-755 -268 0
-756 757 0
-269 -756 0
-757 758 0
-270 -757 0
-758 759 0
-271 -758 0
-759 760 0
-272 -759 0
-760 761 0
-760 -273 0
-761 762 0
-274 -761 0
763 -762 0
-762 -275 0
764 -763 0
-276 -763 0
765 -764 0
-277 -764 0
-278 -765 0
-253 460 0
-254 460 0
-255 460 0
-256 460 0
-257 460 0
-258 460 0
-259 460 0
-260 460 0
-261 461 0
-262 461 0
-263 461 0
-264 461 0
-265 461 0
-266 461 0
-267 461 0
263 -461 253 262 261 264 265 266 267 0
462 -268 0
-269 462 0
-270 462 0
-271 462 0
-272 462 0
-273 462 0
273 270 254 261 268 -462 269 272 271 0
268 -463 262 277 255 275 274 278 276 0
296 290 323 306 322 316 293 294 324 317 299 300 301 302 303 289 295 292 305 309 308 298 307 297 311 304 310 319 312 315 321 320 318 291 314 313 0
-289 776 0
-776 777 0
-290 -776 0
-290 777 0
-777 778 0
-291 -777 0
-778 779 0
-779 780 0
-780 781 0
-781 782 0
-782 783 0
-783 784 0
-784 785 0
-785 786 0
-786 787 0
-787 788 0
-788 789 0
-789 790 0
-790 791 0
-790 -304 0
-791 792 0
-791 -305 0
-792 793 0
-792 -306 0
794 -793 0
-793 -307 0
795 -794 0
-308 -794 0
-795 -309 0
-289 469 0
-290 469 0
-291 469 0
-292 469 0
-293 469 0
-294 469 0
-295 469 0
-296 469 0
-297 470 0
-298 470 0
-299 470 0
-300 470 0
-301 470 0
-302 470 0
-303 470 0
-470 297 300 299 298 289 301 302 303 0
-304 471 0
471 -306 0
-307 471 0
471 -308 0
471 -309 0
-471 297 306 309 308 304 290 305 307 0
-310 472 0
-311 472 0
-312 472 0
472 -313 0
-314 472 0
-472 291 312 313 311 304 298 310 314 0
473 -315 0
473 -317 0
473 -318 0
474 -319 0
474 -320 0
474 -321 0
-316 475 0
475 -319 0
-322 475 0
-323 475 0
476 -308 0
476 -320 0
476 -322 0
-324 476 0
477 -321 0
477 -323 0
477 -324 0
340 341 333 331 327 332 329 328 330 334 335 336 337 338 339 325 326 342 343 344 345 346 347 348 349 350 351 352 353 354 355 356 357 358 359 360 0
815 -329 0
816 -815 0
-330 816 0
817 -816 0
817 -331 0
-332 -817 0
478 -325 0
-326 478 0
-327 478 0
-328 478 0
-329 478 0
-330 478 0
-331 478 0
-332 478 0
329 -478 325 326 331 328 330 332 327 0
-333 479 0
-334 479 0
-335 479 0
-336 479 0
-337 479 0
-338 479 0
-339 479 0
335 336 -479 334 325 338 337 333 339 0
480 -326 0
480 -340 0
-480 344 326 342 341 340 343 333 345 0
481 -327 0
-481 340 327 348 349 347 346 334 350 0
-328 482 0
-482 353 328 341 346 351 352 335 354 0
483 -329 0
-483 356 329 351 347 342 355 336 357 0
484 -330 0
-484 348 330 343 337 352 355 358 359 0
485 -331 0
-485 353 331 344 349 338 356 358 360 0
486 -332 0
-361 487 0
-362 487 0
-363 487 0
-369 488 0
-370 488 0
361 -488 369 370 371 372 373 374 375 0
-376 489 0
376 377 369 362 -489 378 379 380 381 0
376 -490 370 363 382 383 384 385 386 0
-884 0
885 0
-887 0
-889 0
-989 -22 884 0
-989 -24 884 0
-989 -25 884 0
-26 -989 884 0
989 -28 887 -885 0
-30 989 889 -885 0
2190 0
-2289 0
-2191 0
-2290 0
-2192 0
-2291 0
-2193 0
-2292 0
2194 0
-2293 0
-2197 0
-1 2298 2191 -2190 0
-2298 -10 2191 0
-2298 -16 2192 0
-2298 -17 2192 0
-2298 -22 2193 0
-2298 -23 2193 0
-2298 -24 2193 0
-2298 -25 2193 0
-2298 -26 2193 0
-29 2298 2197 -2194 0
397 2199 -2190 0
-2199 -397 -2298 -2190 0
-2200 398 2191 0
-2200 2298 2191 0
-398 -2298 2200 2191 0
401 2203 -2194 0
2203 2298 -2194 0
-2203 -2298 -401 -2194 0
-2299 -58 -2203 0
2208 406 -2199 0
-2208 406 2199 0
2208 2299 -2199 0
2299 -2208 2199 0
-2200 2209 407 0
-2209 407 2200 0
2212 2299 -2203 0
-2299 2212 2203 -410 0
-73 2300 -2208 2209 0
2208 -76 -2300 0
-2212 -76 -2300 0
2217 -2208 415 0
2208 -2217 415 0
2217 2300 -2208 0
2208 2217 -415 -2300 0
-2209 2218 416 0
-2218 2209 416 0
2300 -2209 2218 0
-2300 -416 2218 2209 0
-2301 2217 -109 0
-2301 -2218 -109 0
2301 -109 2218 -2217 0
2226 -2217 424 0
2301 2226 -2217 0
-2218 2227 425 0
-2227 2218 425 0
-2218 2301 2227 0
-2301 2218 -425 2227 0
2235 -2226 433 0
-2227 2236 434 0
-2236 2227 434 0
-189 -2303 2236 0
-190 -2303 2236 0
-191 -2303 2236 0
-192 -2303 2236 0
-193 -2303 2236 0
-194 -2303 2236 0
-195 -2303 2236 0
2244 -2235 442 0
2303 2244 -2235 0
-2236 2245 443 0
-2245 2236 443 0
2303 -2245 2236 0
-217 -2244 2245 2304 0
2253 -2244 451 0
2253 2304 -2244 0
-2245 2254 452 0
-2254 2245 452 0
-2304 -452 2245 2254 0
2262 -2253 460 0
-2254 2263 461 0
-2263 2254 461 0
-297 -2306 2263 0
-2306 -298 2263 0
-299 -2306 2263 0
-300 -2306 2263 0
-301 -2306 2263 0
-302 -2306 2263 0
-303 -2306 2263 0
-2262 2271 469 0
2306 2271 -2262 0
-2263 2272 470 0
2263 -2272 470 0
-2272 -2307 -325 0
-2273 -326 -2307 0
-2274 -327 -2307 0
-328 -2275 -2307 0
478 -2271 2280 0
2307 -2271 2280 0
-2272 479 2281 0
2272 479 -2281 0
2272 -2307 -479 2281 0
2273 -480 -2307 2282 0
2274 -481 -2307 2283 0
482 -2275 2284 0
-482 2275 -2307 2284 0
-2281 -2308 -361 0
-361 2281 -2280 2308 0
-2280 487 2289 0
2308 -2280 2289 0
-2308 -487 2280 2289 0
-2281 488 2290 0
2308 -2281 2290 0
-488 -2308 2281 2290 0
2308 -2282 2291 0
2308 -2283 2292 0
2308 -2284 2293 0
2428 0
-2527 0
-2429 0
-2528 0
2432 0
-2433 0
-27 2536 2433 -2432 0
397 2437 -2428 0
-2438 398 2429 0
-2536 -402 2442 2433 0
-2537 -59 -2442 0
2446 -2437 406 0
2446 2537 -2437 0
-2447 407 2438 0
2451 2537 -2442 0
-2451 -77 -2538 0
2538 2455 -2446 0
-2456 2447 416 0
-2538 -416 2456 2447 0
2539 -109 -2455 2456 0
2464 -2455 424 0
-2456 2465 425 0
-2539 2456 -425 2465 0
2473 -2464 433 0
-2465 2474 434 0
2482 -2473 442 0
-2474 2483 443 0
2491 -2482 451 0
-2483 2492 452 0
2500 -2491 460 0
-2492 2501 461 0
-2500 2509 469 0
-2501 2510 470 0
-2509 2518 478 0
-2510 479 2519 0
487 -2518 2527 0
488 -2519 2528 0
2785 0
-2884 0
-2786 0
-2885 0
-2788 0
2887 0
397 2794 -2785 0
-2795 398 2786 0
400 -2797 2788 0
2803 -2794 406 0
2803 2894 -2794 0
-2804 407 2795 0
-2806 409 2797 0
2895 2812 -2803 0
-2813 2804 416 0
-2895 -416 2804 2813 0
-2815 418 2806 0
2896 -109 -2812 2813 0
2821 -2812 424 0
-2813 2822 425 0
-2822 2813 425 0
-2896 2813 -425 2822 0
-2824 2815 427 0
2830 -2821 433 0
-2822 2831 434 0
-2831 2822 434 0
-2833 2824 436 0
2839 -2830 442 0
-2831 2840 443 0
-2840 2831 443 0
2833 -2842 445 0
2848 -2839 451 0
-2840 2849 452 0
-2849 2840 452 0
2842 -2851 454 0
2857 -2848 460 0
-2849 2858 461 0
-2858 2849 461 0
2851 463 -2860 0
-2857 2866 469 0
-2858 2867 470 0
-2867 2858 470 0
2860 -2869 472 0
-2866 2875 478 0
-2867 479 2876 0
2867 479 -2876 0
2869 -2878 481 0
487 -2875 2884 0
488 -2876 2885 0
-488 -2903 2876 2885 0
2903 2878 -2887 0
3856 0
-3955 0
-3857 0
-3956 0
-3859 0
3860 0
3861 0
3863 0
-27 -3964 -3861 0
-3964 -29 -3863 0
-3964 -32 -3863 0
397 3865 -3856 0
-3866 398 3857 0
400 -3868 3859 0
3964 3869 -3860 0
3964 3870 -3861 0
-40 -3965 -3869 0
-41 -3965 -3870 0
-3965 -58 3868 0
3874 -3865 406 0
3874 3965 -3865 0
-3875 407 3866 0
3878 3965 -3869 0
-3878 -76 -3966 0
3966 3883 -3874 0
-3884 3875 416 0
-3966 -416 3875 3884 0
3967 -109 -3883 3884 0
3892 -3883 424 0
-3884 3893 425 0
-3967 3884 -425 3893 0
3901 -3892 433 0
-3893 3902 434 0
3910 -3901 442 0
-3902 3911 443 0
3919 -3910 451 0
-3911 3920 452 0
3928 -3919 460 0
-3920 3929 461 0
-3928 3937 469 0
-3929 3938 470 0
-3937 3946 478 0
-3938 479 3947 0
487 -3946 3955 0
488 -3947 3956 0
4094 0
-4193 0
-4095 0
-4194 0
397 4103 -4094 0
-4104 398 4095 0
4112 4203 -4103 0
-4113 407 4104 0
4204 4121 -4112 0
-4204 -416 4113 4122 0
4130 -4121 424 0
-4122 4131 425 0
4139 -4130 433 0
-4131 4140 434 0
4148 -4139 442 0
-4140 4149 443 0
4157 -4148 451 0
-4149 4158 452 0
4166 -4157 460 0
-4158 4167 461 0
-4166 4175 469 0
-4167 4176 470 0
-4175 4184 478 0
-4176 479 4185 0
487 -4184 4193 0
488 -4185 4194 0
4451 0
-4550 0
-4452 0
-4551 0
4453 0
4454 0
4455 0
4456 0
-4457 0
4458 0
4459 0
-3 -4559 -4454 0
-6 4559 4457 -4451 0
-16 -4559 -4454 0
-17 -4559 -4455 0
-18 -4559 -4456 0
-19 4559 4457 -4453 0
-20 -4559 -4458 0
-21 -4559 -4459 0
-22 -4559 -4455 0
-23 -4559 -4456 0
-24 4559 4457 -4454 0
-25 -4559 -4458 0
-4559 -26 -4459 0
-27 -4559 -4456 0
-28 4559 4457 -4455 0
-29 -4559 -4458 0
-4559 -30 -4459 0
-31 4559 4457 -4456 0
-32 -4559 -4458 0
-33 -4559 -4459 0
-34 -4559 4457 0
-35 -4559 -4459 0
-36 -4559 -4459 0
397 4460 -4451 0
4460 4559 -4451 0
-4461 398 4452 0
399 4462 -4453 0
4462 4559 -4453 0
4463 400 -4454 0
4463 4559 -4454 0
4464 4559 -4455 0
4465 4559 -4456 0
4466 -403 -4559 4457 0
404 4467 -4458 0
4467 4559 -4458 0
405 4468 -4459 0
4468 4559 -4459 0
-38 -4560 -4462 0
-39 -4560 -4463 0
-4560 -52 -4463 0
-58 -4560 -4464 0
-59 -4560 -4465 0
-60 -4560 -4466 0
-61 -4560 -4467 0
-4560 -62 -4468 0
4469 406 -4460 0
4469 4560 -4460 0
-4470 407 4461 0
-4560 -407 4470 4461 0
4471 408 -4462 0
4471 4560 -4462 0
4472 4560 -4463 0
-4471 -74 -4561 0
-4561 -75 -4472 0
4478 -4469 415 0
4561 4478 -4469 0
-4470 4479 416 0
-4479 4470 416 0
-4561 -416 4470 4479 0
4562 -109 -4478 4479 0
4487 -4478 424 0
-4479 4488 425 0
-4562 4479 -425 4488 0
4496 -4487 433 0
-4488 4497 434 0
4505 -4496 442 0
-4497 4506 443 0
4514 -4505 451 0
-4506 4515 452 0
4523 -4514 460 0
-4515 4524 461 0
-4523 4532 469 0
-4524 4533 470 0
-4532 4541 478 0
-4533 479 4542 0
487 -4541 4550 0
488 -4542 4551 0
5046 0
-5145 0
-5047 0
-5146 0
397 5055 -5046 0
-5056 398 5047 0
5064 -5055 406 0
-5065 407 5056 0
5156 5073 -5064 0
-5074 5065 416 0
5157 5082 -5073 0
-5157 5083 -425 5074 0
5091 -5082 433 0
-5083 5092 434 0
5100 -5091 442 0
-5092 5101 443 0
5109 -5100 451 0
-5101 5110 452 0
5118 -5109 460 0
-5110 5119 461 0
-5118 5127 469 0
-5119 5128 470 0
-5127 5136 478 0
-5128 479 5137 0
487 -5136 5145 0
488 -5137 5146 0
5284 0
-5383 0
-5285 0
-5384 0
5286 0
5287 0
5288 0
-5289 0
5290 0
5291 0
5292 0
-5392 -17 -5288 0
-5392 -19 -5290 0
-5392 -22 -5288 0
-23 5392 5289 -5287 0
-24 -5392 -5290 0
-5392 -28 -5290 0
-5392 -29 -5291 0
-5392 -30 -5292 0
-31 -5392 -5290 0
-34 -5392 -5291 0
-35 -5392 -5292 0
397 5293 -5284 0
-5294 398 5285 0
5295 5392 -5286 0
5296 400 -5287 0
5296 5392 -5287 0
5297 5392 -5288 0
403 5299 -5290 0
5299 5392 -5290 0
-38 -5393 -5295 0
-39 -5393 -5296 0
-40 -5393 -5297 0
-58 -5393 -5297 0
-60 -5393 -5299 0
5302 -5293 406 0
5302 5393 -5293 0
-5303 407 5294 0
5393 5305 -5296 0
-5394 -75 -5305 0
5394 5311 -5302 0
-5312 5303 416 0
-5394 -416 5303 5312 0
5395 -109 -5311 5312 0
5320 -5311 424 0
-5312 5321 425 0
-5395 5312 -425 5321 0
5329 -5320 433 0
-5321 5330 434 0
5338 -5329 442 0
-5330 5339 443 0
5347 -5338 451 0
-5339 5348 452 0
5356 -5347 460 0
-5348 5357 461 0
-5356 5365 469 0
-5357 5366 470 0
-5365 5374 478 0
-5366 5375 479 0
487 -5374 5383 0
488 -5375 5384 0
5998 0
-6097 0
-5999 0
-6098 0
6000 0
-6001 0
6002 0
6003 0
6004 0
6005 0
6006 0
-1 6106 5999 -5998 0
-6106 -2 -6000 0
-6106 -4 -6002 0
-6106 -5 -6003 0
-6106 -6 -6004 0
-6106 -7 -6005 0
-6106 -8 -6006 0
-6106 -9 5999 0
-6106 -10 5999 0
-6106 -11 5999 0
-6106 -12 5999 0
-6106 -13 5999 0
-6106 -14 5999 0
-6106 -15 5999 0
-16 6106 6001 -6000 0
-6106 -17 -6002 0
-6106 -18 -6003 0
-6106 -19 -6004 0
-6106 -20 -6005 0
-6106 -21 -6006 0
-6106 -22 -6002 0
-6106 -23 -6003 0
-6106 -24 -6004 0
-6106 -25 -6005 0
-6106 -26 -6006 0
-6106 -27 -6003 0
-6106 -28 -6004 0
-6106 -29 -6005 0
-6106 -30 -6006 0
-6106 -31 -6004 0
-6106 -32 -6005 0
-6106 -33 -6006 0
-6106 -34 -6005 0
-6106 -35 -6006 0
-6106 -36 -6006 0
397 6007 -5998 0
6007 6106 -5998 0
-6106 -6007 -397 -5998 0
-6008 398 5999 0
-6008 6106 5999 0
-6106 6008 -398 5999 0
6009 6106 -6000 0
-399 -6106 -6009 -6000 0
-6010 400 6001 0
-6010 6106 6001 0
6011 401 -6002 0
6011 6106 -6002 0
6012 402 -6003 0
6012 6106 -6003 0
6013 403 -6004 0
6013 6106 -6004 0
6014 404 -6005 0
6014 6106 -6005 0
405 6015 -6006 0
6015 6106 -6006 0
-37 6107 6008 -6007 0
-41 -6107 -6012 0
-42 -6107 -6013 0
-43 -6107 -6014 0
-44 -6107 -6015 0
-45 -6107 6008 0
-46 -6107 6008 0
-47 -6107 6008 0
-48 -6107 6008 0
-49 -6107 6008 0
-50 -6107 6008 0
-51 -6107 6008 0
-53 -6107 -6011 0
-54 -6107 -6012 0
-55 -6107 -6013 0
-56 -6107 -6014 0
-57 -6107 -6015 0
-6107 -58 -6011 0
-6107 -59 -6012 0
-6107 -60 -6013 0
-61 -6107 -6014 0
-6107 -62 -6015 0
-63 -6107 -6012 0
-64 -6107 -6013 0
-65 -6107 -6014 0
-66 -6107 -6015 0
-67 -6107 -6013 0
-68 -6107 -6014 0
-69 -6107 -6015 0
-70 -6107 -6014 0
-71 -6107 -6015 0
-72 -6107 -6015 0
6016 406 -6007 0
-6016 6007 406 0
6016 6107 -6007 0
-406 6016 -6107 6007 0
-406 -6107 -6007 -6016 0
6017 407 -6008 0
-6017 407 6008 0
6107 6017 -6008 0
6107 -6017 6008 0
-6107 -407 6008 6017 0
6018 6107 -6009 0
-6019 409 6010 0
6107 -6010 6019 0
6020 6107 -6011 0
6021 6107 -6012 0
6022 412 -6013 0
6022 6107 -6013 0
6023 6107 -6014 0
6024 6107 -6015 0
-74 -6108 -6018 0
-6019 -6108 -75 0
-6020 -76 -6108 0
-6108 -77 -6021 0
-78 -6108 -6022 0
-6023 -79 -6108 0
-80 -6108 -6024 0
6025 -6016 415 0
-6025 6016 415 0
6108 6025 -6016 0
6026 -6017 416 0
-6026 6017 416 0
-6108 -416 6026 6017 0
-6028 418 6019 0
-110 -6109 -6027 0
6034 -6025 424 0
-6034 6025 424 0
6109 6034 -6025 0
-6109 6025 -424 6034 0
-6026 6035 425 0
-6035 6026 425 0
6109 -6026 6035 0
-6109 6026 -425 6035 0
6036 6027 -426 -6109 0
-6037 427 6028 0
-146 -6036 -6110 0
6043 -6034 433 0
-6043 6034 433 0
6110 6043 -6034 0
-6035 6044 434 0
-6044 6035 434 0
-6110 -434 6035 6044 0
6045 6110 -6036 0
-6046 6110 6037 0
6111 -181 6044 -6043 0
6052 -6043 442 0
-6111 6043 -442 6052 0
-6044 6053 443 0
-6053 6044 443 0
6111 -6044 6053 0
-6111 -443 6044 6053 0
-6054 -6112 -218 0
6061 -6052 451 0
6112 6061 -6052 0
-6053 6062 452 0
-6062 6053 452 0
-6063 -6113 -254 0
6070 -6061 460 0
6113 6070 -6061 0
-6062 6071 461 0
-6071 6062 461 0
-6113 -461 6062 6071 0
-6072 -290 -6114 0
-6070 6079 469 0
6114 -6070 6079 0
-6071 6080 470 0
-6080 6071 470 0
-6114 -470 6071 6080 0
6115 6080 -325 -6079 0
-6079 6088 478 0
-6080 479 6089 0
-6115 6080 -479 6089 0
487 -6088 6097 0
-6089 488 6098 0
6117 0
-6216 0
6118 0
6217 0
6119 0
6218 0
-6120 0
6219 0
6121 0
6220 0
6122 0
6221 0
6123 0
6222 0
6124 0
6223 0
6125 0
-1 -6225 -6118 0
-6225 -22 -6121 0
-6225 -23 -6122 0
-6225 -24 -6123 0
-6225 -25 -6124 0
-6225 -26 -6125 0
-6225 -28 -6123 0
-6225 -30 -6125 0
397 6126 -6117 0
6126 6225 -6117 0
398 6127 -6118 0
6127 6225 -6118 0
6128 399 -6119 0
-6128 -6225 -399 -6119 0
-6129 400 6120 0
-6129 6225 6120 0
6130 6225 -6121 0
-52 -6226 6128 0
-58 -6226 6129 0
-59 -6226 6129 0
-60 -6226 6129 0
-61 -6226 6129 0
-62 -6226 6129 0
-62 -6134 -6226 0
6135 406 -6126 0
6136 407 -6127 0
408 6137 -6128 0
408 -6137 6128 0
-408 -6226 -6128 -6137 0
-6138 409 6129 0
6226 -6129 6138 0
6226 -6138 6129 0
6139 6226 -6130 0
-73 -6136 -6227 0
-75 -6138 -6227 0
-6139 -76 -6227 0
-83 -6139 -6227 0
-88 -6227 6137 0
-94 -6227 6138 0
-95 -6227 6138 0
-96 -6227 6138 0
-97 -6227 6138 0
-98 -6227 6138 0
6144 -6135 415 0
6227 6144 -6135 0
6145 -6136 416 0
6145 6227 -6136 0
417 -6137 6146 0
417 6137 -6146 0
-417 -6137 -6227 -6146 0
-6147 418 6138 0
6227 -6147 6138 0
-6145 -109 -6228 0
-110 -6146 -6228 0
6146 -124 -6228 0
-130 -6228 6147 0
-131 -6228 6147 0
-132 -6228 6147 0
-133 -6228 6147 0
-134 -6228 6147 0
6153 -6144 424 0
6228 6153 -6144 0
6154 -6145 425 0
426 6155 -6146 0
426 6146 -6155 0
-426 6155 6146 -6228 0
-6146 -426 -6228 -6155 0
-6156 427 6147 0
6228 -6156 6147 0
-145 -6154 -6229 0
-146 -6229 -6155 0
-160 -6229 6155 0
-161 -6229 6155 0
-162 -6229 6155 0
-163 -6229 6155 0
-164 -6229 6155 0
-165 -6229 6155 0
-166 -6229 6156 0
-167 -6229 6156 0
-168 -6229 6156 0
-169 -6229 6156 0
-170 -6229 6156 0
6162 -6153 433 0
6229 6162 -6153 0
6163 -6154 434 0
-434 -6163 -6229 -6154 0
435 6164 -6155 0
435 6155 -6164 0
6229 6164 -6155 0
6229 6155 -6164 0
-6229 6164 6155 -435 0
-435 -6155 -6164 -6229 0
-6165 436 6156 0
6229 -6165 6156 0
-181 -6163 -6230 0
-182 -6164 -6230 0
6164 -196 -6230 0
-202 -6230 6165 0
-203 -6230 6165 0
-204 -6230 6165 0
-205 -6230 6165 0
-206 -6230 6165 0
6171 -6162 442 0
6230 6171 -6162 0
6172 -6163 443 0
6163 -6172 443 0
444 6173 -6164 0
444 6164 -6173 0
6230 6173 -6164 0
-444 6173 6164 -6230 0
-6164 -444 -6173 -6230 0
-6174 445 6165 0
6230 -6174 6165 0
-217 -6172 -6231 0
-218 -6231 -6173 0
-232 -6231 6173 0
-233 -6231 6173 0
-234 -6231 6173 0
-235 -6231 6173 0
-236 6173 -6231 0
-237 6173 -6231 0
-238 -6231 6174 0
-239 -6231 6174 0
-240 -6231 6174 0
-241 -6231 6174 0
-242 -6231 6174 0
6180 -6171 451 0
6231 6180 -6171 0
6181 -6172 452 0
6172 -6181 452 0
-452 -6172 -6231 -6181 0
453 6182 -6173 0
453 6173 -6182 0
6231 6182 -6173 0
6231 6173 -6182 0
-6231 -453 -6173 -6182 0
-6183 454 6174 0
6231 -6183 6174 0
-254 -6182 -6232 0
-268 6182 -6232 0
-269 6182 -6232 0
-270 6182 -6232 0
-271 6182 -6232 0
-272 6182 -6232 0
-273 6182 -6232 0
-274 -6232 6183 0
-275 -6232 6183 0
-276 -6232 6183 0
-277 -6232 6183 0
-278 -6232 6183 0
6189 -6180 460 0
-6180 6189 6232 0
6190 -6181 461 0
6181 -6190 461 0
-461 -6181 -6232 -6190 0
462 6182 -6191 0
6232 6182 -6191 0
-462 -6232 6191 6182 0
-462 -6182 -6191 -6232 0
-6192 463 6183 0
6232 -6192 6183 0
-289 -6190 -6233 0
-290 -6191 -6233 0
-304 6191 -6233 0
6191 -306 -6233 0
-6191 6194 -306 6233 0
-307 6191 -6233 0
6195 -307 -6191 6233 0
-6196 -308 -6233 0
6196 -308 -6191 6233 0
-309 6191 -6233 0
6197 -309 -6191 6233 0
-310 6192 -6233 0
-311 6192 -6233 0
-311 -6192 6194 6233 0
-312 6192 -6233 0
-312 -6192 6195 6233 0
-313 6192 -6233 0
-313 -6192 6196 6233 0
-314 6192 -6233 0
-314 6197 -6192 6233 0
-315 6193 -6233 0
-315 -6193 6194 6233 0
-316 -6195 -6233 0
6193 -317 -6233 0
-317 -6193 6196 6233 0
-318 6193 -6233 0
-318 6197 -6193 6233 0
-319 6194 -6233 0
-319 -6195 -6233 0
-319 -6194 6233 6195 0
-320 6194 -6233 0
-320 -6196 -6233 0
-320 -6194 6233 6196 0
-321 -6197 -6233 0
6197 -321 6233 -6194 0
-322 6195 -6233 0
-322 -6196 -6233 0
-322 -6195 6196 6233 0
6195 -6233 -323 0
-6197 -6233 -323 0
6197 6233 -323 -6195 0
-6197 -324 -6233 0
6197 -6196 6233 -324 0
-6189 6198 469 0
-6189 6233 6198 0
6199 -6190 470 0
6190 -6199 470 0
-470 -6190 -6233 -6199 0
6191 -6200 471 0
6191 6233 -6200 0
-6191 -6233 -471 -6200 0
-6201 6192 472 0
-6201 6192 6233 0
-472 -6192 -6233 -6201 0
6193 -6202 6233 0
-473 -6202 -6233 -6193 0
-6194 6233 6203 0
-6203 6233 6194 0
-6203 -6194 -6233 -474 0
-6195 6204 6233 0
-6204 6195 6233 0
-6195 -475 -6233 -6204 0
-6196 6205 6233 0
-6205 6196 6233 0
-476 6196 -6233 6205 0
6206 -6197 6233 0
-6234 -6199 -325 0
-6203 -329 -6234 0
-6204 -330 -6234 0
-6205 -331 -6234 0
-6206 -332 -6234 0
6200 -340 -6234 0
-346 6201 -6234 0
-347 6201 -6234 0
-348 6201 -6234 0
-349 6201 -6234 0
-350 6201 -6234 0
-6198 6207 478 0
6234 -6198 6207 0
-6234 6198 -478 6207 0
-6199 479 6208 0
6199 479 -6208 0
-6234 -6199 -479 -6208 0
6200 -6209 480 0
6200 6234 -6209 0
-6209 -6200 -480 -6234 0
6201 -6210 481 0
6201 6234 -6210 0
6202 -6211 482 0
-6212 483 6203 0
6204 484 -6213 0
-6214 485 6205 0
-376 -6235 6209 0
-377 -6235 6209 0
-378 -6235 6209 0
-379 -6235 6209 0
-380 -6235 6209 0
-381 -6235 6209 0
-382 6210 -6235 0
-383 6210 -6235 0
-384 6210 -6235 0
-385 6210 -6235 0
-386 6210 -6235 0
-6207 487 6216 0
6235 -6207 6216 0
6208 488 -6217 0
-6235 -488 -6208 -6217 0
6209 489 -6218 0
6235 6209 -6218 0
-6209 -6235 -489 -6218 0
6210 490 -6219 0
6235 6210 -6219 0
6235 6211 -6220 0
6235 6212 -6221 0
6235 6213 -6222 0
6235 6214 -6223 0
6236 0
-6237 0
-6336 0
-6238 0
6337 0
6239 0
6240 0
6241 0
6242 0
6243 0
6244 0
-6344 -16 -6239 0
-6344 -17 -6240 0
-6344 -18 -6241 0
-6344 -19 -6242 0
-6344 -20 -6243 0
-6344 -21 -6244 0
-6344 -31 -6242 0
397 6245 -6236 0
-6246 398 6237 0
-6247 399 6238 0
-6247 6344 6238 0
6248 400 -6239 0
6250 6344 -6241 0
-6345 -52 6247 0
-53 -6345 6247 0
-54 -6345 6247 0
-55 -6345 6247 0
-56 -6345 6247 0
-57 -6345 6247 0
-59 -6345 -6250 0
6254 -6245 406 0
-6246 6255 407 0
-6255 407 6246 0
-6256 408 6247 0
-6256 6345 6247 0
6345 6257 -6248 0
-6256 -74 -6346 0
-6346 -75 -6257 0
-6346 6256 -88 0
-89 -6346 6256 0
-90 -6346 6256 0
-91 -6346 6256 0
-92 -6346 6256 0
-93 -6346 6256 0
6263 -6254 415 0
6346 6263 -6254 0
-6255 6264 416 0
-6264 6255 416 0
-6265 417 6256 0
-6265 6346 6256 0
6347 -109 -6263 6264 0
-6347 6265 -124 0
-125 -6347 6265 0
-126 -6347 6265 0
-127 -6347 6265 0
-128 -6347 6265 0
-129 -6347 6265 0
6272 -6263 424 0
6347 6272 -6263 0
-6273 6264 425 0
-6347 6264 -425 6273 0
426 -6274 6265 0
-6274 6265 6347 0
-6348 6272 -145 0
-6273 -6348 -145 0
6348 -145 6273 -6272 0
-153 -6348 6273 0
-154 -6348 6273 0
-155 -6348 6273 0
-156 -6348 6273 0
-157 -6348 6273 0
-158 -6348 6273 0
-159 -6348 6273 0
-6348 6274 -160 0
-6348 6274 -161 0
-6348 -162 6274 0
-163 -6348 6274 0
-164 -6348 6274 0
-165 -6348 6274 0
6281 -6272 433 0
6348 6281 -6272 0
-6273 6282 434 0
-6282 6273 434 0
-6273 6348 6282 0
6348 -6282 6273 0
-6348 -434 6273 6282 0
-6283 435 6274 0
6348 -6283 6274 0
6349 -181 6282 -6281 0
-189 6282 -6349 0
-190 6282 -6349 0
-191 6282 -6349 0
-192 6282 -6349 0
-6349 -193 6282 0
-194 6282 -6349 0
-195 6282 -6349 0
-6349 6283 -196 0
-197 -6349 6283 0
-198 -6349 6283 0
-199 -6349 6283 0
-200 -6349 6283 0
-201 -6349 6283 0
6290 -6281 442 0
-6282 6291 443 0
-6291 6282 443 0
-6349 -443 6282 6291 0
-6292 6283 444 0
6349 -6292 6283 0
-225 -6350 6291 0
-6350 -226 6291 0
-227 -6350 6291 0
-228 -6350 6291 0
-229 -6350 6291 0
-230 -6350 6291 0
-231 -6350 6291 0
-232 -6350 6292 0
-233 -6350 6292 0
-6350 6292 -234 0
-235 -6350 6292 0
-236 -6350 6292 0
-237 -6350 6292 0
6299 -6290 451 0
-6299 -451 -6290 -6350 0
-6291 6300 452 0
-6300 6291 452 0
-6300 6350 6291 0
-6350 -452 6291 6300 0
6292 -6301 453 0
6292 6350 -6301 0
-261 -6351 6300 0
-262 -6351 6300 0
-6351 6301 -268 0
-269 -6351 6301 0
-270 -6351 6301 0
-271 -6351 6301 0
-272 -6351 6301 0
-6351 6301 -273 0
-6308 6299 460 0
6351 6299 -6308 0
-6351 -460 -6308 -6299 0
-6300 6309 461 0
-6309 6300 461 0
-6351 -461 6309 6300 0
462 6301 -6310 0
6351 6301 -6310 0
-6352 -289 6308 0
-6352 6310 -304 0
-6352 6310 -305 0
-6352 6310 -306 0
-6352 6310 -307 0
-6352 6310 -308 0
-6352 6310 -309 0
-6309 6318 470 0
-6318 6309 470 0
6352 -6309 6318 0
6310 -6319 471 0
6352 6310 -6319 0
6319 -340 -6353 0
-341 -6353 6319 0
-342 -6353 6319 0
-343 -6353 6319 0
-344 -6353 6319 0
-345 -6353 6319 0
-6318 479 6327 0
-6353 6318 -479 6327 0
6319 -6328 480 0
6319 6353 -6328 0
-6354 6328 -376 0
-377 -6354 6328 0
-378 -6354 6328 0
-379 -6354 6328 0
-380 -6354 6328 0
-381 -6354 6328 0
-6327 488 6336 0
6328 489 -6337 0
6354 6328 -6337 0
6355 0
-6356 0
6455 0
6362 0
-1 6463 6356 -6355 0
-6463 -9 6356 0
-6463 -10 6356 0
-6463 -11 6356 0
-6463 -12 6356 0
-6463 -13 6356 0
-6463 -14 6356 0
-6463 -15 6356 0
-6463 -25 -6362 0
-6365 398 6356 0
-6365 6463 6356 0
-6463 -398 6365 6356 0
-45 -6464 6365 0
-46 -6464 6365 0
-47 -6464 6365 0
-48 -6464 6365 0
-49 -6464 6365 0
-50 -6464 6365 0
-51 -6464 6365 0
6374 407 -6365 0
-6374 407 6365 0
6464 -6374 6365 0
-81 -6465 6374 0
-82 -6465 6374 0
-83 -6465 6374 0
-84 -6465 6374 0
-85 -6465 6374 0
-86 -6465 6374 0
-87 -6465 6374 0
6374 -6383 416 0
6465 6374 -6383 0
-117 -6466 6383 0
-118 -6466 6383 0
-119 -6466 6383 0
-120 -6466 6383 0
-121 -6466 6383 0
-122 -6466 6383 0
-123 -6466 6383 0
6383 -6392 425 0
6466 6383 -6392 0
-153 -6467 6392 0
-154 -6467 6392 0
-155 -6467 6392 0
-156 -6467 6392 0
-157 -6467 6392 0
-158 -6467 6392 0
-159 -6467 6392 0
6392 -6401 434 0
6467 6392 -6401 0
-189 -6468 6401 0
-190 -6468 6401 0
-191 -6468 6401 0
-192 -6468 6401 0
-193 -6468 6401 0
-194 -6468 6401 0
-195 -6468 6401 0
6410 -6401 443 0
6401 -6410 443 0
6468 6401 -6410 0
-225 -6469 6410 0
-226 -6469 6410 0
-227 -6469 6410 0
-228 -6469 6410 0
-229 -6469 6410 0
-230 -6469 6410 0
-231 -6469 6410 0
6419 -6410 452 0
6410 -6419 452 0
6469 6410 -6419 0
-261 -6470 6419 0
-262 -6470 6419 0
-263 -6470 6419 0
-264 -6470 6419 0
-265 -6470 6419 0
-266 -6470 6419 0
-267 -6470 6419 0
6419 -6428 461 0
6470 6419 -6428 0
-297 -6471 6428 0
-298 -6471 6428 0
-299 -6471 6428 0
-300 -6471 6428 0
-301 -6471 6428 0
-302 -6471 6428 0
-303 -6471 6428 0
6428 -6437 470 0
6471 6428 -6437 0
-333 -6472 6437 0
-334 -6472 6437 0
-335 -6472 6437 0
-336 -6472 6437 0
-337 -6472 6437 0
-338 -6472 6437 0
-339 -6472 6437 0
479 6437 -6446 0
6472 6437 -6446 0
-369 -6473 6446 0
-370 -6473 6446 0
-371 -6473 6446 0
-372 -6473 6446 0
-373 -6473 6446 0
-374 -6473 6446 0
-375 -6473 6446 0
6446 488 -6455 0
6446 6473 -6455 0
9374 -400 6001 0
6009 9375 -408 0
9375 -409 6010 0
9376 6018 -417 0
9376 -418 6019 0
9377 6026 -425 0
9377 6027 -426 0
9378 -434 6035 0
6036 9378 -435 0
9379 -443 6044 0
6054 9380 -453 0
9381 -461 6062 0
6063 9381 -462 0
9382 -470 6071 0
6072 9382 -471 0
9383 6080 -479 0
9385 -9374 0
-9375 9387 -9385 0
9388 -9387 0
-9376 -9387 9389 0
-9389 -9377 0
9392 -9388 0
-9377 -9388 9390 0
-9378 -9390 0
9395 -9392 0
-9378 -9392 9393 0
-9379 -9393 0
9394 -9377 0
-9378 9395 -9394 0
9398 -9395 0
9401 -9398 0
-9380 -9398 9399 0
-9381 -9399 0
9404 -9401 0
-9381 -9401 9402 0
-9382 -9402 0
-9382 -9404 9405 0
-9405 -9383 0
9409 -400 6120 0
-408 9410 6128 0
-409 9410 6129 0
6134 -414 9410 0
-417 6137 9411 0
-418 6138 9411 0
6144 -424 9412 0
6145 9412 -425 0
6146 -426 9412 0
-427 6147 9412 0
6153 -433 9413 0
-435 6155 9413 0
-436 6156 9413 0
6162 -442 9414 0
-444 6164 9414 0
-445 6165 9414 0
6171 -451 9415 0
-453 6173 9415 0
-454 6174 9415 0
6180 -460 9416 0
6181 -461 9416 0
-462 6182 9416 0
-463 9416 6183 0
-469 6189 9417 0
6190 -470 9417 0
9417 6191 -471 0
-472 9417 6192 0
9417 6194 -474 0
9417 6195 -475 0
9417 6196 -476 0
6197 9417 -477 0
9418 6198 -478 0
6200 9418 -480 0
9418 6203 -483 0
9418 -484 6204 0
9418 -485 6205 0
-486 6206 9418 0
9419 6207 -487 0
9420 -9409 0
9421 -9420 0
-9410 9422 -9420 0
-9422 9423 0
-9422 -9411 9424 0
-9424 -9412 0
-9410 9421 0
9426 -9421 0
-9411 9423 -9421 0
-9423 9427 0
-9423 -9412 9425 0
-9425 -9413 0
-9411 9426 0
9429 -9426 0
-9412 9427 -9426 0
-9427 9430 0
-9427 -9413 9428 0
-9428 9431 0
-9428 -9414 0
-9412 9429 0
9432 -9429 0
-9413 9430 -9429 0
-9430 9433 0
-9430 -9414 9431 0
-9431 9434 0
-9431 -9415 0
-9413 9432 0
9435 -9432 0
-9414 9433 -9432 0
-9433 9436 0
-9433 -9415 9434 0
-9434 9437 0
-9434 -9416 0
-9414 9435 0
9438 -9435 0
-9415 9436 -9435 0
-9436 9439 0
-9436 -9416 9437 0
-9437 9440 0
-9437 -9417 0
-9415 9438 0
9441 -9438 0
-9416 9439 -9438 0
-9439 9440 -9417 0
-9440 -9418 0
-9416 9441 0
9442 -9417 -9441 0
-9442 9443 -9418 0
-9443 -9419 0
9514 -399 6238 0
9515 -408 6247 0
9516 6256 -417 0
9516 6257 -418 0
9517 6264 -425 0
9517 6265 -426 0
9518 -434 6273 0
6274 9518 -435 0
9519 -443 6282 0
9519 6283 -444 0
9520 -452 6291 0
9520 6292 -453 0
9521 -461 6300 0
6301 9521 -462 0
9522 -469 6308 0
6310 9522 -471 0
9523 6318 -479 0
9525 -9514 0
9526 -9525 0
9527 -9515 -9525 0
-9516 -9527 9529 0
-9529 -9517 0
9526 -9515 0
9531 -9526 0
9528 -9516 -9526 0
-9528 -9517 9530 0
-9518 -9530 0
9531 -9516 0
9534 -9531 0
9532 -9517 -9531 0
-9518 -9532 9533 0
-9519 -9533 0
9534 -9517 0
9537 -9534 0
9535 -9518 -9534 0
-9519 -9535 9536 0
-9536 -9520 0
9537 -9518 0
9540 -9537 0
9538 -9519 -9537 0
-9520 -9538 9539 0
-9539 9542 0
-9521 -9539 0
9540 -9519 0
9541 -9520 -9540 0
-9521 -9541 9542 0
-9522 -9542 0
9543 -9520 0
9544 -9521 -9543 0
-9522 -9544 9545 0
-9545 -9523 0
9549 -397 0
9549 -398 0
-406 9550 0
-407 9550 0
-415 9551 0
-416 9551 0
-424 9552 0
-425 9552 0
-433 9553 0
-434 9553 0
-442 9554 0
-443 9554 0
-451 9555 0
-452 9555 0
-460 9556 0
-461 9556 0
-469 9557 0
-470 9557 0
-478 9558 0
9558 -479 0
-487 9559 0
9559 -488 0
9560 -9549 0
9561 -9560 0
-9550 9562 -9560 0
-9562 9563 0
-9562 -9551 0
-9550 9561 0
9564 -9561 0
-9551 9563 -9561 0
-9563 9565 0
-9563 -9552 0
-9551 9564 0
9566 -9564 0
-9552 9565 -9564 0
-9565 9567 0
-9553 -9565 0
-9552 9566 0
9568 -9566 0
-9553 9567 -9566 0
-9567 9569 0
-9554 -9567 0
-9553 9568 0
9570 -9568 0
-9554 9569 -9568 0
-9569 9571 0
-9555 -9569 0
-9554 9570 0
9572 -9570 0
-9555 9571 -9570 0
-9571 9573 0
-9556 -9571 0
-9555 9572 0
9574 -9572 0
-9556 9573 -9572 0
-9573 9575 0
-9573 -9557 0
-9556 9574 0
9576 -9574 0
-9557 9575 -9574 0
-9575 9577 0
-9575 -9558 0
-9557 9576 0
9577 -9558 -9576 0
-9577 -9559 0
-9 -39 0
-9 -40 0
-10 -40 0
-11 -39 0
-12 -39 0
-12 -40 0
-13 -39 0
-13 -40 0
-14 -39 0
-14 -40 0
-39 -15 0
-40 -15 0
-37 -16 0
-40 -16 0
-44 -16 0
-17 -37 0
-17 -39 0
-17 -44 0
-37 -18 0
-39 -18 0
-40 -18 0
-19 -37 0
-19 -39 0
-40 -19 0
-44 -19 0
-37 -20 0
-39 -20 0
-40 -20 0
-44 -20 0
-37 -21 0
-39 -21 0
-40 -21 0
-37 -22 0
-44 -22 0
-37 -23 0
-40 -23 0
-44 -23 0
-37 -24 0
-38 -24 0
-40 -24 0
-41 -24 0
-43 -24 0
-44 -24 0
-45 -24 0
-47 -24 0
-48 -24 0
-50 -24 0
-37 -25 0
-38 -25 0
-40 -25 0
-41 -25 0
-42 -25 0
-44 -25 0
-45 -25 0
-47 -25 0
-48 -25 0
-49 -25 0
-51 -25 0
-37 -26 0
-40 -26 0
-37 -27 0
-39 -27 0
-44 -27 0
-46 -27 0
-52 -27 0
-60 -27 0
-61 -27 0
-62 -27 0
-37 -28 0
-39 -28 0
-44 -28 0
-52 -28 0
-59 -28 0
-61 -28 0
-62 -28 0
-37 -29 0
-39 -29 0
-52 -29 0
-59 -29 0
-62 -29 0
-37 -30 0
-39 -30 0
-46 -30 0
-52 -30 0
-59 -30 0
-60 -30 0
-61 -30 0
-37 -31 0
-39 -31 0
-40 -31 0
-37 -32 0
-38 -32 0
-39 -32 0
-40 -32 0
-42 -32 0
-44 -32 0
-37 -33 0
-39 -33 0
-40 -33 0
-34 -37 0
-34 -39 0
-34 -40 0
-34 -44 0
-35 -37 0
-35 -39 0
-35 -40 0
-37 -36 0
-39 -36 0
-40 -36 0
-74 -46 0
-46 -79 0
-80 -46 0
-47 -74 0
-48 -74 0
-49 -74 0
-50 -74 0
-51 -74 0
-73 -52 0
-76 -52 0
-77 -52 0
-78 -52 0
-79 -52 0
-80 -52 0
-83 -52 0
-84 -52 0
-85 -52 0
-86 -52 0
-87 -52 0
-53 -73 0
-53 -75 0
-54 -73 0
-54 -75 0
-55 -73 0
-55 -75 0
-56 -73 0
-56 -75 0
-57 -73 0
-57 -75 0
-73 -58 0
-74 -58 0
-77 -58 0
-78 -58 0
-79 -58 0
-80 -58 0
-73 -59 0
-74 -59 0
-76 -59 0
-78 -59 0
-79 -59 0
-80 -59 0
-81 -59 0
-83 -59 0
-85 -59 0
-86 -59 0
-87 -59 0
-73 -60 0
-74 -60 0
-76 -60 0
-77 -60 0
-79 -60 0
-80 -60 0
-73 -61 0
-74 -61 0
-61 -76 0
-77 -61 0
-78 -61 0
-80 -61 0
-73 -62 0
-74 -62 0
-76 -62 0
-77 -62 0
-78 -62 0
-79 -62 0
-81 -62 0
-83 -62 0
-84 -62 0
-85 -62 0
-86 -62 0
-63 -73 0
-63 -74 0
-63 -75 0
-63 -88 0
-64 -73 0
-64 -74 0
-64 -75 0
-64 -88 0
-65 -73 0
-65 -74 0
-65 -75 0
-65 -88 0
-66 -73 0
-66 -74 0
-66 -75 0
-66 -88 0
-67 -73 0
-67 -74 0
-67 -75 0
-67 -88 0
-68 -73 0
-68 -74 0
-68 -75 0
-68 -88 0
-69 -73 0
-69 -74 0
-69 -75 0
-69 -88 0
-70 -73 0
-70 -74 0
-70 -75 0
-70 -88 0
-71 -73 0
-71 -74 0
-71 -75 0
-71 -88 0
-73 -72 0
-72 -74 0
-72 -75 0
-72 -88 0
-109 -88 0
-89 -109 0
-90 -109 0
-91 -109 0
-92 -109 0
-93 -109 0
-94 -109 0
-94 -110 0
-95 -109 0
-95 -110 0
-96 -109 0
-96 -110 0
-97 -109 0
-97 -110 0
-98 -109 0
-98 -110 0
-99 -109 0
-99 -110 0
-99 -124 0
-100 -109 0
-100 -110 0
-100 -124 0
-101 -109 0
-101 -110 0
-101 -124 0
-102 -109 0
-102 -110 0
-102 -124 0
-103 -109 0
-103 -110 0
-103 -124 0
-104 -109 0
-104 -110 0
-104 -124 0
-105 -109 0
-105 -110 0
-105 -124 0
-106 -109 0
-106 -110 0
-106 -124 0
-107 -109 0
-107 -110 0
-107 -124 0
-108 -109 0
-108 -110 0
-108 -124 0
-145 -124 0
-125 -145 0
-126 -145 0
-127 -145 0
-128 -145 0
-129 -145 0
-130 -145 0
-130 -146 0
-131 -145 0
-131 -146 0
-132 -145 0
-132 -146 0
-133 -145 0
-133 -146 0
-134 -145 0
-134 -146 0
-135 -145 0
-135 -146 0
-135 -160 0
-136 -145 0
-136 -146 0
-136 -160 0
-137 -145 0
-137 -146 0
-137 -160 0
-138 -145 0
-138 -146 0
-138 -160 0
-139 -145 0
-139 -146 0
-139 -160 0
-140 -145 0
-140 -146 0
-140 -160 0
-141 -145 0
-141 -146 0
-141 -160 0
-142 -145 0
-142 -146 0
-142 -160 0
-143 -145 0
-143 -146 0
-143 -160 0
-144 -145 0
-144 -146 0
-144 -160 0
-154 -182 0
-155 -182 0
-156 -182 0
-157 -182 0
-158 -182 0
-159 -182 0
-160 -181 0
-181 -161 0
-162 -181 0
-163 -181 0
-164 -181 0
-165 -181 0
-166 -181 0
-166 -182 0
-167 -181 0
-167 -182 0
-168 -181 0
-168 -182 0
-169 -181 0
-169 -182 0
-170 -181 0
-170 -182 0
-171 -181 0
-171 -182 0
-171 -196 0
-172 -181 0
-172 -182 0
-172 -196 0
-173 -181 0
-173 -182 0
-173 -196 0
-174 -181 0
-174 -182 0
-174 -196 0
-175 -181 0
-175 -182 0
-175 -196 0
-176 -181 0
-176 -182 0
-176 -196 0
-177 -181 0
-177 -182 0
-177 -196 0
-178 -181 0
-178 -182 0
-178 -196 0
-179 -181 0
-179 -182 0
-179 -196 0
-180 -181 0
-180 -182 0
-180 -196 0
-217 -196 0
-197 -217 0
-197 -226 0
-198 -217 0
-198 -226 0
-199 -217 0
-199 -226 0
-200 -217 0
-200 -226 0
-201 -217 0
-201 -226 0
-202 -217 0
-202 -218 0
-203 -217 0
-203 -218 0
-204 -217 0
-204 -218 0
-205 -217 0
-205 -218 0
-206 -217 0
-206 -218 0
-207 -217 0
-207 -218 0
-232 -207 0
-208 -217 0
-208 -218 0
-208 -232 0
-209 -217 0
-209 -218 0
-209 -232 0
-210 -217 0
-210 -218 0
-210 -232 0
-211 -217 0
-211 -218 0
-211 -232 0
-212 -217 0
-212 -218 0
-212 -232 0
-213 -217 0
-213 -218 0
-213 -232 0
-214 -217 0
-214 -218 0
-214 -232 0
-215 -217 0
-215 -218 0
-215 -232 0
-216 -217 0
-216 -218 0
-216 -232 0
-254 -226 0
-232 -253 0
-233 -253 0
-253 -234 0
-235 -253 0
-236 -253 0
-237 -253 0
-238 -253 0
-238 -254 0
-239 -253 0
-239 -254 0
-240 -253 0
-240 -254 0
-241 -253 0
-241 -254 0
-242 -253 0
-254 -242 0
-243 -253 0
-243 -254 0
-243 -268 0
-244 -253 0
-244 -254 0
-244 -268 0
-245 -253 0
-245 -254 0
-245 -268 0
-246 -253 0
-246 -254 0
-246 -268 0
-247 -253 0
-247 -254 0
-247 -268 0
-248 -253 0
-248 -254 0
-248 -268 0
-249 -253 0
-249 -254 0
-249 -268 0
-250 -253 0
-250 -254 0
-250 -268 0
-251 -253 0
-251 -254 0
-251 -268 0
-252 -253 0
-252 -254 0
-252 -268 0
-289 -268 0
-269 -289 0
-270 -289 0
-271 -289 0
-272 -289 0
-289 -273 0
-274 -289 0
-274 -290 0
-289 -275 0
-290 -275 0
-276 -289 0
-276 -290 0
-277 -289 0
-277 -290 0
-278 -289 0
-278 -290 0
-279 -289 0
-279 -290 0
-280 -289 0
-280 -290 0
-281 -289 0
-281 -290 0
-282 -289 0
-282 -290 0
-283 -289 0
-283 -290 0
-284 -289 0
-284 -290 0
-285 -289 0
-285 -290 0
-286 -289 0
-286 -290 0
-287 -289 0
-287 -290 0
-288 -289 0
-288 -290 0
-297 -329 0
-297 -330 0
-297 -331 0
-298 -330 0
-299 -330 0
-300 -330 0
-302 -330 0
-303 -330 0
-304 -325 0
-304 -329 0
-304 -330 0
-304 -331 0
-304 -332 0
-305 -325 0
-327 -305 0
-329 -305 0
-330 -305 0
-331 -305 0
-332 -305 0
-306 -325 0
-327 -306 0
-328 -306 0
-330 -306 0
-331 -306 0
-332 -306 0
-334 -306 0
-335 -306 0
-337 -306 0
-338 -306 0
-339 -306 0
-307 -325 0
-307 -329 0
-307 -331 0
-332 -307 0
-308 -325 0
-308 -329 0
-330 -308 0
-332 -308 0
-309 -325 0
-327 -309 0
-328 -309 0
-309 -329 0
-330 -309 0
-331 -309 0
-310 -325 0
-310 -329 0
-310 -330 0
-310 -331 0
-332 -310 0
-311 -325 0
-311 -330 0
-311 -331 0
-311 -332 0
-312 -325 0
-312 -329 0
-312 -331 0
-312 -332 0
-313 -325 0
-313 -329 0
-313 -330 0
-332 -313 0
-314 -325 0
-314 -329 0
-314 -330 0
-314 -331 0
-315 -325 0
-315 -330 0
-315 -331 0
-332 -315 0
-316 -325 0
-316 -329 0
-316 -331 0
-316 -332 0
-317 -325 0
-317 -329 0
-317 -330 0
-332 -317 0
-318 -325 0
-318 -329 0
-318 -330 0
-318 -331 0
-319 -325 0
-319 -331 0
-332 -319 0
-320 -325 0
-320 -330 0
-332 -320 0
-321 -325 0
-321 -330 0
-321 -331 0
-322 -325 0
-322 -329 0
-332 -322 0
-323 -325 0
-329 -323 0
-331 -323 0
-324 -325 0
-324 -329 0
-324 -330 0
-340 -361 0
-341 -361 0
-342 -361 0
-343 -361 0
-344 -361 0
-345 -361 0
-346 -361 0
-347 -361 0
-348 -361 0
-349 -361 0
-350 -361 0
-351 -361 0
-352 -361 0
-353 -361 0
-354 -361 0
-355 -361 0
-356 -361 0
-357 -361 0
-358 -361 0
-359 -361 0
-360 -361 0
