p cnf 231 1
-1 -2 -3 -4 -5 -6 -7 -9 -12 -13 -14 -17 -22 -23 -24 -25 -28 -30 -31 -32 -33 -35 -36 -42 -43 -44 -45 -50 -53 -54 -57 -58 -63 -64 -65 -67 -69 -72 -76 -77 -80 -81 -82 -83 -87 -88 -92 -95 -96 -99 -100 -101 -102 -106 -107 -108 -109 -112 -121 -122 -123 -124 -125 -127 -128 -129 -132 -136 -138 -140 -141 -142 -143 -144 -148 -150 -152 -154 -155 -158 -162 -164 -165 -166 -168 -170 -174 -175 -176 -181 -182 -183 -184 -186 -187 -188 -189 -190 -191 -194 -196 -197 -198 -199 -203 -204 -207 -208 -209 -210 -213 -214 -215 -216 -217 -218 -220 -221 -223 -224 -225 -227 -230 0
